<?xml version="1.0"?>
<VTKFile type="UnstructuredGrid" version="0.1" byte_order="LittleEndian">
<UnstructuredGrid>
<Piece NumberOfPoints="31813" NumberOfCells="11180">
<Points>
<DataArray type="Float64" NumberOfComponents="3" format="ascii">
-0.49139343443251582 -0.49999999999999839 0 -0.5 -0.5 0 -0.50000000000000056 -0.47562667174827022 0 -0.49139343443251582 -0.49999999999999839 0 -0.50000000000000056 -0.47562667174827022 0 -0.47850263425084882 -0.48525027758814371 0 -0.49139343443251582 -0.49999999999999839 0 -0.50000000000000056 -0.47562667174827022 0 -0.50000000000000056 -0.47562667174827022 0 -0.47850263425084882 -0.48525027758814371 0 -0.48434419105359161 -0.4651705384935732 0 -0.47054422082893821 -0.46977730108729387 0 -0.47850263425084882 -0.48525027758814371 0 -0.48434419105359161 -0.4651705384935732 0 -0.49139343443251582 -0.49999999999999839 0 -0.47850263425084882 -0.48525027758814371 0 -0.46580362415586668 -0.5 0 -0.47850263425084882 -0.48525027758814371 0 -0.46580362415586668 -0.5 0 -0.45448878248193902 -0.48114293740516451 0 -0.46580362415586668 -0.5 0 -0.45448878248193902 -0.48114293740516451 0 -0.44021381387921771 -0.5 0 -0.47054422082893821 -0.46977730108729387 0 -0.45448878248193902 -0.48114293740516451 0 -0.45599111851540708 -0.45922452501911287 0 -0.47054422082893821 -0.46977730108729387 0 -0.47850263425084882 -0.48525027758814371 0 -0.45448878248193902 -0.48114293740516451 0 -0.45448878248193902 -0.48114293740516451 0 -0.43956037519421548 -0.46422026953265022 0 -0.43189849771334943 -0.48186974677089522 0 -0.45448878248193902 -0.48114293740516451 0 -0.44021381387921771 -0.5 0 -0.43189849771334943 -0.48186974677089522 0 -0.44327742225890632 -0.44774107078683789 0 -0.44738440085003378 -0.4333050043561712 0 -0.43119929719675892 -0.43314373550882362 0 -0.44327742225890632 -0.44774107078683789 0 -0.45599111851540708 -0.45922452501911287 0 -0.45540181014027381 -0.44384343399733361 0 -0.44327742225890632 -0.44774107078683789 0 -0.45540181014027381 -0.44384343399733361 0 -0.44738440085003378 -0.4333050043561712 0 -0.45448878248193902 -0.48114293740516451 0 -0.43956037519421548 -0.46422026953265022 0 -0.45599111851540708 -0.45922452501911287 0 -0.44327742225890632 -0.44774107078683789 0 -0.43956037519421548 -0.46422026953265022 0 -0.45599111851540708 -0.45922452501911287 0 -0.47054422082893821 -0.46977730108729387 0 -0.45599111851540708 -0.45922452501911287 0 -0.47267410018816991 -0.44862213730539791 0 -0.45540181014027381 -0.44384343399733361 0 -0.47267410018816991 -0.44862213730539791 0 -0.46248478419179118 -0.43142547585537111 0 -0.45599111851540708 -0.45922452501911287 0 -0.45540181014027381 -0.44384343399733361 0 -0.47267410018816991 -0.44862213730539791 0 -0.47267410018816991 -0.44862213730539791 0 -0.5 -0.44657630473876031 0 -0.47920769610045699 -0.42772424494715588 0 -0.47054422082893821 -0.46977730108729387 0 -0.47267410018816991 -0.44862213730539791 0 -0.48434419105359161 -0.4651705384935732 0 -0.50000000000000056 -0.47562667174827022 0 -0.48434419105359161 -0.4651705384935732 0 -0.5 -0.44657630473876031 0 -0.47267410018816991 -0.44862213730539791 0 -0.48434419105359161 -0.4651705384935732 0 -0.5 -0.44657630473876031 0 -0.5 -0.44657630473876031 0 -0.5 -0.41752593772925028 0 -0.47920769610045699 -0.42772424494715588 0 -0.5 -0.41752593772925028 0 -0.48534793553653249 -0.41005112990957748 0 -0.47920769610045699 -0.42772424494715588 0 -0.48534793553653249 -0.41005112990957748 0 -0.46923544402122158 -0.41730895764522469 0 -0.47081121050442382 -0.40235441825306412 0 -0.48534793553653249 -0.41005112990957748 0 -0.46923544402122158 -0.41730895764522469 0 -0.47920769610045699 -0.42772424494715588 0 -0.46923544402122158 -0.41730895764522469 0 -0.47920769610045699 -0.42772424494715588 0 -0.46248478419179118 -0.43142547585537111 0 -0.47267410018816991 -0.44862213730539791 0 -0.47920769610045699 -0.42772424494715588 0 -0.46248478419179118 -0.43142547585537111 0 -0.5 -0.38847557071974043 0 -0.48295555290768682 -0.39479589828087203 0 -0.48203682752202581 -0.38420413469909931 0 -0.5 -0.38847557071974043 0 -0.48203682752202581 -0.38420413469909931 0 -0.48481916321343949 -0.37255726279857859 0 -0.48534793553653249 -0.41005112990957748 0 -0.5 -0.38847557071974043 0 -0.48295555290768682 -0.39479589828087203 0 -0.5 -0.41752593772925028 0 -0.48534793553653249 -0.41005112990957748 0 -0.5 -0.38847557071974043 0 -0.47081121050442382 -0.40235441825306412 0 -0.47520950664356632 -0.39045303366665018 0 -0.46963832642687919 -0.38568932188692762 0 -0.48534793553653249 -0.41005112990957748 0 -0.47081121050442382 -0.40235441825306412 0 -0.48295555290768682 -0.39479589828087203 0 -0.47081121050442382 -0.40235441825306412 0 -0.48295555290768682 -0.39479589828087203 0 -0.47520950664356632 -0.39045303366665018 0 -0.46963832642687919 -0.38568932188692762 0 -0.46751478583854977 -0.38021634328338277 0 -0.48481916321343949 -0.37255726279857859 0 -0.48295555290768682 -0.39479589828087203 0 -0.48203682752202581 -0.38420413469909931 0 -0.47520950664356632 -0.39045303366665018 0 -0.48203682752202581 -0.38420413469909931 0 -0.47520950664356632 -0.39045303366665018 0 -0.46963832642687919 -0.38568932188692762 0 -0.46963832642687919 -0.38568932188692762 0 -0.48481916321343949 -0.37255726279857859 0 -0.48203682752202581 -0.38420413469909931 0 -0.46963832642687919 -0.38568932188692762 0 -0.48481916321343949 -0.37255726279857859 0 -0.46751478583854977 -0.38021634328338277 0 -0.45450916059225221 -0.39300806230202973 0 -0.46236315574057119 -0.37381909956812109 0 -0.46751478583854977 -0.38021634328338277 0 -0.46236315574057119 -0.37381909956812109 0 -0.46963832642687919 -0.38568932188692762 0 -0.46751478583854977 -0.38021634328338277 0 -0.45450916059225221 -0.39300806230202973 0 -0.46963832642687919 -0.38568932188692762 0 -0.45450916059225221 -0.39300806230202973 0 -0.46963832642687919 -0.38568932188692762 0 -0.44797295585072228 -0.4044307740596359 0 -0.46963832642687919 -0.38568932188692762 0 -0.45450916059225221 -0.39300806230202973 0 -0.44797295585072228 -0.4044307740596359 0 -0.47081121050442382 -0.40235441825306412 0 -0.46963832642687919 -0.38568932188692762 0 -0.44797295585072228 -0.4044307740596359 0 -0.45450916059225221 -0.39300806230202973 0 -0.44797295585072228 -0.4044307740596359 0 -0.43870872886004669 -0.40065152788093772 0 -0.45450916059225221 -0.39300806230202973 0 -0.43870872886004669 -0.40065152788093772 0 -0.43776516026735618 -0.3889005012942427 0 -0.45450916059225221 -0.39300806230202973 0 -0.43870872886004669 -0.40065152788093772 0 -0.44797295585072228 -0.4044307740596359 0 -0.43870872886004669 -0.40065152788093772 0 -0.43915974222813392 -0.40626836392262911 0 -0.43870872886004669 -0.40065152788093772 0 -0.43915974222813392 -0.40626836392262911 0 -0.43870872886004669 -0.40065152788093772 0 -0.43776516026735618 -0.3889005012942427 0 -0.43776516026735618 -0.3889005012942427 0 -0.46236315574057119 -0.37381909956812109 0 -0.44648350541528198 -0.37181574165404191 0 -0.43776516026735618 -0.3889005012942427 0 -0.44648350541528198 -0.37181574165404191 0 -0.43594652692611602 -0.3662515821699337 0 -0.45450916059225221 -0.39300806230202973 0 -0.43776516026735618 -0.3889005012942427 0 -0.46236315574057119 -0.37381909956812109 0 -0.43776516026735618 -0.3889005012942427 0 -0.46236315574057119 -0.37381909956812109 0 -0.46923544402122158 -0.41730895764522469 0 -0.46248478419179118 -0.43142547585537111 0 -0.45100525385059131 -0.41774907688094393 0 -0.46248478419179118 -0.43142547585537111 0 -0.45100525385059131 -0.41774907688094393 0 -0.44738440085003378 -0.4333050043561712 0 -0.45540181014027381 -0.44384343399733361 0 -0.46248478419179118 -0.43142547585537111 0 -0.44738440085003378 -0.4333050043561712 0 -0.47081121050442382 -0.40235441825306412 0 -0.45100525385059131 -0.41774907688094393 0 -0.47081121050442382 -0.40235441825306412 0 -0.44797295585072228 -0.4044307740596359 0 -0.45100525385059131 -0.41774907688094393 0 -0.46923544402122158 -0.41730895764522469 0 -0.47081121050442382 -0.40235441825306412 0 -0.45100525385059131 -0.41774907688094393 0 -0.45100525385059131 -0.41774907688094393 0 -0.44526084636181013 -0.41067579395599629 0 -0.44290543351779282 -0.4142549609607763 0 -0.44797295585072228 -0.4044307740596359 0 -0.45100525385059131 -0.41774907688094393 0 -0.44526084636181013 -0.41067579395599629 0 -0.44526084636181013 -0.41067579395599629 0 -0.43915974222813392 -0.40626836392262911 0 -0.44290543351779282 -0.4142549609607763 0 -0.43915974222813392 -0.40626836392262911 0 -0.44290543351779282 -0.4142549609607763 0 -0.43584666185464249 -0.41251727139330568 0 -0.44797295585072228 -0.4044307740596359 0 -0.44526084636181013 -0.41067579395599629 0 -0.43915974222813392 -0.40626836392262911 0 -0.43870872886004669 -0.40065152788093772 0 -0.43915974222813392 -0.40626836392262911 0 -0.43584666185464249 -0.41251727139330568 0 -0.45100525385059131 -0.41774907688094393 0 -0.44290543351779282 -0.4142549609607763 0 -0.43622485872243949 -0.42001567757339148 0 -0.44290543351779282 -0.4142549609607763 0 -0.43622485872243949 -0.42001567757339148 0 -0.43584666185464249 -0.41251727139330568 0 -0.45100525385059131 -0.41774907688094393 0 -0.43119929719675892 -0.43314373550882362 0 -0.45100525385059131 -0.41774907688094393 0 -0.44738440085003378 -0.4333050043561712 0 -0.43119929719675892 -0.43314373550882362 0 -0.45100525385059131 -0.41774907688094393 0 -0.43119929719675892 -0.43314373550882362 0 -0.43622485872243949 -0.42001567757339148 0 -0.43119929719675892 -0.43314373550882362 0 -0.42219929698725189 -0.42095684271133033 0 -0.4176116377209616 -0.43586553649527909 0 -0.43119929719675892 -0.43314373550882362 0 -0.43622485872243949 -0.42001567757339148 0 -0.42219929698725189 -0.42095684271133033 0 -0.43870872886004669 -0.40065152788093772 0 -0.43584666185464249 -0.41251727139330568 0 -0.42219929698725189 -0.42095684271133033 0 -0.43870872886004669 -0.40065152788093772 0 -0.42219929698725189 -0.42095684271133033 0 -0.41509500708480401 -0.41207467584537028 0 -0.43622485872243949 -0.42001567757339148 0 -0.43584666185464249 -0.41251727139330568 0 -0.42219929698725189 -0.42095684271133033 0 -0.43870872886004669 -0.40065152788093772 0 -0.42219929698725189 -0.42095684271133033 0 -0.43870872886004669 -0.40065152788093772 0 -0.41509500708480401 -0.41207467584537028 0 -0.41509500708480401 -0.41207467584537028 0 -0.4178044934585422 -0.40113868692985438 0 -0.39784382664972712 -0.4133768725654644 0 -0.42219929698725189 -0.42095684271133033 0 -0.41509500708480401 -0.41207467584537028 0 -0.40743509312720888 -0.42548358414514542 0 -0.4178044934585422 -0.40113868692985438 0 -0.39784382664972712 -0.4133768725654644 0 -0.42219929698725189 -0.42095684271133033 0 -0.4176116377209616 -0.43586553649527909 0 -0.40565461615690951 -0.44082317362425938 0 -0.42219929698725189 -0.42095684271133033 0 -0.40743509312720888 -0.42548358414514542 0 -0.40565461615690951 -0.44082317362425938 0 -0.42219929698725189 -0.42095684271133033 0 -0.40565461615690951 -0.44082317362425938 0 -0.43776516026735618 -0.3889005012942427 0 -0.43594652692611602 -0.3662515821699337 0 -0.43776516026735618 -0.3889005012942427 0 -0.42113768120611189 -0.38398378931088067 0 -0.43594652692611602 -0.3662515821699337 0 -0.43870872886004669 -0.40065152788093772 0 -0.43776516026735618 -0.3889005012942427 0 -0.4178044934585422 -0.40113868692985438 0 -0.43776516026735618 -0.3889005012942427 0 -0.4178044934585422 -0.40113868692985438 0 -0.43776516026735618 -0.3889005012942427 0 -0.4178044934585422 -0.40113868692985438 0 -0.42113768120611189 -0.38398378931088067 0 -0.43870872886004669 -0.40065152788093772 0 -0.41509500708480401 -0.41207467584537028 0 -0.4178044934585422 -0.40113868692985438 0 -0.4178044934585422 -0.40113868692985438 0 -0.42113768120611189 -0.38398378931088067 0 -0.40565406465956222 -0.39188163054600272 0 -0.4178044934585422 -0.40113868692985438 0 -0.40361681480193962 -0.40174305335809962 0 -0.39784382664972712 -0.4133768725654644 0 -0.4178044934585422 -0.40113868692985438 0 -0.40565406465956222 -0.39188163054600272 0 -0.40361681480193962 -0.40174305335809962 0 -0.42113768120611189 -0.38398378931088067 0 -0.40602302264042339 -0.37732426995432877 0 -0.41943866505217348 -0.36750342236141398 0 -0.42113768120611189 -0.38398378931088067 0 -0.40602302264042339 -0.37732426995432877 0 -0.40565406465956222 -0.39188163054600272 0 -0.40602302264042339 -0.37732426995432877 0 -0.39175108836483941 -0.38574476631688509 0 -0.39178334408848031 -0.36960617836201132 0 -0.40602302264042339 -0.37732426995432877 0 -0.39175108836483941 -0.38574476631688509 0 -0.40565406465956222 -0.39188163054600272 0 -0.39175108836483941 -0.38574476631688509 0 -0.40565406465956222 -0.39188163054600272 0 -0.39316487443992698 -0.40057502339107692 0 -0.40565406465956222 -0.39188163054600272 0 -0.40361681480193962 -0.40174305335809962 0 -0.39316487443992698 -0.40057502339107692 0 -0.40361681480193962 -0.40174305335809962 0 -0.39316487443992698 -0.40057502339107692 0 -0.39784382664972712 -0.4133768725654644 0 -0.39316487443992698 -0.40057502339107692 0 -0.37834895934104051 -0.39578975150806378 0 -0.372134276508442 -0.41016758619988603 0 -0.39316487443992698 -0.40057502339107692 0 -0.372134276508442 -0.41016758619988603 0 -0.39175108836483941 -0.38574476631688509 0 -0.39316487443992698 -0.40057502339107692 0 -0.37834895934104051 -0.39578975150806378 0 -0.39175108836483941 -0.38574476631688509 0 -0.39178334408848031 -0.36960617836201132 0 -0.3744698982774699 -0.37974097138814089 0 -0.39175108836483941 -0.38574476631688509 0 -0.37834895934104051 -0.39578975150806378 0 -0.3744698982774699 -0.37974097138814089 0 -0.39148128530956211 -0.4234978238098045 0 -0.39990738587926461 -0.43238296320380498 0 -0.38586071947480721 -0.44116691944556802 0 -0.40743509312720888 -0.42548358414514542 0 -0.39148128530956211 -0.4234978238098045 0 -0.39990738587926461 -0.43238296320380498 0 -0.40743509312720888 -0.42548358414514542 0 -0.39990738587926461 -0.43238296320380498 0 -0.40565461615690951 -0.44082317362425938 0 -0.41509500708480401 -0.41207467584537028 0 -0.40743509312720888 -0.42548358414514542 0 -0.39148128530956211 -0.4234978238098045 0 -0.41509500708480401 -0.41207467584537028 0 -0.39148128530956211 -0.4234978238098045 0 -0.41509500708480401 -0.41207467584537028 0 -0.39148128530956211 -0.4234978238098045 0 -0.39784382664972712 -0.4133768725654644 0 -0.39316487443992698 -0.40057502339107692 0 -0.39784382664972712 -0.4133768725654644 0 -0.38525653435975199 -0.41243363508937542 0 -0.39784382664972712 -0.4133768725654644 0 -0.38525653435975199 -0.41243363508937542 0 -0.37788315984091192 -0.42561505820107443 0 -0.39784382664972712 -0.4133768725654644 0 -0.37788315984091192 -0.42561505820107443 0 -0.39148128530956211 -0.4234978238098045 0 -0.39784382664972712 -0.4133768725654644 0 -0.37788315984091192 -0.42561505820107443 0 -0.39316487443992698 -0.40057502339107692 0 -0.38525653435975199 -0.41243363508937542 0 -0.372134276508442 -0.41016758619988603 0 -0.38525653435975199 -0.41243363508937542 0 -0.37788315984091192 -0.42561505820107443 0 -0.372134276508442 -0.41016758619988603 0 -0.39148128530956211 -0.4234978238098045 0 -0.38586071947480721 -0.44116691944556802 0 -0.36786756353432021 -0.43492097177423872 0 -0.39148128530956211 -0.4234978238098045 0 -0.36786756353432021 -0.43492097177423872 0 -0.39148128530956211 -0.4234978238098045 0 -0.37788315984091192 -0.42561505820107443 0 -0.36786756353432021 -0.43492097177423872 0 -0.38586071947480721 -0.44116691944556802 0 -0.3828963646518691 -0.45423828058396459 0 -0.37092248870559519 -0.45276020952732282 0 -0.38586071947480721 -0.44116691944556802 0 -0.39194647292744411 -0.44776387556657182 0 -0.3828963646518691 -0.45423828058396459 0 -0.39194647292744411 -0.44776387556657182 0 -0.40565461615690951 -0.44082317362425938 0 -0.38910993532656712 -0.46068950453718849 0 -0.38586071947480721 -0.44116691944556802 0 -0.39584229860960629 -0.44053423296005101 0 -0.39194647292744411 -0.44776387556657182 0 -0.39990738587926461 -0.43238296320380498 0 -0.38586071947480721 -0.44116691944556802 0 -0.39584229860960629 -0.44053423296005101 0 -0.39584229860960629 -0.44053423296005101 0 -0.39194647292744411 -0.44776387556657182 0 -0.40565461615690951 -0.44082317362425938 0 -0.40565461615690951 -0.44082317362425938 0 -0.38910993532656712 -0.46068950453718849 0 -0.41139334054292642 -0.44853839413670338 0 -0.40565461615690951 -0.44082317362425938 0 -0.38910993532656712 -0.46068950453718849 0 -0.39990738587926461 -0.43238296320380498 0 -0.39584229860960629 -0.44053423296005101 0 -0.40565461615690951 -0.44082317362425938 0 -0.39158738388909381 -0.46393305276458319 0 -0.38910993532656712 -0.46068950453718849 0 -0.41139334054292642 -0.44853839413670338 0 -0.39158738388909381 -0.46393305276458319 0 -0.41139334054292642 -0.44853839413670338 0 -0.40331531996838699 -0.46257985902180809 0 -0.39158738388909381 -0.46393305276458319 0 -0.41139334054292642 -0.44853839413670338 0 -0.40331531996838699 -0.46257985902180809 0 -0.39778077028208669 -0.46736244632508461 0 -0.40285904655783678 -0.47049892318900238 0 -0.39778077028208669 -0.46736244632508461 0 -0.39158738388909381 -0.46393305276458319 0 -0.39350905942780739 -0.4735920978482443 0 -0.40331531996838699 -0.46257985902180809 0 -0.39778077028208669 -0.46736244632508461 0 -0.39158738388909381 -0.46393305276458319 0 -0.39158738388909381 -0.46393305276458319 0 -0.38910993532656712 -0.46068950453718849 0 -0.37601908872064488 -0.46589307015621528 0 -0.39194647292744411 -0.44776387556657182 0 -0.38910993532656712 -0.46068950453718849 0 -0.3828963646518691 -0.45423828058396459 0 -0.38910993532656712 -0.46068950453718849 0 -0.3828963646518691 -0.45423828058396459 0 -0.37601908872064488 -0.46589307015621528 0 -0.3828963646518691 -0.45423828058396459 0 -0.37601908872064488 -0.46589307015621528 0 -0.37092248870559519 -0.45276020952732282 0 -0.39158738388909381 -0.46393305276458319 0 -0.39350905942780739 -0.4735920978482443 0 -0.37178142723526131 -0.47932771139246289 0 -0.39350905942780739 -0.4735920978482443 0 -0.3977689308804917 -0.48316999198838478 0 -0.37178142723526131 -0.47932771139246289 0 -0.39158738388909381 -0.46393305276458319 0 -0.37601908872064488 -0.46589307015621528 0 -0.37178142723526131 -0.47932771139246289 0 -0.39158738388909381 -0.46393305276458319 0 -0.37178142723526131 -0.47932771139246289 0 -0.38903419332591949 -0.50000000000000011 0 -0.3977689308804917 -0.48316999198838478 0 -0.37178142723526131 -0.47932771139246289 0 -0.38903419332591949 -0.50000000000000011 0 -0.37026881101799552 -0.49117273716825038 0 -0.37178142723526131 -0.47932771139246289 0 -0.38903419332591949 -0.50000000000000011 0 -0.37178142723526131 -0.47932771139246289 0 -0.38903419332591949 -0.50000000000000011 0 -0.3977689308804917 -0.48316999198838478 0 -0.41462400360256862 -0.5 0 -0.3977689308804917 -0.48316999198838478 0 -0.40285904655783678 -0.47049892318900238 0 -0.41480585513355472 -0.47560121950060108 0 -0.39778077028208669 -0.46736244632508461 0 -0.39350905942780739 -0.4735920978482443 0 -0.40285904655783678 -0.47049892318900238 0 -0.39350905942780739 -0.4735920978482443 0 -0.3977689308804917 -0.48316999198838478 0 -0.40285904655783678 -0.47049892318900238 0 -0.40285904655783678 -0.47049892318900238 0 -0.41480585513355472 -0.47560121950060108 0 -0.41295605856999129 -0.46256647869366702 0 -0.41480585513355472 -0.47560121950060108 0 -0.41462400360256862 -0.5 0 -0.43189849771334943 -0.48186974677089522 0 -0.3977689308804917 -0.48316999198838478 0 -0.41480585513355472 -0.47560121950060108 0 -0.41462400360256862 -0.5 0 -0.44021381387921771 -0.5 0 -0.41462400360256862 -0.5 0 -0.43189849771334943 -0.48186974677089522 0 -0.41480585513355472 -0.47560121950060108 0 -0.43189849771334943 -0.48186974677089522 0 -0.42503905750116611 -0.46497192396693632 0 -0.43956037519421548 -0.46422026953265022 0 -0.43189849771334943 -0.48186974677089522 0 -0.42503905750116611 -0.46497192396693632 0 -0.44327742225890632 -0.44774107078683789 0 -0.43956037519421548 -0.46422026953265022 0 -0.42950957151361507 -0.45140780292210309 0 -0.42503905750116611 -0.46497192396693632 0 -0.42950957151361507 -0.45140780292210309 0 -0.41972450703192471 -0.45687114992985239 0 -0.43956037519421548 -0.46422026953265022 0 -0.42503905750116611 -0.46497192396693632 0 -0.42950957151361507 -0.45140780292210309 0 -0.44327742225890632 -0.44774107078683789 0 -0.43119929719675892 -0.43314373550882362 0 -0.42950957151361507 -0.45140780292210309 0 -0.43119929719675892 -0.43314373550882362 0 -0.42950957151361507 -0.45140780292210309 0 -0.41139334054292642 -0.44853839413670338 0 -0.43119929719675892 -0.43314373550882362 0 -0.41139334054292642 -0.44853839413670338 0 -0.42950957151361507 -0.45140780292210309 0 -0.41139334054292642 -0.44853839413670338 0 -0.41972450703192471 -0.45687114992985239 0 -0.43119929719675892 -0.43314373550882362 0 -0.4176116377209616 -0.43586553649527909 0 -0.41139334054292642 -0.44853839413670338 0 -0.4176116377209616 -0.43586553649527909 0 -0.40565461615690951 -0.44082317362425938 0 -0.41139334054292642 -0.44853839413670338 0 -0.40331531996838699 -0.46257985902180809 0 -0.41139334054292642 -0.44853839413670338 0 -0.41295605856999129 -0.46256647869366702 0 -0.40331531996838699 -0.46257985902180809 0 -0.40285904655783678 -0.47049892318900238 0 -0.41295605856999129 -0.46256647869366702 0 -0.42503905750116611 -0.46497192396693632 0 -0.41295605856999129 -0.46256647869366702 0 -0.41972450703192471 -0.45687114992985239 0 -0.41480585513355472 -0.47560121950060108 0 -0.42503905750116611 -0.46497192396693632 0 -0.41295605856999129 -0.46256647869366702 0 -0.41139334054292642 -0.44853839413670338 0 -0.41295605856999129 -0.46256647869366702 0 -0.41972450703192471 -0.45687114992985239 0 -0.44834391481084968 -0.26632932161570583 0 -0.45246753597763961 -0.23912196796794549 0 -0.43757215116835091 -0.25601866082990721 0 -0.44834391481084968 -0.26632932161570583 0 -0.45246753597763961 -0.23912196796794549 0 -0.44834391481084968 -0.26632932161570583 0 -0.44422029364406102 -0.29353667526346622 0 -0.43031106073052838 -0.27751238326795769 0 -0.43757215116835091 -0.25601866082990721 0 -0.44834391481084968 -0.26632932161570583 0 -0.43031106073052838 -0.27751238326795769 0 -0.44834391481084968 -0.26632932161570583 0 -0.44422029364406102 -0.29353667526346622 0 -0.44834391481084968 -0.26632932161570583 0 -0.46752420245236692 -0.27127310494074203 0 -0.46015897192138527 -0.28971978293875023 0 -0.44834391481084968 -0.26632932161570583 0 -0.46752420245236692 -0.27127310494074203 0 -0.46183596954241413 -0.25471882930936679 0 -0.46752420245236692 -0.27127310494074203 0 -0.46183596954241413 -0.25471882930936679 0 -0.47397569958379548 -0.2579348728082968 0 -0.44834391481084968 -0.26632932161570583 0 -0.46183596954241413 -0.25471882930936679 0 -0.45246753597763961 -0.23912196796794549 0 -0.46183596954241413 -0.25471882930936679 0 -0.47397569958379548 -0.2579348728082968 0 -0.47243335829366068 -0.2430338505120013 0 -0.47397569958379548 -0.2579348728082968 0 -0.48708423363442932 -0.25555355077311548 0 -0.48202111474048498 -0.27034747700214917 0 -0.47397569958379548 -0.2579348728082968 0 -0.48708423363442932 -0.25555355077311548 0 -0.47243335829366068 -0.2430338505120013 0 -0.48708423363442932 -0.25555355077311548 0 -0.4999999999999985 -0.27570205516225837 0 -0.5 -0.24632963614993081 0 -0.4999999999999985 -0.27570205516225837 0 -0.49638945263120188 -0.2810435400699281 0 -0.47609765019870959 -0.28590289061403362 0 -0.4999999999999985 -0.27570205516225837 0 -0.47609765019870959 -0.28590289061403362 0 -0.4999999999999985 -0.27570205516225837 0 -0.48202111474048498 -0.27034747700214917 0 -0.47609765019870959 -0.28590289061403362 0 -0.48708423363442932 -0.25555355077311548 0 -0.4999999999999985 -0.27570205516225837 0 -0.48202111474048498 -0.27034747700214917 0 -0.46752420245236692 -0.27127310494074203 0 -0.47397569958379548 -0.2579348728082968 0 -0.48202111474048498 -0.27034747700214917 0 -0.46752420245236692 -0.27127310494074203 0 -0.48202111474048498 -0.27034747700214917 0 -0.47609765019870959 -0.28590289061403362 0 -0.47609765019870959 -0.28590289061403362 0 -0.48828967916354687 -0.29476911467295441 0 -0.4762501209799796 -0.30900477953748018 0 -0.47609765019870959 -0.28590289061403362 0 -0.4762501209799796 -0.30900477953748018 0 -0.45967522511350312 -0.29291150932332338 0 -0.49638945263120188 -0.2810435400699281 0 -0.47609765019870959 -0.28590289061403362 0 -0.49638945263120188 -0.2810435400699281 0 -0.47609765019870959 -0.28590289061403362 0 -0.48828967916354687 -0.29476911467295441 0 -0.4999999999999985 -0.27570205516225837 0 -0.49638945263120188 -0.2810435400699281 0 -0.5 -0.30109821778643281 0 -0.49638945263120188 -0.2810435400699281 0 -0.48828967916354687 -0.29476911467295441 0 -0.5 -0.30109821778643281 0 -0.48828967916354687 -0.29476911467295441 0 -0.5 -0.30109821778643281 0 -0.489852452451707 -0.31321702243580068 0 -0.48828967916354687 -0.29476911467295441 0 -0.4762501209799796 -0.30900477953748018 0 -0.489852452451707 -0.31321702243580068 0 -0.45967522511350312 -0.29291150932332338 0 -0.44325280002829648 -0.29992012803261281 0 -0.45764442663122962 -0.31359622532837111 0 -0.4762501209799796 -0.30900477953748018 0 -0.45967522511350312 -0.29291150932332338 0 -0.45764442663122962 -0.31359622532837111 0 -0.47609765019870959 -0.28590289061403362 0 -0.45967522511350312 -0.29291150932332338 0 -0.47609765019870959 -0.28590289061403362 0 -0.46015897192138527 -0.28971978293875023 0 -0.45967522511350312 -0.29291150932332338 0 -0.46015897192138527 -0.28971978293875023 0 -0.44422029364406102 -0.29353667526346622 0 -0.46752420245236692 -0.27127310494074203 0 -0.47609765019870959 -0.28590289061403362 0 -0.46015897192138527 -0.28971978293875023 0 -0.47609765019870959 -0.28590289061403362 0 -0.45967522511350312 -0.29291150932332338 0 -0.46015897192138527 -0.28971978293875023 0 -0.45967522511350312 -0.29291150932332338 0 -0.44422029364406102 -0.29353667526346622 0 -0.44325280002829648 -0.29992012803261281 0 -0.44834391481084968 -0.26632932161570583 0 -0.46015897192138527 -0.28971978293875023 0 -0.44422029364406102 -0.29353667526346622 0 -0.45967522511350312 -0.29291150932332338 0 -0.44325280002829648 -0.29992012803261281 0 -0.46015897192138527 -0.28971978293875023 0 -0.44422029364406102 -0.29353667526346622 0 -0.44422029364406102 -0.29353667526346622 0 -0.44325280002829648 -0.29992012803261281 0 -0.44325280002829648 -0.29992012803261281 0 -0.44009164693116742 -0.32077718710022562 0 -0.44167681486674681 -0.30059271317344932 0 -0.44325280002829648 -0.29992012803261281 0 -0.44009164693116742 -0.32077718710022562 0 -0.44325280002829648 -0.29992012803261281 0 -0.44009164693116742 -0.32077718710022562 0 -0.45764442663122962 -0.31359622532837111 0 -0.44422029364406102 -0.29353667526346622 0 -0.44167681486674681 -0.30059271317344932 0 -0.44325280002829648 -0.29992012803261281 0 -0.44167681486674681 -0.30059271317344932 0 -0.44325280002829648 -0.29992012803261281 0 -0.44009164693116742 -0.32077718710022562 0 -0.45808010155577777 -0.33738180317033267 0 -0.45764442663122962 -0.31359622532837111 0 -0.44009164693116742 -0.32077718710022562 0 -0.43889884463227918 -0.32886406429597448 0 -0.44474094585002111 -0.33307115757737038 0 -0.44009164693116742 -0.32077718710022562 0 -0.43889884463227918 -0.32886406429597448 0 -0.43651828024189421 -0.32485855308720668 0 -0.44009164693116742 -0.32077718710022562 0 -0.45808010155577777 -0.33738180317033267 0 -0.44474094585002111 -0.33307115757737038 0 -0.45808010155577777 -0.33738180317033267 0 -0.43735520171359871 -0.34276446759961349 0 -0.43889884463227918 -0.32886406429597448 0 -0.44474094585002111 -0.33307115757737038 0 -0.43369569368652788 -0.33822012643344712 0 -0.45808010155577777 -0.33738180317033267 0 -0.45401661080961819 -0.34785526026376112 0 -0.43735520171359871 -0.34276446759961349 0 -0.44009164693116742 -0.32077718710022562 0 -0.44474094585002111 -0.33307115757737038 0 -0.45808010155577777 -0.33738180317033267 0 -0.45808010155577777 -0.33738180317033267 0 -0.43735520171359871 -0.34276446759961349 0 -0.44474094585002111 -0.33307115757737038 0 -0.43369569368652788 -0.33822012643344712 0 -0.43735520171359871 -0.34276446759961349 0 -0.45808010155577777 -0.33738180317033267 0 -0.46775367498621928 -0.32298022495666351 0 -0.4790400507778903 -0.33193809179047012 0 -0.45808010155577777 -0.33738180317033267 0 -0.46413201376906682 -0.34296814623807831 0 -0.4790400507778903 -0.33193809179047012 0 -0.45808010155577777 -0.33738180317033267 0 -0.4790400507778903 -0.33193809179047012 0 -0.45808010155577777 -0.33738180317033267 0 -0.46413201376906682 -0.34296814623807831 0 -0.45401661080961819 -0.34785526026376112 0 -0.45808010155577777 -0.33738180317033267 0 -0.46413201376906682 -0.34296814623807831 0 -0.4762501209799796 -0.30900477953748018 0 -0.46775367498621928 -0.32298022495666351 0 -0.45764442663122962 -0.31359622532837111 0 -0.45808010155577777 -0.33738180317033267 0 -0.46775367498621928 -0.32298022495666351 0 -0.45764442663122962 -0.31359622532837111 0 -0.4762501209799796 -0.30900477953748018 0 -0.46775367498621928 -0.32298022495666351 0 -0.4790400507778903 -0.33193809179047012 0 -0.4762501209799796 -0.30900477953748018 0 -0.489852452451707 -0.31321702243580068 0 -0.4790400507778903 -0.33193809179047012 0 -0.5 -0.30109821778643281 0 -0.489852452451707 -0.31321702243580068 0 -0.50000000000000266 -0.32649438041060708 0 -0.489852452451707 -0.31321702243580068 0 -0.50000000000000266 -0.32649438041060708 0 -0.4790400507778903 -0.33193809179047012 0 -0.50000000000000266 -0.32649438041060708 0 -0.49018401006707762 -0.33942039934154322 0 -0.4790400507778903 -0.33193809179047012 0 -0.50000000000000266 -0.32649438041060708 0 -0.4790400507778903 -0.33193809179047012 0 -0.50000000000000266 -0.32649438041060708 0 -0.49018401006707762 -0.33942039934154322 0 -0.50000000000000222 -0.35074338315056558 0 -0.49018401006707762 -0.33942039934154322 0 -0.4790400507778903 -0.33193809179047012 0 -0.47879914410969138 -0.34720224026420171 0 -0.46413201376906682 -0.34296814623807831 0 -0.4790400507778903 -0.33193809179047012 0 -0.47879914410969138 -0.34720224026420171 0 -0.46413201376906682 -0.34296814623807831 0 -0.47879914410969138 -0.34720224026420171 0 -0.46505861350438632 -0.35540296187956222 0 -0.47879914410969138 -0.34720224026420171 0 -0.48118157787028648 -0.36228124135934298 0 -0.46505861350438632 -0.35540296187956222 0 -0.50000000000000222 -0.35074338315056558 0 -0.50000000000000044 -0.35942520371023029 0 -0.48118157787028648 -0.36228124135934298 0 -0.50000000000000222 -0.35074338315056558 0 -0.48118157787028648 -0.36228124135934298 0 -0.49018401006707762 -0.33942039934154322 0 -0.47879914410969138 -0.34720224026420171 0 -0.50000000000000222 -0.35074338315056558 0 -0.47879914410969138 -0.34720224026420171 0 -0.50000000000000222 -0.35074338315056558 0 -0.48118157787028648 -0.36228124135934298 0 -0.50000000000000044 -0.35942520371023029 0 -0.48481916321343949 -0.37255726279857859 0 -0.48118157787028648 -0.36228124135934298 0 -0.5 -0.38847557071974043 0 -0.50000000000000044 -0.35942520371023029 0 -0.48481916321343949 -0.37255726279857859 0 -0.50000000000000044 -0.35942520371023029 0 -0.48481916321343949 -0.37255726279857859 0 -0.46751478583854977 -0.38021634328338277 0 -0.48118157787028648 -0.36228124135934298 0 -0.46236315574057119 -0.37381909956812109 0 -0.46751478583854977 -0.38021634328338277 0 -0.48481916321343949 -0.37255726279857859 0 -0.48118157787028648 -0.36228124135934298 0 -0.48118157787028648 -0.36228124135934298 0 -0.46236315574057119 -0.37381909956812109 0 -0.48118157787028648 -0.36228124135934298 0 -0.46236315574057119 -0.37381909956812109 0 -0.46505861350438632 -0.35540296187956222 0 -0.46236315574057119 -0.37381909956812109 0 -0.46505861350438632 -0.35540296187956222 0 -0.44985917872708392 -0.35829178358386821 0 -0.46236315574057119 -0.37381909956812109 0 -0.44985917872708392 -0.35829178358386821 0 -0.46413201376906682 -0.34296814623807831 0 -0.46505861350438632 -0.35540296187956222 0 -0.45401661080961819 -0.34785526026376112 0 -0.46505861350438632 -0.35540296187956222 0 -0.45401661080961819 -0.34785526026376112 0 -0.44985917872708392 -0.35829178358386821 0 -0.45401661080961819 -0.34785526026376112 0 -0.44985917872708392 -0.35829178358386821 0 -0.43735520171359871 -0.34276446759961349 0 -0.44985917872708392 -0.35829178358386821 0 -0.43735520171359871 -0.34276446759961349 0 -0.43412789358488252 -0.34360266304562398 0 -0.44985917872708392 -0.35829178358386821 0 -0.43594652692611602 -0.3662515821699337 0 -0.43412789358488252 -0.34360266304562398 0 -0.44985917872708392 -0.35829178358386821 0 -0.43735520171359871 -0.34276446759961349 0 -0.46236315574057119 -0.37381909956812109 0 -0.44985917872708392 -0.35829178358386821 0 -0.44648350541528198 -0.37181574165404191 0 -0.44985917872708392 -0.35829178358386821 0 -0.44648350541528198 -0.37181574165404191 0 -0.43594652692611602 -0.3662515821699337 0 -0.43594652692611602 -0.3662515821699337 0 -0.4240202573072443 -0.35702954802377868 0 -0.41943866505217348 -0.36750342236141398 0 -0.42113768120611189 -0.38398378931088067 0 -0.43594652692611602 -0.3662515821699337 0 -0.41943866505217348 -0.36750342236141398 0 -0.43594652692611602 -0.3662515821699337 0 -0.4240202573072443 -0.35702954802377868 0 -0.43412789358488252 -0.34360266304562398 0 -0.43594652692611602 -0.3662515821699337 0 -0.43412789358488252 -0.34360266304562398 0 -0.4240202573072443 -0.35702954802377868 0 -0.40656794366580729 -0.35076052451814299 0 -0.43412789358488252 -0.34360266304562398 0 -0.4240202573072443 -0.35702954802377868 0 -0.40656794366580729 -0.35076052451814299 0 -0.41943866505217348 -0.36750342236141398 0 -0.40656794366580729 -0.35076052451814299 0 -0.41892942640344089 -0.33753136528393851 0 -0.43412789358488252 -0.34360266304562398 0 -0.40656794366580729 -0.35076052451814299 0 -0.43412789358488252 -0.34360266304562398 0 -0.40602302264042339 -0.37732426995432877 0 -0.40656794366580729 -0.35076052451814299 0 -0.41943866505217348 -0.36750342236141398 0 -0.40602302264042339 -0.37732426995432877 0 -0.40656794366580729 -0.35076052451814299 0 -0.39178334408848031 -0.36960617836201132 0 -0.40656794366580729 -0.35076052451814299 0 -0.39178334408848031 -0.36960617836201132 0 -0.37900799374673211 -0.35791838599066178 0 -0.39178334408848031 -0.36960617836201132 0 -0.37900799374673211 -0.35791838599066178 0 -0.3744698982774699 -0.37974097138814089 0 -0.40656794366580729 -0.35076052451814299 0 -0.37900799374673211 -0.35791838599066178 0 -0.40656794366580729 -0.35076052451814299 0 -0.37900799374673211 -0.35791838599066178 0 -0.38809654586609199 -0.34078667746628988 0 -0.40656794366580729 -0.35076052451814299 0 -0.40079204094926552 -0.33452670981333982 0 -0.38809654586609199 -0.34078667746628988 0 -0.40079204094926552 -0.33452670981333982 0 -0.38809654586609199 -0.34078667746628988 0 -0.38810718983415909 -0.32548609165290771 0 -0.37900799374673211 -0.35791838599066178 0 -0.38809654586609199 -0.34078667746628988 0 -0.37221431464370341 -0.33189786574299418 0 -0.38809654586609199 -0.34078667746628988 0 -0.38810718983415909 -0.32548609165290771 0 -0.37221431464370341 -0.33189786574299418 0 -0.37930655539219132 -0.3188155219629486 0 -0.38810718983415909 -0.32548609165290771 0 -0.3902313954728272 -0.30646558991148037 0 -0.37930655539219132 -0.3188155219629486 0 -0.38810718983415909 -0.32548609165290771 0 -0.37221431464370341 -0.33189786574299418 0 -0.38810718983415909 -0.32548609165290771 0 -0.4009347483986368 -0.31821321836562533 0 -0.3902313954728272 -0.30646558991148037 0 -0.40079204094926552 -0.33452670981333982 0 -0.38810718983415909 -0.32548609165290771 0 -0.4009347483986368 -0.31821321836562533 0 -0.4009347483986368 -0.31821321836562533 0 -0.41946356013072361 -0.32054680260913848 0 -0.40523142657491917 -0.30287347878482979 0 -0.40079204094926552 -0.33452670981333982 0 -0.4009347483986368 -0.31821321836562533 0 -0.41946356013072361 -0.32054680260913848 0 -0.40656794366580729 -0.35076052451814299 0 -0.40079204094926552 -0.33452670981333982 0 -0.41892942640344089 -0.33753136528393851 0 -0.40079204094926552 -0.33452670981333982 0 -0.41946356013072361 -0.32054680260913848 0 -0.41892942640344089 -0.33753136528393851 0 -0.41946356013072361 -0.32054680260913848 0 -0.41892942640344089 -0.33753136528393851 0 -0.43369569368652788 -0.33822012643344712 0 -0.41946356013072361 -0.32054680260913848 0 -0.43369569368652788 -0.33822012643344712 0 -0.41946356013072361 -0.32054680260913848 0 -0.43369569368652788 -0.33822012643344712 0 -0.4328672839997294 -0.32790326729935498 0 -0.41892942640344089 -0.33753136528393851 0 -0.43369569368652788 -0.33822012643344712 0 -0.43412789358488252 -0.34360266304562398 0 -0.43369569368652788 -0.33822012643344712 0 -0.43735520171359871 -0.34276446759961349 0 -0.43369569368652788 -0.33822012643344712 0 -0.43735520171359871 -0.34276446759961349 0 -0.43412789358488252 -0.34360266304562398 0 -0.43369569368652788 -0.33822012643344712 0 -0.43412789358488252 -0.34360266304562398 0 -0.43735520171359871 -0.34276446759961349 0 -0.43412789358488252 -0.34360266304562398 0 -0.43889884463227918 -0.32886406429597448 0 -0.43369569368652788 -0.33822012643344712 0 -0.4328672839997294 -0.32790326729935498 0 -0.43369569368652788 -0.33822012643344712 0 -0.4328672839997294 -0.32790326729935498 0 -0.4328672839997294 -0.32790326729935498 0 -0.43438198858655153 -0.32079019401291847 0 -0.4274975089365789 -0.3186923575012135 0 -0.43889884463227918 -0.32886406429597448 0 -0.43651828024189421 -0.32485855308720668 0 -0.4328672839997294 -0.32790326729935498 0 -0.43651828024189421 -0.32485855308720668 0 -0.4328672839997294 -0.32790326729935498 0 -0.43438198858655153 -0.32079019401291847 0 -0.44009164693116742 -0.32077718710022562 0 -0.43651828024189421 -0.32485855308720668 0 -0.43438198858655153 -0.32079019401291847 0 -0.44009164693116742 -0.32077718710022562 0 -0.43438198858655153 -0.32079019401291847 0 -0.4288009762533368 -0.31035509939499051 0 -0.43438198858655153 -0.32079019401291847 0 -0.4274975089365789 -0.3186923575012135 0 -0.4288009762533368 -0.31035509939499051 0 -0.44009164693116742 -0.32077718710022562 0 -0.4288009762533368 -0.31035509939499051 0 -0.4274975089365789 -0.3186923575012135 0 -0.4288009762533368 -0.31035509939499051 0 -0.4199391459259264 -0.31066690883799047 0 -0.41946356013072361 -0.32054680260913848 0 -0.4274975089365789 -0.3186923575012135 0 -0.4199391459259264 -0.31066690883799047 0 -0.41946356013072361 -0.32054680260913848 0 -0.4328672839997294 -0.32790326729935498 0 -0.4274975089365789 -0.3186923575012135 0 -0.44167681486674681 -0.30059271317344932 0 -0.44009164693116742 -0.32077718710022562 0 -0.4288009762533368 -0.31035509939499051 0 -0.44167681486674681 -0.30059271317344932 0 -0.4288009762533368 -0.31035509939499051 0 -0.41751030557550722 -0.29993301168975423 0 -0.44422029364406102 -0.29353667526346622 0 -0.44167681486674681 -0.30059271317344932 0 -0.41751030557550722 -0.29993301168975423 0 -0.4288009762533368 -0.31035509939499051 0 -0.41751030557550722 -0.29993301168975423 0 -0.4288009762533368 -0.31035509939499051 0 -0.41751030557550722 -0.29993301168975423 0 -0.4199391459259264 -0.31066690883799047 0 -0.44422029364406102 -0.29353667526346622 0 -0.41751030557550722 -0.29993301168975423 0 -0.44422029364406102 -0.29353667526346622 0 -0.41751030557550722 -0.29993301168975423 0 -0.43031106073052838 -0.27751238326795769 0 -0.41440515332275552 -0.28227025819429918 0 -0.41751030557550722 -0.29993301168975423 0 -0.3988804428465802 -0.28273633056799857 0 -0.41751030557550722 -0.29993301168975423 0 -0.40523142657491917 -0.30287347878482979 0 -0.3988804428465802 -0.28273633056799857 0 -0.41751030557550722 -0.29993301168975423 0 -0.3988804428465802 -0.28273633056799857 0 -0.41440515332275552 -0.28227025819429918 0 -0.41751030557550722 -0.29993301168975423 0 -0.43031106073052838 -0.27751238326795769 0 -0.41946356013072361 -0.32054680260913848 0 -0.4199391459259264 -0.31066690883799047 0 -0.40523142657491917 -0.30287347878482979 0 -0.41751030557550722 -0.29993301168975423 0 -0.40523142657491917 -0.30287347878482979 0 -0.41946356013072361 -0.32054680260913848 0 -0.40523142657491917 -0.30287347878482979 0 -0.41751030557550722 -0.29993301168975423 0 -0.4199391459259264 -0.31066690883799047 0 -0.40523142657491917 -0.30287347878482979 0 -0.40523142657491917 -0.30287347878482979 0 -0.3902313954728272 -0.30646558991148037 0 -0.39375726055065591 -0.28862497198396397 0 -0.4009347483986368 -0.31821321836562533 0 -0.40523142657491917 -0.30287347878482979 0 -0.3902313954728272 -0.30646558991148037 0 -0.40523142657491917 -0.30287347878482979 0 -0.3902313954728272 -0.30646558991148037 0 -0.37523136437073529 -0.31005770103813107 0 -0.3789905949627963 -0.29141574199940312 0 -0.37189005046323009 -0.29962249423418807 0 -0.37523136437073529 -0.31005770103813107 0 -0.39375726055065591 -0.28862497198396397 0 -0.3902313954728272 -0.30646558991148037 0 -0.37523136437073529 -0.31005770103813107 0 -0.39375726055065591 -0.28862497198396397 0 -0.3902313954728272 -0.30646558991148037 0 -0.37523136437073529 -0.31005770103813107 0 -0.37930655539219132 -0.3188155219629486 0 -0.3902313954728272 -0.30646558991148037 0 -0.37523136437073529 -0.31005770103813107 0 -0.37523136437073529 -0.31005770103813107 0 -0.3789905949627963 -0.29141574199940312 0 -0.39375726055065591 -0.28862497198396397 0 -0.3774026656632844 -0.28248374780429703 0 -0.3789905949627963 -0.29141574199940312 0 -0.37106937899341341 -0.29078480333094903 0 -0.3774026656632844 -0.28248374780429703 0 -0.3789905949627963 -0.29141574199940312 0 -0.38411895227533049 -0.27665621532492918 0 -0.39375726055065591 -0.28862497198396397 0 -0.38411895227533049 -0.27665621532492918 0 -0.3789905949627963 -0.29141574199940312 0 -0.39375726055065591 -0.28862497198396397 0 -0.38411895227533049 -0.27665621532492918 0 -0.39375726055065591 -0.28862497198396397 0 -0.3988804428465802 -0.28273633056799857 0 -0.39233620115288043 -0.27669553256386142 0 -0.40523142657491917 -0.30287347878482979 0 -0.39375726055065591 -0.28862497198396397 0 -0.3988804428465802 -0.28273633056799857 0 -0.39375726055065591 -0.28862497198396397 0 -0.3988804428465802 -0.28273633056799857 0 -0.40523142657491917 -0.30287347878482979 0 -0.39375726055065591 -0.28862497198396397 0 -0.3988804428465802 -0.28273633056799857 0 -0.39686630688573621 -0.26893839063975478 0 -0.4109188041384062 -0.26889930725148642 0 -0.3988804428465802 -0.28273633056799857 0 -0.4109188041384062 -0.26889930725148642 0 -0.39686630688573621 -0.26893839063975478 0 -0.40032979896953019 -0.26013322076077078 0 -0.4109188041384062 -0.26889930725148642 0 -0.39686630688573621 -0.26893839063975478 0 -0.39233620115288043 -0.27669553256386142 0 -0.38826904474408042 -0.2680091126959171 0 -0.3988804428465802 -0.28273633056799857 0 -0.39686630688573621 -0.26893839063975478 0 -0.39233620115288043 -0.27669553256386142 0 -0.3988804428465802 -0.28273633056799857 0 -0.39233620115288043 -0.27669553256386142 0 -0.39233620115288043 -0.27669553256386142 0 -0.38411895227533049 -0.27665621532492918 0 -0.38826904474408042 -0.2680091126959171 0 -0.39375726055065591 -0.28862497198396397 0 -0.39233620115288043 -0.27669553256386142 0 -0.38411895227533049 -0.27665621532492918 0 -0.38411895227533049 -0.27665621532492918 0 -0.3744806440000063 -0.26468745866589372 0 -0.38411895227533049 -0.27665621532492918 0 -0.38826904474408042 -0.2680091126959171 0 -0.3744806440000063 -0.26468745866589372 0 -0.38411895227533049 -0.27665621532492918 0 -0.3744806440000063 -0.26468745866589372 0 -0.3710864222381412 -0.27797477495073958 0 -0.3774026656632844 -0.28248374780429703 0 -0.38411895227533049 -0.27665621532492918 0 -0.3710864222381412 -0.27797477495073958 0 -0.3815886507475249 -0.25685554792399468 0 -0.36909614358114728 -0.25447947052818581 0 -0.37807327786879408 -0.24521479883112249 0 -0.3815886507475249 -0.25685554792399468 0 -0.3882865294424136 -0.2498244867825489 0 -0.37807327786879408 -0.24521479883112249 0 -0.38826904474408042 -0.2680091126959171 0 -0.3815886507475249 -0.25685554792399468 0 -0.3744806440000063 -0.26468745866589372 0 -0.3815886507475249 -0.25685554792399468 0 -0.3744806440000063 -0.26468745866589372 0 -0.36909614358114728 -0.25447947052818581 0 -0.38826904474408042 -0.2680091126959171 0 -0.3815886507475249 -0.25685554792399468 0 -0.39132626484870803 -0.25891796004030032 0 -0.3815886507475249 -0.25685554792399468 0 -0.39132626484870803 -0.25891796004030032 0 -0.3882865294424136 -0.2498244867825489 0 -0.39705766789495928 -0.25105344411440789 0 -0.39132626484870803 -0.25891796004030032 0 -0.3882865294424136 -0.2498244867825489 0 -0.40032979896953019 -0.26013322076077078 0 -0.40547995107984119 -0.25285700175790488 0 -0.4109188041384062 -0.26889930725148642 0 -0.39705766789495928 -0.25105344411440789 0 -0.39132626484870803 -0.25891796004030032 0 -0.40032979896953019 -0.26013322076077078 0 -0.39686630688573621 -0.26893839063975478 0 -0.38826904474408042 -0.2680091126959171 0 -0.39132626484870803 -0.25891796004030032 0 -0.39686630688573621 -0.26893839063975478 0 -0.39132626484870803 -0.25891796004030032 0 -0.40032979896953019 -0.26013322076077078 0 -0.39705766789495928 -0.25105344411440789 0 -0.40032979896953019 -0.26013322076077078 0 -0.40547995107984119 -0.25285700175790488 0 -0.4109188041384062 -0.26889930725148642 0 -0.42295716543023337 -0.25506228393497521 0 -0.41457584860192409 -0.24925828221297019 0 -0.40547995107984119 -0.25285700175790488 0 -0.4109188041384062 -0.26889930725148642 0 -0.41457584860192409 -0.24925828221297019 0 -0.4109188041384062 -0.26889930725148642 0 -0.42295716543023337 -0.25506228393497521 0 -0.4109188041384062 -0.26889930725148642 0 -0.43031106073052838 -0.27751238326795769 0 -0.42295716543023337 -0.25506228393497521 0 -0.41440515332275552 -0.28227025819429918 0 -0.4109188041384062 -0.26889930725148642 0 -0.43031106073052838 -0.27751238326795769 0 -0.41440515332275552 -0.28227025819429918 0 -0.3988804428465802 -0.28273633056799857 0 -0.4109188041384062 -0.26889930725148642 0 -0.43757215116835091 -0.25601866082990721 0 -0.43031106073052838 -0.27751238326795769 0 -0.42295716543023337 -0.25506228393497521 0 -0.43757215116835091 -0.25601866082990721 0 -0.42295716543023337 -0.25506228393497521 0 -0.43378107889250272 -0.24206734736295191 0 -0.31447374353419461 -0.25288678371517498 0 -0.32927156741263591 -0.25711333387582608 0 -0.30872004842627848 -0.27006258464879029 0 -0.31447374353419461 -0.25288678371517498 0 -0.32927156741263591 -0.25711333387582608 0 -0.32213089999030081 -0.24086328174933441 0 -0.32927156741263591 -0.25711333387582608 0 -0.30872004842627848 -0.27006258464879029 0 -0.32215675400820842 -0.27336040545883977 0 -0.32927156741263591 -0.25711333387582608 0 -0.30872004842627848 -0.27006258464879029 0 -0.32215675400820842 -0.27336040545883977 0 -0.31382540015854737 -0.28256866382776158 0 -0.30872004842627848 -0.27006258464879029 0 -0.32215675400820842 -0.27336040545883977 0 -0.32635299775248511 -0.284624843917818 0 -0.31382540015854737 -0.28256866382776158 0 -0.32215675400820842 -0.27336040545883977 0 -0.33334941380187849 -0.27252754802911539 0 -0.32635299775248511 -0.284624843917818 0 -0.33334941380187849 -0.27252754802911539 0 -0.34581195074366239 -0.26569645124526919 0 -0.3431537990924009 -0.28184270564782371 0 -0.32215675400820842 -0.27336040545883977 0 -0.33334941380187849 -0.27252754802911539 0 -0.32927156741263591 -0.25711333387582608 0 -0.33334941380187849 -0.27252754802911539 0 -0.3431537990924009 -0.28184270564782371 0 -0.32635299775248511 -0.284624843917818 0 -0.33334941380187849 -0.27252754802911539 0 -0.32927156741263591 -0.25711333387582608 0 -0.34581195074366239 -0.26569645124526919 0 -0.32927156741263591 -0.25711333387582608 0 -0.34581195074366239 -0.26569645124526919 0 -0.3406178786116239 -0.24514116923050019 0 -0.35550970838397372 -0.25214485579249551 0 -0.34581195074366239 -0.26569645124526919 0 -0.3406178786116239 -0.24514116923050019 0 -0.35550970838397372 -0.25214485579249551 0 -0.36131443342849162 -0.26334729825500308 0 -0.34581195074366239 -0.26569645124526919 0 -0.35550970838397372 -0.25214485579249551 0 -0.36131443342849162 -0.26334729825500308 0 -0.36909614358114728 -0.25447947052818581 0 -0.36131443342849162 -0.26334729825500308 0 -0.3744806440000063 -0.26468745866589372 0 -0.36909614358114728 -0.25447947052818581 0 -0.36131443342849162 -0.26334729825500308 0 -0.3744806440000063 -0.26468745866589372 0 -0.3710864222381412 -0.27797477495073958 0 -0.36131443342849162 -0.26334729825500308 0 -0.3710864222381412 -0.27797477495073958 0 -0.35618055755856459 -0.27500607328499721 0 -0.3710864222381412 -0.27797477495073958 0 -0.35618055755856459 -0.27500607328499721 0 -0.35994108819543902 -0.28726105323970591 0 -0.35618055755856459 -0.27500607328499721 0 -0.34581195074366239 -0.26569645124526919 0 -0.3431537990924009 -0.28184270564782371 0 -0.36131443342849162 -0.26334729825500308 0 -0.35618055755856459 -0.27500607328499721 0 -0.34581195074366239 -0.26569645124526919 0 -0.35091140229509971 -0.29471886258843838 0 -0.35994108819543902 -0.28726105323970591 0 -0.3431537990924009 -0.28184270564782371 0 -0.35091140229509971 -0.29471886258843838 0 -0.35994108819543902 -0.28726105323970591 0 -0.36250725928322358 -0.30422672508436199 0 -0.35618055755856459 -0.27500607328499721 0 -0.35994108819543902 -0.28726105323970591 0 -0.3431537990924009 -0.28184270564782371 0 -0.35091140229509971 -0.29471886258843838 0 -0.33843488635024738 -0.29655918944295978 0 -0.3431537990924009 -0.28184270564782371 0 -0.35994108819543902 -0.28726105323970591 0 -0.37106937899341341 -0.29078480333094903 0 -0.36250725928322358 -0.30422672508436199 0 -0.3789905949627963 -0.29141574199940312 0 -0.37106937899341341 -0.29078480333094903 0 -0.37189005046323009 -0.29962249423418807 0 -0.3710864222381412 -0.27797477495073958 0 -0.35994108819543902 -0.28726105323970591 0 -0.37106937899341341 -0.29078480333094903 0 -0.3774026656632844 -0.28248374780429703 0 -0.3710864222381412 -0.27797477495073958 0 -0.37106937899341341 -0.29078480333094903 0 -0.37523136437073529 -0.31005770103813107 0 -0.36250725928322358 -0.30422672508436199 0 -0.36977866316021613 -0.31618623245336069 0 -0.37523136437073529 -0.31005770103813107 0 -0.37189005046323009 -0.29962249423418807 0 -0.36250725928322358 -0.30422672508436199 0 -0.37106937899341341 -0.29078480333094903 0 -0.37189005046323009 -0.29962249423418807 0 -0.36250725928322358 -0.30422672508436199 0 -0.36250725928322358 -0.30422672508436199 0 -0.35925821435096528 -0.3140055180464158 0 -0.36977866316021613 -0.31618623245336069 0 -0.36250725928322358 -0.30422672508436199 0 -0.34938071800289738 -0.30593176263872662 0 -0.35925821435096528 -0.3140055180464158 0 -0.34938071800289738 -0.30593176263872662 0 -0.34809118877520723 -0.31664895684296551 0 -0.35925821435096528 -0.3140055180464158 0 -0.35091140229509971 -0.29471886258843838 0 -0.36250725928322358 -0.30422672508436199 0 -0.34938071800289738 -0.30593176263872662 0 -0.35091140229509971 -0.29471886258843838 0 -0.34938071800289738 -0.30593176263872662 0 -0.33843488635024738 -0.29655918944295978 0 -0.34938071800289738 -0.30593176263872662 0 -0.33708135696264191 -0.30943132382721827 0 -0.34809118877520723 -0.31664895684296551 0 -0.33708135696264191 -0.30943132382721827 0 -0.32215102059083561 -0.30296311925419889 0 -0.33047664102311808 -0.32335757468063853 0 -0.33708135696264191 -0.30943132382721827 0 -0.33843488635024738 -0.29655918944295978 0 -0.32215102059083561 -0.30296311925419889 0 -0.34938071800289738 -0.30593176263872662 0 -0.33708135696264191 -0.30943132382721827 0 -0.33843488635024738 -0.29655918944295978 0 -0.33843488635024738 -0.29655918944295978 0 -0.32635299775248511 -0.284624843917818 0 -0.32215102059083561 -0.30296311925419889 0 -0.33843488635024738 -0.29655918944295978 0 -0.3431537990924009 -0.28184270564782371 0 -0.32635299775248511 -0.284624843917818 0 -0.31382540015854737 -0.28256866382776158 0 -0.32215102059083561 -0.30296311925419889 0 -0.30353658855560628 -0.29112172248899593 0 -0.32635299775248511 -0.284624843917818 0 -0.31382540015854737 -0.28256866382776158 0 -0.32215102059083561 -0.30296311925419889 0 -0.31382540015854737 -0.28256866382776158 0 -0.32215102059083561 -0.30296311925419889 0 -0.32635299775248511 -0.284624843917818 0 -0.31382540015854737 -0.28256866382776158 0 -0.32215102059083561 -0.30296311925419889 0 -0.33047664102311808 -0.32335757468063853 0 -0.31227201288449269 -0.3188257869666436 0 -0.32215102059083561 -0.30296311925419889 0 -0.33047664102311808 -0.32335757468063853 0 -0.33047664102311808 -0.32335757468063853 0 -0.30042584490990493 -0.33904748220165748 0 -0.31227201288449269 -0.3188257869666436 0 -0.33047664102311808 -0.32335757468063853 0 -0.32533516803607632 -0.35374209087279901 0 -0.30042584490990493 -0.33904748220165748 0 -0.33047664102311808 -0.32335757468063853 0 -0.34306789325070203 -0.34632178196532371 0 -0.32533516803607632 -0.35374209087279901 0 -0.33047664102311808 -0.32335757468063853 0 -0.34770912969502482 -0.33086058122572842 0 -0.34306789325070203 -0.34632178196532371 0 -0.33708135696264191 -0.30943132382721827 0 -0.33047664102311808 -0.32335757468063853 0 -0.34809118877520723 -0.31664895684296551 0 -0.33047664102311808 -0.32335757468063853 0 -0.34809118877520723 -0.31664895684296551 0 -0.34770912969502482 -0.33086058122572842 0 -0.34809118877520723 -0.31664895684296551 0 -0.35871104809508569 -0.32522563247391761 0 -0.34770912969502482 -0.33086058122572842 0 -0.34809118877520723 -0.31664895684296551 0 -0.35871104809508569 -0.32522563247391761 0 -0.35925821435096528 -0.3140055180464158 0 -0.35871104809508569 -0.32522563247391761 0 -0.35925821435096528 -0.3140055180464158 0 -0.36977866316021613 -0.31618623245336069 0 -0.35871104809508569 -0.32522563247391761 0 -0.36977866316021613 -0.31618623245336069 0 -0.37221431464370341 -0.33189786574299418 0 -0.37930655539219132 -0.3188155219629486 0 -0.36977866316021613 -0.31618623245336069 0 -0.37221431464370341 -0.33189786574299418 0 -0.37930655539219132 -0.3188155219629486 0 -0.37523136437073529 -0.31005770103813107 0 -0.36977866316021613 -0.31618623245336069 0 -0.37523136437073529 -0.31005770103813107 0 -0.36977866316021613 -0.31618623245336069 0 -0.35871104809508569 -0.32522563247391761 0 -0.37221431464370341 -0.33189786574299418 0 -0.35819887733101052 -0.34274896016579698 0 -0.35871104809508569 -0.32522563247391761 0 -0.35819887733101052 -0.34274896016579698 0 -0.34770912969502482 -0.33086058122572842 0 -0.35819887733101052 -0.34274896016579698 0 -0.34770912969502482 -0.33086058122572842 0 -0.34306789325070203 -0.34632178196532371 0 -0.35819887733101052 -0.34274896016579698 0 -0.35144804382765699 -0.36507624746318051 0 -0.34306789325070203 -0.34632178196532371 0 -0.37900799374673211 -0.35791838599066178 0 -0.35819887733101052 -0.34274896016579698 0 -0.35144804382765699 -0.36507624746318051 0 -0.37900799374673211 -0.35791838599066178 0 -0.37221431464370341 -0.33189786574299418 0 -0.35819887733101052 -0.34274896016579698 0 -0.37900799374673211 -0.35791838599066178 0 -0.35144804382765699 -0.36507624746318051 0 -0.3744698982774699 -0.37974097138814089 0 -0.37900799374673211 -0.35791838599066178 0 -0.35144804382765699 -0.36507624746318051 0 -0.35144804382765699 -0.36507624746318051 0 -0.32533516803607632 -0.35374209087279901 0 -0.32177544039937822 -0.38048946625275848 0 -0.35144804382765699 -0.36507624746318051 0 -0.34306789325070203 -0.34632178196532371 0 -0.32533516803607632 -0.35374209087279901 0 -0.32533516803607632 -0.35374209087279901 0 -0.30481714480569749 -0.3681599926732354 0 -0.32177544039937822 -0.38048946625275848 0 -0.32533516803607632 -0.35374209087279901 0 -0.30481714480569749 -0.3681599926732354 0 -0.30042584490990493 -0.33904748220165748 0 -0.30481714480569749 -0.3681599926732354 0 -0.30042584490990493 -0.33904748220165748 0 -0.30481714480569749 -0.3681599926732354 0 -0.27918128829152911 -0.35982433670777092 0 -0.30042584490990493 -0.33904748220165748 0 -0.30481714480569749 -0.3681599926732354 0 -0.27918128829152911 -0.35982433670777092 0 -0.28640023664263992 -0.38657886851248707 0 -0.27918128829152911 -0.35982433670777092 0 -0.25843233435567581 -0.36297159007713697 0 -0.26374132527587169 -0.3843029380437154 0 -0.25843233435567581 -0.36297159007713697 0 -0.26374132527587169 -0.3843029380437154 0 -0.2451961535316893 -0.3740197755715004 0 -0.26292295584756192 -0.34710356142720222 0 -0.2521673248915059 -0.33395535852616198 0 -0.2397580319780461 -0.35356785715680489 0 -0.25843233435567581 -0.36297159007713697 0 -0.26292295584756192 -0.34710356142720222 0 -0.2397580319780461 -0.35356785715680489 0 -0.27918128829152911 -0.35982433670777092 0 -0.25843233435567581 -0.36297159007713697 0 -0.26292295584756192 -0.34710356142720222 0 -0.27918128829152911 -0.35982433670777092 0 -0.26292295584756192 -0.34710356142720222 0 -0.27695780858390168 -0.3310153167620587 0 -0.26292295584756192 -0.34710356142720222 0 -0.27695780858390168 -0.3310153167620587 0 -0.2521673248915059 -0.33395535852616198 0 -0.2521673248915059 -0.33395535852616198 0 -0.26457661780496478 -0.31434285989551852 0 -0.27695780858390168 -0.3310153167620587 0 -0.2521673248915059 -0.33395535852616198 0 -0.26457661780496478 -0.31434285989551852 0 -0.2521673248915059 -0.33395535852616198 0 -0.26457661780496478 -0.31434285989551852 0 -0.24581712956767751 -0.32186579194246001 0 -0.26457661780496478 -0.31434285989551852 0 -0.24581712956767751 -0.32186579194246001 0 -0.24878468441748261 -0.30782709535157249 0 -0.27695780858390168 -0.3310153167620587 0 -0.26457661780496478 -0.31434285989551852 0 -0.28006326262924658 -0.31040955103181439 0 -0.27695780858390168 -0.3310153167620587 0 -0.30042584490990493 -0.33904748220165748 0 -0.29603454501411219 -0.3099349717300795 0 -0.27695780858390168 -0.3310153167620587 0 -0.29603454501411219 -0.3099349717300795 0 -0.28006326262924658 -0.31040955103181439 0 -0.27918128829152911 -0.35982433670777092 0 -0.27695780858390168 -0.3310153167620587 0 -0.30042584490990493 -0.33904748220165748 0 -0.30042584490990493 -0.33904748220165748 0 -0.29603454501411219 -0.3099349717300795 0 -0.30042584490990493 -0.33904748220165748 0 -0.31227201288449269 -0.3188257869666436 0 -0.29603454501411219 -0.3099349717300795 0 -0.32215102059083561 -0.30296311925419889 0 -0.31227201288449269 -0.3188257869666436 0 -0.29603454501411219 -0.3099349717300795 0 -0.32215102059083561 -0.30296311925419889 0 -0.30353658855560628 -0.29112172248899593 0 -0.29603454501411219 -0.3099349717300795 0 -0.31382540015854737 -0.28256866382776158 0 -0.30353658855560628 -0.29112172248899593 0 -0.29402873189621731 -0.27931939637443509 0 -0.30353658855560628 -0.29112172248899593 0 -0.29603454501411219 -0.3099349717300795 0 -0.29164324511831918 -0.28082246125850152 0 -0.28618174087002551 -0.29897433632131748 0 -0.27698591071842371 -0.29473036126487512 0 -0.29164324511831918 -0.28082246125850152 0 -0.29603454501411219 -0.3099349717300795 0 -0.29164324511831918 -0.28082246125850152 0 -0.29603454501411219 -0.3099349717300795 0 -0.28618174087002551 -0.29897433632131748 0 -0.29164324511831918 -0.28082246125850152 0 -0.30353658855560628 -0.29112172248899593 0 -0.29164324511831918 -0.28082246125850152 0 -0.29402873189621731 -0.27931939637443509 0 -0.2777128501463102 -0.28132388157543542 0 -0.27674001241067431 -0.28522141531844453 0 -0.29164324511831918 -0.28082246125850152 0 -0.29603454501411219 -0.3099349717300795 0 -0.28618174087002551 -0.29897433632131748 0 -0.28006326262924658 -0.31040955103181439 0 -0.28618174087002551 -0.29897433632131748 0 -0.28006326262924658 -0.31040955103181439 0 -0.27698591071842371 -0.29473036126487512 0 -0.26457661780496478 -0.31434285989551852 0 -0.27698591071842371 -0.29473036126487512 0 -0.27021396476790061 -0.29432477830503662 0 -0.26457661780496478 -0.31434285989551852 0 -0.27698591071842371 -0.29473036126487512 0 -0.26457661780496478 -0.31434285989551852 0 -0.28006326262924658 -0.31040955103181439 0 -0.27698591071842371 -0.29473036126487512 0 -0.27021396476790061 -0.29432477830503662 0 -0.24878468441748261 -0.30782709535157249 0 -0.26457661780496478 -0.31434285989551852 0 -0.27021396476790061 -0.29432477830503662 0 -0.24878468441748261 -0.30782709535157249 0 -0.25500487631019841 -0.28800787195402933 0 -0.27021396476790061 -0.29432477830503662 0 -0.24878468441748261 -0.30782709535157249 0 -0.25500487631019841 -0.28800787195402933 0 -0.26738998961016691 -0.28441454013480449 0 -0.26461232662777873 -0.27449122190759467 0 -0.25500487631019841 -0.28800787195402933 0 -0.26738998961016691 -0.28441454013480449 0 -0.27021396476790061 -0.29432477830503662 0 -0.27021396476790061 -0.29432477830503662 0 -0.27674001241067431 -0.28522141531844453 0 -0.29164324511831918 -0.28082246125850152 0 -0.27698591071842371 -0.29473036126487512 0 -0.27021396476790061 -0.29432477830503662 0 -0.29164324511831918 -0.28082246125850152 0 -0.27021396476790061 -0.29432477830503662 0 -0.29164324511831918 -0.28082246125850152 0 -0.26738998961016691 -0.28441454013480449 0 -0.27021396476790061 -0.29432477830503662 0 -0.27674001241067431 -0.28522141531844453 0 -0.26738998961016691 -0.28441454013480449 0 -0.2777128501463102 -0.28132388157543542 0 -0.27674001241067431 -0.28522141531844453 0 -0.2777128501463102 -0.28132388157543542 0 -0.26461232662777873 -0.27449122190759467 0 -0.29135021093752678 -0.27887976527798891 0 -0.27966498295732228 -0.26642720262620462 0 -0.26461232662777873 -0.27449122190759467 0 -0.29135021093752678 -0.27887976527798891 0 -0.26461232662777873 -0.27449122190759467 0 -0.29135021093752678 -0.27887976527798891 0 -0.26738998961016691 -0.28441454013480449 0 -0.2777128501463102 -0.28132388157543542 0 -0.26461232662777873 -0.27449122190759467 0 -0.26461232662777873 -0.27449122190759467 0 -0.25431501404594598 -0.25676801052014742 0 -0.23787444231803079 -0.27010267853719971 0 -0.26461232662777873 -0.27449122190759467 0 -0.23787444231803079 -0.27010267853719971 0 -0.25500487631019841 -0.28800787195402933 0 -0.26461232662777873 -0.27449122190759467 0 -0.23787444231803079 -0.27010267853719971 0 -0.25431501404594598 -0.25676801052014742 0 -0.27198482704117011 -0.2554546739122816 0 -0.26575365835036091 -0.24169776597770681 0 -0.26461232662777873 -0.27449122190759467 0 -0.25431501404594598 -0.25676801052014742 0 -0.27198482704117011 -0.2554546739122816 0 -0.27966498295732228 -0.26642720262620462 0 -0.26461232662777873 -0.27449122190759467 0 -0.27198482704117011 -0.2554546739122816 0 -0.27966498295732228 -0.26642720262620462 0 -0.27198482704117011 -0.2554546739122816 0 -0.28715721559520269 -0.25108193235664411 0 -0.27966498295732228 -0.26642720262620462 0 -0.28715721559520269 -0.25108193235664411 0 -0.29135021093752678 -0.27887976527798891 0 -0.28715721559520269 -0.25108193235664411 0 -0.29525359722268529 -0.2694340123253105 0 -0.29794586522958078 -0.26186354202638179 0 -0.28715721559520269 -0.25108193235664411 0 -0.29135021093752678 -0.27887976527798891 0 -0.28715721559520269 -0.25108193235664411 0 -0.3021196426598462 -0.25389421830362668 0 -0.29794586522958078 -0.26186354202638179 0 -0.28715721559520269 -0.25108193235664411 0 -0.29135021093752678 -0.27887976527798891 0 -0.29525359722268529 -0.2694340123253105 0 -0.2777128501463102 -0.28132388157543542 0 -0.29164324511831918 -0.28082246125850152 0 -0.29135021093752678 -0.27887976527798891 0 -0.29135021093752678 -0.27887976527798891 0 -0.29402873189621731 -0.27931939637443509 0 -0.29525359722268529 -0.2694340123253105 0 -0.29164324511831918 -0.28082246125850152 0 -0.29402873189621731 -0.27931939637443509 0 -0.29164324511831918 -0.28082246125850152 0 -0.29135021093752678 -0.27887976527798891 0 -0.29402873189621731 -0.27931939637443509 0 -0.29164324511831918 -0.28082246125850152 0 -0.29135021093752678 -0.27887976527798891 0 -0.29135021093752678 -0.27887976527798891 0 -0.29402873189621731 -0.27931939637443509 0 -0.29525359722268529 -0.2694340123253105 0 -0.30872004842627848 -0.27006258464879029 0 -0.29794586522958078 -0.26186354202638179 0 -0.29402873189621731 -0.27931939637443509 0 -0.29525359722268529 -0.2694340123253105 0 -0.30872004842627848 -0.27006258464879029 0 -0.31382540015854737 -0.28256866382776158 0 -0.29402873189621731 -0.27931939637443509 0 -0.30872004842627848 -0.27006258464879029 0 -0.31382540015854737 -0.28256866382776158 0 -0.29402873189621731 -0.27931939637443509 0 -0.29402873189621731 -0.27931939637443509 0 -0.30872004842627848 -0.27006258464879029 0 -0.31382540015854737 -0.28256866382776158 0 -0.30872004842627848 -0.27006258464879029 0 -0.30872004842627848 -0.27006258464879029 0 -0.3021196426598462 -0.25389421830362668 0 -0.29794586522958078 -0.26186354202638179 0 -0.31447374353419461 -0.25288678371517498 0 -0.30872004842627848 -0.27006258464879029 0 -0.3021196426598462 -0.25389421830362668 0 -0.30872004842627848 -0.27006258464879029 0 -0.3021196426598462 -0.25389421830362668 0 -0.33195851744067822 -0.46237909671868122 0 -0.35324973724828618 -0.45712301437267588 0 -0.34425384175907869 -0.44634411973867388 0 -0.33195851744067822 -0.46237909671868122 0 -0.35324973724828618 -0.45712301437267588 0 -0.33195851744067822 -0.46237909671868122 0 -0.32596125378120622 -0.4551931669626792 0 -0.34425384175907869 -0.44634411973867388 0 -0.32596125378120622 -0.4551931669626792 0 -0.34425384175907869 -0.44634411973867388 0 -0.34425384175907869 -0.44634411973867388 0 -0.33007308064547192 -0.42935271181750378 0 -0.32596125378120622 -0.4551931669626792 0 -0.34425384175907869 -0.44634411973867388 0 -0.33007308064547192 -0.42935271181750378 0 -0.32596125378120622 -0.4551931669626792 0 -0.31209140408538499 -0.43755458807286701 0 -0.30631548197943181 -0.45020321435129163 0 -0.32596125378120622 -0.4551931669626792 0 -0.33007308064547192 -0.42935271181750378 0 -0.31209140408538499 -0.43755458807286701 0 -0.33195851744067822 -0.46237909671868122 0 -0.31066729763307033 -0.46763517906468671 0 -0.33195851744067822 -0.46237909671868122 0 -0.32596125378120622 -0.4551931669626792 0 -0.31066729763307033 -0.46763517906468671 0 -0.32596125378120622 -0.4551931669626792 0 -0.30766866580333418 -0.46404221418668562 0 -0.30631548197943181 -0.45020321435129163 0 -0.32596125378120622 -0.4551931669626792 0 -0.30766866580333418 -0.46404221418668562 0 -0.32596125378120622 -0.4551931669626792 0 -0.31066729763307033 -0.46763517906468671 0 -0.30766866580333418 -0.46404221418668562 0 -0.33195851744067822 -0.46237909671868122 0 -0.32258748823255629 -0.48261984894576032 0 -0.31066729763307033 -0.46763517906468671 0 -0.32258748823255629 -0.48261984894576032 0 -0.33713525923520632 -0.5 0 -0.31118579218984982 -0.5 0 -0.32258748823255629 -0.48261984894576032 0 -0.33713525923520632 -0.5 0 -0.34118048353425751 -0.48176661197530191 0 -0.33195851744067822 -0.46237909671868122 0 -0.32258748823255629 -0.48261984894576032 0 -0.34118048353425751 -0.48176661197530191 0 -0.33195851744067822 -0.46237909671868122 0 -0.34118048353425751 -0.48176661197530191 0 -0.3528257894639768 -0.47380768222367448 0 -0.3528257894639768 -0.47380768222367448 0 -0.37178142723526131 -0.47932771139246289 0 -0.35324973724828618 -0.45712301437267588 0 -0.34118048353425751 -0.48176661197530191 0 -0.3528257894639768 -0.47380768222367448 0 -0.35861653733784221 -0.48956044033288371 0 -0.33713525923520632 -0.5 0 -0.35861653733784221 -0.48956044033288371 0 -0.36308472628056288 -0.5 0 -0.33713525923520632 -0.5 0 -0.34118048353425751 -0.48176661197530191 0 -0.35861653733784221 -0.48956044033288371 0 -0.38903419332591949 -0.50000000000000011 0 -0.36308472628056288 -0.5 0 -0.37026881101799552 -0.49117273716825038 0 -0.35861653733784221 -0.48956044033288371 0 -0.36308472628056288 -0.5 0 -0.37026881101799552 -0.49117273716825038 0 -0.35861653733784221 -0.48956044033288371 0 -0.37026881101799552 -0.49117273716825038 0 -0.37178142723526131 -0.47932771139246289 0 -0.35861653733784221 -0.48956044033288371 0 -0.37178142723526131 -0.47932771139246289 0 -0.3528257894639768 -0.47380768222367448 0 -0.35861653733784221 -0.48956044033288371 0 -0.37178142723526131 -0.47932771139246289 0 -0.35324973724828618 -0.45712301437267588 0 -0.37092248870559519 -0.45276020952732282 0 -0.37601908872064488 -0.46589307015621528 0 -0.37178142723526131 -0.47932771139246289 0 -0.35324973724828618 -0.45712301437267588 0 -0.37601908872064488 -0.46589307015621528 0 -0.35324973724828618 -0.45712301437267588 0 -0.37092248870559519 -0.45276020952732282 0 -0.37178142723526131 -0.47932771139246289 0 -0.35324973724828618 -0.45712301437267588 0 -0.33195851744067822 -0.46237909671868122 0 -0.3528257894639768 -0.47380768222367448 0 -0.35324973724828618 -0.45712301437267588 0 -0.34425384175907869 -0.44634411973867388 0 -0.36786756353432021 -0.43492097177423872 0 -0.35324973724828618 -0.45712301437267588 0 -0.34425384175907869 -0.44634411973867388 0 -0.36786756353432021 -0.43492097177423872 0 -0.35324973724828618 -0.45712301437267588 0 -0.34425384175907869 -0.44634411973867388 0 -0.35324973724828618 -0.45712301437267588 0 -0.37092248870559519 -0.45276020952732282 0 -0.36786756353432021 -0.43492097177423872 0 -0.38586071947480721 -0.44116691944556802 0 -0.37092248870559519 -0.45276020952732282 0 -0.36786756353432021 -0.43492097177423872 0 -0.37788315984091192 -0.42561505820107443 0 -0.36786756353432021 -0.43492097177423872 0 -0.372134276508442 -0.41016758619988603 0 -0.36786756353432021 -0.43492097177423872 0 -0.372134276508442 -0.41016758619988603 0 -0.35110367857695712 -0.41976014900869513 0 -0.372134276508442 -0.41016758619988603 0 -0.35110367857695712 -0.41976014900869513 0 -0.372134276508442 -0.41016758619988603 0 -0.35110367857695712 -0.41976014900869513 0 -0.35775755574539447 -0.39657743777678678 0 -0.35110367857695712 -0.41976014900869513 0 -0.35775755574539447 -0.39657743777678678 0 -0.33556042764520222 -0.41015502047844737 0 -0.34425384175907869 -0.44634411973867388 0 -0.36786756353432021 -0.43492097177423872 0 -0.35110367857695712 -0.41976014900869513 0 -0.35144804382765699 -0.36507624746318051 0 -0.35775755574539447 -0.39657743777678678 0 -0.33816073128384061 -0.39279253015097898 0 -0.35144804382765699 -0.36507624746318051 0 -0.3744698982774699 -0.37974097138814089 0 -0.35775755574539447 -0.39657743777678678 0 -0.37834895934104051 -0.39578975150806378 0 -0.372134276508442 -0.41016758619988603 0 -0.35775755574539447 -0.39657743777678678 0 -0.37834895934104051 -0.39578975150806378 0 -0.3744698982774699 -0.37974097138814089 0 -0.35775755574539447 -0.39657743777678678 0 -0.35775755574539447 -0.39657743777678678 0 -0.33816073128384061 -0.39279253015097898 0 -0.33556042764520222 -0.41015502047844737 0 -0.35144804382765699 -0.36507624746318051 0 -0.33816073128384061 -0.39279253015097898 0 -0.32177544039937822 -0.38048946625275848 0 -0.33816073128384061 -0.39279253015097898 0 -0.32426318960967992 -0.39878636657327338 0 -0.33556042764520222 -0.41015502047844737 0 -0.33816073128384061 -0.39279253015097898 0 -0.32426318960967992 -0.39878636657327338 0 -0.32177544039937822 -0.38048946625275848 0 -0.32426318960967992 -0.39878636657327338 0 -0.31661090401848813 -0.41322231283936861 0 -0.30920844470149023 -0.39727250314481333 0 -0.32426318960967992 -0.39878636657327338 0 -0.32177544039937822 -0.38048946625275848 0 -0.30920844470149023 -0.39727250314481333 0 -0.35110367857695712 -0.41976014900869513 0 -0.33007308064547192 -0.42935271181750378 0 -0.34425384175907869 -0.44634411973867388 0 -0.35110367857695712 -0.41976014900869513 0 -0.33007308064547192 -0.42935271181750378 0 -0.35110367857695712 -0.41976014900869513 0 -0.33007308064547192 -0.42935271181750378 0 -0.33556042764520222 -0.41015502047844737 0 -0.32426318960967992 -0.39878636657327338 0 -0.33556042764520222 -0.41015502047844737 0 -0.31661090401848813 -0.41322231283936861 0 -0.33007308064547192 -0.42935271181750378 0 -0.31661090401848813 -0.41322231283936861 0 -0.33007308064547192 -0.42935271181750378 0 -0.33556042764520222 -0.41015502047844737 0 -0.31661090401848813 -0.41322231283936861 0 -0.33007308064547192 -0.42935271181750378 0 -0.31209140408538499 -0.43755458807286701 0 -0.33007308064547192 -0.42935271181750378 0 -0.31661090401848813 -0.41322231283936861 0 -0.31209140408538499 -0.43755458807286701 0 -0.31661090401848813 -0.41322231283936861 0 -0.30384454770288349 -0.42365510296155823 0 -0.31209140408538499 -0.43755458807286701 0 -0.30384454770288349 -0.42365510296155823 0 -0.29441118259895749 -0.43791580395115332 0 -0.31209140408538499 -0.43755458807286701 0 -0.31661090401848813 -0.41322231283936861 0 -0.30384454770288349 -0.42365510296155823 0 -0.30329778649106792 -0.41015871077642341 0 -0.31661090401848813 -0.41322231283936861 0 -0.30329778649106792 -0.41015871077642341 0 -0.30920844470149023 -0.39727250314481333 0 -0.30384454770288349 -0.42365510296155823 0 -0.30329778649106792 -0.41015871077642341 0 -0.29098574093082469 -0.42083927077197419 0 -0.29098574093082469 -0.42083927077197419 0 -0.29070655294646031 -0.40458485927204652 0 -0.27379579660972669 -0.41820875964367737 0 -0.30329778649106792 -0.41015871077642341 0 -0.29098574093082469 -0.42083927077197419 0 -0.29070655294646031 -0.40458485927204652 0 -0.30384454770288349 -0.42365510296155823 0 -0.29098574093082469 -0.42083927077197419 0 -0.29441118259895749 -0.43791580395115332 0 -0.29098574093082469 -0.42083927077197419 0 -0.27664809281559932 -0.43193846137490821 0 -0.29441118259895749 -0.43791580395115332 0 -0.30481714480569749 -0.3681599926732354 0 -0.32177544039937822 -0.38048946625275848 0 -0.30920844470149023 -0.39727250314481333 0 -0.30481714480569749 -0.3681599926732354 0 -0.30920844470149023 -0.39727250314481333 0 -0.30481714480569749 -0.3681599926732354 0 -0.30920844470149023 -0.39727250314481333 0 -0.28640023664263992 -0.38657886851248707 0 -0.30329778649106792 -0.41015871077642341 0 -0.30920844470149023 -0.39727250314481333 0 -0.29070655294646031 -0.40458485927204652 0 -0.29070655294646031 -0.40458485927204652 0 -0.28640023664263992 -0.38657886851248707 0 -0.26933735281436272 -0.40336823156140011 0 -0.30920844470149023 -0.39727250314481333 0 -0.29070655294646031 -0.40458485927204652 0 -0.28640023664263992 -0.38657886851248707 0 -0.27918128829152911 -0.35982433670777092 0 -0.28640023664263992 -0.38657886851248707 0 -0.26374132527587169 -0.3843029380437154 0 -0.28640023664263992 -0.38657886851248707 0 -0.26933735281436272 -0.40336823156140011 0 -0.26374132527587169 -0.3843029380437154 0 -0.26933735281436272 -0.40336823156140011 0 -0.25173609945319692 -0.40447119833770301 0 -0.26374132527587169 -0.3843029380437154 0 -0.25173609945319692 -0.40447119833770301 0 -0.26374132527587169 -0.3843029380437154 0 -0.245284200947926 -0.39024320684448183 0 -0.26374132527587169 -0.3843029380437154 0 -0.245284200947926 -0.39024320684448183 0 -0.2451961535316893 -0.3740197755715004 0 -0.29098574093082469 -0.42083927077197419 0 -0.27664809281559932 -0.43193846137490821 0 -0.27379579660972669 -0.41820875964367737 0 -0.27664809281559932 -0.43193846137490821 0 -0.27379579660972669 -0.41820875964367737 0 -0.26260471575422212 -0.4272820886259574 0 -0.27664809281559932 -0.43193846137490821 0 -0.26260471575422212 -0.4272820886259574 0 -0.26189406755324851 -0.44088615211260113 0 -0.29070655294646031 -0.40458485927204652 0 -0.26933735281436272 -0.40336823156140011 0 -0.27379579660972669 -0.41820875964367737 0 -0.26933735281436272 -0.40336823156140011 0 -0.27379579660972669 -0.41820875964367737 0 -0.25830913391041588 -0.41679698080867761 0 -0.25830913391041588 -0.41679698080867761 0 -0.25060915478330192 -0.42997888991647287 0 -0.2417716840476852 -0.41747271676685488 0 -0.27379579660972669 -0.41820875964367737 0 -0.25830913391041588 -0.41679698080867761 0 -0.26260471575422212 -0.4272820886259574 0 -0.26933735281436272 -0.40336823156140011 0 -0.25173609945319692 -0.40447119833770301 0 -0.25830913391041588 -0.41679698080867761 0 -0.25173609945319692 -0.40447119833770301 0 -0.25830913391041588 -0.41679698080867761 0 -0.2417716840476852 -0.41747271676685488 0 -0.25830913391041588 -0.41679698080867761 0 -0.26260471575422212 -0.4272820886259574 0 -0.25060915478330192 -0.42997888991647287 0 -0.26260471575422212 -0.4272820886259574 0 -0.25060915478330192 -0.42997888991647287 0 -0.26189406755324851 -0.44088615211260113 0 -0.25060915478330192 -0.42997888991647287 0 -0.26189406755324851 -0.44088615211260113 0 -0.24580207242716159 -0.44435027413341882 0 -0.26189406755324851 -0.44088615211260113 0 -0.25714280786749999 -0.45355571091237351 0 -0.24580207242716159 -0.44435027413341882 0 -0.25714280786749999 -0.45355571091237351 0 -0.24580207242716159 -0.44435027413341882 0 -0.24795552214399469 -0.45724531956526732 0 -0.26543339993590331 -0.45088648756542432 0 -0.26189406755324851 -0.44088615211260113 0 -0.25714280786749999 -0.45355571091237351 0 -0.25245776850356988 -0.46580483675550283 0 -0.25714280786749999 -0.45355571091237351 0 -0.26061485282869212 -0.46537361421679402 0 -0.25245776850356988 -0.46580483675550283 0 -0.25714280786749999 -0.45355571091237351 0 -0.24795552214399469 -0.45724531956526732 0 -0.26543339993590331 -0.45088648756542432 0 -0.25714280786749999 -0.45355571091237351 0 -0.26796413407596531 -0.46180821904745611 0 -0.25714280786749999 -0.45355571091237351 0 -0.26061485282869212 -0.46537361421679402 0 -0.26796413407596531 -0.46180821904745611 0 -0.26061485282869212 -0.46537361421679402 0 -0.26796413407596531 -0.46180821904745611 0 -0.26826284719916849 -0.47003214237111701 0 -0.26796413407596531 -0.46180821904745611 0 -0.27899107918102378 -0.46538608533237508 0 -0.27473259024689928 -0.44729586818926659 0 -0.26796413407596531 -0.46180821904745611 0 -0.27899107918102378 -0.46538608533237508 0 -0.26826284719916849 -0.47003214237111701 0 -0.26543339993590331 -0.45088648756542432 0 -0.26796413407596531 -0.46180821904745611 0 -0.27473259024689928 -0.44729586818926659 0 -0.27664809281559932 -0.43193846137490821 0 -0.26189406755324851 -0.44088615211260113 0 -0.27473259024689928 -0.44729586818926659 0 -0.26543339993590331 -0.45088648756542432 0 -0.26189406755324851 -0.44088615211260113 0 -0.27473259024689928 -0.44729586818926659 0 -0.27473259024689928 -0.44729586818926659 0 -0.29441118259895749 -0.43791580395115332 0 -0.29215992347247088 -0.45615621206271378 0 -0.27664809281559932 -0.43193846137490821 0 -0.27473259024689928 -0.44729586818926659 0 -0.29441118259895749 -0.43791580395115332 0 -0.29215992347247088 -0.45615621206271378 0 -0.30766866580333418 -0.46404221418668562 0 -0.28937607782546232 -0.47289126141069199 0 -0.27899107918102378 -0.46538608533237508 0 -0.29215992347247088 -0.45615621206271378 0 -0.28937607782546232 -0.47289126141069199 0 -0.27899107918102378 -0.46538608533237508 0 -0.27473259024689928 -0.44729586818926659 0 -0.29215992347247088 -0.45615621206271378 0 -0.29215992347247088 -0.45615621206271378 0 -0.30766866580333418 -0.46404221418668562 0 -0.30631548197943181 -0.45020321435129163 0 -0.31066729763307033 -0.46763517906468671 0 -0.30766866580333418 -0.46404221418668562 0 -0.28937607782546232 -0.47289126141069199 0 -0.30766866580333418 -0.46404221418668562 0 -0.28937607782546232 -0.47289126141069199 0 -0.29441118259895749 -0.43791580395115332 0 -0.31209140408538499 -0.43755458807286701 0 -0.30631548197943181 -0.45020321435129163 0 -0.29441118259895749 -0.43791580395115332 0 -0.29215992347247088 -0.45615621206271378 0 -0.30631548197943181 -0.45020321435129163 0 -0.32258748823255629 -0.48261984894576032 0 -0.31118579218984982 -0.5 0 -0.30360830224126079 -0.48429078345075749 0 -0.31118579218984982 -0.5 0 -0.30360830224126079 -0.48429078345075749 0 -0.28523632514449321 -0.5 0 -0.32258748823255629 -0.48261984894576032 0 -0.31066729763307033 -0.46763517906468671 0 -0.30360830224126079 -0.48429078345075749 0 -0.31066729763307033 -0.46763517906468671 0 -0.30360830224126079 -0.48429078345075749 0 -0.28937607782546232 -0.47289126141069199 0 -0.31066729763307033 -0.46763517906468671 0 -0.28937607782546232 -0.47289126141069199 0 -0.28937607782546232 -0.47289126141069199 0 -0.27368277292671889 -0.47676540782288102 0 -0.30360830224126079 -0.48429078345075749 0 -0.28937607782546232 -0.47289126141069199 0 -0.28523632514449321 -0.5 0 -0.28937607782546232 -0.47289126141069199 0 -0.28523632514449321 -0.5 0 -0.27069651556823432 -0.48192750760712572 0 -0.28523632514449321 -0.5 0 -0.27069651556823432 -0.48192750760712572 0 -0.25928685809913649 -0.5 0 -0.28937607782546232 -0.47289126141069199 0 -0.27368277292671889 -0.47676540782288102 0 -0.27069651556823432 -0.48192750760712572 0 -0.27899107918102378 -0.46538608533237508 0 -0.28937607782546232 -0.47289126141069199 0 -0.27368277292671889 -0.47676540782288102 0 -0.28937607782546232 -0.47289126141069199 0 -0.27069651556823432 -0.48192750760712572 0 -0.27899107918102378 -0.46538608533237508 0 -0.27368277292671889 -0.47676540782288102 0 -0.26826284719916849 -0.47003214237111701 0 -0.27069651556823432 -0.48192750760712572 0 -0.26763354161552949 -0.47576240715640888 0 -0.26069070256708171 -0.47509712065078691 0 -0.27368277292671889 -0.47676540782288102 0 -0.27069651556823432 -0.48192750760712572 0 -0.26763354161552949 -0.47576240715640888 0 -0.27368277292671889 -0.47676540782288102 0 -0.26763354161552949 -0.47576240715640888 0 -0.26826284719916849 -0.47003214237111701 0 -0.27069651556823432 -0.48192750760712572 0 -0.26069070256708171 -0.47509712065078691 0 -0.25201695331100632 -0.4909637538035595 0 -0.26069070256708171 -0.47509712065078691 0 -0.25201695331100632 -0.4909637538035595 0 -0.24912172039779421 -0.47617382979713779 0 -0.26061485282869212 -0.46537361421679402 0 -0.26826284719916849 -0.47003214237111701 0 -0.26069070256708171 -0.47509712065078691 0 -0.25245776850356988 -0.46580483675550283 0 -0.26061485282869212 -0.46537361421679402 0 -0.26069070256708171 -0.47509712065078691 0 -0.26763354161552949 -0.47576240715640888 0 -0.26826284719916849 -0.47003214237111701 0 -0.26069070256708171 -0.47509712065078691 0 -0.25245776850356988 -0.46580483675550283 0 -0.26069070256708171 -0.47509712065078691 0 -0.24912172039779421 -0.47617382979713779 0 -0.27069651556823432 -0.48192750760712572 0 -0.25928685809913649 -0.5 0 -0.25201695331100632 -0.4909637538035595 0 -0.27069651556823432 -0.48192750760712572 0 -0.25201695331100632 -0.4909637538035595 0 -0.25928685809913649 -0.5 0 -0.25201695331100632 -0.4909637538035595 0 -0.23333739105377971 -0.49999999999999628 0 -0.25201695331100632 -0.4909637538035595 0 -0.23846334575707001 -0.48142156522644158 0 -0.23333739105377971 -0.49999999999999628 0 -0.25201695331100632 -0.4909637538035595 0 -0.23333739105377971 -0.49999999999999628 0 -0.25201695331100632 -0.4909637538035595 0 -0.24912172039779421 -0.47617382979713779 0 -0.23846334575707001 -0.48142156522644158 0 -0.24912172039779421 -0.47617382979713779 0 -0.23846334575707001 -0.48142156522644158 0 -0.24238388688765239 -0.46767020567896078 0 -0.25245776850356988 -0.46580483675550283 0 -0.24912172039779421 -0.47617382979713779 0 -0.24238388688765239 -0.46767020567896078 0 -0.23846334575707001 -0.48142156522644158 0 -0.24238388688765239 -0.46767020567896078 0 -0.22909247805720159 -0.46873724200725608 0 -0.2222702329678114 -0.48478288248032431 0 -0.22909247805720159 -0.46873724200725608 0 -0.21338868269241251 -0.46805399393142683 0 -0.23846334575707001 -0.48142156522644158 0 -0.2222702329678114 -0.48478288248032431 0 -0.22909247805720159 -0.46873724200725608 0 -0.23846334575707001 -0.48142156522644158 0 -0.23333739105377971 -0.49999999999999628 0 -0.2222702329678114 -0.48478288248032431 0 -0.23333739105377971 -0.49999999999999628 0 -0.2222702329678114 -0.48478288248032431 0 -0.21306292223605319 -0.5 0 -0.24580207242716159 -0.44435027413341882 0 -0.23283439282877891 -0.44467907882960689 0 -0.23629949510350201 -0.43237132570418602 0 -0.24580207242716159 -0.44435027413341882 0 -0.23818221855606619 -0.45685044023311028 0 -0.24795552214399469 -0.45724531956526732 0 -0.24580207242716159 -0.44435027413341882 0 -0.23818221855606619 -0.45685044023311028 0 -0.23283439282877891 -0.44467907882960689 0 -0.23818221855606619 -0.45685044023311028 0 -0.24795552214399469 -0.45724531956526732 0 -0.24238388688765239 -0.46767020567896078 0 -0.25245776850356988 -0.46580483675550283 0 -0.24795552214399469 -0.45724531956526732 0 -0.24238388688765239 -0.46767020567896078 0 -0.23818221855606619 -0.45685044023311028 0 -0.24238388688765239 -0.46767020567896078 0 -0.22909247805720159 -0.46873724200725608 0 -0.22909247805720159 -0.46873724200725608 0 -0.22072409261501161 -0.45295441828053401 0 -0.21338868269241251 -0.46805399393142683 0 -0.23818221855606619 -0.45685044023311028 0 -0.22909247805720159 -0.46873724200725608 0 -0.22072409261501161 -0.45295441828053401 0 -0.23818221855606619 -0.45685044023311028 0 -0.22072409261501161 -0.45295441828053401 0 -0.23283439282877891 -0.44467907882960689 0 -0.22072409261501161 -0.45295441828053401 0 -0.23283439282877891 -0.44467907882960689 0 -0.22316408544215299 -0.43686893579678537 0 -0.23283439282877891 -0.44467907882960689 0 -0.22316408544215299 -0.43686893579678537 0 -0.23629949510350201 -0.43237132570418602 0 -0.21206997271981259 -0.44311428494470828 0 -0.20260096911901609 -0.45235721573264898 0 -0.2030828040475508 -0.43468449538159393 0 -0.22072409261501161 -0.45295441828053401 0 -0.21206997271981259 -0.44311428494470828 0 -0.20260096911901609 -0.45235721573264898 0 -0.22072409261501161 -0.45295441828053401 0 -0.21206997271981259 -0.44311428494470828 0 -0.22316408544215299 -0.43686893579678537 0 -0.21338868269241251 -0.46805399393142683 0 -0.19916753334786419 -0.46850284344174459 0 -0.20260096911901609 -0.45235721573264898 0 -0.22072409261501161 -0.45295441828053401 0 -0.21338868269241251 -0.46805399393142683 0 -0.20260096911901609 -0.45235721573264898 0 -0.19916753334786419 -0.46850284344174459 0 -0.19022858385116229 -0.45832994663525689 0 -0.20260096911901609 -0.45235721573264898 0 -0.19916753334786419 -0.46850284344174459 0 -0.19022858385116229 -0.45832994663525689 0 -0.18802443762313009 -0.47189059452009752 0 -0.19041632307296441 -0.44246193039371251 0 -0.20260096911901609 -0.45235721573264898 0 -0.2030828040475508 -0.43468449538159393 0 -0.19022858385116229 -0.45832994663525689 0 -0.19041632307296441 -0.44246193039371251 0 -0.20260096911901609 -0.45235721573264898 0 -0.21306292223605319 -0.5 0 -0.20662151505330539 -0.48228944359192921 0 -0.19967074507892901 -0.49213634322567612 0 -0.2222702329678114 -0.48478288248032431 0 -0.21306292223605319 -0.5 0 -0.20662151505330539 -0.48228944359192921 0 -0.2222702329678114 -0.48478288248032431 0 -0.21338868269241251 -0.46805399393142683 0 -0.20662151505330539 -0.48228944359192921 0 -0.21338868269241251 -0.46805399393142683 0 -0.19916753334786419 -0.46850284344174459 0 -0.20662151505330539 -0.48228944359192921 0 -0.19916753334786419 -0.46850284344174459 0 -0.20662151505330539 -0.48228944359192921 0 -0.19443979643493209 -0.48236964541553201 0 -0.19916753334786419 -0.46850284344174459 0 -0.18802443762313009 -0.47189059452009752 0 -0.19443979643493209 -0.48236964541553201 0 -0.18802443762313009 -0.47189059452009752 0 -0.19443979643493209 -0.48236964541553201 0 -0.18338078540231509 -0.48201477762447009 0 -0.19443979643493209 -0.48236964541553201 0 -0.19967074507892901 -0.49213634322567612 0 -0.19144103825202749 -0.49602262712091921 0 -0.21306292223605319 -0.5 0 -0.19967074507892901 -0.49213634322567612 0 -0.19278845341832679 -0.5 0 -0.19443979643493209 -0.48236964541553201 0 -0.19144103825202749 -0.49602262712091921 0 -0.18338078540231509 -0.48201477762447009 0 -0.20662151505330539 -0.48228944359192921 0 -0.19443979643493209 -0.48236964541553201 0 -0.19967074507892901 -0.49213634322567612 0 -0.19967074507892901 -0.49213634322567612 0 -0.19278845341832679 -0.5 0 -0.19144103825202749 -0.49602262712091921 0 -0.19278845341832679 -0.5 0 -0.19144103825202749 -0.49602262712091921 0 -0.1725139846006003 -0.49999999999999972 0 -0.19144103825202749 -0.49602262712091921 0 -0.16641350591259149 -0.48315983530672252 0 -0.18338078540231509 -0.48201477762447009 0 -0.19144103825202749 -0.49602262712091921 0 -0.1725139846006003 -0.49999999999999972 0 -0.16641350591259149 -0.48315983530672252 0 -0.19144103825202749 -0.49602262712091921 0 -0.16641350591259149 -0.48315983530672252 0 -0.1725139846006003 -0.49999999999999972 0 -0.16641350591259149 -0.48315983530672252 0 -0.15236039196307191 -0.48724311093801298 0 -0.1725139846006003 -0.49999999999999972 0 -0.16641350591259149 -0.48315983530672252 0 -0.1725139846006003 -0.49999999999999972 0 -0.14518927398750939 -0.5 0 -0.15236039196307191 -0.48724311093801298 0 -0.16641350591259149 -0.48315983530672252 0 -0.1583482804491487 -0.46089605371861619 0 -0.1475002040328115 -0.47343942574738951 0 -0.16641350591259149 -0.48315983530672252 0 -0.1475002040328115 -0.47343942574738951 0 -0.16641350591259149 -0.48315983530672252 0 -0.1583482804491487 -0.46089605371861619 0 -0.16641350591259149 -0.48315983530672252 0 -0.17369691144873409 -0.46501525532000493 0 -0.1583482804491487 -0.46089605371861619 0 -0.16641350591259149 -0.48315983530672252 0 -0.17772507337026119 -0.47498720729742239 0 -0.17369691144873409 -0.46501525532000493 0 -0.16641350591259149 -0.48315983530672252 0 -0.17772507337026119 -0.47498720729742239 0 -0.18338078540231509 -0.48201477762447009 0 -0.18802443762313009 -0.47189059452009752 0 -0.17772507337026119 -0.47498720729742239 0 -0.17369691144873409 -0.46501525532000493 0 -0.18802443762313009 -0.47189059452009752 0 -0.17772507337026119 -0.47498720729742239 0 -0.18338078540231509 -0.48201477762447009 0 -0.19022858385116229 -0.45832994663525689 0 -0.18802443762313009 -0.47189059452009752 0 -0.17369691144873409 -0.46501525532000493 0 -0.17369691144873409 -0.46501525532000493 0 -0.17921783941646449 -0.45011332088955358 0 -0.16517400825891759 -0.44529302263470633 0 -0.19022858385116229 -0.45832994663525689 0 -0.17369691144873409 -0.46501525532000493 0 -0.17921783941646449 -0.45011332088955358 0 -0.17921783941646449 -0.45011332088955358 0 -0.16517400825891759 -0.44529302263470633 0 -0.1757601802925621 -0.4338922597544202 0 -0.19022858385116229 -0.45832994663525689 0 -0.19041632307296441 -0.44246193039371251 0 -0.17921783941646449 -0.45011332088955358 0 -0.19041632307296441 -0.44246193039371251 0 -0.17921783941646449 -0.45011332088955358 0 -0.1757601802925621 -0.4338922597544202 0 -0.16517400825891759 -0.44529302263470633 0 -0.1583482804491487 -0.46089605371861619 0 -0.15028305498570729 -0.43863227213050948 0 -0.16517400825891759 -0.44529302263470633 0 -0.15028305498570729 -0.43863227213050948 0 -0.16313767916615171 -0.43209948012193772 0 -0.17369691144873409 -0.46501525532000493 0 -0.16517400825891759 -0.44529302263470633 0 -0.1583482804491487 -0.46089605371861619 0 -0.1583482804491487 -0.46089605371861619 0 -0.14188004323721171 -0.45694876165984549 0 -0.1475002040328115 -0.47343942574738951 0 -0.1583482804491487 -0.46089605371861619 0 -0.14188004323721171 -0.45694876165984549 0 -0.15028305498570729 -0.43863227213050948 0 -0.1583482804491487 -0.46089605371861619 0 -0.15028305498570729 -0.43863227213050948 0 -0.15028305498570729 -0.43863227213050948 0 -0.13077069007572109 -0.43310804016754201 0 -0.1246817745653606 -0.44805704051465428 0 -0.14188004323721171 -0.45694876165984549 0 -0.15028305498570729 -0.43863227213050948 0 -0.1246817745653606 -0.44805704051465428 0 -0.14188004323721171 -0.45694876165984549 0 -0.12858690215303051 -0.46371901618805828 0 -0.1246817745653606 -0.44805704051465428 0 -0.14188004323721171 -0.45694876165984549 0 -0.12858690215303051 -0.46371901618805828 0 -0.1475002040328115 -0.47343942574738951 0 -0.12858690215303051 -0.46371901618805828 0 -0.1475002040328115 -0.47343942574738951 0 -0.12858690215303051 -0.46371901618805828 0 -0.13373367115321971 -0.48380607728579073 0 -0.1475002040328115 -0.47343942574738951 0 -0.13373367115321971 -0.48380607728579073 0 -0.14518927398750939 -0.5 0 -0.1178645633744184 -0.5 0 -0.13373367115321971 -0.48380607728579073 0 -0.14518927398750939 -0.5 0 -0.15236039196307191 -0.48724311093801298 0 -0.16641350591259149 -0.48315983530672252 0 -0.15236039196307191 -0.48724311093801298 0 -0.1475002040328115 -0.47343942574738951 0 -0.13373367115321971 -0.48380607728579073 0 -0.15236039196307191 -0.48724311093801298 0 -0.1475002040328115 -0.47343942574738951 0 -0.14256164088486351 -0.39419872567851949 0 -0.1533816267421878 -0.40081864813847212 0 -0.14063224798450691 -0.37966798116216022 0 -0.14256164088486351 -0.39419872567851949 0 -0.14539664980619749 -0.40018650739087602 0 -0.1533816267421878 -0.40081864813847212 0 -0.14539664980619749 -0.40018650739087602 0 -0.1533816267421878 -0.40081864813847212 0 -0.1462159488120055 -0.4081544561690848 0 -0.14539664980619749 -0.40018650739087602 0 -0.13083603900656049 -0.39612176602256899 0 -0.1462159488120055 -0.4081544561690848 0 -0.1533816267421878 -0.40081864813847212 0 -0.1462159488120055 -0.4081544561690848 0 -0.15444249595433271 -0.40912491605223988 0 -0.15437043067677769 -0.37502685415533132 0 -0.14220327332501889 -0.37702927541168341 0 -0.15881123417693649 -0.38653027421996122 0 -0.1533816267421878 -0.40081864813847212 0 -0.14063224798450691 -0.37966798116216022 0 -0.15881123417693649 -0.38653027421996122 0 -0.1533816267421878 -0.40081864813847212 0 -0.14063224798450691 -0.37966798116216022 0 -0.14063224798450691 -0.37966798116216022 0 -0.14220327332501889 -0.37702927541168341 0 -0.15881123417693649 -0.38653027421996122 0 -0.14220327332501889 -0.37702927541168341 0 -0.15881123417693649 -0.38653027421996122 0 -0.14063224798450691 -0.37966798116216022 0 -0.14220327332501889 -0.37702927541168341 0 -0.14063224798450691 -0.37966798116216022 0 -0.13083603900656049 -0.39612176602256899 0 -0.14063224798450691 -0.37966798116216022 0 -0.1282602211981495 -0.38344507038105058 0 -0.13083603900656049 -0.39612176602256899 0 -0.14256164088486351 -0.39419872567851949 0 -0.14063224798450691 -0.37966798116216022 0 -0.13083603900656049 -0.39612176602256899 0 -0.14063224798450691 -0.37966798116216022 0 -0.1282602211981495 -0.38344507038105058 0 -0.13737756990640751 -0.37426861124357141 0 -0.14063224798450691 -0.37966798116216022 0 -0.14220327332501889 -0.37702927541168341 0 -0.13737756990640751 -0.37426861124357141 0 -0.14063224798450691 -0.37966798116216022 0 -0.13737756990640751 -0.37426861124357141 0 -0.14220327332501889 -0.37702927541168341 0 -0.13737756990640751 -0.37426861124357141 0 -0.13083603900656049 -0.39612176602256899 0 -0.1210398300286134 -0.41257555088297743 0 -0.13083603900656049 -0.39612176602256899 0 -0.1462159488120055 -0.4081544561690848 0 -0.1210398300286134 -0.41257555088297743 0 -0.14256164088486351 -0.39419872567851949 0 -0.14539664980619749 -0.40018650739087602 0 -0.13083603900656049 -0.39612176602256899 0 -0.1462159488120055 -0.4081544561690848 0 -0.14221782952226589 -0.41636849054240282 0 -0.1210398300286134 -0.41257555088297743 0 -0.12619577702185669 -0.42297562863706512 0 -0.14221782952226589 -0.41636849054240282 0 -0.1210398300286134 -0.41257555088297743 0 -0.1462159488120055 -0.4081544561690848 0 -0.1210398300286134 -0.41257555088297743 0 -0.12619577702185669 -0.42297562863706512 0 -0.13077069007572109 -0.43310804016754201 0 -0.14221782952226589 -0.41636849054240282 0 -0.15028305498570729 -0.43863227213050948 0 -0.1551121584580103 -0.41906700541100589 0 -0.16313767916615171 -0.43209948012193772 0 -0.15028305498570729 -0.43863227213050948 0 -0.14221782952226589 -0.41636849054240282 0 -0.15028305498570729 -0.43863227213050948 0 -0.14221782952226589 -0.41636849054240282 0 -0.1551121584580103 -0.41906700541100589 0 -0.15028305498570729 -0.43863227213050948 0 -0.13077069007572109 -0.43310804016754201 0 -0.14221782952226589 -0.41636849054240282 0 -0.1462159488120055 -0.4081544561690848 0 -0.14221782952226589 -0.41636849054240282 0 -0.1551121584580103 -0.41906700541100589 0 -0.1462159488120055 -0.4081544561690848 0 -0.1551121584580103 -0.41906700541100589 0 -0.15444249595433271 -0.40912491605223988 0 -0.1551121584580103 -0.41906700541100589 0 -0.15444249595433271 -0.40912491605223988 0 -0.16306024980512729 -0.40845955449039723 0 -0.1551121584580103 -0.41906700541100589 0 -0.16306024980512729 -0.40845955449039723 0 -0.16610043743126501 -0.42041013830338492 0 -0.16306024980512729 -0.40845955449039723 0 -0.16610043743126501 -0.42041013830338492 0 -0.1770044179043285 -0.41127420441470852 0 -0.1551121584580103 -0.41906700541100589 0 -0.16610043743126501 -0.42041013830338492 0 -0.16313767916615171 -0.43209948012193772 0 -0.16610043743126501 -0.42041013830338492 0 -0.16313767916615171 -0.43209948012193772 0 -0.1757601802925621 -0.4338922597544202 0 -0.16517400825891759 -0.44529302263470633 0 -0.16313767916615171 -0.43209948012193772 0 -0.1757601802925621 -0.4338922597544202 0 -0.19041632307296441 -0.44246193039371251 0 -0.1757601802925621 -0.4338922597544202 0 -0.18850576852329631 -0.42432953571085769 0 -0.16610043743126501 -0.42041013830338492 0 -0.1757601802925621 -0.4338922597544202 0 -0.17723997756437371 -0.42263041367423188 0 -0.1757601802925621 -0.4338922597544202 0 -0.17723997756437371 -0.42263041367423188 0 -0.18850576852329631 -0.42432953571085769 0 -0.1770044179043285 -0.41127420441470852 0 -0.18850576852329631 -0.42432953571085769 0 -0.19236858755892461 -0.40767953908418769 0 -0.16610043743126501 -0.42041013830338492 0 -0.17723997756437371 -0.42263041367423188 0 -0.1770044179043285 -0.41127420441470852 0 -0.17723997756437371 -0.42263041367423188 0 -0.1770044179043285 -0.41127420441470852 0 -0.18850576852329631 -0.42432953571085769 0 -0.1770044179043285 -0.41127420441470852 0 -0.17541919502885411 -0.39603127302823887 0 -0.19236858755892461 -0.40767953908418769 0 -0.16306024980512729 -0.40845955449039723 0 -0.1770044179043285 -0.41127420441470852 0 -0.17541919502885411 -0.39603127302823887 0 -0.17541919502885411 -0.39603127302823887 0 -0.16308450303263189 -0.39773132454924348 0 -0.15881123417693649 -0.38653027421996122 0 -0.16306024980512729 -0.40845955449039723 0 -0.17541919502885411 -0.39603127302823887 0 -0.16308450303263189 -0.39773132454924348 0 -0.17541919502885411 -0.39603127302823887 0 -0.15881123417693649 -0.38653027421996122 0 -0.1533816267421878 -0.40081864813847212 0 -0.16308450303263189 -0.39773132454924348 0 -0.15881123417693649 -0.38653027421996122 0 -0.1533816267421878 -0.40081864813847212 0 -0.16306024980512729 -0.40845955449039723 0 -0.16308450303263189 -0.39773132454924348 0 -0.1533816267421878 -0.40081864813847212 0 -0.15444249595433271 -0.40912491605223988 0 -0.16306024980512729 -0.40845955449039723 0 -0.15437043067677769 -0.37502685415533132 0 -0.15881123417693649 -0.38653027421996122 0 -0.17792681140336231 -0.36968284818092462 0 -0.17541919502885411 -0.39603127302823887 0 -0.15881123417693649 -0.38653027421996122 0 -0.17792681140336231 -0.36968284818092462 0 -0.17541919502885411 -0.39603127302823887 0 -0.19739271022962129 -0.38964287176130269 0 -0.17792681140336231 -0.36968284818092462 0 -0.19739271022962129 -0.38964287176130269 0 -0.17792681140336231 -0.36968284818092462 0 -0.19739271022962129 -0.38964287176130269 0 -0.20821730463750629 -0.37427444650158298 0 -0.17792681140336231 -0.36968284818092462 0 -0.17541919502885411 -0.39603127302823887 0 -0.19739271022962129 -0.38964287176130269 0 -0.19236858755892461 -0.40767953908418769 0 -0.19739271022962129 -0.38964287176130269 0 -0.19236858755892461 -0.40767953908418769 0 -0.21685860905588039 -0.40960289534168087 0 -0.19739271022962129 -0.38964287176130269 0 -0.21756769564921341 -0.38863898843703742 0 -0.21685860905588039 -0.40960289534168087 0 -0.19739271022962129 -0.38964287176130269 0 -0.21685860905588039 -0.40960289534168087 0 -0.19739271022962129 -0.38964287176130269 0 -0.21756769564921341 -0.38863898843703742 0 -0.20821730463750629 -0.37427444650158298 0 -0.21756769564921341 -0.38863898843703742 0 -0.22866286381363021 -0.37110342279692138 0 -0.20821730463750629 -0.37427444650158298 0 -0.19041632307296441 -0.44246193039371251 0 -0.2030828040475508 -0.43468449538159393 0 -0.18850576852329631 -0.42432953571085769 0 -0.2030828040475508 -0.43468449538159393 0 -0.18850576852329631 -0.42432953571085769 0 -0.20368101521161139 -0.4193047949655942 0 -0.18850576852329631 -0.42432953571085769 0 -0.19236858755892461 -0.40767953908418769 0 -0.20368101521161139 -0.4193047949655942 0 -0.19236858755892461 -0.40767953908418769 0 -0.21685860905588039 -0.40960289534168087 0 -0.20368101521161139 -0.4193047949655942 0 -0.21685860905588039 -0.40960289534168087 0 -0.20368101521161139 -0.4193047949655942 0 -0.21425742232365491 -0.42742785651322229 0 -0.21206997271981259 -0.44311428494470828 0 -0.2030828040475508 -0.43468449538159393 0 -0.21425742232365491 -0.42742785651322229 0 -0.21206997271981259 -0.44311428494470828 0 -0.21425742232365491 -0.42742785651322229 0 -0.22316408544215299 -0.43686893579678537 0 -0.2030828040475508 -0.43468449538159393 0 -0.20368101521161139 -0.4193047949655942 0 -0.21425742232365491 -0.42742785651322229 0 -0.22316408544215299 -0.43686893579678537 0 -0.22668804746492141 -0.42099173264897088 0 -0.23629949510350201 -0.43237132570418602 0 -0.21425742232365491 -0.42742785651322229 0 -0.22316408544215299 -0.43686893579678537 0 -0.22668804746492141 -0.42099173264897088 0 -0.21685860905588039 -0.40960289534168087 0 -0.21425742232365491 -0.42742785651322229 0 -0.22668804746492141 -0.42099173264897088 0 -0.22668804746492141 -0.42099173264897088 0 -0.2417716840476852 -0.41747271676685488 0 -0.23257350655480949 -0.40235383178277212 0 -0.21685860905588039 -0.40960289534168087 0 -0.22668804746492141 -0.42099173264897088 0 -0.23257350655480949 -0.40235383178277212 0 -0.25173609945319692 -0.40447119833770301 0 -0.2417716840476852 -0.41747271676685488 0 -0.23257350655480949 -0.40235383178277212 0 -0.22668804746492141 -0.42099173264897088 0 -0.2417716840476852 -0.41747271676685488 0 -0.23629949510350201 -0.43237132570418602 0 -0.25060915478330192 -0.42997888991647287 0 -0.2417716840476852 -0.41747271676685488 0 -0.23629949510350201 -0.43237132570418602 0 -0.25060915478330192 -0.42997888991647287 0 -0.24580207242716159 -0.44435027413341882 0 -0.23629949510350201 -0.43237132570418602 0 -0.21756769564921341 -0.38863898843703742 0 -0.23286469557217249 -0.38532773488722488 0 -0.22866286381363021 -0.37110342279692138 0 -0.21756769564921341 -0.38863898843703742 0 -0.22866286381363021 -0.37110342279692138 0 -0.21756769564921341 -0.38863898843703742 0 -0.23286469557217249 -0.38532773488722488 0 -0.23257350655480949 -0.40235383178277212 0 -0.21756769564921341 -0.38863898843703742 0 -0.21685860905588039 -0.40960289534168087 0 -0.23257350655480949 -0.40235383178277212 0 -0.23286469557217249 -0.38532773488722488 0 -0.23257350655480949 -0.40235383178277212 0 -0.245284200947926 -0.39024320684448183 0 -0.25173609945319692 -0.40447119833770301 0 -0.23257350655480949 -0.40235383178277212 0 -0.245284200947926 -0.39024320684448183 0 -0.23286469557217249 -0.38532773488722488 0 -0.245284200947926 -0.39024320684448183 0 -0.2451961535316893 -0.3740197755715004 0 -0.23286469557217249 -0.38532773488722488 0 -0.2451961535316893 -0.3740197755715004 0 -0.22866286381363021 -0.37110342279692138 0 -0.2451961535316893 -0.3740197755715004 0 -0.22866286381363021 -0.37110342279692138 0 -0.2397580319780461 -0.35356785715680489 0 -0.25843233435567581 -0.36297159007713697 0 -0.2451961535316893 -0.3740197755715004 0 -0.2397580319780461 -0.35356785715680489 0 -0.22866286381363021 -0.37110342279692138 0 -0.2397580319780461 -0.35356785715680489 0 -0.22866286381363021 -0.37110342279692138 0 -0.22385561662834161 -0.35615113970506662 0 -0.2397580319780461 -0.35356785715680489 0 -0.22866286381363021 -0.37110342279692138 0 -0.22385561662834161 -0.35615113970506662 0 -0.21589461285005909 -0.36174227359365729 0 -0.22032488254637289 -0.34378199510097379 0 -0.22385561662834161 -0.35615113970506662 0 -0.2397580319780461 -0.35356785715680489 0 -0.22032488254637289 -0.34378199510097379 0 -0.2397580319780461 -0.35356785715680489 0 -0.22032488254637289 -0.34378199510097379 0 -0.2397580319780461 -0.35356785715680489 0 -0.23348527373075051 -0.34302868266106978 0 -0.22032488254637289 -0.34378199510097379 0 -0.22385561662834161 -0.35615113970506662 0 -0.21320079736739181 -0.3517949149858175 0 -0.2521673248915059 -0.33395535852616198 0 -0.2397580319780461 -0.35356785715680489 0 -0.25843233435567581 -0.36297159007713697 0 -0.2397580319780461 -0.35356785715680489 0 -0.2521673248915059 -0.33395535852616198 0 -0.2362016166573695 -0.33187423354093859 0 -0.23348527373075051 -0.34302868266106978 0 -0.2521673248915059 -0.33395535852616198 0 -0.2362016166573695 -0.33187423354093859 0 -0.24581712956767751 -0.32186579194246001 0 -0.2521673248915059 -0.33395535852616198 0 -0.2397580319780461 -0.35356785715680489 0 -0.23348527373075051 -0.34302868266106978 0 -0.24581712956767751 -0.32186579194246001 0 -0.2273554040670647 -0.32132941239810842 0 -0.24878468441748261 -0.30782709535157249 0 -0.2362016166573695 -0.33187423354093859 0 -0.24581712956767751 -0.32186579194246001 0 -0.2273554040670647 -0.32132941239810842 0 -0.2273554040670647 -0.32132941239810842 0 -0.24878468441748261 -0.30782709535157249 0 -0.2362016166573695 -0.33187423354093859 0 -0.2273554040670647 -0.32132941239810842 0 -0.22292618638108569 -0.33855969009650427 0 -0.2362016166573695 -0.33187423354093859 0 -0.23348527373075051 -0.34302868266106978 0 -0.22292618638108569 -0.33855969009650427 0 -0.22032488254637289 -0.34378199510097379 0 -0.23348527373075051 -0.34302868266106978 0 -0.22292618638108569 -0.33855969009650427 0 -0.22292618638108569 -0.33855969009650427 0 -0.20588500005761429 -0.33503028888695979 0 -0.2273554040670647 -0.32132941239810842 0 -0.20588500005761429 -0.33503028888695979 0 -0.22032488254637289 -0.34378199510097379 0 -0.20089173311469941 -0.33399613304514331 0 -0.22032488254637289 -0.34378199510097379 0 -0.22292618638108569 -0.33855969009650427 0 -0.20588500005761429 -0.33503028888695979 0 -0.22032488254637289 -0.34378199510097379 0 -0.20588500005761429 -0.33503028888695979 0 -0.20089173311469941 -0.33399613304514331 0 -0.22032488254637289 -0.34378199510097379 0 -0.2080310779129512 -0.34225985420787469 0 -0.20089173311469941 -0.33399613304514331 0 -0.2273554040670647 -0.32132941239810842 0 -0.22292618638108569 -0.33855969009650427 0 -0.20588500005761429 -0.33503028888695979 0 -0.20588500005761429 -0.33503028888695979 0 -0.20645278432913119 -0.3218773651378441 0 -0.20266021701457149 -0.32916403384905363 0 -0.20588500005761429 -0.33503028888695979 0 -0.20089173311469941 -0.33399613304514331 0 -0.20588500005761429 -0.33503028888695979 0 -0.20089173311469941 -0.33399613304514331 0 -0.20266021701457149 -0.32916403384905363 0 -0.2080310779129512 -0.34225985420787469 0 -0.20181591550486441 -0.34135139445777152 0 -0.20089173311469941 -0.33399613304514331 0 -0.2080310779129512 -0.34225985420787469 0 -0.20181591550486441 -0.34135139445777152 0 -0.2054350285828398 -0.34654212807766749 0 -0.2273554040670647 -0.32132941239810842 0 -0.20588500005761429 -0.33503028888695979 0 -0.20645278432913119 -0.3218773651378441 0 -0.2273554040670647 -0.32132941239810842 0 -0.20645278432913119 -0.3218773651378441 0 -0.21766117618446351 -0.30824254755480313 0 -0.20645278432913119 -0.3218773651378441 0 -0.21766117618446351 -0.30824254755480313 0 -0.20346683708224531 -0.31084729036307052 0 -0.20645278432913119 -0.3218773651378441 0 -0.19103201431363939 -0.31688344474194868 0 -0.20346683708224531 -0.31084729036307052 0 -0.20645278432913119 -0.3218773651378441 0 -0.19737022689780889 -0.32595090776858288 0 -0.20266021701457149 -0.32916403384905363 0 -0.20645278432913119 -0.3218773651378441 0 -0.19737022689780889 -0.32595090776858288 0 -0.19103201431363939 -0.31688344474194868 0 -0.19737022689780889 -0.32595090776858288 0 -0.18789949026383709 -0.32745368881697368 0 -0.19103201431363939 -0.31688344474194868 0 -0.20089173311469941 -0.33399613304514331 0 -0.1947797646698918 -0.34466267290479968 0 -0.18421329040694509 -0.33911192419366332 0 -0.20181591550486441 -0.34135139445777152 0 -0.20089173311469941 -0.33399613304514331 0 -0.1947797646698918 -0.34466267290479968 0 -0.19737022689780889 -0.32595090776858288 0 -0.20089173311469941 -0.33399613304514331 0 -0.20266021701457149 -0.32916403384905363 0 -0.19737022689780889 -0.32595090776858288 0 -0.18789949026383709 -0.32745368881697368 0 -0.20089173311469941 -0.33399613304514331 0 -0.18789949026383709 -0.32745368881697368 0 -0.20089173311469941 -0.33399613304514331 0 -0.1947797646698918 -0.34466267290479968 0 -0.18986968506967861 -0.35465606920966558 0 -0.18301329575348849 -0.34620356592961682 0 -0.1947797646698918 -0.34466267290479968 0 -0.20049467675813851 -0.35897311009837751 0 -0.2054350285828398 -0.34654212807766749 0 -0.20181591550486441 -0.34135139445777152 0 -0.1947797646698918 -0.34466267290479968 0 -0.2054350285828398 -0.34654212807766749 0 -0.1947797646698918 -0.34466267290479968 0 -0.20049467675813851 -0.35897311009837751 0 -0.18986968506967861 -0.35465606920966558 0 -0.20049467675813851 -0.35897311009837751 0 -0.20821730463750629 -0.37427444650158298 0 -0.17792681140336231 -0.36968284818092462 0 -0.20049467675813851 -0.35897311009837751 0 -0.18986968506967861 -0.35465606920966558 0 -0.17792681140336231 -0.36968284818092462 0 -0.20049467675813851 -0.35897311009837751 0 -0.20821730463750629 -0.37427444650158298 0 -0.21589461285005909 -0.36174227359365729 0 -0.22866286381363021 -0.37110342279692138 0 -0.20821730463750629 -0.37427444650158298 0 -0.21589461285005909 -0.36174227359365729 0 -0.22385561662834161 -0.35615113970506662 0 -0.21589461285005909 -0.36174227359365729 0 -0.21320079736739181 -0.3517949149858175 0 -0.22032488254637289 -0.34378199510097379 0 -0.2080310779129512 -0.34225985420787469 0 -0.21168782981597939 -0.34562762035781719 0 -0.22032488254637289 -0.34378199510097379 0 -0.21320079736739181 -0.3517949149858175 0 -0.21168782981597939 -0.34562762035781719 0 -0.21320079736739181 -0.3517949149858175 0 -0.21168782981597939 -0.34562762035781719 0 -0.2054350285828398 -0.34654212807766749 0 -0.2080310779129512 -0.34225985420787469 0 -0.21168782981597939 -0.34562762035781719 0 -0.2054350285828398 -0.34654212807766749 0 -0.20049467675813851 -0.35897311009837751 0 -0.21589461285005909 -0.36174227359365729 0 -0.21320079736739181 -0.3517949149858175 0 -0.20049467675813851 -0.35897311009837751 0 -0.21320079736739181 -0.3517949149858175 0 -0.2054350285828398 -0.34654212807766749 0 -0.23787444231803079 -0.27010267853719971 0 -0.24102500290493409 -0.2487761892091421 0 -0.22395341521182191 -0.24856859667403139 0 -0.23787444231803079 -0.27010267853719971 0 -0.21113655800828279 -0.26571413516680481 0 -0.22395341521182191 -0.24856859667403139 0 -0.25431501404594598 -0.25676801052014742 0 -0.23787444231803079 -0.27010267853719971 0 -0.24102500290493409 -0.2487761892091421 0 -0.23787444231803079 -0.27010267853719971 0 -0.21113655800828279 -0.26571413516680481 0 -0.23787444231803079 -0.27010267853719971 0 -0.2166208007114577 -0.28164996393389391 0 -0.21113655800828279 -0.26571413516680481 0 -0.23787444231803079 -0.27010267853719971 0 -0.2266692138545828 -0.29364471998089831 0 -0.2166208007114577 -0.28164996393389391 0 -0.25500487631019841 -0.28800787195402933 0 -0.23787444231803079 -0.27010267853719971 0 -0.24115385011983101 -0.29688691748796803 0 -0.23787444231803079 -0.27010267853719971 0 -0.2266692138545828 -0.29364471998089831 0 -0.24115385011983101 -0.29688691748796803 0 -0.25500487631019841 -0.28800787195402933 0 -0.24878468441748261 -0.30782709535157249 0 -0.24115385011983101 -0.29688691748796803 0 -0.2273554040670647 -0.32132941239810842 0 -0.24878468441748261 -0.30782709535157249 0 -0.23286233779073229 -0.30583863677269801 0 -0.24878468441748261 -0.30782709535157249 0 -0.24115385011983101 -0.29688691748796803 0 -0.23286233779073229 -0.30583863677269801 0 -0.2266692138545828 -0.29364471998089831 0 -0.24115385011983101 -0.29688691748796803 0 -0.23286233779073229 -0.30583863677269801 0 -0.2266692138545828 -0.29364471998089831 0 -0.23286233779073229 -0.30583863677269801 0 -0.21766117618446351 -0.30824254755480313 0 -0.2273554040670647 -0.32132941239810842 0 -0.23286233779073229 -0.30583863677269801 0 -0.21766117618446351 -0.30824254755480313 0 -0.2266692138545828 -0.29364471998089831 0 -0.21766117618446351 -0.30824254755480313 0 -0.2091604799830242 -0.29591786067619957 0 -0.21766117618446351 -0.30824254755480313 0 -0.20346683708224531 -0.31084729036307052 0 -0.2091604799830242 -0.29591786067619957 0 -0.19103201431363939 -0.31688344474194868 0 -0.20346683708224531 -0.31084729036307052 0 -0.18485872277797441 -0.30538486786557301 0 -0.20346683708224531 -0.31084729036307052 0 -0.2091604799830242 -0.29591786067619957 0 -0.18485872277797441 -0.30538486786557301 0 -0.1982633093933677 -0.28287042530836742 0 -0.2091604799830242 -0.29591786067619957 0 -0.18485872277797441 -0.30538486786557301 0 -0.1982633093933677 -0.28287042530836742 0 -0.18485872277797441 -0.30538486786557301 0 -0.2266692138545828 -0.29364471998089831 0 -0.2166208007114577 -0.28164996393389391 0 -0.2091604799830242 -0.29591786067619957 0 -0.1982633093933677 -0.28287042530836742 0 -0.2166208007114577 -0.28164996393389391 0 -0.2091604799830242 -0.29591786067619957 0 -0.1982633093933677 -0.28287042530836742 0 -0.2166208007114577 -0.28164996393389391 0 -0.21113655800828279 -0.26571413516680481 0 -0.1982633093933677 -0.28287042530836742 0 -0.21113655800828279 -0.26571413516680481 0 -0.18439867369853491 -0.26132559179640968 0 -0.21113655800828279 -0.26571413516680481 0 -0.18439867369853491 -0.26132559179640968 0 -0.20259798467806131 -0.24386557447816259 0 -0.21113655800828279 -0.26571413516680481 0 -0.18439867369853491 -0.26132559179640968 0 -0.21113655800828279 -0.26571413516680481 0 -0.20259798467806131 -0.24386557447816259 0 -0.22395341521182191 -0.24856859667403139 0 -0.15766078938878669 -0.25693704842601522 0 -0.18439867369853491 -0.26132559179640968 0 -0.16901090062578 -0.27018822313852359 0 -0.15766078938878669 -0.25693704842601522 0 -0.18439867369853491 -0.26132559179640968 0 -0.17146525089902351 -0.24887373043365901 0 -0.15766078938878669 -0.25693704842601522 0 -0.18439867369853491 -0.26132559179640968 0 -0.1982633093933677 -0.28287042530836742 0 -0.18439867369853491 -0.26132559179640968 0 -0.17536691274347849 -0.28681422947580759 0 -0.18439867369853491 -0.26132559179640968 0 -0.16901090062578 -0.27018822313852359 0 -0.17536691274347849 -0.28681422947580759 0 -0.15766078938878669 -0.25693704842601522 0 -0.16901090062578 -0.27018822313852359 0 -0.15771983796653871 -0.27915448111288349 0 -0.16901090062578 -0.27018822313852359 0 -0.15771983796653871 -0.27915448111288349 0 -0.17536691274347849 -0.28681422947580759 0 -0.15766078938878669 -0.25693704842601522 0 -0.15771983796653871 -0.27915448111288349 0 -0.15771983796653871 -0.27915448111288349 0 -0.17536691274347849 -0.28681422947580759 0 -0.15777888654429351 -0.30137191379975198 0 -0.15771983796653871 -0.27915448111288349 0 -0.15777888654429351 -0.30137191379975198 0 -0.1982633093933677 -0.28287042530836742 0 -0.17536691274347849 -0.28681422947580759 0 -0.18485872277797441 -0.30538486786557301 0 -0.17536691274347849 -0.28681422947580759 0 -0.18485872277797441 -0.30538486786557301 0 -0.16901135727642189 -0.31155598576797539 0 -0.16901135727642189 -0.31155598576797539 0 -0.15777888654429351 -0.30137191379975198 0 -0.15783793512204841 -0.32358934648662052 0 -0.17536691274347849 -0.28681422947580759 0 -0.16901135727642189 -0.31155598576797539 0 -0.15777888654429351 -0.30137191379975198 0 -0.15777888654429351 -0.30137191379975198 0 -0.15783793512204841 -0.32358934648662052 0 -0.15777888654429351 -0.30137191379975198 0 -0.14427922475773891 -0.30727284028473018 0 -0.15783793512204841 -0.32358934648662052 0 -0.15777888654429351 -0.30137191379975198 0 -0.14427922475773891 -0.30727284028473018 0 -0.14628090119791839 -0.28900594343431107 0 -0.12979684287756851 -0.3079550694169117 0 -0.13071184101257871 -0.29146467300954759 0 -0.1176488750369457 -0.30159873944795829 0 -0.14427922475773891 -0.30727284028473018 0 -0.12979684287756851 -0.3079550694169117 0 -0.13071184101257871 -0.29146467300954759 0 -0.14427922475773891 -0.30727284028473018 0 -0.12979684287756851 -0.3079550694169117 0 -0.14244508812293069 -0.32189124459359192 0 -0.13071184101257871 -0.29146467300954759 0 -0.12967042095491729 -0.27431562383975949 0 -0.12206497803289169 -0.28075447161807998 0 -0.14427922475773891 -0.30727284028473018 0 -0.13071184101257871 -0.29146467300954759 0 -0.14628090119791839 -0.28900594343431107 0 -0.13071184101257871 -0.29146467300954759 0 -0.13899131532044201 -0.27804862846246498 0 -0.12967042095491729 -0.27431562383975949 0 -0.13071184101257871 -0.29146467300954759 0 -0.14628090119791839 -0.28900594343431107 0 -0.13899131532044201 -0.27804862846246498 0 -0.15771983796653871 -0.27915448111288349 0 -0.15777888654429351 -0.30137191379975198 0 -0.14628090119791839 -0.28900594343431107 0 -0.14628090119791839 -0.28900594343431107 0 -0.1482003680645548 -0.27831074506587478 0 -0.13899131532044201 -0.27804862846246498 0 -0.15771983796653871 -0.27915448111288349 0 -0.14628090119791839 -0.28900594343431107 0 -0.1482003680645548 -0.27831074506587478 0 -0.15766078938878669 -0.25693704842601522 0 -0.15771983796653871 -0.27915448111288349 0 -0.14980941777331999 -0.26703392725383979 0 -0.15771983796653871 -0.27915448111288349 0 -0.14980941777331999 -0.26703392725383979 0 -0.1482003680645548 -0.27831074506587478 0 -0.14980941777331999 -0.26703392725383979 0 -0.1482003680645548 -0.27831074506587478 0 -0.13899131532044201 -0.27804862846246498 0 -0.14980941777331999 -0.26703392725383979 0 -0.13899131532044201 -0.27804862846246498 0 -0.13217695765232859 -0.26380903384329762 0 -0.12967042095491729 -0.27431562383975949 0 -0.13217695765232859 -0.26380903384329762 0 -0.1219705158530231 -0.27052822381544062 0 -0.13899131532044201 -0.27804862846246498 0 -0.12967042095491729 -0.27431562383975949 0 -0.13217695765232859 -0.26380903384329762 0 -0.12503603078947889 -0.25158228039713743 0 -0.1413484100891331 -0.25425966441157483 0 -0.13217695765232859 -0.26380903384329762 0 -0.12503603078947889 -0.25158228039713743 0 -0.1413484100891331 -0.25425966441157483 0 -0.12503603078947889 -0.25158228039713743 0 -0.1413484100891331 -0.25425966441157483 0 -0.1392187059844639 -0.24698190063072681 0 -0.15766078938878669 -0.25693704842601522 0 -0.1413484100891331 -0.25425966441157483 0 -0.14793605582477309 -0.2455342835516422 0 -0.15766078938878669 -0.25693704842601522 0 -0.14980941777331999 -0.26703392725383979 0 -0.1413484100891331 -0.25425966441157483 0 -0.15766078938878669 -0.25693704842601522 0 -0.1413484100891331 -0.25425966441157483 0 -0.14980941777331999 -0.26703392725383979 0 -0.13217695765232859 -0.26380903384329762 0 -0.14980941777331999 -0.26703392725383979 0 -0.13217695765232859 -0.26380903384329762 0 -0.1413484100891331 -0.25425966441157483 0 -0.1584609125771039 -0.34972282460054588 0 -0.17792681140336231 -0.36968284818092462 0 -0.1709275223340645 -0.34279793866597741 0 -0.15437043067677769 -0.37502685415533132 0 -0.17792681140336231 -0.36968284818092462 0 -0.15033209295106109 -0.36337605000611439 0 -0.1584609125771039 -0.34972282460054588 0 -0.17792681140336231 -0.36968284818092462 0 -0.1584609125771039 -0.34972282460054588 0 -0.17792681140336231 -0.36968284818092462 0 -0.15033209295106109 -0.36337605000611439 0 -0.18986968506967861 -0.35465606920966558 0 -0.17792681140336231 -0.36968284818092462 0 -0.18301329575348849 -0.34620356592961682 0 -0.17792681140336231 -0.36968284818092462 0 -0.18301329575348849 -0.34620356592961682 0 -0.1709275223340645 -0.34279793866597741 0 -0.20089173311469941 -0.33399613304514331 0 -0.17145413616258151 -0.32789931042277898 0 -0.20089173311469941 -0.33399613304514331 0 -0.18421329040694509 -0.33911192419366332 0 -0.17145413616258151 -0.32789931042277898 0 -0.18789949026383709 -0.32745368881697368 0 -0.20089173311469941 -0.33399613304514331 0 -0.17145413616258151 -0.32789931042277898 0 -0.1947797646698918 -0.34466267290479968 0 -0.18301329575348849 -0.34620356592961682 0 -0.18421329040694509 -0.33911192419366332 0 -0.18421329040694509 -0.33911192419366332 0 -0.17145413616258151 -0.32789931042277898 0 -0.1709275223340645 -0.34279793866597741 0 -0.18301329575348849 -0.34620356592961682 0 -0.18421329040694509 -0.33911192419366332 0 -0.1709275223340645 -0.34279793866597741 0 -0.18789949026383709 -0.32745368881697368 0 -0.19103201431363939 -0.31688344474194868 0 -0.17145413616258151 -0.32789931042277898 0 -0.18485872277797441 -0.30538486786557301 0 -0.16901135727642189 -0.31155598576797539 0 -0.17145413616258151 -0.32789931042277898 0 -0.19103201431363939 -0.31688344474194868 0 -0.18485872277797441 -0.30538486786557301 0 -0.17145413616258151 -0.32789931042277898 0 -0.18485872277797441 -0.30538486786557301 0 -0.17145413616258151 -0.32789931042277898 0 -0.16901135727642189 -0.31155598576797539 0 -0.15783793512204841 -0.32358934648662052 0 -0.17145413616258151 -0.32789931042277898 0 -0.17145413616258151 -0.32789931042277898 0 -0.14244508812293069 -0.32189124459359192 0 -0.17145413616258151 -0.32789931042277898 0 -0.15532896421917131 -0.33448221261846789 0 -0.14244508812293069 -0.32189124459359192 0 -0.15783793512204841 -0.32358934648662052 0 -0.17145413616258151 -0.32789931042277898 0 -0.14244508812293069 -0.32189124459359192 0 -0.1584609125771039 -0.34972282460054588 0 -0.17145413616258151 -0.32789931042277898 0 -0.1709275223340645 -0.34279793866597741 0 -0.1584609125771039 -0.34972282460054588 0 -0.17145413616258151 -0.32789931042277898 0 -0.15532896421917131 -0.33448221261846789 0 -0.1584609125771039 -0.34972282460054588 0 -0.17145413616258151 -0.32789931042277898 0 -0.1584609125771039 -0.34972282460054588 0 -0.15235558000355701 -0.34346251351901308 0 -0.15532896421917131 -0.33448221261846789 0 -0.15235558000355701 -0.34346251351901308 0 -0.15532896421917131 -0.33448221261846789 0 -0.14514278008133191 -0.3348492200194278 0 -0.14514278008133191 -0.3348492200194278 0 -0.14244508812293069 -0.32189124459359192 0 -0.135360397480148 -0.33290873955721711 0 -0.15532896421917131 -0.33448221261846789 0 -0.14514278008133191 -0.3348492200194278 0 -0.14244508812293069 -0.32189124459359192 0 -0.15235558000355701 -0.34346251351901308 0 -0.14514278008133191 -0.3348492200194278 0 -0.14476061084854819 -0.34349843861181928 0 -0.14514278008133191 -0.3348492200194278 0 -0.14476061084854819 -0.34349843861181928 0 -0.1363661142519158 -0.34135517325403791 0 -0.14427922475773891 -0.30727284028473018 0 -0.15783793512204841 -0.32358934648662052 0 -0.14244508812293069 -0.32189124459359192 0 -0.14244508812293069 -0.32189124459359192 0 -0.11343604008328 -0.31588317876440453 0 -0.12979684287756851 -0.3079550694169117 0 -0.14244508812293069 -0.32189124459359192 0 -0.11343604008328 -0.31588317876440453 0 -0.14244508812293069 -0.32189124459359192 0 -0.12698494169892621 -0.32666827045077712 0 -0.11343604008328 -0.31588317876440453 0 -0.14244508812293069 -0.32189124459359192 0 -0.12698494169892621 -0.32666827045077712 0 -0.135360397480148 -0.33290873955721711 0 -0.14514278008133191 -0.3348492200194278 0 -0.1363661142519158 -0.34135517325403791 0 -0.135360397480148 -0.33290873955721711 0 -0.12698494169892621 -0.32666827045077712 0 -0.135360397480148 -0.33290873955721711 0 -0.12590893679870299 -0.33584878762570192 0 -0.1363661142519158 -0.34135517325403791 0 -0.12590893679870299 -0.33584878762570192 0 -0.13263155572799551 -0.3475299966362676 0 -0.1363661142519158 -0.34135517325403791 0 -0.135360397480148 -0.33290873955721711 0 -0.12590893679870299 -0.33584878762570192 0 -0.12590893679870299 -0.33584878762570192 0 -0.13263155572799551 -0.3475299966362676 0 -0.1226994192247733 -0.34991819521187312 0 -0.13263155572799551 -0.3475299966362676 0 -0.13584599839461711 -0.35812124796083039 0 -0.1226994192247733 -0.34991819521187312 0 -0.13263155572799551 -0.3475299966362676 0 -0.13584599839461711 -0.35812124796083039 0 -0.14233730996996821 -0.35240657912889461 0 -0.13584599839461711 -0.35812124796083039 0 -0.14233730996996821 -0.35240657912889461 0 -0.14141895371846369 -0.36592534127185522 0 -0.1363661142519158 -0.34135517325403791 0 -0.13263155572799551 -0.3475299966362676 0 -0.14233730996996821 -0.35240657912889461 0 -0.14476061084854819 -0.34349843861181928 0 -0.14233730996996821 -0.35240657912889461 0 -0.14956738001668449 -0.35029029821185531 0 -0.14476061084854819 -0.34349843861181928 0 -0.1363661142519158 -0.34135517325403791 0 -0.14233730996996821 -0.35240657912889461 0 -0.14233730996996821 -0.35240657912889461 0 -0.14956738001668449 -0.35029029821185531 0 -0.15033209295106109 -0.36337605000611439 0 -0.1584609125771039 -0.34972282460054588 0 -0.15033209295106109 -0.36337605000611439 0 -0.1584609125771039 -0.34972282460054588 0 -0.14956738001668449 -0.35029029821185531 0 -0.15033209295106109 -0.36337605000611439 0 -0.1584609125771039 -0.34972282460054588 0 -0.15235558000355701 -0.34346251351901308 0 -0.14956738001668449 -0.35029029821185531 0 -0.1584609125771039 -0.34972282460054588 0 -0.15235558000355701 -0.34346251351901308 0 -0.15235558000355701 -0.34346251351901308 0 -0.14476061084854819 -0.34349843861181928 0 -0.14956738001668449 -0.35029029821185531 0 -0.15437043067677769 -0.37502685415533132 0 -0.14220327332501889 -0.37702927541168341 0 -0.15033209295106109 -0.36337605000611439 0 -0.14233730996996821 -0.35240657912889461 0 -0.15033209295106109 -0.36337605000611439 0 -0.14141895371846369 -0.36592534127185522 0 -0.14220327332501889 -0.37702927541168341 0 -0.15033209295106109 -0.36337605000611439 0 -0.14220327332501889 -0.37702927541168341 0 -0.15033209295106109 -0.36337605000611439 0 -0.14141895371846369 -0.36592534127185522 0 -0.1282602211981495 -0.38344507038105058 0 -0.13737756990640751 -0.37426861124357141 0 -0.1194067897617065 -0.36398797762087459 0 -0.14220327332501889 -0.37702927541168341 0 -0.14141895371846369 -0.36592534127185522 0 -0.13737756990640751 -0.37426861124357141 0 -0.13584599839461711 -0.35812124796083039 0 -0.14141895371846369 -0.36592534127185522 0 -0.13737756990640751 -0.37426861124357141 0 -0.13584599839461711 -0.35812124796083039 0 -0.13737756990640751 -0.37426861124357141 0 -0.1226994192247733 -0.34991819521187312 0 -0.13737756990640751 -0.37426861124357141 0 -0.1194067897617065 -0.36398797762087459 0 -0.1226994192247733 -0.34991819521187312 0 -0.13737756990640751 -0.37426861124357141 0 -0.1226994192247733 -0.34991819521187312 0 -0.13737756990640751 -0.37426861124357141 0 -0.1194067897617065 -0.36398797762087459 0 -0.1194067897617065 -0.36398797762087459 0 -0.10481080857334039 -0.36851253267182832 0 -0.1129150472834325 -0.37818178439515948 0 -0.1194067897617065 -0.36398797762087459 0 -0.10481080857334039 -0.36851253267182832 0 -0.10143600961700459 -0.35370734399817921 0 -0.09049285597893908 -0.36292867538002149 0 -0.097520482485571477 -0.38243064038456209 0 -0.10481080857334039 -0.36851253267182832 0 -0.09049285597893908 -0.36292867538002149 0 -0.097520482485571477 -0.38243064038456209 0 -0.10481080857334039 -0.36851253267182832 0 -0.10143600961700459 -0.35370734399817921 0 -0.09049285597893908 -0.36292867538002149 0 -0.10143600961700459 -0.35370734399817921 0 -0.11066476188634861 -0.34642484161978171 0 -0.1017603222851178 -0.33894291208780752 0 -0.1194067897617065 -0.36398797762087459 0 -0.11066476188634861 -0.34642484161978171 0 -0.1226994192247733 -0.34991819521187312 0 -0.1194067897617065 -0.36398797762087459 0 -0.10143600961700459 -0.35370734399817921 0 -0.11066476188634861 -0.34642484161978171 0 -0.1194067897617065 -0.36398797762087459 0 -0.10143600961700459 -0.35370734399817921 0 -0.1226994192247733 -0.34991819521187312 0 -0.10802126854314061 -0.32556777918017388 0 -0.11066476188634861 -0.34642484161978171 0 -0.1226994192247733 -0.34991819521187312 0 -0.10802126854314061 -0.32556777918017388 0 -0.12590893679870299 -0.33584878762570192 0 -0.1174936557482173 -0.3245078691243532 0 -0.10802126854314061 -0.32556777918017388 0 -0.12590893679870299 -0.33584878762570192 0 -0.1226994192247733 -0.34991819521187312 0 -0.10802126854314061 -0.32556777918017388 0 -0.12698494169892621 -0.32666827045077712 0 -0.12590893679870299 -0.33584878762570192 0 -0.1174936557482173 -0.3245078691243532 0 -0.12698494169892621 -0.32666827045077712 0 -0.1174936557482173 -0.3245078691243532 0 -0.11343604008328 -0.31588317876440453 0 -0.1174936557482173 -0.3245078691243532 0 -0.11343604008328 -0.31588317876440453 0 -0.10802126854314061 -0.32556777918017388 0 -0.11343604008328 -0.31588317876440453 0 -0.10802126854314061 -0.32556777918017388 0 -0.096728706722776642 -0.32159601906261248 0 -0.11343604008328 -0.31588317876440453 0 -0.096728706722776642 -0.32159601906261248 0 -0.084426992043629287 -0.30987511293521719 0 -0.11343604008328 -0.31588317876440453 0 -0.084426992043629287 -0.30987511293521719 0 -0.096728706722776642 -0.32159601906261248 0 -0.098563673554578207 -0.32997584100178973 0 -0.089144165359147987 -0.32863745284361517 0 -0.10802126854314061 -0.32556777918017388 0 -0.096728706722776642 -0.32159601906261248 0 -0.098563673554578207 -0.32997584100178973 0 -0.11066476188634861 -0.34642484161978171 0 -0.10802126854314061 -0.32556777918017388 0 -0.1017603222851178 -0.33894291208780752 0 -0.10802126854314061 -0.32556777918017388 0 -0.1017603222851178 -0.33894291208780752 0 -0.098563673554578207 -0.32997584100178973 0 -0.1017603222851178 -0.33894291208780752 0 -0.098563673554578207 -0.32997584100178973 0 -0.092767752466278386 -0.338484016968782 0 -0.10143600961700459 -0.35370734399817921 0 -0.1017603222851178 -0.33894291208780752 0 -0.092767752466278386 -0.338484016968782 0 -0.083465229472303878 -0.34342671037548178 0 -0.075733968477576505 -0.32197212948420778 0 -0.079135219512653288 -0.33431731089585998 0 -0.083465229472303878 -0.34342671037548178 0 -0.075733968477576505 -0.32197212948420778 0 -0.089144165359147987 -0.32863745284361517 0 -0.083465229472303878 -0.34342671037548178 0 -0.075733968477576505 -0.32197212948420778 0 -0.092767752466278386 -0.338484016968782 0 -0.089144165359147987 -0.32863745284361517 0 -0.083465229472303878 -0.34342671037548178 0 -0.098563673554578207 -0.32997584100178973 0 -0.092767752466278386 -0.338484016968782 0 -0.089144165359147987 -0.32863745284361517 0 -0.079135219512653288 -0.33431731089585998 0 -0.083465229472303878 -0.34342671037548178 0 -0.074350956197527462 -0.3382126627091826 0 -0.083465229472303878 -0.34342671037548178 0 -0.074350956197527462 -0.3382126627091826 0 -0.096728706722776642 -0.32159601906261248 0 -0.086780100752883768 -0.31963674965047473 0 -0.084426992043629287 -0.30987511293521719 0 -0.096728706722776642 -0.32159601906261248 0 -0.089144165359147987 -0.32863745284361517 0 -0.086780100752883768 -0.31963674965047473 0 -0.089144165359147987 -0.32863745284361517 0 -0.086780100752883768 -0.31963674965047473 0 -0.075733968477576505 -0.32197212948420778 0 -0.086780100752883768 -0.31963674965047473 0 -0.075733968477576505 -0.32197212948420778 0 -0.084426992043629287 -0.30987511293521719 0 -0.075733968477576505 -0.32197212948420778 0 -0.063416215312195559 -0.32057993302092019 0 -0.06800270748284612 -0.300517548592935 0 -0.075733968477576505 -0.32197212948420778 0 -0.06892902473659332 -0.32810265797109789 0 -0.063416215312195559 -0.32057993302092019 0 -0.074350956197527462 -0.3382126627091826 0 -0.05200876418301395 -0.32543125374531873 0 -0.06892902473659332 -0.32810265797109789 0 -0.074350956197527462 -0.3382126627091826 0 -0.05200876418301395 -0.32543125374531873 0 -0.079135219512653288 -0.33431731089585998 0 -0.074350956197527462 -0.3382126627091826 0 -0.079135219512653288 -0.33431731089585998 0 -0.075733968477576505 -0.32197212948420778 0 -0.06892902473659332 -0.32810265797109789 0 -0.079135219512653288 -0.33431731089585998 0 -0.06892902473659332 -0.32810265797109789 0 -0.074350956197527462 -0.3382126627091826 0 -0.074350956197527462 -0.3382126627091826 0 -0.05256840546782196 -0.35594803655774598 0 -0.074527502124928507 -0.35041608915594519 0 -0.072209288248140074 -0.36008645432464392 0 -0.05256840546782196 -0.35594803655774598 0 -0.074350956197527462 -0.3382126627091826 0 -0.074527502124928507 -0.35041608915594519 0 -0.05256840546782196 -0.35594803655774598 0 -0.083465229472303878 -0.34342671037548178 0 -0.074350956197527462 -0.3382126627091826 0 -0.074527502124928507 -0.35041608915594519 0 -0.06711266906551433 -0.36970655929598678 0 -0.072209288248140074 -0.36008645432464392 0 -0.05256840546782196 -0.35594803655774598 0 -0.06711266906551433 -0.36970655929598678 0 -0.079039662139163649 -0.36988580756775769 0 -0.069188174165302055 -0.37961774584101621 0 -0.06711266906551433 -0.36970655929598678 0 -0.072209288248140074 -0.36008645432464392 0 -0.079039662139163649 -0.36988580756775769 0 -0.072209288248140074 -0.36008645432464392 0 -0.079039662139163649 -0.36988580756775769 0 -0.09049285597893908 -0.36292867538002149 0 -0.079039662139163649 -0.36988580756775769 0 -0.09049285597893908 -0.36292867538002149 0 -0.083637280568191599 -0.38164185506358428 0 -0.10143600961700459 -0.35370734399817921 0 -0.092767752466278386 -0.338484016968782 0 -0.083465229472303878 -0.34342671037548178 0 -0.10143600961700459 -0.35370734399817921 0 -0.083465229472303878 -0.34342671037548178 0 -0.09049285597893908 -0.36292867538002149 0 -0.083465229472303878 -0.34342671037548178 0 -0.074527502124928507 -0.35041608915594519 0 -0.09049285597893908 -0.36292867538002149 0 -0.083465229472303878 -0.34342671037548178 0 -0.09049285597893908 -0.36292867538002149 0 -0.10143600961700459 -0.35370734399817921 0 -0.083465229472303878 -0.34342671037548178 0 -0.074527502124928507 -0.35041608915594519 0 -0.072209288248140074 -0.36008645432464392 0 -0.09049285597893908 -0.36292867538002149 0 -0.093588725053818614 -0.25675142893862218 0 -0.093451417529119701 -0.24639823353970619 0 -0.1092437241592995 -0.2489902569684205 0 -0.114544497531337 -0.26058414043275591 0 -0.093588725053818614 -0.25675142893862218 0 -0.114544497531337 -0.26058414043275591 0 -0.093588725053818614 -0.25675142893862218 0 -0.1092437241592995 -0.2489902569684205 0 -0.114544497531337 -0.26058414043275591 0 -0.099030567515173529 -0.27389527648614909 0 -0.093588725053818614 -0.25675142893862218 0 -0.12503603078947889 -0.25158228039713743 0 -0.1092437241592995 -0.2489902569684205 0 -0.13217695765232859 -0.26380903384329762 0 -0.12503603078947889 -0.25158228039713743 0 -0.114544497531337 -0.26058414043275591 0 -0.13217695765232859 -0.26380903384329762 0 -0.114544497531337 -0.26058414043275591 0 -0.1219705158530231 -0.27052822381544062 0 -0.13217695765232859 -0.26380903384329762 0 -0.114544497531337 -0.26058414043275591 0 -0.12503603078947889 -0.25158228039713743 0 -0.114544497531337 -0.26058414043275591 0 -0.1092437241592995 -0.2489902569684205 0 -0.12503603078947889 -0.25158228039713743 0 -0.114544497531337 -0.26058414043275591 0 -0.114544497531337 -0.26058414043275591 0 -0.1219705158530231 -0.27052822381544062 0 -0.1116620552973496 -0.27919242643668107 0 -0.12967042095491729 -0.27431562383975949 0 -0.1219705158530231 -0.27052822381544062 0 -0.12206497803289169 -0.28075447161807998 0 -0.1219705158530231 -0.27052822381544062 0 -0.12206497803289169 -0.28075447161807998 0 -0.1116620552973496 -0.27919242643668107 0 -0.1116620552973496 -0.27919242643668107 0 -0.099030567515173529 -0.27389527648614909 0 -0.098519321946920854 -0.28736151322767989 0 -0.114544497531337 -0.26058414043275591 0 -0.1116620552973496 -0.27919242643668107 0 -0.099030567515173529 -0.27389527648614909 0 -0.114544497531337 -0.26058414043275591 0 -0.099030567515173529 -0.27389527648614909 0 -0.098519321946920854 -0.28736151322767989 0 -0.1081275639365239 -0.29423933298982069 0 -0.094213745983540681 -0.29787468771866138 0 -0.1116620552973496 -0.27919242643668107 0 -0.098519321946920854 -0.28736151322767989 0 -0.1081275639365239 -0.29423933298982069 0 -0.1116620552973496 -0.27919242643668107 0 -0.1081275639365239 -0.29423933298982069 0 -0.1175101073674318 -0.28999131503352737 0 -0.12206497803289169 -0.28075447161807998 0 -0.1116620552973496 -0.27919242643668107 0 -0.1175101073674318 -0.28999131503352737 0 -0.13071184101257871 -0.29146467300954759 0 -0.12206497803289169 -0.28075447161807998 0 -0.1175101073674318 -0.28999131503352737 0 -0.13071184101257871 -0.29146467300954759 0 -0.1175101073674318 -0.28999131503352737 0 -0.1176488750369457 -0.30159873944795829 0 -0.1081275639365239 -0.29423933298982069 0 -0.1175101073674318 -0.28999131503352737 0 -0.1176488750369457 -0.30159873944795829 0 -0.1081275639365239 -0.29423933298982069 0 -0.1176488750369457 -0.30159873944795829 0 -0.1035706434167839 -0.30389421037121239 0 -0.12979684287756851 -0.3079550694169117 0 -0.11343604008328 -0.31588317876440453 0 -0.1176488750369457 -0.30159873944795829 0 -0.11343604008328 -0.31588317876440453 0 -0.1176488750369457 -0.30159873944795829 0 -0.1035706434167839 -0.30389421037121239 0 -0.11343604008328 -0.31588317876440453 0 -0.1035706434167839 -0.30389421037121239 0 -0.084426992043629287 -0.30987511293521719 0 -0.1035706434167839 -0.30389421037121239 0 -0.094213745983540681 -0.29787468771866138 0 -0.084426992043629287 -0.30987511293521719 0 -0.1081275639365239 -0.29423933298982069 0 -0.1035706434167839 -0.30389421037121239 0 -0.094213745983540681 -0.29787468771866138 0 -0.084426992043629287 -0.30987511293521719 0 -0.06800270748284612 -0.300517548592935 0 -0.08351663749900963 -0.28720641253954182 0 -0.094213745983540681 -0.29787468771866138 0 -0.084426992043629287 -0.30987511293521719 0 -0.08351663749900963 -0.28720641253954182 0 -0.075733968477576505 -0.32197212948420778 0 -0.084426992043629287 -0.30987511293521719 0 -0.06800270748284612 -0.300517548592935 0 -0.063416215312195559 -0.32057993302092019 0 -0.06800270748284612 -0.300517548592935 0 -0.056937969072383077 -0.31001122545130733 0 -0.075733968477576505 -0.32197212948420778 0 -0.06800270748284612 -0.300517548592935 0 -0.06800270748284612 -0.300517548592935 0 -0.065073151703682733 -0.29238790564304579 0 -0.059782232634533257 -0.29946558201987378 0 -0.065073151703682733 -0.29238790564304579 0 -0.072606463500964238 -0.28378720126751028 0 -0.056659359844166493 -0.28116243874404262 0 -0.06800270748284612 -0.300517548592935 0 -0.08351663749900963 -0.28720641253954182 0 -0.06800270748284612 -0.300517548592935 0 -0.065073151703682733 -0.29238790564304579 0 -0.072606463500964238 -0.28378720126751028 0 -0.06800270748284612 -0.300517548592935 0 -0.072606463500964238 -0.28378720126751028 0 -0.08351663749900963 -0.28720641253954182 0 -0.06800270748284612 -0.300517548592935 0 -0.065073151703682733 -0.29238790564304579 0 -0.098519321946920854 -0.28736151322767989 0 -0.094213745983540681 -0.29787468771866138 0 -0.08351663749900963 -0.28720641253954182 0 -0.099030567515173529 -0.27389527648614909 0 -0.098519321946920854 -0.28736151322767989 0 -0.08351663749900963 -0.28720641253954182 0 -0.099030567515173529 -0.27389527648614909 0 -0.082493990277727997 -0.27035960792217911 0 -0.093588725053818614 -0.25675142893862218 0 -0.072606463500964238 -0.28378720126751028 0 -0.08351663749900963 -0.28720641253954182 0 -0.082493990277727997 -0.27035960792217911 0 -0.099030567515173529 -0.27389527648614909 0 -0.08351663749900963 -0.28720641253954182 0 -0.082493990277727997 -0.27035960792217911 0 -0.099030567515173529 -0.27389527648614909 0 -0.08351663749900963 -0.28720641253954182 0 -0.072606463500964238 -0.28378720126751028 0 -0.068935672432736295 -0.27063760648353341 0 -0.056659359844166493 -0.28116243874404262 0 -0.072606463500964238 -0.28378720126751028 0 -0.082493990277727997 -0.27035960792217911 0 -0.068935672432736295 -0.27063760648353341 0 -0.068935672432736295 -0.27063760648353341 0 -0.072632952576300092 -0.25291871744448891 0 -0.057770050599754617 -0.26306008111901891 0 -0.082493990277727997 -0.27035960792217911 0 -0.068935672432736295 -0.27063760648353341 0 -0.072632952576300092 -0.25291871744448891 0 -0.082493990277727997 -0.27035960792217911 0 -0.072632952576300092 -0.25291871744448891 0 -0.093588725053818614 -0.25675142893862218 0 -0.072632952576300092 -0.25291871744448891 0 -0.093588725053818614 -0.25675142893862218 0 -0.072632952576300092 -0.25291871744448891 0 -0.093588725053818614 -0.25675142893862218 0 -0.078630194548230628 -0.24805194808140191 0 -0.03358818177396742 -0.25970399668904198 0 -0.04434031078868992 -0.27027395222738931 0 -0.051677180098781562 -0.24908600595035579 0 -0.03358818177396742 -0.25970399668904198 0 -0.051677180098781562 -0.24908600595035579 0 -0.031558063588024848 -0.2454063148683252 0 -0.072632952576300092 -0.25291871744448891 0 -0.051677180098781562 -0.24908600595035579 0 -0.072632952576300092 -0.25291871744448891 0 -0.057770050599754617 -0.26306008111901891 0 -0.051677180098781562 -0.24908600595035579 0 -0.057770050599754617 -0.26306008111901891 0 -0.04434031078868992 -0.27027395222738931 0 -0.051677180098781562 -0.24908600595035579 0 -0.04434031078868992 -0.27027395222738931 0 -0.051677180098781562 -0.24908600595035579 0 -0.057770050599754617 -0.26306008111901891 0 -0.056659359844166493 -0.28116243874404262 0 -0.04434031078868992 -0.27027395222738931 0 -0.068935672432736295 -0.27063760648353341 0 -0.057770050599754617 -0.26306008111901891 0 -0.056659359844166493 -0.28116243874404262 0 -0.04434031078868992 -0.27027395222738931 0 -0.037003441478597063 -0.29146189850442222 0 -0.023785773797075919 -0.27342587061416168 0 -0.03358818177396742 -0.25970399668904198 0 -0.04434031078868992 -0.27027395222738931 0 -0.023785773797075919 -0.27342587061416168 0 -0.04434031078868992 -0.27027395222738931 0 -0.037003441478597063 -0.29146189850442222 0 -0.056659359844166493 -0.28116243874404262 0 -0.04434031078868992 -0.27027395222738931 0 -0.037003441478597063 -0.29146189850442222 0 -0.056659359844166493 -0.28116243874404262 0 -0.037003441478597063 -0.29146189850442222 0 -0.050886428404740662 -0.29652842596337847 0 -0.065073151703682733 -0.29238790564304579 0 -0.056659359844166493 -0.28116243874404262 0 -0.050886428404740662 -0.29652842596337847 0 -0.065073151703682733 -0.29238790564304579 0 -0.050886428404740662 -0.29652842596337847 0 -0.059782232634533257 -0.29946558201987378 0 -0.050886428404740662 -0.29652842596337847 0 -0.056937969072383077 -0.31001122545130733 0 -0.045300635061447041 -0.30721652968917618 0 -0.050886428404740662 -0.29652842596337847 0 -0.059782232634533257 -0.29946558201987378 0 -0.056937969072383077 -0.31001122545130733 0 -0.06800270748284612 -0.300517548592935 0 -0.059782232634533257 -0.29946558201987378 0 -0.056937969072383077 -0.31001122545130733 0 -0.06800270748284612 -0.300517548592935 0 -0.056937969072383077 -0.31001122545130733 0 -0.037003441478597063 -0.29146189850442222 0 -0.029666572168500788 -0.31264984478145402 0 -0.037003441478597063 -0.29146189850442222 0 -0.050886428404740662 -0.29652842596337847 0 -0.045300635061447041 -0.30721652968917618 0 -0.037003441478597063 -0.29146189850442222 0 -0.045300635061447041 -0.30721652968917618 0 -0.029666572168500788 -0.31264984478145402 0 -0.012981313599399051 -0.30310462588346238 0 -0.021359817212315529 -0.29051316713672931 0 -0.029666572168500788 -0.31264984478145402 0 -0.037003441478597063 -0.29146189850442222 0 -0.021359817212315529 -0.29051316713672931 0 -0.029666572168500788 -0.31264984478145402 0 -0.012981313599399051 -0.30310462588346238 0 -0.029666572168500788 -0.31264984478145402 0 -0.012981313599399051 -0.30310462588346238 0 -0.029666572168500788 -0.31264984478145402 0 -0.011931318334793771 -0.3174152473035402 0 -0.012981313599399051 -0.30310462588346238 0 -0.011931318334793771 -0.3174152473035402 0 0.00031641118386317669 -0.3042045703593983 0 -0.012981313599399051 -0.30310462588346238 0 -0.0069447964901112672 -0.28563677671735072 0 0.00031641118386317669 -0.3042045703593983 0 -0.012981313599399051 -0.30310462588346238 0 -0.0069447964901112672 -0.28563677671735072 0 -0.021359817212315529 -0.29051316713672931 0 -0.037003441478597063 -0.29146189850442222 0 -0.021359817212315529 -0.29051316713672931 0 -0.023785773797075919 -0.27342587061416168 0 -0.0069447964901112672 -0.28563677671735072 0 -0.021359817212315529 -0.29051316713672931 0 -0.023785773797075919 -0.27342587061416168 0 -0.0069447964901112672 -0.28563677671735072 0 -0.0063989791616554503 -0.26667991422344189 0 0.0071700150999407094 -0.27189152047923321 0 -0.0069447964901112672 -0.28563677671735072 0 -0.023785773797075919 -0.27342587061416168 0 -0.0063989791616554503 -0.26667991422344189 0 -0.0063989791616554503 -0.26667991422344189 0 -0.00368050083723665 -0.25337368755914491 0 -0.017905010862210059 -0.25635263443910211 0 -0.0063989791616554503 -0.26667991422344189 0 -0.00368050083723665 -0.25337368755914491 0 0.006752191916760482 -0.25939899553165929 0 -0.00368050083723665 -0.25337368755914491 0 -0.017905010862210059 -0.25635263443910211 0 -0.009729669714546002 -0.2432872939275138 0 -0.03358818177396742 -0.25970399668904198 0 -0.017905010862210059 -0.25635263443910211 0 -0.031558063588024848 -0.2454063148683252 0 -0.03358818177396742 -0.25970399668904198 0 -0.023785773797075919 -0.27342587061416168 0 -0.017905010862210059 -0.25635263443910211 0 -0.023785773797075919 -0.27342587061416168 0 -0.0063989791616554503 -0.26667991422344189 0 -0.017905010862210059 -0.25635263443910211 0 -0.05256840546782196 -0.35594803655774598 0 -0.037257287124194308 -0.33617861415077538 0 -0.030410112685000861 -0.35101294560335772 0 -0.05256840546782196 -0.35594803655774598 0 -0.030410112685000861 -0.35101294560335772 0 -0.024951333858139229 -0.36634558578690202 0 -0.05256840546782196 -0.35594803655774598 0 -0.030785854738116972 -0.37368341040631009 0 -0.024951333858139229 -0.36634558578690202 0 -0.041540536410682748 -0.37352362760889313 0 -0.05256840546782196 -0.35594803655774598 0 -0.030785854738116972 -0.37368341040631009 0 -0.05256840546782196 -0.35594803655774598 0 -0.030785854738116972 -0.37368341040631009 0 -0.041540536410682748 -0.37352362760889313 0 -0.05256840546782196 -0.35594803655774598 0 -0.055577807967692197 -0.37571391799020343 0 -0.06711266906551433 -0.36970655929598678 0 -0.05256840546782196 -0.35594803655774598 0 -0.055577807967692197 -0.37571391799020343 0 -0.074350956197527462 -0.3382126627091826 0 -0.05256840546782196 -0.35594803655774598 0 -0.05200876418301395 -0.32543125374531873 0 -0.05256840546782196 -0.35594803655774598 0 -0.05200876418301395 -0.32543125374531873 0 -0.037257287124194308 -0.33617861415077538 0 -0.056937969072383077 -0.31001122545130733 0 -0.045300635061447041 -0.30721652968917618 0 -0.05200876418301395 -0.32543125374531873 0 -0.06892902473659332 -0.32810265797109789 0 -0.063416215312195559 -0.32057993302092019 0 -0.05200876418301395 -0.32543125374531873 0 -0.063416215312195559 -0.32057993302092019 0 -0.056937969072383077 -0.31001122545130733 0 -0.05200876418301395 -0.32543125374531873 0 -0.05200876418301395 -0.32543125374531873 0 -0.029666572168500788 -0.31264984478145402 0 -0.045300635061447041 -0.30721652968917618 0 -0.05200876418301395 -0.32543125374531873 0 -0.029666572168500788 -0.31264984478145402 0 -0.05200876418301395 -0.32543125374531873 0 -0.037257287124194308 -0.33617861415077538 0 -0.029666572168500788 -0.31264984478145402 0 -0.037257287124194308 -0.33617861415077538 0 -0.021632581116634311 -0.33585099006600011 0 -0.030410112685000861 -0.35101294560335772 0 -0.037257287124194308 -0.33617861415077538 0 -0.021632581116634311 -0.33585099006600011 0 -0.029666572168500788 -0.31264984478145402 0 -0.021632581116634311 -0.33585099006600011 0 -0.029666572168500788 -0.31264984478145402 0 -0.021632581116634311 -0.33585099006600011 0 -0.029666572168500788 -0.31264984478145402 0 -0.011931318334793771 -0.3174152473035402 0 -0.011931318334793771 -0.3174152473035402 0 0.0058723819768978468 -0.31694601211133538 0 0.00031641118386317669 -0.3042045703593983 0 -0.011931318334793771 -0.3174152473035402 0 -0.0044447892489900718 -0.32969051038175518 0 0.0058723819768978468 -0.31694601211133538 0 -0.021632581116634311 -0.33585099006600011 0 -0.011931318334793771 -0.3174152473035402 0 -0.0044447892489900718 -0.32969051038175518 0 -0.021632581116634311 -0.33585099006600011 0 -0.0077483855274109387 -0.34116956604877502 0 -0.0044447892489900718 -0.32969051038175518 0 -0.0077483855274109387 -0.34116956604877502 0 -0.0044447892489900718 -0.32969051038175518 0 0.0086824183207449973 -0.3400846283967997 0 -0.021632581116634311 -0.33585099006600011 0 -0.0077483855274109387 -0.34116956604877502 0 -0.01359859006476115 -0.35905213535054392 0 -0.01359859006476115 -0.35905213535054392 0 0.0024528653955408351 -0.34538775859553839 0 0.001105968824724096 -0.3566884490700663 0 -0.0077483855274109387 -0.34116956604877502 0 -0.01359859006476115 -0.35905213535054392 0 0.0024528653955408351 -0.34538775859553839 0 -0.01359859006476115 -0.35905213535054392 0 0.0024528653955408351 -0.34538775859553839 0 -0.021632581116634311 -0.33585099006600011 0 -0.01359859006476115 -0.35905213535054392 0 -0.030410112685000861 -0.35101294560335772 0 -0.01359859006476115 -0.35905213535054392 0 -0.030410112685000861 -0.35101294560335772 0 -0.024951333858139229 -0.36634558578690202 0 -0.021632581116634311 -0.33585099006600011 0 -0.01359859006476115 -0.35905213535054392 0 -0.01359859006476115 -0.35905213535054392 0 -0.024187118774748839 -0.36806599991457511 0 -0.02068706749223807 -0.37594537550514712 0 -0.02618820878437841 -0.37078031968685549 0 -0.030785854738116972 -0.37368341040631009 0 -0.02068706749223807 -0.37594537550514712 0 -0.02618820878437841 -0.37078031968685549 0 -0.024187118774748839 -0.36806599991457511 0 -0.02068706749223807 -0.37594537550514712 0 -0.02618820878437841 -0.37078031968685549 0 -0.024187118774748839 -0.36806599991457511 0 -0.030785854738116972 -0.37368341040631009 0 -0.024187118774748839 -0.36806599991457511 0 -0.030785854738116972 -0.37368341040631009 0 -0.024951333858139229 -0.36634558578690202 0 -0.024187118774748839 -0.36806599991457511 0 -0.024951333858139229 -0.36634558578690202 0 -0.02618820878437841 -0.37078031968685549 0 -0.02068706749223807 -0.37594537550514712 0 -0.024187118774748839 -0.36806599991457511 0 -0.030785854738116972 -0.37368341040631009 0 -0.01359859006476115 -0.35905213535054392 0 -0.024187118774748839 -0.36806599991457511 0 -0.01359859006476115 -0.35905213535054392 0 -0.024187118774748839 -0.36806599991457511 0 -0.024951333858139229 -0.36634558578690202 0 -0.024187118774748839 -0.36806599991457511 0 -0.02068706749223807 -0.37594537550514712 0 -0.01359859006476115 -0.35905213535054392 0 -0.0075572719349759621 -0.37649869444358169 0 -0.01359859006476115 -0.35905213535054392 0 0.001105968824724096 -0.3566884490700663 0 0.0035412142629109009 -0.36697260963372241 0 -0.01359859006476115 -0.35905213535054392 0 -0.0075572719349759621 -0.37649869444358169 0 0.0035412142629109009 -0.36697260963372241 0 -0.01359859006476115 -0.35905213535054392 0 -0.0075572719349759621 -0.37649869444358169 0 -0.02068706749223807 -0.37594537550514712 0 -0.0075572719349759621 -0.37649869444358169 0 -0.0015159538051878281 -0.39394525353661852 0 -0.0015159538051878281 -0.39394525353661852 0 -0.02068706749223807 -0.37594537550514712 0 -0.016539252623536511 -0.3852830076118483 0 -0.0075572719349759621 -0.37649869444358169 0 -0.0015159538051878281 -0.39394525353661852 0 -0.02068706749223807 -0.37594537550514712 0 -0.0075572719349759621 -0.37649869444358169 0 -0.0015159538051878281 -0.39394525353661852 0 0.0071643725519175668 -0.38188275708451119 0 -0.0015159538051878281 -0.39394525353661852 0 -0.02068706749223807 -0.37594537550514712 0 -0.021081455521060392 -0.40053577019721859 0 -0.016539252623536511 -0.3852830076118483 0 -0.0067188233582789816 -0.40739092672384841 0 -0.016539252623536511 -0.3852830076118483 0 -0.0067188233582789816 -0.40739092672384841 0 -0.0019778635458290168 -0.39713890466688878 0 -0.016539252623536511 -0.3852830076118483 0 -0.0067188233582789816 -0.40739092672384841 0 -0.0015159538051878281 -0.39394525353661852 0 -0.0019778635458290168 -0.39713890466688878 0 -0.016539252623536511 -0.3852830076118483 0 -0.0019778635458290168 -0.39713890466688878 0 -0.016539252623536511 -0.3852830076118483 0 -0.021081455521060392 -0.40053577019721859 0 -0.02456783364851536 -0.3917093544230334 0 -0.016539252623536511 -0.3852830076118483 0 -0.021081455521060392 -0.40053577019721859 0 -0.030716124380346769 -0.39357342033435261 0 -0.02456783364851536 -0.3917093544230334 0 -0.021081455521060392 -0.40053577019721859 0 -0.030716124380346769 -0.39357342033435261 0 -0.036450353270729888 -0.40466800392828589 0 -0.02068706749223807 -0.37594537550514712 0 -0.016539252623536511 -0.3852830076118483 0 -0.030785854738116972 -0.37368341040631009 0 -0.02068706749223807 -0.37594537550514712 0 -0.016539252623536511 -0.3852830076118483 0 -0.02456783364851536 -0.3917093544230334 0 -0.016539252623536511 -0.3852830076118483 0 -0.028592068488720101 -0.38563744738350553 0 -0.030716124380346769 -0.39357342033435261 0 -0.02456783364851536 -0.3917093544230334 0 -0.028592068488720101 -0.38563744738350553 0 -0.030785854738116972 -0.37368341040631009 0 -0.016539252623536511 -0.3852830076118483 0 -0.028592068488720101 -0.38563744738350553 0 -0.030785854738116972 -0.37368341040631009 0 -0.016539252623536511 -0.3852830076118483 0 -0.041540536410682748 -0.37352362760889313 0 -0.030785854738116972 -0.37368341040631009 0 -0.040204043811910277 -0.38170098140930042 0 -0.030785854738116972 -0.37368341040631009 0 -0.040204043811910277 -0.38170098140930042 0 -0.030785854738116972 -0.37368341040631009 0 -0.028592068488720101 -0.38563744738350553 0 -0.040204043811910277 -0.38170098140930042 0 -0.041540536410682748 -0.37352362760889313 0 -0.040204043811910277 -0.38170098140930042 0 -0.041540536410682748 -0.37352362760889313 0 -0.040204043811910277 -0.38170098140930042 0 -0.047136748129047133 -0.38025401328103348 0 -0.040204043811910277 -0.38170098140930042 0 -0.045687984410180252 -0.38636938239151619 0 -0.047136748129047133 -0.38025401328103348 0 -0.040204043811910277 -0.38170098140930042 0 -0.045687984410180252 -0.38636938239151619 0 -0.030716124380346769 -0.39357342033435261 0 -0.028592068488720101 -0.38563744738350553 0 -0.040204043811910277 -0.38170098140930042 0 -0.040204043811910277 -0.38170098140930042 0 -0.036450353270729888 -0.40466800392828589 0 -0.045687984410180252 -0.38636938239151619 0 -0.036450353270729888 -0.40466800392828589 0 -0.051967664718507528 -0.39636755391907302 0 -0.040204043811910277 -0.38170098140930042 0 -0.045687984410180252 -0.38636938239151619 0 -0.036450353270729888 -0.40466800392828589 0 -0.030716124380346769 -0.39357342033435261 0 -0.040204043811910277 -0.38170098140930042 0 -0.036450353270729888 -0.40466800392828589 0 -0.036450353270729888 -0.40466800392828589 0 -0.051967664718507528 -0.39636755391907302 0 -0.051525226613076673 -0.4108874080280796 0 -0.051967664718507528 -0.39636755391907302 0 -0.051525226613076673 -0.4108874080280796 0 -0.064083334619168153 -0.40185594210161329 0 -0.051967664718507528 -0.39636755391907302 0 -0.060187898484353221 -0.3884966446880187 0 -0.064083334619168153 -0.40185594210161329 0 -0.051967664718507528 -0.39636755391907302 0 -0.060187898484353221 -0.3884966446880187 0 -0.052673368044770179 -0.3839621570052541 0 -0.060187898484353221 -0.3884966446880187 0 -0.055577807967692197 -0.37571391799020343 0 -0.052673368044770179 -0.3839621570052541 0 -0.060187898484353221 -0.3884966446880187 0 -0.055577807967692197 -0.37571391799020343 0 -0.069188174165302055 -0.37961774584101621 0 -0.041540536410682748 -0.37352362760889313 0 -0.055577807967692197 -0.37571391799020343 0 -0.047136748129047133 -0.38025401328103348 0 -0.055577807967692197 -0.37571391799020343 0 -0.047136748129047133 -0.38025401328103348 0 -0.052673368044770179 -0.3839621570052541 0 -0.045687984410180252 -0.38636938239151619 0 -0.051967664718507528 -0.39636755391907302 0 -0.052673368044770179 -0.3839621570052541 0 -0.045687984410180252 -0.38636938239151619 0 -0.047136748129047133 -0.38025401328103348 0 -0.052673368044770179 -0.3839621570052541 0 -0.044913482795026077 -0.42594384622024339 0 -0.042085575314680192 -0.44003378658289521 0 -0.058815165013487117 -0.43947661053861697 0 -0.044913482795026077 -0.42594384622024339 0 -0.070288931872888594 -0.42148774777448839 0 -0.044913482795026077 -0.42594384622024339 0 -0.058815165013487117 -0.43947661053861697 0 -0.070288931872888594 -0.42148774777448839 0 -0.051525226613076673 -0.4108874080280796 0 -0.064083334619168153 -0.40185594210161329 0 -0.070288931872888594 -0.42148774777448839 0 -0.051525226613076673 -0.4108874080280796 0 -0.044913482795026077 -0.42594384622024339 0 -0.070288931872888594 -0.42148774777448839 0 -0.036450353270729888 -0.40466800392828589 0 -0.032696662729549797 -0.42763502644727153 0 -0.036450353270729888 -0.40466800392828589 0 -0.041396431352095607 -0.41728357115597009 0 -0.032696662729549797 -0.42763502644727153 0 -0.051525226613076673 -0.4108874080280796 0 -0.041396431352095607 -0.41728357115597009 0 -0.044913482795026077 -0.42594384622024339 0 -0.036450353270729888 -0.40466800392828589 0 -0.032696662729549797 -0.42763502644727153 0 -0.02489009931799956 -0.41440433980388719 0 -0.036450353270729888 -0.40466800392828589 0 -0.051525226613076673 -0.4108874080280796 0 -0.041396431352095607 -0.41728357115597009 0 -0.041396431352095607 -0.41728357115597009 0 -0.032696662729549797 -0.42763502644727153 0 -0.044913482795026077 -0.42594384622024339 0 -0.032696662729549797 -0.42763502644727153 0 -0.044913482795026077 -0.42594384622024339 0 -0.042085575314680192 -0.44003378658289521 0 -0.032696662729549797 -0.42763502644727153 0 -0.02489009931799956 -0.41440433980388719 0 -0.014565562360435869 -0.42411157793797771 0 -0.032696662729549797 -0.42763502644727153 0 -0.019242176611549981 -0.43696555881821642 0 -0.014565562360435869 -0.42411157793797771 0 -0.021081455521060392 -0.40053577019721859 0 -0.036450353270729888 -0.40466800392828589 0 -0.02489009931799956 -0.41440433980388719 0 -0.02489009931799956 -0.41440433980388719 0 -0.0168139851394437 -0.41161065366573302 0 -0.014565562360435869 -0.42411157793797771 0 -0.021081455521060392 -0.40053577019721859 0 -0.02489009931799956 -0.41440433980388719 0 -0.0168139851394437 -0.41161065366573302 0 -0.0019778635458290168 -0.39713890466688878 0 -0.0067188233582789816 -0.40739092672384841 0 0.0063834234806573811 -0.41675765137015403 0 -0.0168139851394437 -0.41161065366573302 0 -0.0067188233582789816 -0.40739092672384841 0 -0.014565562360435869 -0.42411157793797771 0 -0.0067188233582789816 -0.40739092672384841 0 0.0031016059069773122 -0.4294988458358488 0 -0.0067188233582789816 -0.40739092672384841 0 -0.014565562360435869 -0.42411157793797771 0 0.0031016059069773122 -0.4294988458358488 0 -0.021081455521060392 -0.40053577019721859 0 -0.0168139851394437 -0.41161065366573302 0 -0.0067188233582789816 -0.40739092672384841 0 -0.0081485235450065793 -0.43582363342001701 0 -0.014565562360435869 -0.42411157793797771 0 0.0031016059069773122 -0.4294988458358488 0 -0.019242176611549981 -0.43696555881821642 0 -0.0081485235450065793 -0.43582363342001701 0 -0.014565562360435869 -0.42411157793797771 0 -0.0081485235450065793 -0.43582363342001701 0 -0.00085677679244291777 -0.44417084653599809 0 0.0031016059069773122 -0.4294988458358488 0 -0.0081485235450065793 -0.43582363342001701 0 -0.00085677679244291777 -0.44417084653599809 0 -0.0117677885632525 -0.44745594279929329 0 -0.019242176611549981 -0.43696555881821642 0 -0.0081485235450065793 -0.43582363342001701 0 -0.0117677885632525 -0.44745594279929329 0 -0.00085677679244291777 -0.44417084653599809 0 -0.0117677885632525 -0.44745594279929329 0 -0.00039121293316641458 -0.45646904567698232 0 -0.00039121293316641458 -0.45646904567698232 0 -0.014092665110580931 -0.4611720717372948 0 -0.001756890738855816 -0.47423604232798888 0 -0.0117677885632525 -0.44745594279929329 0 -0.00039121293316641458 -0.45646904567698232 0 -0.014092665110580931 -0.4611720717372948 0 -0.014092665110580931 -0.4611720717372948 0 -0.028942972188369699 -0.450602048966257 0 -0.025189281647189608 -0.47356907148524252 0 -0.028942972188369699 -0.450602048966257 0 -0.025189281647189608 -0.47356907148524252 0 -0.019242176611549981 -0.43696555881821642 0 -0.0117677885632525 -0.44745594279929329 0 -0.028942972188369699 -0.450602048966257 0 -0.032696662729549797 -0.42763502644727153 0 -0.019242176611549981 -0.43696555881821642 0 -0.028942972188369699 -0.450602048966257 0 -0.0117677885632525 -0.44745594279929329 0 -0.014092665110580931 -0.4611720717372948 0 -0.028942972188369699 -0.450602048966257 0 -0.032696662729549797 -0.42763502644727153 0 -0.028942972188369699 -0.450602048966257 0 -0.0085657209220548203 -0.5 0 -0.001756890738855816 -0.47423604232798888 0 0.0055322331112882912 -0.48922459921452538 0 -0.0085657209220548203 -0.5 0 -0.001756890738855816 -0.47423604232798888 0 -0.025189281647189608 -0.47356907148524252 0 -0.014092665110580931 -0.4611720717372948 0 -0.001756890738855816 -0.47423604232798888 0 -0.025189281647189608 -0.47356907148524252 0 -0.0085657209220548203 -0.5 0 -0.025189281647189608 -0.47356907148524252 0 -0.035890431535145713 -0.5 0 -0.025189281647189608 -0.47356907148524252 0 -0.050849024429062202 -0.47879654569106711 0 -0.045323205303666909 -0.45820618048103612 0 -0.025189281647189608 -0.47356907148524252 0 -0.035890431535145713 -0.5 0 -0.050849024429062202 -0.47879654569106711 0 -0.050849024429062202 -0.47879654569106711 0 -0.065599711405970304 -0.45953929505376251 0 -0.070835229409541539 -0.48146410870402978 0 -0.050849024429062202 -0.47879654569106711 0 -0.063215142148236592 -0.5 0 -0.070835229409541539 -0.48146410870402978 0 -0.035890431535145713 -0.5 0 -0.050849024429062202 -0.47879654569106711 0 -0.063215142148236592 -0.5 0 -0.032696662729549797 -0.42763502644727153 0 -0.028942972188369699 -0.450602048966257 0 -0.042085575314680192 -0.44003378658289521 0 -0.028942972188369699 -0.450602048966257 0 -0.042085575314680192 -0.44003378658289521 0 -0.045323205303666909 -0.45820618048103612 0 -0.028942972188369699 -0.450602048966257 0 -0.025189281647189608 -0.47356907148524252 0 -0.045323205303666909 -0.45820618048103612 0 -0.050849024429062202 -0.47879654569106711 0 -0.045323205303666909 -0.45820618048103612 0 -0.065599711405970304 -0.45953929505376251 0 -0.045323205303666909 -0.45820618048103612 0 -0.058815165013487117 -0.43947661053861697 0 -0.065599711405970304 -0.45953929505376251 0 -0.042085575314680192 -0.44003378658289521 0 -0.045323205303666909 -0.45820618048103612 0 -0.058815165013487117 -0.43947661053861697 0 -0.058815165013487117 -0.43947661053861697 0 -0.065599711405970304 -0.45953929505376251 0 -0.086198485379274867 -0.44141073841562278 0 -0.065599711405970304 -0.45953929505376251 0 -0.086198485379274867 -0.44141073841562278 0 -0.0885749197049229 -0.46898173434812868 0 -0.063215142148236592 -0.5 0 -0.070835229409541539 -0.48146410870402978 0 -0.090539852761327477 -0.5 0 -0.065599711405970304 -0.45953929505376251 0 -0.070835229409541539 -0.48146410870402978 0 -0.0885749197049229 -0.46898173434812868 0 -0.070835229409541539 -0.48146410870402978 0 -0.0885749197049229 -0.46898173434812868 0 -0.090539852761327477 -0.5 0 -0.090539852761327477 -0.5 0 -0.1109006914084764 -0.47843491084128431 0 -0.1178645633744184 -0.5 0 -0.0885749197049229 -0.46898173434812868 0 -0.090539852761327477 -0.5 0 -0.1109006914084764 -0.47843491084128431 0 -0.12858690215303051 -0.46371901618805828 0 -0.13373367115321971 -0.48380607728579073 0 -0.1109006914084764 -0.47843491084128431 0 -0.13373367115321971 -0.48380607728579073 0 -0.1109006914084764 -0.47843491084128431 0 -0.1178645633744184 -0.5 0 -0.086198485379274867 -0.44141073841562278 0 -0.1096736002732495 -0.45399860662872721 0 -0.11075475846082659 -0.42985043295533809 0 -0.0885749197049229 -0.46898173434812868 0 -0.1109006914084764 -0.47843491084128431 0 -0.1096736002732495 -0.45399860662872721 0 -0.086198485379274867 -0.44141073841562278 0 -0.0885749197049229 -0.46898173434812868 0 -0.1096736002732495 -0.45399860662872721 0 -0.12858690215303051 -0.46371901618805828 0 -0.1109006914084764 -0.47843491084128431 0 -0.1096736002732495 -0.45399860662872721 0 -0.12858690215303051 -0.46371901618805828 0 -0.1096736002732495 -0.45399860662872721 0 -0.12858690215303051 -0.46371901618805828 0 -0.1096736002732495 -0.45399860662872721 0 -0.1246817745653606 -0.44805704051465428 0 -0.1096736002732495 -0.45399860662872721 0 -0.1246817745653606 -0.44805704051465428 0 -0.11075475846082659 -0.42985043295533809 0 -0.13077069007572109 -0.43310804016754201 0 -0.1246817745653606 -0.44805704051465428 0 -0.11075475846082659 -0.42985043295533809 0 -0.12619577702185669 -0.42297562863706512 0 -0.13077069007572109 -0.43310804016754201 0 -0.11075475846082659 -0.42985043295533809 0 -0.086198485379274867 -0.44141073841562278 0 -0.11075475846082659 -0.42985043295533809 0 -0.095664380950751082 -0.41703164932873349 0 -0.095664380950751082 -0.41703164932873349 0 -0.1210398300286134 -0.41257555088297743 0 -0.095664380950751082 -0.41703164932873349 0 -0.1210398300286134 -0.41257555088297743 0 -0.1014039386841364 -0.40099184302701052 0 -0.11075475846082659 -0.42985043295533809 0 -0.095664380950751082 -0.41703164932873349 0 -0.1210398300286134 -0.41257555088297743 0 -0.12619577702185669 -0.42297562863706512 0 -0.11075475846082659 -0.42985043295533809 0 -0.1210398300286134 -0.41257555088297743 0 -0.11075475846082659 -0.42985043295533809 0 -0.1210398300286134 -0.41257555088297743 0 -0.1282602211981495 -0.38344507038105058 0 -0.13083603900656049 -0.39612176602256899 0 -0.11457693439839479 -0.39253270091748188 0 -0.1210398300286134 -0.41257555088297743 0 -0.11457693439839479 -0.39253270091748188 0 -0.1014039386841364 -0.40099184302701052 0 -0.13083603900656049 -0.39612176602256899 0 -0.1210398300286134 -0.41257555088297743 0 -0.11457693439839479 -0.39253270091748188 0 -0.1282602211981495 -0.38344507038105058 0 -0.1194067897617065 -0.36398797762087459 0 -0.1129150472834325 -0.37818178439515948 0 -0.1282602211981495 -0.38344507038105058 0 -0.11457693439839479 -0.39253270091748188 0 -0.1129150472834325 -0.37818178439515948 0 -0.11457693439839479 -0.39253270091748188 0 -0.1129150472834325 -0.37818178439515948 0 -0.097520482485571477 -0.38243064038456209 0 -0.10481080857334039 -0.36851253267182832 0 -0.1129150472834325 -0.37818178439515948 0 -0.097520482485571477 -0.38243064038456209 0 -0.097520482485571477 -0.38243064038456209 0 -0.1014039386841364 -0.40099184302701052 0 -0.083041957788889786 -0.3993639751826944 0 -0.11457693439839479 -0.39253270091748188 0 -0.097520482485571477 -0.38243064038456209 0 -0.1014039386841364 -0.40099184302701052 0 -0.095664380950751082 -0.41703164932873349 0 -0.1014039386841364 -0.40099184302701052 0 -0.083041957788889786 -0.3993639751826944 0 -0.083041957788889786 -0.3993639751826944 0 -0.083637280568191599 -0.38164185506358428 0 -0.072027729125180961 -0.39019523257538541 0 -0.09049285597893908 -0.36292867538002149 0 -0.097520482485571477 -0.38243064038456209 0 -0.083637280568191599 -0.38164185506358428 0 -0.097520482485571477 -0.38243064038456209 0 -0.083041957788889786 -0.3993639751826944 0 -0.083637280568191599 -0.38164185506358428 0 -0.079039662139163649 -0.36988580756775769 0 -0.083637280568191599 -0.38164185506358428 0 -0.069188174165302055 -0.37961774584101621 0 -0.083637280568191599 -0.38164185506358428 0 -0.072027729125180961 -0.39019523257538541 0 -0.069188174165302055 -0.37961774584101621 0 -0.060187898484353221 -0.3884966446880187 0 -0.072027729125180961 -0.39019523257538541 0 -0.069188174165302055 -0.37961774584101621 0 -0.06711266906551433 -0.36970655929598678 0 -0.055577807967692197 -0.37571391799020343 0 -0.069188174165302055 -0.37961774584101621 0 -0.083041957788889786 -0.3993639751826944 0 -0.072027729125180961 -0.39019523257538541 0 -0.064083334619168153 -0.40185594210161329 0 -0.060187898484353221 -0.3884966446880187 0 -0.072027729125180961 -0.39019523257538541 0 -0.064083334619168153 -0.40185594210161329 0 -0.083041957788889786 -0.3993639751826944 0 -0.064083334619168153 -0.40185594210161329 0 -0.070288931872888594 -0.42148774777448839 0 -0.058815165013487117 -0.43947661053861697 0 -0.086198485379274867 -0.44141073841562278 0 -0.070288931872888594 -0.42148774777448839 0 -0.086198485379274867 -0.44141073841562278 0 -0.095664380950751082 -0.41703164932873349 0 -0.070288931872888594 -0.42148774777448839 0 -0.095664380950751082 -0.41703164932873349 0 -0.070288931872888594 -0.42148774777448839 0 -0.095664380950751082 -0.41703164932873349 0 -0.083041957788889786 -0.3993639751826944 0 -0.070288931872888594 -0.42148774777448839 0 -0.079598524618727934 -0.08454260593313008 0 -0.072820717057328149 -0.087948448027877296 0 -0.089020749069611854 -0.095539257433498836 0 -0.079598524618727934 -0.08454260593313008 0 -0.085126389092709698 -0.075645340968565872 0 -0.079192704019555152 -0.077323917803087616 0 -0.079598524618727934 -0.08454260593313008 0 -0.089020749069611854 -0.095539257433498836 0 -0.094206705460290113 -0.080867070965128587 0 -0.089020749069611854 -0.095539257433498836 0 -0.094206705460290113 -0.080867070965128587 0 -0.079598524618727934 -0.08454260593313008 0 -0.094206705460290113 -0.080867070965128587 0 -0.079598524618727934 -0.08454260593313008 0 -0.085126389092709698 -0.075645340968565872 0 -0.094206705460290113 -0.080867070965128587 0 -0.085126389092709698 -0.075645340968565872 0 -0.094206705460290113 -0.080867070965128587 0 -0.10016283194475691 -0.064015907587367582 0 -0.085764106578342408 -0.065554607455714384 0 -0.085126389092709698 -0.075645340968565872 0 -0.10016283194475691 -0.064015907587367582 0 -0.085764106578342408 -0.065554607455714384 0 -0.076818720218280526 -0.070678946839028214 0 -0.078931705516040895 -0.060348842001306857 0 -0.085764106578342408 -0.065554607455714384 0 -0.085126389092709698 -0.075645340968565872 0 -0.076818720218280526 -0.070678946839028214 0 -0.085126389092709698 -0.075645340968565872 0 -0.079192704019555152 -0.077323917803087616 0 -0.076818720218280526 -0.070678946839028214 0 -0.070772968096640937 -0.072086948693161401 0 -0.072820717057328149 -0.087948448027877296 0 -0.061806641435727311 -0.065685452153885271 0 -0.079192704019555152 -0.077323917803087616 0 -0.076818720218280526 -0.070678946839028214 0 -0.075227182148502464 -0.07842877747162634 0 -0.072820717057328149 -0.087948448027877296 0 -0.061806641435727311 -0.065685452153885271 0 -0.058359899789044829 -0.069533297825772777 0 -0.072820717057328149 -0.087948448027877296 0 -0.061806641435727311 -0.065685452153885271 0 -0.076818720218280526 -0.070678946839028214 0 -0.070772968096640937 -0.072086948693161401 0 -0.075227182148502464 -0.07842877747162634 0 -0.076818720218280526 -0.070678946839028214 0 -0.070772968096640937 -0.072086948693161401 0 -0.071300895750288043 -0.063416362270242693 0 -0.076818720218280526 -0.070678946839028214 0 -0.071300895750288043 -0.063416362270242693 0 -0.078931705516040895 -0.060348842001306857 0 -0.070772968096640937 -0.072086948693161401 0 -0.0669776892702722 -0.064957992711698886 0 -0.061806641435727311 -0.065685452153885271 0 -0.070772968096640937 -0.072086948693161401 0 -0.071300895750288043 -0.063416362270242693 0 -0.0669776892702722 -0.064957992711698886 0 -0.064596829750241128 -0.089471714120049034 0 -0.072820717057328149 -0.087948448027877296 0 -0.058359899789044829 -0.069533297825772777 0 -0.070772968096640937 -0.072086948693161401 0 -0.075227182148502464 -0.07842877747162634 0 -0.072820717057328149 -0.087948448027877296 0 -0.079598524618727934 -0.08454260593313008 0 -0.075227182148502464 -0.07842877747162634 0 -0.072820717057328149 -0.087948448027877296 0 -0.079598524618727934 -0.08454260593313008 0 -0.079192704019555152 -0.077323917803087616 0 -0.075227182148502464 -0.07842877747162634 0 -0.064596829750241128 -0.089471714120049034 0 -0.070833759711437225 -0.1094101304143253 0 -0.064596829750241128 -0.089471714120049034 0 -0.070833759711437225 -0.1094101304143253 0 -0.054214077560740502 -0.11056007101955249 0 -0.072820717057328149 -0.087948448027877296 0 -0.070833759711437225 -0.1094101304143253 0 -0.083834792678931125 -0.11021144390186829 0 -0.064596829750241128 -0.089471714120049034 0 -0.072820717057328149 -0.087948448027877296 0 -0.070833759711437225 -0.1094101304143253 0 -0.070833759711437225 -0.1094101304143253 0 -0.083834792678931125 -0.11021144390186829 0 -0.077070689672634307 -0.12934854670860141 0 -0.070833759711437225 -0.1094101304143253 0 -0.077070689672634307 -0.12934854670860141 0 -0.065789072589199998 -0.13099865538217981 0 -0.070833759711437225 -0.1094101304143253 0 -0.077070689672634307 -0.12934854670860141 0 -0.070833759711437225 -0.1094101304143253 0 -0.053640412400227662 -0.12651377429929669 0 -0.065789072589199998 -0.13099865538217981 0 -0.083834792678931125 -0.11021144390186829 0 -0.089402633808776374 -0.12146584493918711 0 -0.1043853928723735 -0.10456605270601251 0 -0.083834792678931125 -0.11021144390186829 0 -0.077070689672634307 -0.12934854670860141 0 -0.083834792678931125 -0.11021144390186829 0 -0.089402633808776374 -0.12146584493918711 0 -0.077070689672634307 -0.12934854670860141 0 -0.083834792678931125 -0.11021144390186829 0 -0.089402633808776374 -0.12146584493918711 0 -0.083834792678931125 -0.11021144390186829 0 -0.089020749069611854 -0.095539257433498836 0 -0.1043853928723735 -0.10456605270601251 0 -0.072820717057328149 -0.087948448027877296 0 -0.083834792678931125 -0.11021144390186829 0 -0.089020749069611854 -0.095539257433498836 0 -0.072820717057328149 -0.087948448027877296 0 -0.083834792678931125 -0.11021144390186829 0 -0.083834792678931125 -0.11021144390186829 0 -0.089020749069611854 -0.095539257433498836 0 -0.089020749069611854 -0.095539257433498836 0 -0.1043853928723735 -0.10456605270601251 0 -0.1042519615136354 -0.088891082235974805 0 -0.089402633808776374 -0.12146584493918711 0 -0.1043853928723735 -0.10456605270601251 0 -0.089402633808776374 -0.12146584493918711 0 -0.1043853928723735 -0.10456605270601251 0 -0.1116517452766989 -0.12608489527846259 0 -0.1043853928723735 -0.10456605270601251 0 -0.1211518125642765 -0.1106055035795695 0 -0.1116517452766989 -0.12608489527846259 0 -0.1211518125642765 -0.1106055035795695 0 -0.1116517452766989 -0.12608489527846259 0 -0.1354994100515195 -0.1327370651688819 0 -0.1043853928723735 -0.10456605270601251 0 -0.1193681519359712 -0.087666260472838181 0 -0.1043853928723735 -0.10456605270601251 0 -0.1211518125642765 -0.1106055035795695 0 -0.1193681519359712 -0.087666260472838181 0 -0.1193681519359712 -0.087666260472838181 0 -0.1042519615136354 -0.088891082235974805 0 -0.11427880822992929 -0.075816769602395598 0 -0.094206705460290113 -0.080867070965128587 0 -0.11427880822992929 -0.075816769602395598 0 -0.1043853928723735 -0.10456605270601251 0 -0.1193681519359712 -0.087666260472838181 0 -0.1042519615136354 -0.088891082235974805 0 -0.1042519615136354 -0.088891082235974805 0 -0.094206705460290113 -0.080867070965128587 0 -0.11427880822992929 -0.075816769602395598 0 -0.089020749069611854 -0.095539257433498836 0 -0.1042519615136354 -0.088891082235974805 0 -0.094206705460290113 -0.080867070965128587 0 -0.094206705460290113 -0.080867070965128587 0 -0.10016283194475691 -0.064015907587367582 0 -0.094206705460290113 -0.080867070965128587 0 -0.10016283194475691 -0.064015907587367582 0 -0.11427880822992929 -0.075816769602395598 0 -0.11427880822992929 -0.075816769602395598 0 -0.134350910999569 -0.070766468239664093 0 -0.11427880822992929 -0.075816769602395598 0 -0.1155349902059912 -0.059971079674281592 0 -0.134350910999569 -0.070766468239664093 0 -0.1193681519359712 -0.087666260472838181 0 -0.11427880822992929 -0.075816769602395598 0 -0.134350910999569 -0.070766468239664093 0 -0.10016283194475691 -0.064015907587367582 0 -0.11427880822992929 -0.075816769602395598 0 -0.1155349902059912 -0.059971079674281592 0 -0.1155349902059912 -0.059971079674281592 0 -0.1061189584292228 -0.04716474420960623 0 -0.12851653136048641 -0.049059311098846897 0 -0.11845884524579781 -0.03462193739809187 0 -0.1061189584292228 -0.04716474420960623 0 -0.12851653136048641 -0.049059311098846897 0 -0.1061189584292228 -0.04716474420960623 0 -0.099590781859076827 -0.029648191918759281 0 -0.090826771124926112 -0.044250862090157668 0 -0.11845884524579781 -0.03462193739809187 0 -0.1061189584292228 -0.04716474420960623 0 -0.099590781859076827 -0.029648191918759281 0 -0.10016283194475691 -0.064015907587367582 0 -0.096067875788787532 -0.052750922607108057 0 -0.1061189584292228 -0.04716474420960623 0 -0.096067875788787532 -0.052750922607108057 0 -0.1061189584292228 -0.04716474420960623 0 -0.090826771124926112 -0.044250862090157668 0 -0.10016283194475691 -0.064015907587367582 0 -0.1155349902059912 -0.059971079674281592 0 -0.1061189584292228 -0.04716474420960623 0 -0.10016283194475691 -0.064015907587367582 0 -0.1061189584292228 -0.04716474420960623 0 -0.10016283194475691 -0.064015907587367582 0 -0.096067875788787532 -0.052750922607108057 0 -0.087780886119924004 -0.05708399988230338 0 -0.11845884524579781 -0.03462193739809187 0 -0.11487335580186619 -0.01739582132962459 0 -0.1410276087416692 -0.025565321264202402 0 -0.11845884524579781 -0.03462193739809187 0 -0.11487335580186619 -0.01739582132962459 0 -0.099590781859076827 -0.029648191918759281 0 -0.11487335580186619 -0.01739582132962459 0 -0.099590781859076827 -0.029648191918759281 0 -0.091151956463994502 -0.009207837001269004 0 -0.11487335580186619 -0.01739582132962459 0 -0.091151956463994502 -0.009207837001269004 0 -0.097293161727567842 0.01131020831363817 0 -0.099590781859076827 -0.029648191918759281 0 -0.091151956463994502 -0.009207837001269004 0 -0.078895820859560428 -0.031518427500417383 0 -0.091151956463994502 -0.009207837001269004 0 -0.073653021399835761 -0.016545086220615651 0 -0.078895820859560428 -0.031518427500417383 0 -0.073653021399835761 -0.016545086220615651 0 -0.078895820859560428 -0.031518427500417383 0 -0.061256405648171253 -0.032283885153837018 0 -0.073653021399835761 -0.016545086220615651 0 -0.061256405648171253 -0.032283885153837018 0 -0.05675131984149117 -0.018788606854313061 0 -0.073653021399835761 -0.016545086220615651 0 -0.05961480921768518 -0.0056805072271022342 0 -0.06753028909199818 0.01115160603426198 0 -0.091151956463994502 -0.009207837001269004 0 -0.073653021399835761 -0.016545086220615651 0 -0.06753028909199818 0.01115160603426198 0 -0.073653021399835761 -0.016545086220615651 0 -0.05961480921768518 -0.0056805072271022342 0 -0.05675131984149117 -0.018788606854313061 0 -0.085764106578342408 -0.065554607455714384 0 -0.078931705516040895 -0.060348842001306857 0 -0.087780886119924004 -0.05708399988230338 0 -0.0798792507023455 -0.048921215677716033 0 -0.078931705516040895 -0.060348842001306857 0 -0.087780886119924004 -0.05708399988230338 0 -0.085764106578342408 -0.065554607455714384 0 -0.10016283194475691 -0.064015907587367582 0 -0.087780886119924004 -0.05708399988230338 0 -0.096067875788787532 -0.052750922607108057 0 -0.087780886119924004 -0.05708399988230338 0 -0.090826771124926112 -0.044250862090157668 0 -0.0798792507023455 -0.048921215677716033 0 -0.087780886119924004 -0.05708399988230338 0 -0.090826771124926112 -0.044250862090157668 0 -0.0798792507023455 -0.048921215677716033 0 -0.078895820859560428 -0.031518427500417383 0 -0.090826771124926112 -0.044250862090157668 0 -0.099590781859076827 -0.029648191918759281 0 -0.078895820859560428 -0.031518427500417383 0 -0.090826771124926112 -0.044250862090157668 0 -0.078895820859560428 -0.031518427500417383 0 -0.070036467584947901 -0.044678965286234329 0 -0.061256405648171253 -0.032283885153837018 0 -0.0798792507023455 -0.048921215677716033 0 -0.078895820859560428 -0.031518427500417383 0 -0.070036467584947901 -0.044678965286234329 0 -0.070036467584947901 -0.044678965286234329 0 -0.058357919462266969 -0.046342765910571987 0 -0.061256405648171253 -0.032283885153837018 0 -0.070036467584947901 -0.044678965286234329 0 -0.064532711479317412 -0.056394067434130557 0 -0.070036467584947901 -0.044678965286234329 0 -0.064532711479317412 -0.056394067434130557 0 -0.058357919462266969 -0.046342765910571987 0 -0.070036467584947901 -0.044678965286234329 0 -0.073190776337616559 -0.054608596726056488 0 -0.064532711479317412 -0.056394067434130557 0 -0.0798792507023455 -0.048921215677716033 0 -0.078931705516040895 -0.060348842001306857 0 -0.073190776337616559 -0.054608596726056488 0 -0.0798792507023455 -0.048921215677716033 0 -0.070036467584947901 -0.044678965286234329 0 -0.073190776337616559 -0.054608596726056488 0 -0.071300895750288043 -0.063416362270242693 0 -0.078931705516040895 -0.060348842001306857 0 -0.073190776337616559 -0.054608596726056488 0 -0.073190776337616559 -0.054608596726056488 0 -0.064532711479317412 -0.056394067434130557 0 -0.071300895750288043 -0.063416362270242693 0 -0.0669776892702722 -0.064957992711698886 0 -0.064532711479317412 -0.056394067434130557 0 -0.071300895750288043 -0.063416362270242693 0 -0.073190776337616559 -0.054608596726056488 0 -0.064532711479317412 -0.056394067434130557 0 -0.0669776892702722 -0.064957992711698886 0 -0.064532711479317412 -0.056394067434130557 0 -0.061806641435727311 -0.065685452153885271 0 -0.064532711479317412 -0.056394067434130557 0 -0.055505214669871288 -0.060407349538829661 0 -0.038165028116226837 -0.061831625024082647 0 -0.064532711479317412 -0.056394067434130557 0 -0.048887160750812002 -0.050820592827943142 0 -0.038165028116226837 -0.061831625024082647 0 -0.064532711479317412 -0.056394067434130557 0 -0.038165028116226837 -0.061831625024082647 0 -0.064532711479317412 -0.056394067434130557 0 -0.048887160750812002 -0.050820592827943142 0 -0.058357919462266969 -0.046342765910571987 0 -0.064532711479317412 -0.056394067434130557 0 -0.055505214669871288 -0.060407349538829661 0 -0.058359899789044829 -0.069533297825772777 0 -0.061256405648171253 -0.032283885153837018 0 -0.047681012460698259 -0.041326753983635001 0 -0.042645080272736412 -0.028336543131192181 0 -0.058357919462266969 -0.046342765910571987 0 -0.061256405648171253 -0.032283885153837018 0 -0.047681012460698259 -0.041326753983635001 0 -0.048887160750812002 -0.050820592827943142 0 -0.058357919462266969 -0.046342765910571987 0 -0.047681012460698259 -0.041326753983635001 0 -0.03569913223555056 -0.048207751787295479 0 -0.042645080272736412 -0.028336543131192181 0 -0.026153584319198762 -0.033312296834232917 0 -0.047681012460698259 -0.041326753983635001 0 -0.03569913223555056 -0.048207751787295479 0 -0.042645080272736412 -0.028336543131192181 0 -0.048887160750812002 -0.050820592827943142 0 -0.047681012460698259 -0.041326753983635001 0 -0.03569913223555056 -0.048207751787295479 0 -0.03569913223555056 -0.048207751787295479 0 -0.038165028116226837 -0.061831625024082647 0 -0.022703721357178769 -0.051810233104548749 0 -0.048887160750812002 -0.050820592827943142 0 -0.03569913223555056 -0.048207751787295479 0 -0.038165028116226837 -0.061831625024082647 0 -0.05961480921768518 -0.0056805072271022342 0 -0.045038887357703498 -0.014196918159059071 0 -0.04603068534762423 -3.0850515358807798e-05 0 -0.05961480921768518 -0.0056805072271022342 0 -0.05675131984149117 -0.018788606854313061 0 -0.045038887357703498 -0.014196918159059071 0 -0.061256405648171253 -0.032283885153837018 0 -0.05675131984149117 -0.018788606854313061 0 -0.042645080272736412 -0.028336543131192181 0 -0.05675131984149117 -0.018788606854313061 0 -0.042645080272736412 -0.028336543131192181 0 -0.045038887357703498 -0.014196918159059071 0 -0.042645080272736412 -0.028336543131192181 0 -0.031650098720581277 -0.019000482097695819 0 -0.026153584319198762 -0.033312296834232917 0 -0.042645080272736412 -0.028336543131192181 0 -0.031650098720581277 -0.019000482097695819 0 -0.045038887357703498 -0.014196918159059071 0 -0.031650098720581277 -0.019000482097695819 0 -0.045038887357703498 -0.014196918159059071 0 -0.030439316156328361 -0.0057053113401083922 0 -0.04603068534762423 -3.0850515358807798e-05 0 -0.030439316156328361 -0.0057053113401083922 0 -0.035209522367389952 0.002657769990137076 0 -0.045038887357703498 -0.014196918159059071 0 -0.04603068534762423 -3.0850515358807798e-05 0 -0.030439316156328361 -0.0057053113401083922 0 -0.016223407507011348 -0.0014783717257068789 0 -0.030439316156328361 -0.0057053113401083922 0 -0.013973625496939359 -0.01345134102388652 0 -0.031650098720581277 -0.019000482097695819 0 -0.030439316156328361 -0.0057053113401083922 0 -0.013973625496939359 -0.01345134102388652 0 -0.016223407507011348 -0.0014783717257068789 0 -0.030439316156328361 -0.0057053113401083922 0 -0.02552884126160343 0.0034602984309436138 0 -0.031650098720581277 -0.019000482097695819 0 -0.013973625496939359 -0.01345134102388652 0 -0.026153584319198762 -0.033312296834232917 0 -0.026153584319198762 -0.033312296834232917 0 0.0019964281064309948 -0.028874583905178532 0 -0.013973625496939359 -0.01345134102388652 0 0.0069150557203328591 -0.01602128171007006 0 0.0019964281064309948 -0.028874583905178532 0 -0.013973625496939359 -0.01345134102388652 0 -0.026153584319198762 -0.033312296834232917 0 0.0019964281064309948 -0.028874583905178532 0 -0.013973625496939359 -0.01345134102388652 0 0.0019964281064309948 -0.028874583905178532 0 -0.013973625496939359 -0.01345134102388652 0 -0.001512727700102235 -0.0051413579262706288 0 0.0069150557203328591 -0.01602128171007006 0 -0.016223407507011348 -0.0014783717257068789 0 -0.013973625496939359 -0.01345134102388652 0 -0.001512727700102235 -0.0051413579262706288 0 -0.038165028116226837 -0.061831625024082647 0 -0.022703721357178769 -0.051810233104548749 0 -0.01179734475313645 -0.0672691826140355 0 -0.03569913223555056 -0.048207751787295479 0 -0.022703721357178769 -0.051810233104548749 0 -0.026153584319198762 -0.033312296834232917 0 -0.022703721357178769 -0.051810233104548749 0 -0.026153584319198762 -0.033312296834232917 0 -0.0034815090737861992 -0.048909686183370257 0 -0.026153584319198762 -0.033312296834232917 0 -0.0034815090737861992 -0.048909686183370257 0 0.0019964281064309948 -0.028874583905178532 0 -0.022703721357178769 -0.051810233104548749 0 -0.0034815090737861992 -0.048909686183370257 0 -0.01179734475313645 -0.0672691826140355 0 -0.0034815090737861992 -0.048909686183370257 0 -0.01179734475313645 -0.0672691826140355 0 0.014570338609954631 -0.072706740203985182 0 -0.01179734475313645 -0.0672691826140355 0 -0.0171470606703947 -0.085858261419419712 0 0.001299515704678544 -0.086653798805751595 0 -0.0171470606703947 -0.085858261419419712 0 -0.0093160920620752041 -0.099629969789549896 0 0.001299515704678544 -0.086653798805751595 0 -0.0171470606703947 -0.085858261419419712 0 -0.03514073924327768 -0.080077290836603018 0 -0.031014914388463589 -0.098048080653055009 0 -0.0171470606703947 -0.085858261419419712 0 -0.031014914388463589 -0.098048080653055009 0 -0.01901871453036913 -0.097201888934979913 0 -0.038165028116226837 -0.061831625024082647 0 -0.01179734475313645 -0.0672691826140355 0 -0.03514073924327768 -0.080077290836603018 0 -0.038165028116226837 -0.061831625024082647 0 -0.01179734475313645 -0.0672691826140355 0 -0.01179734475313645 -0.0672691826140355 0 -0.0171470606703947 -0.085858261419419712 0 -0.03514073924327768 -0.080077290836603018 0 -0.038165028116226837 -0.061831625024082647 0 -0.046605331448958232 -0.073599740292783211 0 -0.03514073924327768 -0.080077290836603018 0 -0.055505214669871288 -0.060407349538829661 0 -0.038165028116226837 -0.061831625024082647 0 -0.046605331448958232 -0.073599740292783211 0 -0.046605331448958232 -0.073599740292783211 0 -0.03514073924327768 -0.080077290836603018 0 -0.0458557754263706 -0.096149138238628043 0 -0.03514073924327768 -0.080077290836603018 0 -0.0458557754263706 -0.096149138238628043 0 -0.031014914388463589 -0.098048080653055009 0 -0.046605331448958232 -0.073599740292783211 0 -0.058359899789044829 -0.069533297825772777 0 -0.0458557754263706 -0.096149138238628043 0 -0.064596829750241128 -0.089471714120049034 0 -0.058359899789044829 -0.069533297825772777 0 -0.0458557754263706 -0.096149138238628043 0 -0.058359899789044829 -0.069533297825772777 0 -0.0458557754263706 -0.096149138238628043 0 -0.064596829750241128 -0.089471714120049034 0 -0.058359899789044829 -0.069533297825772777 0 -0.064532711479317412 -0.056394067434130557 0 -0.058359899789044829 -0.069533297825772777 0 -0.064532711479317412 -0.056394067434130557 0 -0.061806641435727311 -0.065685452153885271 0 -0.058359899789044829 -0.069533297825772777 0 -0.055505214669871288 -0.060407349538829661 0 -0.058359899789044829 -0.069533297825772777 0 -0.055505214669871288 -0.060407349538829661 0 -0.046605331448958232 -0.073599740292783211 0 -0.058359899789044829 -0.069533297825772777 0 -0.070833759711437225 -0.1094101304143253 0 -0.054214077560740502 -0.11056007101955249 0 -0.053640412400227662 -0.12651377429929669 0 -0.054214077560740502 -0.11056007101955249 0 -0.03335165106369628 -0.12276497865148341 0 -0.053640412400227662 -0.12651377429929669 0 -0.064596829750241128 -0.089471714120049034 0 -0.054214077560740502 -0.11056007101955249 0 -0.0458557754263706 -0.096149138238628043 0 -0.0458557754263706 -0.096149138238628043 0 -0.032019582634402063 -0.1190791088390741 0 -0.031014914388463589 -0.098048080653055009 0 -0.0458557754263706 -0.096149138238628043 0 -0.032019582634402063 -0.1190791088390741 0 -0.03335165106369628 -0.12276497865148341 0 -0.0458557754263706 -0.096149138238628043 0 -0.03335165106369628 -0.12276497865148341 0 -0.054214077560740502 -0.11056007101955249 0 -0.0458557754263706 -0.096149138238628043 0 -0.03335165106369628 -0.12276497865148341 0 -0.032019582634402063 -0.1190791088390741 0 -0.03335165106369628 -0.12276497865148341 0 -0.022050010464354331 -0.1207336658676776 0 -0.031014914388463589 -0.098048080653055009 0 -0.032019582634402063 -0.1190791088390741 0 -0.03335165106369628 -0.12276497865148341 0 -0.022050010464354331 -0.1207336658676776 0 -0.032019582634402063 -0.1190791088390741 0 -0.022050010464354331 -0.1207336658676776 0 -0.031014914388463589 -0.098048080653055009 0 -0.022050010464354331 -0.1207336658676776 0 -0.018856132364467249 -0.1059071398174998 0 -0.011888320544007199 -0.1144402804719698 0 -0.022050010464354331 -0.1207336658676776 0 -0.031014914388463589 -0.098048080653055009 0 -0.018856132364467249 -0.1059071398174998 0 -0.031014914388463589 -0.098048080653055009 0 -0.018856132364467249 -0.1059071398174998 0 -0.01901871453036913 -0.097201888934979913 0 -0.018856132364467249 -0.1059071398174998 0 -0.01901871453036913 -0.097201888934979913 0 -0.0093160920620752041 -0.099629969789549896 0 -0.0171470606703947 -0.085858261419419712 0 -0.01901871453036913 -0.097201888934979913 0 -0.0093160920620752041 -0.099629969789549896 0 -0.018856132364467249 -0.1059071398174998 0 -0.0093160920620752041 -0.099629969789549896 0 -0.011888320544007199 -0.1144402804719698 0 -0.0093160920620752041 -0.099629969789549896 0 -0.011888320544007199 -0.1144402804719698 0 -3.9213425708454218e-05 -0.11342232087091821 0 -0.0093160920620752041 -0.099629969789549896 0 -3.9213425708454218e-05 -0.11342232087091821 0 0.0011414087804533441 -0.1004826700100202 0 -0.0093160920620752041 -0.099629969789549896 0 0.0011414087804533441 -0.1004826700100202 0 0.001299515704678544 -0.086653798805751595 0 -0.022050010464354331 -0.1207336658676776 0 -0.011888320544007199 -0.1144402804719698 0 -0.0088896031561678263 -0.12735269834560581 0 -0.011888320544007199 -0.1144402804719698 0 -0.0055278102426785684 -0.1202914177452553 0 -0.0088896031561678263 -0.12735269834560581 0 -0.011888320544007199 -0.1144402804719698 0 -3.9213425708454218e-05 -0.11342232087091821 0 -0.0055278102426785684 -0.1202914177452553 0 -3.9213425708454218e-05 -0.11342232087091821 0 -0.0055278102426785684 -0.1202914177452553 0 -0.001032237097351958 -0.12600845422236731 0 -0.0055278102426785684 -0.1202914177452553 0 -0.001032237097351958 -0.12600845422236731 0 -0.0088896031561678263 -0.12735269834560581 0 -0.001032237097351958 -0.12600845422236731 0 -0.0013770698620868551 -0.13723339320632019 0 -0.0088896031561678263 -0.12735269834560581 0 -0.022050010464354331 -0.1207336658676776 0 -0.0088896031561678263 -0.12735269834560581 0 -0.013085106540245091 -0.14341925108230019 0 -0.0013770698620868551 -0.13723339320632019 0 -0.0088896031561678263 -0.12735269834560581 0 -0.013085106540245091 -0.14341925108230019 0 -0.03335165106369628 -0.12276497865148341 0 -0.022050010464354331 -0.1207336658676776 0 -0.024972259379985911 -0.14060105779959201 0 -0.03335165106369628 -0.12276497865148341 0 -0.024972259379985911 -0.14060105779959201 0 -0.022050010464354331 -0.1207336658676776 0 -0.013085106540245091 -0.14341925108230019 0 -0.022050010464354331 -0.1207336658676776 0 -0.024972259379985911 -0.14060105779959201 0 -0.013085106540245091 -0.14341925108230019 0 -0.024972259379985911 -0.14060105779959201 0 -0.013085106540245091 -0.14341925108230019 0 -0.016592867696275399 -0.1584371369477004 0 -0.024972259379985911 -0.14060105779959201 0 -0.0302603304539335 -0.15397175317400169 0 -0.016592867696275399 -0.1584371369477004 0 -0.024972259379985911 -0.14060105779959201 0 -0.016592867696275399 -0.1584371369477004 0 -0.013085106540245091 -0.14341925108230019 0 -0.0041202026161358679 -0.16610483629692269 0 -0.013085106540245091 -0.14341925108230019 0 -0.0041202026161358679 -0.16610483629692269 0 0.00087706121465781501 -0.15101584360234341 0 -0.013085106540245091 -0.14341925108230019 0 -0.0041202026161358679 -0.16610483629692269 0 -0.016592867696275399 -0.1584371369477004 0 -0.0013770698620868551 -0.13723339320632019 0 -0.013085106540245091 -0.14341925108230019 0 0.00087706121465781501 -0.15101584360234341 0 -0.0041202026161358679 -0.16610483629692269 0 -0.01661293443541987 -0.17740364555027899 0 -0.016592867696275399 -0.1584371369477004 0 -0.0041202026161358679 -0.16610483629692269 0 -0.00081075560289291249 -0.18009301941494149 0 0.0048447013079721286 -0.18879042151154579 0 -0.00081075560289291249 -0.18009301941494149 0 -0.01661293443541987 -0.17740364555027899 0 -0.0076813477549198921 -0.19016492818401171 0 -0.0041202026161358679 -0.16610483629692269 0 -0.00081075560289291249 -0.18009301941494149 0 -0.01661293443541987 -0.17740364555027899 0 -0.01661293443541987 -0.17740364555027899 0 -0.034095274566491619 -0.18384974073519239 0 -0.018940591817155891 -0.20094345416516379 0 -0.01661293443541987 -0.17740364555027899 0 -0.029362272893590068 -0.16808366074247921 0 -0.034095274566491619 -0.18384974073519239 0 -0.01661293443541987 -0.17740364555027899 0 -0.016592867696275399 -0.1584371369477004 0 -0.029362272893590068 -0.16808366074247921 0 -0.0302603304539335 -0.15397175317400169 0 -0.016592867696275399 -0.1584371369477004 0 -0.029362272893590068 -0.16808366074247921 0 -0.0302603304539335 -0.15397175317400169 0 -0.029362272893590068 -0.16808366074247921 0 -0.049249957315828978 -0.16675602730522249 0 -0.029362272893590068 -0.16808366074247921 0 -0.034095274566491619 -0.18384974073519239 0 -0.049249957315828978 -0.16675602730522249 0 -0.034095274566491619 -0.18384974073519239 0 -0.054994332860702461 -0.18265087170388011 0 -0.037924858263073548 -0.19444630366762961 0 -0.034095274566491619 -0.18384974073519239 0 -0.054994332860702461 -0.18265087170388011 0 -0.049249957315828978 -0.16675602730522249 0 -0.034095274566491619 -0.18384974073519239 0 -0.049249957315828978 -0.16675602730522249 0 -0.058653658301245408 -0.1735555350586801 0 -0.054994332860702461 -0.18265087170388011 0 -0.049249957315828978 -0.16675602730522249 0 -0.054994332860702461 -0.18265087170388011 0 -0.049249957315828978 -0.16675602730522249 0 -0.054994332860702461 -0.18265087170388011 0 -0.058660134779324177 -0.18011771130245871 0 -0.070962658119967256 -0.19339199601649459 0 -0.058653658301245408 -0.1735555350586801 0 -0.058660134779324177 -0.18011771130245871 0 -0.066522767579826142 -0.17452089537316651 0 -0.058653658301245408 -0.1735555350586801 0 -0.054994332860702461 -0.18265087170388011 0 -0.058660134779324177 -0.18011771130245871 0 -0.054994332860702461 -0.18265087170388011 0 -0.058660134779324177 -0.18011771130245871 0 -0.058653658301245408 -0.1735555350586801 0 -0.049249957315828978 -0.16675602730522249 0 -0.063841098970543325 -0.16373216960867329 0 -0.049249957315828978 -0.16675602730522249 0 -0.061388964377983662 -0.15306384308222939 0 -0.063841098970543325 -0.16373216960867329 0 -0.049249957315828978 -0.16675602730522249 0 -0.061388964377983662 -0.15306384308222939 0 -0.061388964377983662 -0.15306384308222939 0 -0.057769607099250157 -0.13974819488579091 0 -0.041300804189762987 -0.1447605029783528 0 -0.049249957315828978 -0.16675602730522249 0 -0.061388964377983662 -0.15306384308222939 0 -0.041300804189762987 -0.1447605029783528 0 -0.057769607099250157 -0.13974819488579091 0 -0.053640412400227662 -0.12651377429929669 0 -0.041300804189762987 -0.1447605029783528 0 -0.057769607099250157 -0.13974819488579091 0 -0.053640412400227662 -0.12651377429929669 0 -0.065789072589199998 -0.13099865538217981 0 -0.03335165106369628 -0.12276497865148341 0 -0.053640412400227662 -0.12651377429929669 0 -0.041300804189762987 -0.1447605029783528 0 -0.03335165106369628 -0.12276497865148341 0 -0.024972259379985911 -0.14060105779959201 0 -0.041300804189762987 -0.1447605029783528 0 -0.03335165106369628 -0.12276497865148341 0 -0.041300804189762987 -0.1447605029783528 0 -0.0302603304539335 -0.15397175317400169 0 -0.049249957315828978 -0.16675602730522249 0 -0.041300804189762987 -0.1447605029783528 0 -0.049249957315828978 -0.16675602730522249 0 -0.041300804189762987 -0.1447605029783528 0 -0.024972259379985911 -0.14060105779959201 0 -0.0302603304539335 -0.15397175317400169 0 -0.041300804189762987 -0.1447605029783528 0 -0.009729669714546002 -0.2432872939275138 0 -0.0173339261872794 -0.23155064245974161 0 -0.031558063588024848 -0.2454063148683252 0 -0.017905010862210059 -0.25635263443910211 0 -0.009729669714546002 -0.2432872939275138 0 -0.031558063588024848 -0.2454063148683252 0 -0.009729669714546002 -0.2432872939275138 0 0.0057768166891493111 -0.24666274859870019 0 0.0023950332764032349 -0.23684412936952151 0 -0.00368050083723665 -0.25337368755914491 0 -0.009729669714546002 -0.2432872939275138 0 0.0057768166891493111 -0.24666274859870019 0 -0.009729669714546002 -0.2432872939275138 0 -0.0058020364926236034 -0.23282090019806079 0 0.0023950332764032349 -0.23684412936952151 0 -0.009729669714546002 -0.2432872939275138 0 -0.0058020364926236034 -0.23282090019806079 0 -0.0173339261872794 -0.23155064245974161 0 -0.0058020364926236034 -0.23282090019806079 0 -0.0067208119216316461 -0.22527452096589121 0 -0.0173339261872794 -0.23155064245974161 0 -0.0058020364926236034 -0.23282090019806079 0 -2.7250177233395171e-05 -0.2298702989953533 0 0.0023950332764032349 -0.23684412936952151 0 -0.0058020364926236034 -0.23282090019806079 0 -2.7250177233395171e-05 -0.2298702989953533 0 -0.0067208119216316461 -0.22527452096589121 0 -0.0037859090678201679 -0.21803716759513511 0 0.00048648352289240582 -0.22285620972316481 0 -0.0067208119216316461 -0.22527452096589121 0 -0.0037859090678201679 -0.21803716759513511 0 0.00048648352289240582 -0.22285620972316481 0 -2.7250177233395171e-05 -0.2298702989953533 0 -0.0067208119216316461 -0.22527452096589121 0 0.00048648352289240582 -0.22285620972316481 0 -0.0067208119216316461 -0.22527452096589121 0 -0.016686051041202049 -0.22092757927771151 0 -0.0037859090678201679 -0.21803716759513511 0 -0.0067208119216316461 -0.22527452096589121 0 -0.016686051041202049 -0.22092757927771151 0 -0.0173339261872794 -0.23155064245974161 0 -0.016686051041202049 -0.22092757927771151 0 -0.0173339261872794 -0.23155064245974161 0 -0.035224470529366288 -0.2243004395374178 0 -0.0173339261872794 -0.23155064245974161 0 -0.035224470529366288 -0.2243004395374178 0 -0.031558063588024848 -0.2454063148683252 0 -0.016686051041202049 -0.22092757927771151 0 -0.020855383665446849 -0.20624173563138229 0 -0.035224470529366288 -0.2243004395374178 0 -0.0037859090678201679 -0.21803716759513511 0 -0.003242168764340803 -0.2064871545447389 0 -0.018940591817155891 -0.20094345416516379 0 -0.016686051041202049 -0.22092757927771151 0 -0.020855383665446849 -0.20624173563138229 0 -0.0037859090678201679 -0.21803716759513511 0 -0.0037859090678201679 -0.21803716759513511 0 -0.018940591817155891 -0.20094345416516379 0 -0.020855383665446849 -0.20624173563138229 0 -0.0037859090678201679 -0.21803716759513511 0 -0.020855383665446849 -0.20624173563138229 0 -0.0037859090678201679 -0.21803716759513511 0 -0.018940591817155891 -0.20094345416516379 0 -0.01661293443541987 -0.17740364555027899 0 -0.0076813477549198921 -0.19016492818401171 0 -0.018940591817155891 -0.20094345416516379 0 -0.003630438674382177 -0.19797922234589849 0 -0.0076813477549198921 -0.19016492818401171 0 -0.018940591817155891 -0.20094345416516379 0 -0.003242168764340803 -0.2064871545447389 0 -0.003630438674382177 -0.19797922234589849 0 -0.018940591817155891 -0.20094345416516379 0 -0.003242168764340803 -0.2064871545447389 0 -0.003630438674382177 -0.19797922234589849 0 0.001691091907484308 -0.20325462213238549 0 -0.00081075560289291249 -0.18009301941494149 0 -0.0076813477549198921 -0.19016492818401171 0 0.0037694184420872042 -0.19364554243865401 0 -0.003630438674382177 -0.19797922234589849 0 -0.0076813477549198921 -0.19016492818401171 0 0.0037694184420872042 -0.19364554243865401 0 -0.034095274566491619 -0.18384974073519239 0 -0.018940591817155891 -0.20094345416516379 0 -0.020855383665446849 -0.20624173563138229 0 -0.037924858263073548 -0.19444630366762961 0 -0.034095274566491619 -0.18384974073519239 0 -0.018940591817155891 -0.20094345416516379 0 -0.037924858263073548 -0.19444630366762961 0 -0.020855383665446849 -0.20624173563138229 0 -0.018940591817155891 -0.20094345416516379 0 -0.037924858263073548 -0.19444630366762961 0 -0.054994332860702461 -0.18265087170388011 0 -0.037924858263073548 -0.19444630366762961 0 -0.046701589353942537 -0.20881727508755921 0 -0.054994332860702461 -0.18265087170388011 0 -0.037924858263073548 -0.19444630366762961 0 -0.054994332860702461 -0.18265087170388011 0 -0.046701589353942537 -0.20881727508755921 0 -0.065048554063580025 -0.21047117703054169 0 -0.054994332860702461 -0.18265087170388011 0 -0.065048554063580025 -0.21047117703054169 0 -0.046701589353942537 -0.20881727508755921 0 -0.058362867081182122 -0.22977859149044921 0 -0.065048554063580025 -0.21047117703054169 0 -0.020855383665446849 -0.20624173563138229 0 -0.037924858263073548 -0.19444630366762961 0 -0.046701589353942537 -0.20881727508755921 0 -0.020855383665446849 -0.20624173563138229 0 -0.046701589353942537 -0.20881727508755921 0 -0.035224470529366288 -0.2243004395374178 0 -0.035224470529366288 -0.2243004395374178 0 -0.058362867081182122 -0.22977859149044921 0 -0.044205645324339023 -0.2371428379616371 0 -0.046701589353942537 -0.20881727508755921 0 -0.035224470529366288 -0.2243004395374178 0 -0.058362867081182122 -0.22977859149044921 0 -0.058362867081182122 -0.22977859149044921 0 -0.065048554063580025 -0.21047117703054169 0 -0.058362867081182122 -0.22977859149044921 0 -0.051677180098781562 -0.24908600595035579 0 -0.068119427736564431 -0.24122823572710361 0 -0.058362867081182122 -0.22977859149044921 0 -0.051677180098781562 -0.24908600595035579 0 -0.058362867081182122 -0.22977859149044921 0 -0.051677180098781562 -0.24908600595035579 0 -0.044205645324339023 -0.2371428379616371 0 -0.035224470529366288 -0.2243004395374178 0 -0.044205645324339023 -0.2371428379616371 0 -0.031558063588024848 -0.2454063148683252 0 -0.051677180098781562 -0.24908600595035579 0 -0.031558063588024848 -0.2454063148683252 0 -0.051677180098781562 -0.24908600595035579 0 -0.044205645324339023 -0.2371428379616371 0 -0.031558063588024848 -0.2454063148683252 0 -0.084702977910955518 -0.23523496283435349 0 -0.078630194548230628 -0.24805194808140191 0 -0.071839374305904785 -0.22926156255597199 0 -0.093588725053818614 -0.25675142893862218 0 -0.086139158804256544 -0.2443242225062961 0 -0.078630194548230628 -0.24805194808140191 0 -0.093588725053818614 -0.25675142893862218 0 -0.086139158804256544 -0.2443242225062961 0 -0.093451417529119701 -0.24639823353970619 0 -0.086139158804256544 -0.2443242225062961 0 -0.093451417529119701 -0.24639823353970619 0 -0.084702977910955518 -0.23523496283435349 0 -0.086139158804256544 -0.2443242225062961 0 -0.084702977910955518 -0.23523496283435349 0 -0.078630194548230628 -0.24805194808140191 0 -0.072632952576300092 -0.25291871744448891 0 -0.078630194548230628 -0.24805194808140191 0 -0.068119427736564431 -0.24122823572710361 0 -0.078630194548230628 -0.24805194808140191 0 -0.071839374305904785 -0.22926156255597199 0 -0.072632952576300092 -0.25291871744448891 0 -0.051677180098781562 -0.24908600595035579 0 -0.068119427736564431 -0.24122823572710361 0 -0.078630194548230628 -0.24805194808140191 0 -0.068119427736564431 -0.24122823572710361 0 -0.071839374305904785 -0.22926156255597199 0 -0.071839374305904785 -0.22926156255597199 0 -0.065048554063580025 -0.21047117703054169 0 -0.058362867081182122 -0.22977859149044921 0 -0.071839374305904785 -0.22926156255597199 0 -0.065048554063580025 -0.21047117703054169 0 -0.058362867081182122 -0.22977859149044921 0 -0.068119427736564431 -0.24122823572710361 0 -0.071839374305904785 -0.22926156255597199 0 -0.084702977910955518 -0.23523496283435349 0 -0.081159473969207488 -0.21404601559912129 0 -0.096849294507384928 -0.21964810855358599 0 -0.084702977910955518 -0.23523496283435349 0 -0.071839374305904785 -0.22926156255597199 0 -0.081159473969207488 -0.21404601559912129 0 -0.081159473969207488 -0.21404601559912129 0 -0.097553984907453609 -0.1962682866037796 0 -0.096849294507384928 -0.21964810855358599 0 -0.081159473969207488 -0.21404601559912129 0 -0.065048554063580025 -0.21047117703054169 0 -0.070962658119967256 -0.19339199601649459 0 -0.071839374305904785 -0.22926156255597199 0 -0.081159473969207488 -0.21404601559912129 0 -0.065048554063580025 -0.21047117703054169 0 -0.054994332860702461 -0.18265087170388011 0 -0.065048554063580025 -0.21047117703054169 0 -0.070962658119967256 -0.19339199601649459 0 -0.065048554063580025 -0.21047117703054169 0 -0.070962658119967256 -0.19339199601649459 0 -0.081159473969207488 -0.21404601559912129 0 -0.070962658119967256 -0.19339199601649459 0 -0.097553984907453609 -0.1962682866037796 0 -0.070962658119967256 -0.19339199601649459 0 -0.097553984907453609 -0.1962682866037796 0 -0.076876762176352476 -0.17631281500244661 0 -0.097553984907453609 -0.1962682866037796 0 -0.1166726240585392 -0.1912338587763773 0 -0.1038498020708104 -0.17933827917915279 0 -0.097553984907453609 -0.1962682866037796 0 -0.1166726240585392 -0.1912338587763773 0 -0.11823120763855489 -0.21622375820511239 0 -0.1166726240585392 -0.1912338587763773 0 -0.11823120763855489 -0.21622375820511239 0 -0.1325515182251237 -0.19993276899099741 0 -0.097553984907453609 -0.1962682866037796 0 -0.11823120763855489 -0.21622375820511239 0 -0.096849294507384928 -0.21964810855358599 0 -0.097553984907453609 -0.1962682866037796 0 -0.11823120763855489 -0.21622375820511239 0 -0.11823120763855489 -0.21622375820511239 0 -0.096849294507384928 -0.21964810855358599 0 -0.1034412666305036 -0.2349380774350604 0 -0.084702977910955518 -0.23523496283435349 0 -0.096849294507384928 -0.21964810855358599 0 -0.1034412666305036 -0.2349380774350604 0 -0.11823120763855489 -0.21622375820511239 0 -0.1210238684243915 -0.23402036714352059 0 -0.1034412666305036 -0.2349380774350604 0 -0.12503603078947889 -0.25158228039713743 0 -0.1210238684243915 -0.23402036714352059 0 -0.1092437241592995 -0.2489902569684205 0 -0.1210238684243915 -0.23402036714352059 0 -0.1092437241592995 -0.2489902569684205 0 -0.1034412666305036 -0.2349380774350604 0 -0.093451417529119701 -0.24639823353970619 0 -0.1092437241592995 -0.2489902569684205 0 -0.093451417529119701 -0.24639823353970619 0 -0.1092437241592995 -0.2489902569684205 0 -0.1034412666305036 -0.2349380774350604 0 -0.093451417529119701 -0.24639823353970619 0 -0.084702977910955518 -0.23523496283435349 0 -0.1034412666305036 -0.2349380774350604 0 -0.083990711194364936 -0.15147069185438031 0 -0.087990142986631187 -0.13745870479698369 0 -0.078464310649715902 -0.133803718623388 0 -0.083990711194364936 -0.15147069185438031 0 -0.078464310649715902 -0.133803718623388 0 -0.07577622773309764 -0.1468606593197733 0 -0.083990711194364936 -0.15147069185438031 0 -0.096164387099181611 -0.1573604904379316 0 -0.10010291629366989 -0.1430945637709817 0 -0.083990711194364936 -0.15147069185438031 0 -0.078464310649715902 -0.133803718623388 0 -0.083990711194364936 -0.15147069185438031 0 -0.087990142986631187 -0.13745870479698369 0 -0.10010291629366989 -0.1430945637709817 0 -0.089402633808776374 -0.12146584493918711 0 -0.087990142986631187 -0.13745870479698369 0 -0.078464310649715902 -0.133803718623388 0 -0.089402633808776374 -0.12146584493918711 0 -0.087990142986631187 -0.13745870479698369 0 -0.10010291629366989 -0.1430945637709817 0 -0.089402633808776374 -0.12146584493918711 0 -0.078464310649715902 -0.133803718623388 0 -0.077070689672634307 -0.12934854670860141 0 -0.089402633808776374 -0.12146584493918711 0 -0.078464310649715902 -0.133803718623388 0 -0.078464310649715902 -0.133803718623388 0 -0.073527971440139367 -0.13937165885923719 0 -0.077070689672634307 -0.12934854670860141 0 -0.057769607099250157 -0.13974819488579091 0 -0.073527971440139367 -0.13937165885923719 0 -0.065789072589199998 -0.13099865538217981 0 -0.078464310649715902 -0.133803718623388 0 -0.073527971440139367 -0.13937165885923719 0 -0.07577622773309764 -0.1468606593197733 0 -0.073527971440139367 -0.13937165885923719 0 -0.077070689672634307 -0.12934854670860141 0 -0.065789072589199998 -0.13099865538217981 0 -0.073527971440139367 -0.13937165885923719 0 -0.077070689672634307 -0.12934854670860141 0 -0.078464310649715902 -0.133803718623388 0 -0.073527971440139367 -0.13937165885923719 0 -0.078464310649715902 -0.133803718623388 0 -0.077070689672634307 -0.12934854670860141 0 -0.061388964377983662 -0.15306384308222939 0 -0.057769607099250157 -0.13974819488579091 0 -0.073527971440139367 -0.13937165885923719 0 -0.061388964377983662 -0.15306384308222939 0 -0.073527971440139367 -0.13937165885923719 0 -0.071875549279406342 -0.14404671669626529 0 -0.061388964377983662 -0.15306384308222939 0 -0.073527971440139367 -0.13937165885923719 0 -0.073527971440139367 -0.13937165885923719 0 -0.071875549279406342 -0.14404671669626529 0 -0.07577622773309764 -0.1468606593197733 0 -0.073527971440139367 -0.13937165885923719 0 -0.071875549279406342 -0.14404671669626529 0 -0.071875549279406342 -0.14404671669626529 0 -0.07577622773309764 -0.1468606593197733 0 -0.070535051314607661 -0.15008380673073249 0 -0.07577622773309764 -0.1468606593197733 0 -0.070535051314607661 -0.15008380673073249 0 -0.073099463867943026 -0.1563640078246622 0 -0.083990711194364936 -0.15147069185438031 0 -0.07577622773309764 -0.1468606593197733 0 -0.073099463867943026 -0.1563640078246622 0 -0.061388964377983662 -0.15306384308222939 0 -0.071875549279406342 -0.14404671669626529 0 -0.070535051314607661 -0.15008380673073249 0 -0.061388964377983662 -0.15306384308222939 0 -0.070535051314607661 -0.15008380673073249 0 -0.073099463867943026 -0.1563640078246622 0 -0.063841098970543325 -0.16373216960867329 0 -0.073874738169626447 -0.16471149161538581 0 -0.073099463867943026 -0.1563640078246622 0 -0.061388964377983662 -0.15306384308222939 0 -0.063841098970543325 -0.16373216960867329 0 -0.073099463867943026 -0.1563640078246622 0 -0.063841098970543325 -0.16373216960867329 0 -0.066522767579826142 -0.17452089537316651 0 -0.076876762176352476 -0.17631281500244661 0 -0.058653658301245408 -0.1735555350586801 0 -0.063841098970543325 -0.16373216960867329 0 -0.066522767579826142 -0.17452089537316651 0 -0.063841098970543325 -0.16373216960867329 0 -0.076876762176352476 -0.17631281500244661 0 -0.063841098970543325 -0.16373216960867329 0 -0.073874738169626447 -0.16471149161538581 0 -0.076876762176352476 -0.17631281500244661 0 -0.073874738169626447 -0.16471149161538581 0 -0.076876762176352476 -0.17631281500244661 0 -0.081681627663666961 -0.1624369740257611 0 -0.073874738169626447 -0.16471149161538581 0 -0.073099463867943026 -0.1563640078246622 0 -0.081681627663666961 -0.1624369740257611 0 -0.070962658119967256 -0.19339199601649459 0 -0.076876762176352476 -0.17631281500244661 0 -0.070962658119967256 -0.19339199601649459 0 -0.066522767579826142 -0.17452089537316651 0 -0.076876762176352476 -0.17631281500244661 0 -0.058660134779324177 -0.18011771130245871 0 -0.070962658119967256 -0.19339199601649459 0 -0.066522767579826142 -0.17452089537316651 0 -0.097553984907453609 -0.1962682866037796 0 -0.076876762176352476 -0.17631281500244661 0 -0.089517111739009281 -0.16913766508537409 0 -0.097553984907453609 -0.1962682866037796 0 -0.076876762176352476 -0.17631281500244661 0 -0.083990711194364936 -0.15147069185438031 0 -0.089517111739009281 -0.16913766508537409 0 -0.083990711194364936 -0.15147069185438031 0 -0.081681627663666961 -0.1624369740257611 0 -0.089517111739009281 -0.16913766508537409 0 -0.083990711194364936 -0.15147069185438031 0 -0.089517111739009281 -0.16913766508537409 0 -0.096164387099181611 -0.1573604904379316 0 -0.083990711194364936 -0.15147069185438031 0 -0.073099463867943026 -0.1563640078246622 0 -0.081681627663666961 -0.1624369740257611 0 -0.076876762176352476 -0.17631281500244661 0 -0.081681627663666961 -0.1624369740257611 0 -0.076876762176352476 -0.17631281500244661 0 -0.081681627663666961 -0.1624369740257611 0 -0.089517111739009281 -0.16913766508537409 0 -0.089517111739009281 -0.16913766508537409 0 -0.096164387099181611 -0.1573604904379316 0 -0.1015871229704623 -0.1674952427872928 0 -0.096164387099181611 -0.1573604904379316 0 -0.1015871229704623 -0.1674952427872928 0 -0.1110335564716799 -0.16015515984337839 0 -0.097553984907453609 -0.1962682866037796 0 -0.089517111739009281 -0.16913766508537409 0 -0.1038498020708104 -0.17933827917915279 0 -0.089517111739009281 -0.16913766508537409 0 -0.1015871229704623 -0.1674952427872928 0 -0.1038498020708104 -0.17933827917915279 0 -0.1015871229704623 -0.1674952427872928 0 -0.1038498020708104 -0.17933827917915279 0 -0.1155476178289853 -0.1734007971296086 0 -0.1166726240585392 -0.1912338587763773 0 -0.1038498020708104 -0.17933827917915279 0 -0.1155476178289853 -0.1734007971296086 0 -0.1166726240585392 -0.1912338587763773 0 -0.1155476178289853 -0.1734007971296086 0 -0.13030629931802901 -0.18296157518910769 0 -0.1155476178289853 -0.1734007971296086 0 -0.12855818035059149 -0.16891570311552759 0 -0.13030629931802901 -0.18296157518910769 0 -0.1110335564716799 -0.16015515984337839 0 -0.12948783797982569 -0.15345777528301 0 -0.12855818035059149 -0.16891570311552759 0 -0.1155476178289853 -0.1734007971296086 0 -0.1110335564716799 -0.16015515984337839 0 -0.12855818035059149 -0.16891570311552759 0 -0.1015871229704623 -0.1674952427872928 0 -0.1155476178289853 -0.1734007971296086 0 -0.1110335564716799 -0.16015515984337839 0 -0.1110335564716799 -0.16015515984337839 0 -0.11790018627272229 -0.14341833199181869 0 -0.12948783797982569 -0.15345777528301 0 -0.1110335564716799 -0.16015515984337839 0 -0.11790018627272229 -0.14341833199181869 0 -0.10010291629366989 -0.1430945637709817 0 -0.096164387099181611 -0.1573604904379316 0 -0.1110335564716799 -0.16015515984337839 0 -0.10010291629366989 -0.1430945637709817 0 -0.089402633808776374 -0.12146584493918711 0 -0.10010291629366989 -0.1430945637709817 0 -0.1116517452766989 -0.12608489527846259 0 -0.089402633808776374 -0.12146584493918711 0 -0.10010291629366989 -0.1430945637709817 0 -0.11790018627272229 -0.14341833199181869 0 -0.1116517452766989 -0.12608489527846259 0 -0.1354994100515195 -0.1327370651688819 0 -0.11790018627272229 -0.14341833199181869 0 -0.10010291629366989 -0.1430945637709817 0 -0.1116517452766989 -0.12608489527846259 0 -0.1354994100515195 -0.1327370651688819 0 -0.15507677789573951 -0.14029428422604379 0 -0.15741914310155439 -0.1198697540646097 0 -0.1354994100515195 -0.1327370651688819 0 -0.15507677789573951 -0.14029428422604379 0 -0.1461656233595694 -0.15456405334642501 0 -0.15507677789573951 -0.14029428422604379 0 -0.1461656233595694 -0.15456405334642501 0 -0.16657859178255849 -0.16625532727084469 0 -0.11790018627272229 -0.14341833199181869 0 -0.1354994100515195 -0.1327370651688819 0 -0.12948783797982569 -0.15345777528301 0 -0.1354994100515195 -0.1327370651688819 0 -0.1461656233595694 -0.15456405334642501 0 -0.12948783797982569 -0.15345777528301 0 -0.1461656233595694 -0.15456405334642501 0 -0.12855818035059149 -0.16891570311552759 0 -0.14533123882608229 -0.17391459853314609 0 -0.1461656233595694 -0.15456405334642501 0 -0.12948783797982569 -0.15345777528301 0 -0.12855818035059149 -0.16891570311552759 0 -0.13030629931802901 -0.18296157518910769 0 -0.14533123882608229 -0.17391459853314609 0 -0.14317661661885189 -0.19037172458898921 0 -0.12855818035059149 -0.16891570311552759 0 -0.13030629931802901 -0.18296157518910769 0 -0.14533123882608229 -0.17391459853314609 0 -0.14533123882608229 -0.17391459853314609 0 -0.15713729661443929 -0.1808591155777648 0 -0.14317661661885189 -0.19037172458898921 0 -0.1461656233595694 -0.15456405334642501 0 -0.14533123882608229 -0.17391459853314609 0 -0.16657859178255849 -0.16625532727084469 0 -0.16657859178255849 -0.16625532727084469 0 -0.1680422555224905 -0.18466050110444751 0 -0.1784967049542957 -0.1774845082817654 0 -0.16657859178255849 -0.16625532727084469 0 -0.15713729661443929 -0.1808591155777648 0 -0.1680422555224905 -0.18466050110444751 0 -0.14533123882608229 -0.17391459853314609 0 -0.16657859178255849 -0.16625532727084469 0 -0.15713729661443929 -0.1808591155777648 0 -0.15713729661443929 -0.1808591155777648 0 -0.1680422555224905 -0.18466050110444751 0 -0.15713437425531879 -0.19383808557739551 0 -0.1784967049542957 -0.1774845082817654 0 -0.1899312291033774 -0.15753976945089829 0 -0.18923457426359891 -0.18741064444023989 0 -0.1680422555224905 -0.18466050110444751 0 -0.1784967049542957 -0.1774845082817654 0 -0.1786968740994529 -0.1915562991423968 0 -0.1784967049542957 -0.1774845082817654 0 -0.1786968740994529 -0.1915562991423968 0 -0.18923457426359891 -0.18741064444023989 0 -0.16657859178255849 -0.16625532727084469 0 -0.1784967049542957 -0.1774845082817654 0 -0.1899312291033774 -0.15753976945089829 0 -0.17251618469621741 -0.13916249697834601 0 -0.19062788394315591 -0.1276688944615566 0 -0.1899312291033774 -0.15753976945089829 0 -0.16657859178255849 -0.16625532727084469 0 -0.17251618469621741 -0.13916249697834601 0 -0.1899312291033774 -0.15753976945089829 0 -0.17251618469621741 -0.13916249697834601 0 -0.17845377760987621 -0.11206966668584729 0 -0.17251618469621741 -0.13916249697834601 0 -0.19062788394315591 -0.1276688944615566 0 -0.17845377760987621 -0.11206966668584729 0 -0.15507677789573951 -0.14029428422604379 0 -0.17251618469621741 -0.13916249697834601 0 -0.15741914310155439 -0.1198697540646097 0 -0.15507677789573951 -0.14029428422604379 0 -0.16657859178255849 -0.16625532727084469 0 -0.17251618469621741 -0.13916249697834601 0 -0.16657859178255849 -0.16625532727084469 0 -0.17251618469621741 -0.13916249697834601 0 -0.15766078938878669 -0.25693704842601522 0 -0.14793605582477309 -0.2455342835516422 0 -0.15761901796128339 -0.2412202621118695 0 -0.15002529423573291 -0.23840401014604681 0 -0.1512025278541469 -0.2307973203910374 0 -0.15761901796128339 -0.2412202621118695 0 -0.15002529423573291 -0.23840401014604681 0 -0.14793605582477309 -0.2455342835516422 0 -0.15761901796128339 -0.2412202621118695 0 -0.15002529423573291 -0.23840401014604681 0 -0.1425543272344704 -0.23655137416255259 0 -0.14793605582477309 -0.2455342835516422 0 -0.15002529423573291 -0.23840401014604681 0 -0.1425543272344704 -0.23655137416255259 0 -0.14608235720447671 -0.23291567247157191 0 -0.1425543272344704 -0.23655137416255259 0 -0.13890843036965619 -0.23617922980644521 0 -0.1421393442623545 -0.23300539861229269 0 -0.1413484100891331 -0.25425966441157483 0 -0.14793605582477309 -0.2455342835516422 0 -0.1392187059844639 -0.24698190063072681 0 -0.1425543272344704 -0.23655137416255259 0 -0.14793605582477309 -0.2455342835516422 0 -0.1392187059844639 -0.24698190063072681 0 -0.12503603078947889 -0.25158228039713743 0 -0.1425543272344704 -0.23655137416255259 0 -0.1392187059844639 -0.24698190063072681 0 -0.12503603078947889 -0.25158228039713743 0 -0.1210238684243915 -0.23402036714352059 0 -0.13188066420449929 -0.23958331287741391 0 -0.12503603078947889 -0.25158228039713743 0 -0.1425543272344704 -0.23655137416255259 0 -0.13188066420449929 -0.23958331287741391 0 -0.1210238684243915 -0.23402036714352059 0 -0.13188066420449929 -0.23958331287741391 0 -0.13890843036965619 -0.23617922980644521 0 -0.12503603078947889 -0.25158228039713743 0 -0.1425543272344704 -0.23655137416255259 0 -0.1425543272344704 -0.23655137416255259 0 -0.13188066420449929 -0.23958331287741391 0 -0.13890843036965619 -0.23617922980644521 0 -0.11823120763855489 -0.21622375820511239 0 -0.1210238684243915 -0.23402036714352059 0 -0.13890843036965619 -0.23617922980644521 0 -0.11823120763855489 -0.21622375820511239 0 -0.13890843036965619 -0.23617922980644521 0 -0.11823120763855489 -0.21622375820511239 0 -0.1407489346972908 -0.22641734246065059 0 -0.14003552841288011 -0.21484788897771431 0 -0.11823120763855489 -0.21622375820511239 0 -0.13890843036965619 -0.23617922980644521 0 -0.1407489346972908 -0.22641734246065059 0 -0.13890843036965619 -0.23617922980644521 0 -0.1407489346972908 -0.22641734246065059 0 -0.1421393442623545 -0.23300539861229269 0 -0.1407489346972908 -0.22641734246065059 0 -0.14904840639965661 -0.22252026480720871 0 -0.14003552841288011 -0.21484788897771431 0 -0.1407489346972908 -0.22641734246065059 0 -0.1512025278541469 -0.2307973203910374 0 -0.14904840639965661 -0.22252026480720871 0 -0.1407489346972908 -0.22641734246065059 0 -0.14608235720447671 -0.23291567247157191 0 -0.1512025278541469 -0.2307973203910374 0 -0.1425543272344704 -0.23655137416255259 0 -0.1421393442623545 -0.23300539861229269 0 -0.14608235720447671 -0.23291567247157191 0 -0.1407489346972908 -0.22641734246065059 0 -0.1421393442623545 -0.23300539861229269 0 -0.14608235720447671 -0.23291567247157191 0 -0.15002529423573291 -0.23840401014604681 0 -0.14608235720447671 -0.23291567247157191 0 -0.1512025278541469 -0.2307973203910374 0 -0.1512025278541469 -0.2307973203910374 0 -0.14904840639965661 -0.22252026480720871 0 -0.15993866988771599 -0.225781128569054 0 -0.14904840639965661 -0.22252026480720871 0 -0.15331637114624919 -0.21475764363758729 0 -0.15993866988771599 -0.225781128569054 0 -0.15331637114624919 -0.21475764363758729 0 -0.14720372334546569 -0.20406377330665809 0 -0.15893727520231521 -0.20517664030160879 0 -0.14904840639965661 -0.22252026480720871 0 -0.15331637114624919 -0.21475764363758729 0 -0.14003552841288011 -0.21484788897771431 0 -0.15331637114624919 -0.21475764363758729 0 -0.14720372334546569 -0.20406377330665809 0 -0.14003552841288011 -0.21484788897771431 0 -0.11823120763855489 -0.21622375820511239 0 -0.14003552841288011 -0.21484788897771431 0 -0.1325515182251237 -0.19993276899099741 0 -0.14720372334546569 -0.20406377330665809 0 -0.14003552841288011 -0.21484788897771431 0 -0.1325515182251237 -0.19993276899099741 0 -0.13030629931802901 -0.18296157518910769 0 -0.1325515182251237 -0.19993276899099741 0 -0.14317661661885189 -0.19037172458898921 0 -0.1166726240585392 -0.1912338587763773 0 -0.13030629931802901 -0.18296157518910769 0 -0.1325515182251237 -0.19993276899099741 0 -0.14720372334546569 -0.20406377330665809 0 -0.1325515182251237 -0.19993276899099741 0 -0.14317661661885189 -0.19037172458898921 0 -0.14720372334546569 -0.20406377330665809 0 -0.15713437425531879 -0.19383808557739551 0 -0.15893727520231521 -0.20517664030160879 0 -0.14720372334546569 -0.20406377330665809 0 -0.14317661661885189 -0.19037172458898921 0 -0.15713437425531879 -0.19383808557739551 0 -0.15713729661443929 -0.1808591155777648 0 -0.14317661661885189 -0.19037172458898921 0 -0.15713437425531879 -0.19383808557739551 0 -0.15713437425531879 -0.19383808557739551 0 -0.16830788664508961 -0.1986259919321921 0 -0.15893727520231521 -0.20517664030160879 0 -0.1680422555224905 -0.18466050110444751 0 -0.16830788664508961 -0.1986259919321921 0 -0.1786968740994529 -0.1915562991423968 0 -0.1680422555224905 -0.18466050110444751 0 -0.15713437425531879 -0.19383808557739551 0 -0.16830788664508961 -0.1986259919321921 0 -0.1786968740994529 -0.1915562991423968 0 -0.19018726574190689 -0.19967921053410789 0 -0.18923457426359891 -0.18741064444023989 0 -0.1786968740994529 -0.1915562991423968 0 -0.17856403656129871 -0.20287936992056541 0 -0.19018726574190689 -0.19967921053410789 0 -0.16830788664508961 -0.1986259919321921 0 -0.1786968740994529 -0.1915562991423968 0 -0.17856403656129871 -0.20287936992056541 0 -0.16830788664508961 -0.1986259919321921 0 -0.17856403656129871 -0.20287936992056541 0 -0.1715651864987342 -0.21600385934848729 0 -0.17856403656129871 -0.20287936992056541 0 -0.1715651864987342 -0.21600385934848729 0 -0.1976456092161453 -0.22138628493382961 0 -0.15331637114624919 -0.21475764363758729 0 -0.1715651864987342 -0.21600385934848729 0 -0.15893727520231521 -0.20517664030160879 0 -0.16830788664508961 -0.1986259919321921 0 -0.1715651864987342 -0.21600385934848729 0 -0.15893727520231521 -0.20517664030160879 0 -0.1715651864987342 -0.21600385934848729 0 -0.15993866988771599 -0.225781128569054 0 -0.17902777516314369 -0.23411942933215421 0 -0.15993866988771599 -0.225781128569054 0 -0.17902777516314369 -0.23411942933215421 0 -0.15761901796128339 -0.2412202621118695 0 -0.15331637114624919 -0.21475764363758729 0 -0.1715651864987342 -0.21600385934848729 0 -0.15993866988771599 -0.225781128569054 0 -0.1512025278541469 -0.2307973203910374 0 -0.15993866988771599 -0.225781128569054 0 -0.15761901796128339 -0.2412202621118695 0 -0.1715651864987342 -0.21600385934848729 0 -0.17902777516314369 -0.23411942933215421 0 -0.1976456092161453 -0.22138628493382961 0 -0.18439867369853491 -0.26132559179640968 0 -0.17902777516314369 -0.23411942933215421 0 -0.17146525089902351 -0.24887373043365901 0 -0.15766078938878669 -0.25693704842601522 0 -0.15761901796128339 -0.2412202621118695 0 -0.17902777516314369 -0.23411942933215421 0 -0.17146525089902351 -0.24887373043365901 0 -0.15761901796128339 -0.2412202621118695 0 -0.15766078938878669 -0.25693704842601522 0 -0.17146525089902351 -0.24887373043365901 0 -0.15761901796128339 -0.2412202621118695 0 -0.20259798467806131 -0.24386557447816259 0 -0.2162050126880751 -0.22926331109159909 0 -0.22395341521182191 -0.24856859667403139 0 -0.18439867369853491 -0.26132559179640968 0 -0.17902777516314369 -0.23411942933215421 0 -0.20259798467806131 -0.24386557447816259 0 -0.17902777516314369 -0.23411942933215421 0 -0.20259798467806131 -0.24386557447816259 0 -0.1976456092161453 -0.22138628493382961 0 -0.1976456092161453 -0.22138628493382961 0 -0.2162050126880751 -0.22926331109159909 0 -0.21503512037358019 -0.20791625761607879 0 -0.20259798467806131 -0.24386557447816259 0 -0.1976456092161453 -0.22138628493382961 0 -0.2162050126880751 -0.22926331109159909 0 -0.1976456092161453 -0.22138628493382961 0 -0.21503512037358019 -0.20791625761607879 0 -0.2017396180258447 -0.19262009751691789 0 -0.1976456092161453 -0.22138628493382961 0 -0.2017396180258447 -0.19262009751691789 0 -0.1976456092161453 -0.22138628493382961 0 -0.19018726574190689 -0.19967921053410789 0 -0.2017396180258447 -0.19262009751691789 0 -0.17856403656129871 -0.20287936992056541 0 -0.1976456092161453 -0.22138628493382961 0 -0.19018726574190689 -0.19967921053410789 0 -0.19018726574190689 -0.19967921053410789 0 -0.2017396180258447 -0.19262009751691789 0 -0.18923457426359891 -0.18741064444023989 0 -0.21503512037358019 -0.20791625761607879 0 -0.2017396180258447 -0.19262009751691789 0 -0.21699684412099979 -0.18538301875529539 0 -0.22669106817151169 -0.19346148368052499 0 -0.24280950400343609 -0.18760229449853641 0 -0.2296983030679714 -0.18186445168413409 0 -0.21503512037358019 -0.20791625761607879 0 -0.22669106817151169 -0.19346148368052499 0 -0.23531952028067379 -0.2049833853751315 0 -0.21503512037358019 -0.20791625761607879 0 -0.22669106817151169 -0.19346148368052499 0 -0.21699684412099979 -0.18538301875529539 0 -0.22669106817151169 -0.19346148368052499 0 -0.24280950400343609 -0.18760229449853641 0 -0.23531952028067379 -0.2049833853751315 0 -0.2496991802272914 -0.200769489153338 0 -0.24280950400343609 -0.18760229449853641 0 -0.23531952028067379 -0.2049833853751315 0 -0.23531952028067379 -0.2049833853751315 0 -0.24874382124308331 -0.21872375249164969 0 -0.22973983856157321 -0.2189921746695678 0 -0.2496991802272914 -0.200769489153338 0 -0.23531952028067379 -0.2049833853751315 0 -0.24874382124308331 -0.21872375249164969 0 -0.21503512037358019 -0.20791625761607879 0 -0.23531952028067379 -0.2049833853751315 0 -0.22973983856157321 -0.2189921746695678 0 -0.2162050126880751 -0.22926331109159909 0 -0.21503512037358019 -0.20791625761607879 0 -0.22973983856157321 -0.2189921746695678 0 -0.2162050126880751 -0.22926331109159909 0 -0.22973983856157321 -0.2189921746695678 0 -0.23594958504894689 -0.2332653906130274 0 -0.24874382124308331 -0.21872375249164969 0 -0.23594958504894689 -0.2332653906130274 0 -0.25116623381764552 -0.2374479092143516 0 -0.24874382124308331 -0.21872375249164969 0 -0.22973983856157321 -0.2189921746695678 0 -0.23594958504894689 -0.2332653906130274 0 -0.25431501404594598 -0.25676801052014742 0 -0.24102500290493409 -0.2487761892091421 0 -0.25116623381764552 -0.2374479092143516 0 -0.23594958504894689 -0.2332653906130274 0 -0.24102500290493409 -0.2487761892091421 0 -0.25116623381764552 -0.2374479092143516 0 -0.23594958504894689 -0.2332653906130274 0 -0.24102500290493409 -0.2487761892091421 0 -0.22395341521182191 -0.24856859667403139 0 -0.2162050126880751 -0.22926331109159909 0 -0.23594958504894689 -0.2332653906130274 0 -0.22395341521182191 -0.24856859667403139 0 -0.20583362683554421 -0.1638539101000063 0 -0.2246522201170284 -0.1597017340859283 0 -0.22085159776950999 -0.1431864994960792 0 -0.20992763564524361 -0.13508772268309449 0 -0.20583362683554421 -0.1638539101000063 0 -0.20992763564524361 -0.13508772268309449 0 -0.20583362683554421 -0.1638539101000063 0 -0.22085159776950999 -0.1431864994960792 0 -0.20992763564524361 -0.13508772268309449 0 -0.19062788394315591 -0.1276688944615566 0 -0.1899312291033774 -0.15753976945089829 0 -0.20992763564524361 -0.13508772268309449 0 -0.19062788394315591 -0.1276688944615566 0 -0.2003635723659439 -0.11289139412112439 0 -0.19062788394315591 -0.1276688944615566 0 -0.1899312291033774 -0.15753976945089829 0 -0.20992763564524361 -0.13508772268309449 0 -0.1899312291033774 -0.15753976945089829 0 -0.20583362683554421 -0.1638539101000063 0 -0.1899312291033774 -0.15753976945089829 0 -0.18923457426359891 -0.18741064444023989 0 -0.20583362683554421 -0.1638539101000063 0 -0.2017396180258447 -0.19262009751691789 0 -0.18923457426359891 -0.18741064444023989 0 -0.20583362683554421 -0.1638539101000063 0 -0.1899312291033774 -0.15753976945089829 0 -0.18923457426359891 -0.18741064444023989 0 -0.2017396180258447 -0.19262009751691789 0 -0.20583362683554421 -0.1638539101000063 0 -0.21699684412099979 -0.18538301875529539 0 -0.20583362683554421 -0.1638539101000063 0 -0.22225365970138469 -0.17291050355584281 0 -0.2017396180258447 -0.19262009751691789 0 -0.21699684412099979 -0.18538301875529539 0 -0.20583362683554421 -0.1638539101000063 0 -0.20583362683554421 -0.1638539101000063 0 -0.2246522201170284 -0.1597017340859283 0 -0.22225365970138469 -0.17291050355584281 0 -0.2246522201170284 -0.1597017340859283 0 -0.22225365970138469 -0.17291050355584281 0 -0.23623803030174689 -0.17154219771478679 0 -0.2246522201170284 -0.1597017340859283 0 -0.23695813979876121 -0.15939171098683921 0 -0.23623803030174689 -0.17154219771478679 0 -0.21699684412099979 -0.18538301875529539 0 -0.22225365970138469 -0.17291050355584281 0 -0.2296983030679714 -0.18186445168413409 0 -0.22669106817151169 -0.19346148368052499 0 -0.21699684412099979 -0.18538301875529539 0 -0.2296983030679714 -0.18186445168413409 0 -0.22225365970138469 -0.17291050355584281 0 -0.2296983030679714 -0.18186445168413409 0 -0.23623803030174689 -0.17154219771478679 0 -0.24280950400343609 -0.18760229449853641 0 -0.2296983030679714 -0.18186445168413409 0 -0.23623803030174689 -0.17154219771478679 0 -0.24280950400343609 -0.18760229449853641 0 -0.24724980765878929 -0.17680374519294309 0 -0.23623803030174689 -0.17154219771478679 0 -0.24280950400343609 -0.18760229449853641 0 -0.24724980765878929 -0.17680374519294309 0 -0.25840421564139532 -0.17968222638675629 0 -0.23695813979876121 -0.15939171098683921 0 -0.23623803030174689 -0.17154219771478679 0 -0.25382573003102971 -0.1609332633390595 0 -0.24724980765878929 -0.17680374519294309 0 -0.23623803030174689 -0.17154219771478679 0 -0.25382573003102971 -0.1609332633390595 0 -0.23906055857476111 -0.14769103548234391 0 -0.24683853217084689 -0.1306217582628095 0 -0.25709854924807879 -0.14705889676093931 0 -0.23906055857476111 -0.14769103548234391 0 -0.25382573003102971 -0.1609332633390595 0 -0.25709854924807879 -0.14705889676093931 0 -0.23695813979876121 -0.15939171098683921 0 -0.23906055857476111 -0.14769103548234391 0 -0.25382573003102971 -0.1609332633390595 0 -0.2246522201170284 -0.1597017340859283 0 -0.23906055857476111 -0.14769103548234391 0 -0.22085159776950999 -0.1431864994960792 0 -0.2246522201170284 -0.1597017340859283 0 -0.23695813979876121 -0.15939171098683921 0 -0.23906055857476111 -0.14769103548234391 0 -0.22085159776950999 -0.1431864994960792 0 -0.24683853217084689 -0.1306217582628095 0 -0.22651794249756191 -0.12385992055046439 0 -0.20992763564524361 -0.13508772268309449 0 -0.22085159776950999 -0.1431864994960792 0 -0.22651794249756191 -0.12385992055046439 0 -0.22085159776950999 -0.1431864994960792 0 -0.24683853217084689 -0.1306217582628095 0 -0.23906055857476111 -0.14769103548234391 0 -0.22085159776950999 -0.1431864994960792 0 -0.24683853217084689 -0.1306217582628095 0 -0.24683853217084689 -0.1306217582628095 0 -0.2409503024472662 -0.1040820870441557 0 -0.22651794249756191 -0.12385992055046439 0 -0.24683853217084689 -0.1306217582628095 0 -0.2409503024472662 -0.1040820870441557 0 -0.2580873313086669 -0.1081448409590956 0 -0.2409503024472662 -0.1040820870441557 0 -0.2428933934748953 -0.086509858277010368 0 -0.22962719769335721 -0.091426242000247598 0 -0.2409503024472662 -0.1040820870441557 0 -0.22962719769335721 -0.091426242000247598 0 -0.21402164445494301 -0.1063215352661829 0 -0.2409503024472662 -0.1040820870441557 0 -0.22651794249756191 -0.12385992055046439 0 -0.21402164445494301 -0.1063215352661829 0 -0.23747697434502921 -0.067000534483862159 0 -0.23556610357152721 -0.074407230376417527 0 -0.25301655387841049 -0.071259112903562905 0 -0.23556610357152721 -0.074407230376417527 0 -0.2428933934748953 -0.086509858277010368 0 -0.25301655387841049 -0.071259112903562905 0 -0.23556610357152721 -0.074407230376417527 0 -0.25301655387841049 -0.071259112903562905 0 -0.23747697434502921 -0.067000534483862159 0 -0.2424040799551099 -0.063074430644233709 0 -0.23353596148198319 -0.060557368243304308 0 -0.23747697434502921 -0.067000534483862159 0 -0.2424040799551099 -0.063074430644233709 0 -0.25301655387841049 -0.071259112903562905 0 -0.2424040799551099 -0.063074430644233709 0 -0.24895267118496359 -0.061295236539277383 0 -0.25301655387841049 -0.071259112903562905 0 -0.23747697434502921 -0.067000534483862159 0 -0.25301655387841049 -0.071259112903562905 0 -0.23556610357152721 -0.074407230376417527 0 -0.2428933934748953 -0.086509858277010368 0 -0.22962719769335721 -0.091426242000247598 0 -0.2409503024472662 -0.1040820870441557 0 -0.2428933934748953 -0.086509858277010368 0 -0.25703728698740469 -0.09060205987723953 0 -0.23556610357152721 -0.074407230376417527 0 -0.22962719769335721 -0.091426242000247598 0 -0.21811565326464349 -0.077555347849271261 0 -0.22962719769335721 -0.091426242000247598 0 -0.21811565326464349 -0.077555347849271261 0 -0.21402164445494301 -0.1063215352661829 0 -0.23556610357152721 -0.074407230376417527 0 -0.21811565326464349 -0.077555347849271261 0 -0.23556610357152721 -0.074407230376417527 0 -0.2219373948116477 -0.062741956064161983 0 -0.21811565326464349 -0.077555347849271261 0 -0.21811565326464349 -0.077555347849271261 0 -0.22191887011454231 -0.050832384178008332 0 -0.2219373948116477 -0.062741956064161983 0 -0.21811565326464349 -0.077555347849271261 0 -0.22191887011454231 -0.050832384178008332 0 -0.23747697434502921 -0.067000534483862159 0 -0.2219373948116477 -0.062741956064161983 0 -0.23353596148198319 -0.060557368243304308 0 -0.23747697434502921 -0.067000534483862159 0 -0.2219373948116477 -0.062741956064161983 0 -0.23747697434502921 -0.067000534483862159 0 -0.23556610357152721 -0.074407230376417527 0 -0.2219373948116477 -0.062741956064161983 0 -0.20752578184412371 -0.06473881378761083 0 -0.21811565326464349 -0.077555347849271261 0 -0.22191887011454231 -0.050832384178008332 0 -0.20752578184412371 -0.06473881378761083 0 -0.21811565326464349 -0.077555347849271261 0 -0.2020820183441196 -0.080447867260461492 0 -0.21811565326464349 -0.077555347849271261 0 -0.21402164445494301 -0.1063215352661829 0 -0.21811565326464349 -0.077555347849271261 0 -0.2020820183441196 -0.080447867260461492 0 -0.20347323387840971 -0.093979064376000579 0 -0.21811565326464349 -0.077555347849271261 0 -0.2020820183441196 -0.080447867260461492 0 -0.21811565326464349 -0.077555347849271261 0 -0.21402164445494301 -0.1063215352661829 0 -0.20347323387840971 -0.093979064376000579 0 -0.2020820183441196 -0.080447867260461492 0 -0.1860483834235957 -0.083340386671651362 0 -0.2020820183441196 -0.080447867260461492 0 -0.18874616863099669 -0.074832865801979453 0 -0.1860483834235957 -0.083340386671651362 0 -0.19493197605787371 -0.088860222286748114 0 -0.2020820183441196 -0.080447867260461492 0 -0.1860483834235957 -0.083340386671651362 0 -0.19493197605787371 -0.088860222286748114 0 -0.20347323387840971 -0.093979064376000579 0 -0.1913245387829344 -0.097798019472214975 0 -0.19493197605787371 -0.088860222286748114 0 -0.2020820183441196 -0.080447867260461492 0 -0.20347323387840971 -0.093979064376000579 0 -0.19493197605787371 -0.088860222286748114 0 -0.18846560787251451 -0.091058834074733294 0 -0.1860483834235957 -0.083340386671651362 0 -0.19493197605787371 -0.088860222286748114 0 -0.18846560787251451 -0.091058834074733294 0 -0.1913245387829344 -0.097798019472214975 0 -0.20752578184412371 -0.06473881378761083 0 -0.2020820183441196 -0.080447867260461492 0 -0.19224589793259661 -0.064780730937234354 0 -0.2020820183441196 -0.080447867260461492 0 -0.18874616863099669 -0.074832865801979453 0 -0.19224589793259661 -0.064780730937234354 0 -0.18874616863099669 -0.074832865801979453 0 -0.19224589793259661 -0.064780730937234354 0 -0.1830378120138299 -0.070470010878815215 0 -0.20992763564524361 -0.13508772268309449 0 -0.21402164445494301 -0.1063215352661829 0 -0.2003635723659439 -0.11289139412112439 0 -0.20992763564524361 -0.13508772268309449 0 -0.22651794249756191 -0.12385992055046439 0 -0.21402164445494301 -0.1063215352661829 0 -0.20992763564524361 -0.13508772268309449 0 -0.21402164445494301 -0.1063215352661829 0 -0.21402164445494301 -0.1063215352661829 0 -0.20347323387840971 -0.093979064376000579 0 -0.2003635723659439 -0.11289139412112439 0 -0.20347323387840971 -0.093979064376000579 0 -0.1913245387829344 -0.097798019472214975 0 -0.2003635723659439 -0.11289139412112439 0 -0.19062788394315591 -0.1276688944615566 0 -0.1913245387829344 -0.097798019472214975 0 -0.19062788394315591 -0.1276688944615566 0 -0.1913245387829344 -0.097798019472214975 0 -0.2003635723659439 -0.11289139412112439 0 -0.19062788394315591 -0.1276688944615566 0 -0.1913245387829344 -0.097798019472214975 0 -0.17845377760987621 -0.11206966668584729 0 -0.17845377760987621 -0.11206966668584729 0 -0.15741914310155439 -0.1198697540646097 0 -0.16951380021113799 -0.10132968864835611 0 -0.17251618469621741 -0.13916249697834601 0 -0.17845377760987621 -0.11206966668584729 0 -0.15741914310155439 -0.1198697540646097 0 -0.15741914310155439 -0.1198697540646097 0 -0.16951380021113799 -0.10132968864835611 0 -0.15256948039694909 -0.1051489150590723 0 -0.16951380021113799 -0.10132968864835611 0 -0.15826413366534481 -0.093106877811394567 0 -0.15256948039694909 -0.1051489150590723 0 -0.16951380021113799 -0.10132968864835611 0 -0.1720974479626588 -0.088664263406194113 0 -0.15826413366534481 -0.093106877811394567 0 -0.17845377760987621 -0.11206966668584729 0 -0.18439137052353499 -0.08497683639334877 0 -0.18846560787251451 -0.091058834074733294 0 -0.17845377760987621 -0.11206966668584729 0 -0.18439137052353499 -0.08497683639334877 0 -0.18846560787251451 -0.091058834074733294 0 -0.1913245387829344 -0.097798019472214975 0 -0.17845377760987621 -0.11206966668584729 0 -0.17845377760987621 -0.11206966668584729 0 -0.16951380021113799 -0.10132968864835611 0 -0.18439137052353499 -0.08497683639334877 0 -0.16951380021113799 -0.10132968864835611 0 -0.18439137052353499 -0.08497683639334877 0 -0.1720974479626588 -0.088664263406194113 0 -0.18846560787251451 -0.091058834074733294 0 -0.1860483834235957 -0.083340386671651362 0 -0.18439137052353499 -0.08497683639334877 0 -0.18874616863099669 -0.074832865801979453 0 -0.1860483834235957 -0.083340386671651362 0 -0.18380147587024009 -0.077531287943956737 0 -0.1860483834235957 -0.083340386671651362 0 -0.18439137052353499 -0.08497683639334877 0 -0.18246190963254991 -0.081408214663940118 0 -0.1860483834235957 -0.083340386671651362 0 -0.18246190963254991 -0.081408214663940118 0 -0.18380147587024009 -0.077531287943956737 0 -0.18246190963254991 -0.081408214663940118 0 -0.18380147587024009 -0.077531287943956737 0 -0.17858642607995051 -0.077518916646001162 0 -0.18439137052353499 -0.08497683639334877 0 -0.18246190963254991 -0.081408214663940118 0 -0.177682028930922 -0.08245111748925528 0 -0.177682028930922 -0.08245111748925528 0 -0.17858642607995051 -0.077518916646001162 0 -0.17014287940973641 -0.078403840684240222 0 -0.177682028930922 -0.08245111748925528 0 -0.1720974479626588 -0.088664263406194113 0 -0.17014287940973641 -0.078403840684240222 0 -0.18439137052353499 -0.08497683639334877 0 -0.177682028930922 -0.08245111748925528 0 -0.1720974479626588 -0.088664263406194113 0 -0.18246190963254991 -0.081408214663940118 0 -0.177682028930922 -0.08245111748925528 0 -0.17858642607995051 -0.077518916646001162 0 -0.19224589793259661 -0.064780730937234354 0 -0.1830378120138299 -0.070470010878815215 0 -0.18018565826209401 -0.059803461091540319 0 -0.18874616863099669 -0.074832865801979453 0 -0.1830378120138299 -0.070470010878815215 0 -0.18380147587024009 -0.077531287943956737 0 -0.1830378120138299 -0.070470010878815215 0 -0.18380147587024009 -0.077531287943956737 0 -0.17858642607995051 -0.077518916646001162 0 -0.1830378120138299 -0.070470010878815215 0 -0.17858642607995051 -0.077518916646001162 0 -0.17338205220460029 -0.069930856095856017 0 -0.17858642607995051 -0.077518916646001162 0 -0.17338205220460029 -0.069930856095856017 0 -0.17014287940973641 -0.078403840684240222 0 -0.1830378120138299 -0.070470010878815215 0 -0.17338205220460029 -0.069930856095856017 0 -0.18018565826209401 -0.059803461091540319 0 -0.17338205220460029 -0.069930856095856017 0 -0.1659987649482422 -0.061610274310651851 0 -0.18018565826209401 -0.059803461091540319 0 -0.17338205220460029 -0.069930856095856017 0 -0.16342769521830749 -0.07159357727037563 0 -0.1659987649482422 -0.061610274310651851 0 -0.17338205220460029 -0.069930856095856017 0 -0.16342769521830749 -0.07159357727037563 0 -0.17014287940973641 -0.078403840684240222 0 -0.16342769521830749 -0.07159357727037563 0 -0.17014287940973641 -0.078403840684240222 0 -0.15617369796388841 -0.079957088634155057 0 -0.16342769521830749 -0.07159357727037563 0 -0.15617369796388841 -0.079957088634155057 0 -0.15573194854971431 -0.065386828432347485 0 -0.16342769521830749 -0.07159357727037563 0 -0.15573194854971431 -0.065386828432347485 0 -0.1659987649482422 -0.061610274310651851 0 -0.1720974479626588 -0.088664263406194113 0 -0.17014287940973641 -0.078403840684240222 0 -0.15617369796388841 -0.079957088634155057 0 -0.1720974479626588 -0.088664263406194113 0 -0.15826413366534481 -0.093106877811394567 0 -0.15617369796388841 -0.079957088634155057 0 -0.15826413366534481 -0.093106877811394567 0 -0.14090566277787639 -0.089452050643607145 0 -0.15617369796388841 -0.079957088634155057 0 -0.14090566277787639 -0.089452050643607145 0 -0.15617369796388841 -0.079957088634155057 0 -0.134350910999569 -0.070766468239664093 0 -0.15573194854971431 -0.065386828432347485 0 -0.134350910999569 -0.070766468239664093 0 -0.15617369796388841 -0.079957088634155057 0 -0.15573194854971431 -0.065386828432347485 0 -0.134350910999569 -0.070766468239664093 0 -0.15573194854971431 -0.065386828432347485 0 -0.134350910999569 -0.070766468239664093 0 -0.15076638634052039 -0.052250644719221827 0 -0.1193681519359712 -0.087666260472838181 0 -0.14090566277787639 -0.089452050643607145 0 -0.134350910999569 -0.070766468239664093 0 -0.1193681519359712 -0.087666260472838181 0 -0.134350910999569 -0.070766468239664093 0 -0.1211518125642765 -0.1106055035795695 0 -0.1193681519359712 -0.087666260472838181 0 -0.1373619679364593 -0.10774853876135471 0 -0.1193681519359712 -0.087666260472838181 0 -0.14090566277787639 -0.089452050643607145 0 -0.1373619679364593 -0.10774853876135471 0 -0.1211518125642765 -0.1106055035795695 0 -0.1354994100515195 -0.1327370651688819 0 -0.1373619679364593 -0.10774853876135471 0 -0.15741914310155439 -0.1198697540646097 0 -0.1373619679364593 -0.10774853876135471 0 -0.15256948039694909 -0.1051489150590723 0 -0.1354994100515195 -0.1327370651688819 0 -0.15741914310155439 -0.1198697540646097 0 -0.1373619679364593 -0.10774853876135471 0 -0.15826413366534481 -0.093106877811394567 0 -0.14090566277787639 -0.089452050643607145 0 -0.15256948039694909 -0.1051489150590723 0 -0.14090566277787639 -0.089452050643607145 0 -0.1373619679364593 -0.10774853876135471 0 -0.15256948039694909 -0.1051489150590723 0 -0.1410276087416692 -0.025565321264202402 0 -0.16718186168147231 -0.033734821198780067 0 -0.1410276087416692 -0.025565321264202402 0 -0.14306110324583091 -0.0044799994510859691 0 -0.16329241061398961 -0.01075854211927168 0 -0.14306110324583091 -0.0044799994510859691 0 -0.16329241061398961 -0.01075854211927168 0 -0.1568189069987071 0.01162741287239054 0 -0.11487335580186619 -0.01739582132962459 0 -0.14306110324583091 -0.0044799994510859691 0 -0.12705603436313739 0.011468810593014351 0 -0.11487335580186619 -0.01739582132962459 0 -0.1410276087416692 -0.025565321264202402 0 -0.14306110324583091 -0.0044799994510859691 0 -0.11487335580186619 -0.01739582132962459 0 -0.1410276087416692 -0.025565321264202402 0 -0.1410276087416692 -0.025565321264202402 0 -0.12851653136048641 -0.049059311098846897 0 -0.15076638634052039 -0.052250644719221827 0 -0.11845884524579781 -0.03462193739809187 0 -0.1410276087416692 -0.025565321264202402 0 -0.12851653136048641 -0.049059311098846897 0 -0.1155349902059912 -0.059971079674281592 0 -0.134350910999569 -0.070766468239664093 0 -0.12851653136048641 -0.049059311098846897 0 -0.134350910999569 -0.070766468239664093 0 -0.12851653136048641 -0.049059311098846897 0 -0.15076638634052039 -0.052250644719221827 0 -0.134350910999569 -0.070766468239664093 0 -0.15076638634052039 -0.052250644719221827 0 -0.1410276087416692 -0.025565321264202402 0 -0.15076638634052039 -0.052250644719221827 0 -0.16718186168147231 -0.033734821198780067 0 -0.15076638634052039 -0.052250644719221827 0 -0.16718186168147231 -0.033734821198780067 0 -0.15076638634052039 -0.052250644719221827 0 -0.16718186168147231 -0.033734821198780067 0 -0.17189905657528809 -0.049745291638290078 0 -0.15076638634052039 -0.052250644719221827 0 -0.1659987649482422 -0.061610274310651851 0 -0.17189905657528809 -0.049745291638290078 0 -0.15573194854971431 -0.065386828432347485 0 -0.15076638634052039 -0.052250644719221827 0 -0.1659987649482422 -0.061610274310651851 0 -0.17189905657528809 -0.049745291638290078 0 -0.18018565826209401 -0.059803461091540319 0 -0.19455036589800731 -0.042283602688394428 0 -0.1659987649482422 -0.061610274310651851 0 -0.17189905657528809 -0.049745291638290078 0 -0.18018565826209401 -0.059803461091540319 0 -0.16718186168147231 -0.033734821198780067 0 -0.17189905657528809 -0.049745291638290078 0 -0.19455036589800731 -0.042283602688394428 0 -0.16718186168147231 -0.033734821198780067 0 -0.19455036589800731 -0.042283602688394428 0 -0.16718186168147231 -0.033734821198780067 0 -0.18656919721888451 -0.011866890122376669 0 -0.16718186168147231 -0.033734821198780067 0 -0.16329241061398961 -0.01075854211927168 0 -0.18656919721888451 -0.011866890122376669 0 -0.16718186168147231 -0.033734821198780067 0 -0.18656919721888451 -0.011866890122376669 0 -0.19455036589800731 -0.042283602688394428 0 -0.1410276087416692 -0.025565321264202402 0 -0.16718186168147231 -0.033734821198780067 0 -0.16329241061398961 -0.01075854211927168 0 -0.16329241061398961 -0.01075854211927168 0 -0.18656919721888451 -0.011866890122376669 0 -0.1865817796342768 0.01178601515176673 0 -0.18656919721888451 -0.011866890122376669 0 -0.2066496501855046 -0.0025137608563201982 0 -0.2067436818493836 -0.013134437965926459 0 -0.18656919721888451 -0.011866890122376669 0 -0.2066496501855046 -0.0025137608563201982 0 -0.20595653275629711 0.0100010409540266 0 -0.18656919721888451 -0.011866890122376669 0 -0.20595653275629711 0.0100010409540266 0 -0.18656919721888451 -0.011866890122376669 0 -0.20571953513138461 -0.02589373284127373 0 -0.2067436818493836 -0.013134437965926459 0 -0.18656919721888451 -0.011866890122376669 0 -0.20571953513138461 -0.02589373284127373 0 -0.19455036589800731 -0.042283602688394428 0 -0.20571953513138461 -0.02589373284127373 0 -0.21859494755787631 -0.0177680685148413 0 -0.2067436818493836 -0.013134437965926459 0 -0.20571953513138461 -0.02589373284127373 0 -0.21604599797684931 -0.02671272725364493 0 -0.21859494755787631 -0.0177680685148413 0 -0.20571953513138461 -0.02589373284127373 0 -0.21604599797684931 -0.02671272725364493 0 -0.2147745089233804 -0.0360080914189592 0 -0.21859494755787631 -0.0177680685148413 0 -0.21618507915326801 -0.0076297374948203966 0 -0.2067436818493836 -0.013134437965926459 0 -0.21618507915326801 -0.0076297374948203966 0 -0.2066496501855046 -0.0025137608563201982 0 -0.21748899213025111 0.0010571944288816661 0 -0.21618507915326801 -0.0076297374948203966 0 -0.2066496501855046 -0.0025137608563201982 0 -0.2067436818493836 -0.013134437965926459 0 -0.19224589793259661 -0.064780730937234354 0 -0.18018565826209401 -0.059803461091540319 0 -0.19455036589800731 -0.042283602688394428 0 -0.20752578184412371 -0.06473881378761083 0 -0.19224589793259661 -0.064780730937234354 0 -0.19455036589800731 -0.042283602688394428 0 -0.20571953513138461 -0.02589373284127373 0 -0.19455036589800731 -0.042283602688394428 0 -0.2147745089233804 -0.0360080914189592 0 -0.19455036589800731 -0.042283602688394428 0 -0.22191887011454231 -0.050832384178008332 0 -0.19455036589800731 -0.042283602688394428 0 -0.2147745089233804 -0.0360080914189592 0 -0.22191887011454231 -0.050832384178008332 0 -0.20752578184412371 -0.06473881378761083 0 -0.19455036589800731 -0.042283602688394428 0 -0.22191887011454231 -0.050832384178008332 0 -0.2219373948116477 -0.062741956064161983 0 -0.23353596148198319 -0.060557368243304308 0 -0.2306748313271538 -0.053567381989578097 0 -0.2219373948116477 -0.062741956064161983 0 -0.22191887011454231 -0.050832384178008332 0 -0.2306748313271538 -0.053567381989578097 0 -0.22191887011454231 -0.050832384178008332 0 -0.2306748313271538 -0.053567381989578097 0 -0.22191887011454231 -0.050832384178008332 0 -0.2306748313271538 -0.053567381989578097 0 -0.2329059315032066 -0.046609230248236863 0 -0.22191887011454231 -0.050832384178008332 0 -0.2306521509948046 -0.037177821689815899 0 -0.22554579291840221 -0.025348134882972152 0 -0.2147745089233804 -0.0360080914189592 0 -0.22191887011454231 -0.050832384178008332 0 -0.22554579291840221 -0.025348134882972152 0 -0.22191887011454231 -0.050832384178008332 0 -0.22554579291840221 -0.025348134882972152 0 -0.22191887011454231 -0.050832384178008332 0 -0.2329059315032066 -0.046609230248236863 0 -0.2306521509948046 -0.037177821689815899 0 -0.2329059315032066 -0.046609230248236863 0 -0.2306521509948046 -0.037177821689815899 0 -0.23944571347160201 -0.042360251986389992 0 -0.2306521509948046 -0.037177821689815899 0 -0.24133958241864259 -0.035057711037180209 0 -0.23603864625974061 -0.027265695499158391 0 -0.2306521509948046 -0.037177821689815899 0 -0.24133958241864259 -0.035057711037180209 0 -0.23944571347160201 -0.042360251986389992 0 -0.24133958241864259 -0.035057711037180209 0 -0.24953475547050491 -0.034095205529127627 0 -0.24825274505185621 -0.041057344827626747 0 -0.24133958241864259 -0.035057711037180209 0 -0.24953475547050491 -0.034095205529127627 0 -0.24650846350796751 -0.029110344548071071 0 -0.24825274505185621 -0.041057344827626747 0 -0.23944571347160201 -0.042360251986389992 0 -0.24183809160793021 -0.049108311397391718 0 -0.24825274505185621 -0.041057344827626747 0 -0.24183809160793021 -0.049108311397391718 0 -0.25041861304965352 -0.048094125714969807 0 -0.24133958241864259 -0.035057711037180209 0 -0.24825274505185621 -0.041057344827626747 0 -0.23944571347160201 -0.042360251986389992 0 -0.2329059315032066 -0.046609230248236863 0 -0.23944571347160201 -0.042360251986389992 0 -0.24183809160793021 -0.049108311397391718 0 -0.2306748313271538 -0.053567381989578097 0 -0.24183809160793021 -0.049108311397391718 0 -0.24054526814482599 -0.057185890392351772 0 -0.2306748313271538 -0.053567381989578097 0 -0.2329059315032066 -0.046609230248236863 0 -0.24183809160793021 -0.049108311397391718 0 -0.24183809160793021 -0.049108311397391718 0 -0.24862177842922761 -0.054340961316372213 0 -0.24054526814482599 -0.057185890392351772 0 -0.24183809160793021 -0.049108311397391718 0 -0.24862177842922761 -0.054340961316372213 0 -0.25041861304965352 -0.048094125714969807 0 -0.2424040799551099 -0.063074430644233709 0 -0.24895267118496359 -0.061295236539277383 0 -0.24054526814482599 -0.057185890392351772 0 -0.24862177842922761 -0.054340961316372213 0 -0.24895267118496359 -0.061295236539277383 0 -0.24054526814482599 -0.057185890392351772 0 -0.23353596148198319 -0.060557368243304308 0 -0.2306748313271538 -0.053567381989578097 0 -0.24054526814482599 -0.057185890392351772 0 -0.2424040799551099 -0.063074430644233709 0 -0.23353596148198319 -0.060557368243304308 0 -0.24054526814482599 -0.057185890392351772 0 -0.22714384722593139 -0.01169631987585875 0 -0.230481994006554 -0.01908028707143292 0 -0.2392485006784244 -0.012686603913536629 0 -0.22714384722593139 -0.01169631987585875 0 -0.2392485006784244 -0.012686603913536629 0 -0.23507328449069539 -0.0052270720427161051 0 -0.2294508146791108 -0.0010370962082505879 0 -0.22332817232786861 -0.0049918373310841339 0 -0.23507328449069539 -0.0052270720427161051 0 -0.22714384722593139 -0.01169631987585875 0 -0.22332817232786861 -0.0049918373310841339 0 -0.23507328449069539 -0.0052270720427161051 0 -0.2294508146791108 -0.0010370962082505879 0 -0.23507328449069539 -0.0052270720427161051 0 -0.23527211258631189 0.00096094505569513204 0 -0.22332817232786861 -0.0049918373310841339 0 -0.21748899213025111 0.0010571944288816661 0 -0.22651946576868481 0.003714465585732938 0 -0.21618507915326801 -0.0076297374948203966 0 -0.22332817232786861 -0.0049918373310841339 0 -0.21748899213025111 0.0010571944288816661 0 -0.2294508146791108 -0.0010370962082505879 0 -0.22332817232786861 -0.0049918373310841339 0 -0.22651946576868481 0.003714465585732938 0 -0.21859494755787631 -0.0177680685148413 0 -0.21618507915326801 -0.0076297374948203966 0 -0.22714384722593139 -0.01169631987585875 0 -0.21618507915326801 -0.0076297374948203966 0 -0.22714384722593139 -0.01169631987585875 0 -0.22332817232786861 -0.0049918373310841339 0 -0.21604599797684931 -0.02671272725364493 0 -0.21859494755787631 -0.0177680685148413 0 -0.22554579291840221 -0.025348134882972152 0 -0.21859494755787631 -0.0177680685148413 0 -0.22554579291840221 -0.025348134882972152 0 -0.230481994006554 -0.01908028707143292 0 -0.21859494755787631 -0.0177680685148413 0 -0.22714384722593139 -0.01169631987585875 0 -0.230481994006554 -0.01908028707143292 0 -0.21604599797684931 -0.02671272725364493 0 -0.2147745089233804 -0.0360080914189592 0 -0.22554579291840221 -0.025348134882972152 0 -0.22554579291840221 -0.025348134882972152 0 -0.230481994006554 -0.01908028707143292 0 -0.23603864625974061 -0.027265695499158391 0 -0.2306521509948046 -0.037177821689815899 0 -0.22554579291840221 -0.025348134882972152 0 -0.23603864625974061 -0.027265695499158391 0 -0.230481994006554 -0.01908028707143292 0 -0.2374175642750673 -0.019395266830174712 0 -0.23603864625974061 -0.027265695499158391 0 -0.23603864625974061 -0.027265695499158391 0 -0.25432814558795308 -0.019428525249759649 0 -0.23603864625974061 -0.027265695499158391 0 -0.2443583390205995 -0.01841446712321439 0 -0.25432814558795308 -0.019428525249759649 0 -0.23603864625974061 -0.027265695499158391 0 -0.24650846350796751 -0.029110344548071071 0 -0.25378212880857642 -0.021454915228375119 0 -0.23603864625974061 -0.027265695499158391 0 -0.25378212880857642 -0.021454915228375119 0 -0.25432814558795308 -0.019428525249759649 0 -0.2374175642750673 -0.019395266830174712 0 -0.23603864625974061 -0.027265695499158391 0 -0.2443583390205995 -0.01841446712321439 0 -0.230481994006554 -0.01908028707143292 0 -0.2374175642750673 -0.019395266830174712 0 -0.2392485006784244 -0.012686603913536629 0 -0.2374175642750673 -0.019395266830174712 0 -0.2443583390205995 -0.01841446712321439 0 -0.2392485006784244 -0.012686603913536629 0 -0.24133958241864259 -0.035057711037180209 0 -0.23603864625974061 -0.027265695499158391 0 -0.24650846350796751 -0.029110344548071071 0 -0.24953475547050491 -0.034095205529127627 0 -0.24650846350796751 -0.029110344548071071 0 -0.25273509796092419 -0.027913732115031679 0 -0.2443583390205995 -0.01841446712321439 0 -0.24975304672700119 -0.016173980350670761 0 -0.25432814558795308 -0.019428525249759649 0 -0.2443583390205995 -0.01841446712321439 0 -0.24975304672700119 -0.016173980350670761 0 -0.24592622941804479 -0.01354015030422203 0 -0.24975304672700119 -0.016173980350670761 0 -0.24592622941804479 -0.01354015030422203 0 -0.25031842434842999 -0.011794142738469871 0 -0.24592622941804479 -0.01354015030422203 0 -0.2462072891997015 -0.00646122999155988 0 -0.25031842434842999 -0.011794142738469871 0 -0.24592622941804479 -0.01354015030422203 0 -0.2392485006784244 -0.012686603913536629 0 -0.2462072891997015 -0.00646122999155988 0 -0.2443583390205995 -0.01841446712321439 0 -0.24592622941804479 -0.01354015030422203 0 -0.2392485006784244 -0.012686603913536629 0 -0.2392485006784244 -0.012686603913536629 0 -0.23507328449069539 -0.0052270720427161051 0 -0.2462072891997015 -0.00646122999155988 0 -0.23507328449069539 -0.0052270720427161051 0 -0.2462072891997015 -0.00646122999155988 0 -0.24219842850912701 0.0008805445637728726 0 -0.23507328449069539 -0.0052270720427161051 0 -0.24219842850912701 0.0008805445637728726 0 -0.23527211258631189 0.00096094505569513204 0 -0.2462072891997015 -0.00646122999155988 0 -0.24862522939258691 0.002025091944098644 0 -0.24219842850912701 0.0008805445637728726 0 -0.2462072891997015 -0.00646122999155988 0 -0.25454557886518481 -0.002208813397413151 0 -0.24862522939258691 0.002025091944098644 0 -0.26098549937896998 -0.010904903655713959 0 -0.25432814558795308 -0.019428525249759649 0 -0.2726176449161643 -0.011591355000357869 0 -0.2462072891997015 -0.00646122999155988 0 -0.25454557886518481 -0.002208813397413151 0 -0.25423970612660529 -0.0082407711388333867 0 -0.25432814558795308 -0.019428525249759649 0 -0.2726176449161643 -0.011591355000357869 0 -0.25454557886518481 -0.002208813397413151 0 -0.25423970612660529 -0.0082407711388333867 0 -0.25839213274741979 -0.005615117744828463 0 -0.2462072891997015 -0.00646122999155988 0 -0.25031842434842999 -0.011794142738469871 0 -0.25423970612660529 -0.0082407711388333867 0 -0.2548185530350025 -0.013907958810572959 0 -0.26098549937896998 -0.010904903655713959 0 -0.25432814558795308 -0.019428525249759649 0 -0.25031842434842999 -0.011794142738469871 0 -0.2548185530350025 -0.013907958810572959 0 -0.25423970612660529 -0.0082407711388333867 0 -0.25031842434842999 -0.011794142738469871 0 -0.2548185530350025 -0.013907958810572959 0 -0.25272636039888152 -0.01595217618492669 0 -0.24975304672700119 -0.016173980350670761 0 -0.25031842434842999 -0.011794142738469871 0 -0.25272636039888152 -0.01595217618492669 0 -0.2548185530350025 -0.013907958810572959 0 -0.25423970612660529 -0.0082407711388333867 0 -0.26098549937896998 -0.010904903655713959 0 -0.25423970612660529 -0.0082407711388333867 0 -0.26098549937896998 -0.010904903655713959 0 -0.25839213274741979 -0.005615117744828463 0 -0.26098549937896998 -0.010904903655713959 0 -0.26251993484460179 -0.0066828412179119022 0 -0.26883646879479978 -0.0089039782930802475 0 -0.26251993484460179 -0.0066828412179119022 0 -0.26883646879479978 -0.0089039782930802475 0 -0.2605698332130289 8.0402539788944994e-05 0 -0.25454557886518481 -0.002208813397413151 0 -0.25839213274741979 -0.005615117744828463 0 -0.2605698332130289 8.0402539788944994e-05 0 -0.26251993484460179 -0.0066828412179119022 0 -0.25839213274741979 -0.005615117744828463 0 -0.2605698332130289 8.0402539788944994e-05 0 -0.26098549937896998 -0.010904903655713959 0 -0.26251993484460179 -0.0066828412179119022 0 -0.25839213274741979 -0.005615117744828463 0 -0.25378212880857642 -0.021454915228375119 0 -0.25432814558795308 -0.019428525249759649 0 -0.27262074799832697 -0.01318104350153743 0 -0.25378212880857642 -0.021454915228375119 0 -0.27262074799832697 -0.01318104350153743 0 -0.25378212880857642 -0.021454915228375119 0 -0.25997711249052818 -0.0224970065829555 0 -0.27262074799832697 -0.01318104350153743 0 -0.25273509796092419 -0.027913732115031679 0 -0.25822943671612281 -0.027372455148299411 0 -0.25677398519544092 -0.035252431040474347 0 -0.24650846350796751 -0.029110344548071071 0 -0.25273509796092419 -0.027913732115031679 0 -0.25378212880857642 -0.021454915228375119 0 -0.25273509796092419 -0.027913732115031679 0 -0.25604287471719989 -0.024818323638581431 0 -0.25378212880857642 -0.021454915228375119 0 -0.25273509796092419 -0.027913732115031679 0 -0.25604287471719989 -0.024818323638581431 0 -0.25822943671612281 -0.027372455148299411 0 -0.25604287471719989 -0.024818323638581431 0 -0.25378212880857642 -0.021454915228375119 0 -0.25997711249052818 -0.0224970065829555 0 -0.24975304672700119 -0.016173980350670761 0 -0.25272636039888152 -0.01595217618492669 0 -0.25432814558795308 -0.019428525249759649 0 -0.2548185530350025 -0.013907958810572959 0 -0.25272636039888152 -0.01595217618492669 0 -0.25432814558795308 -0.019428525249759649 0 -0.2646225904702772 -0.02255872773607713 0 -0.25997711249052818 -0.0224970065829555 0 -0.26145351182460641 -0.025179187644166771 0 -0.2646225904702772 -0.02255872773607713 0 -0.26298490762149762 -0.028288561109335052 0 -0.26865722220782928 -0.03157804056148554 0 -0.26298490762149762 -0.028288561109335052 0 -0.25822943671612281 -0.027372455148299411 0 -0.25677398519544092 -0.035252431040474347 0 -0.25604287471719989 -0.024818323638581431 0 -0.25997711249052818 -0.0224970065829555 0 -0.25822943671612281 -0.027372455148299411 0 -0.25997711249052818 -0.0224970065829555 0 -0.26145351182460641 -0.025179187644166771 0 -0.25822943671612281 -0.027372455148299411 0 -0.26145351182460641 -0.025179187644166771 0 -0.26298490762149762 -0.028288561109335052 0 -0.25822943671612281 -0.027372455148299411 0 -0.2646225904702772 -0.02255872773607713 0 -0.26145351182460641 -0.025179187644166771 0 -0.26298490762149762 -0.028288561109335052 0 -0.27262791578141032 -0.016853051442408569 0 -0.27883557572099799 -0.023204481547823771 0 -0.27266097134512041 -0.033787198449138613 0 -0.27262791578141032 -0.016853051442408569 0 -0.27266097134512041 -0.033787198449138613 0 -0.27883557572099799 -0.023204481547823771 0 -0.27262074799832697 -0.01318104350153743 0 -0.28928269195812872 -0.01910811127035934 0 -0.27262791578141032 -0.016853051442408569 0 -0.26865722220782928 -0.03157804056148554 0 -0.27266097134512041 -0.033787198449138613 0 -0.27262791578141032 -0.016853051442408569 0 -0.26865722220782928 -0.03157804056148554 0 -0.2646225904702772 -0.02255872773607713 0 -0.27262791578141032 -0.016853051442408569 0 -0.26865722220782928 -0.03157804056148554 0 -0.2646225904702772 -0.02255872773607713 0 -0.27262791578141032 -0.016853051442408569 0 -0.27262074799832697 -0.01318104350153743 0 -0.2646225904702772 -0.02255872773607713 0 -0.25997711249052818 -0.0224970065829555 0 -0.27262074799832697 -0.01318104350153743 0 -0.27262791578141032 -0.016853051442408569 0 -0.27883557572099799 -0.023204481547823771 0 -0.27262074799832697 -0.01318104350153743 0 -0.27883557572099799 -0.023204481547823771 0 -0.27912869228406639 -0.033190690375031723 0 -0.27266097134512041 -0.033787198449138613 0 -0.2726176449161643 -0.011591355000357869 0 -0.27423347697587541 -0.01089896037987154 0 -0.27257081662971511 0.01239846691613059 0 -0.26883646879479978 -0.0089039782930802475 0 -0.2726176449161643 -0.011591355000357869 0 -0.27033073474202313 0.0092376771141261978 0 -0.25432814558795308 -0.019428525249759649 0 -0.27262074799832697 -0.01318104350153743 0 -0.2726176449161643 -0.011591355000357869 0 -0.27262074799832697 -0.01318104350153743 0 -0.27423347697587541 -0.01089896037987154 0 -0.29101078968297522 -0.0037097720016964829 0 -0.26098549937896998 -0.010904903655713959 0 -0.26883646879479978 -0.0089039782930802475 0 -0.2726176449161643 -0.011591355000357869 0 -0.27262074799832697 -0.01318104350153743 0 -0.27423347697587541 -0.01089896037987154 0 -0.27262074799832697 -0.01318104350153743 0 -0.2726176449161643 -0.011591355000357869 0 -0.27423347697587541 -0.01089896037987154 0 -0.27262074799832697 -0.01318104350153743 0 -0.2726176449161643 -0.011591355000357869 0 -0.27262791578141032 -0.016853051442408569 0 -0.27262074799832697 -0.01318104350153743 0 -0.2726176449161643 -0.011591355000357869 0 -0.27423347697587541 -0.01089896037987154 0 -0.29565872852974379 -0.0030628233792267972 0 -0.28928269195812872 -0.01910811127035934 0 -0.30513678196268618 -0.024686165989671671 0 -0.27262074799832697 -0.01318104350153743 0 -0.29565872852974379 -0.0030628233792267972 0 -0.29101078968297522 -0.0037097720016964829 0 -0.27262074799832697 -0.01318104350153743 0 -0.29565872852974379 -0.0030628233792267972 0 -0.27423347697587541 -0.01089896037987154 0 -0.29101078968297522 -0.0037097720016964829 0 -0.27262074799832697 -0.01318104350153743 0 -0.29565872852974379 -0.0030628233792267972 0 -0.28928269195812872 -0.01910811127035934 0 -0.27423347697587541 -0.01089896037987154 0 -0.29101078968297522 -0.0037097720016964829 0 -0.28918294955411111 0.0031448057530975991 0 -0.30513678196268618 -0.024686165989671671 0 -0.27912869228406639 -0.033190690375031723 0 -0.28928269195812872 -0.01910811127035934 0 -0.30513678196268618 -0.024686165989671671 0 -0.27912869228406639 -0.033190690375031723 0 -0.27883557572099799 -0.023204481547823771 0 -0.28928269195812872 -0.01910811127035934 0 -0.27912869228406639 -0.033190690375031723 0 -0.30513678196268618 -0.024686165989671671 0 -0.30747335591309982 -0.030576505119971949 0 -0.27912869228406639 -0.033190690375031723 0 -0.29101078968297522 -0.0037097720016964829 0 -0.30778810239007659 0.0034794163764746791 0 -0.29565872852974379 -0.0030628233792267972 0 -0.29101078968297522 -0.0037097720016964829 0 -0.30778810239007659 0.0034794163764746791 0 -0.29565872852974379 -0.0030628233792267972 0 -0.31267493755550779 -0.0085487720730209691 0 -0.31756537222015518 0.0065585165944901606 0 -0.29565872852974379 -0.0030628233792267972 0 -0.30513678196268618 -0.024686165989671671 0 -0.31267493755550779 -0.0085487720730209691 0 -0.29418187784788258 -0.05237811144077982 0 -0.2899387453525219 -0.067007366932537879 0 -0.30818573600389021 -0.065358862296760536 0 -0.31062267962357731 -0.045887235518564523 0 -0.29418187784788258 -0.05237811144077982 0 -0.30818573600389021 -0.065358862296760536 0 -0.31062267962357731 -0.045887235518564523 0 -0.29716726803930399 -0.039647097788006652 0 -0.29418187784788258 -0.05237811144077982 0 -0.30747335591309982 -0.030576505119971949 0 -0.31062267962357731 -0.045887235518564523 0 -0.29716726803930399 -0.039647097788006652 0 -0.29716726803930399 -0.039647097788006652 0 -0.28316921466832362 -0.043301125675310359 0 -0.29418187784788258 -0.05237811144077982 0 -0.30747335591309982 -0.030576505119971949 0 -0.27912869228406639 -0.033190690375031723 0 -0.30747335591309982 -0.030576505119971949 0 -0.29716726803930399 -0.039647097788006652 0 -0.27912869228406639 -0.033190690375031723 0 -0.29716726803930399 -0.039647097788006652 0 -0.28316921466832362 -0.043301125675310359 0 -0.27912869228406639 -0.033190690375031723 0 -0.28316921466832362 -0.043301125675310359 0 -0.29418187784788258 -0.05237811144077982 0 -0.27270430177648097 -0.055985092302218209 0 -0.29418187784788258 -0.05237811144077982 0 -0.27270430177648097 -0.055985092302218209 0 -0.2899387453525219 -0.067007366932537879 0 -0.27270430177648097 -0.055985092302218209 0 -0.2609994071166466 -0.058328333227814673 0 -0.26408337289057171 -0.047310262150104733 0 -0.27270430177648097 -0.055985092302218209 0 -0.27266393339388301 -0.035304636470515467 0 -0.28316921466832362 -0.043301125675310359 0 -0.27270430177648097 -0.055985092302218209 0 -0.27266393339388301 -0.035304636470515467 0 -0.26865722220782928 -0.03157804056148554 0 -0.27266097134512041 -0.033787198449138613 0 -0.25677398519544092 -0.035252431040474347 0 -0.27270430177648097 -0.055985092302218209 0 -0.27266393339388301 -0.035304636470515467 0 -0.26408337289057171 -0.047310262150104733 0 -0.28316921466832362 -0.043301125675310359 0 -0.27912869228406639 -0.033190690375031723 0 -0.27266393339388301 -0.035304636470515467 0 -0.27912869228406639 -0.033190690375031723 0 -0.27266393339388301 -0.035304636470515467 0 -0.27912869228406639 -0.033190690375031723 0 -0.27266393339388301 -0.035304636470515467 0 -0.27266097134512041 -0.033787198449138613 0 -0.27912869228406639 -0.033190690375031723 0 -0.27266097134512041 -0.033787198449138613 0 -0.27266393339388301 -0.035304636470515467 0 -0.26466341753286748 -0.037920767954071663 0 -0.26408337289057171 -0.047310262150104733 0 -0.27266393339388301 -0.035304636470515467 0 -0.27266097134512041 -0.033787198449138613 0 -0.26466341753286748 -0.037920767954071663 0 -0.27266393339388301 -0.035304636470515467 0 -0.26466341753286748 -0.037920767954071663 0 -0.27266393339388301 -0.035304636470515467 0 -0.27266097134512041 -0.033787198449138613 0 -0.27266097134512041 -0.033787198449138613 0 -0.25677398519544092 -0.035252431040474347 0 -0.27266097134512041 -0.033787198449138613 0 -0.26466341753286748 -0.037920767954071663 0 -0.25677398519544092 -0.035252431040474347 0 -0.26466341753286748 -0.037920767954071663 0 -0.25731672106554421 -0.043934089639349867 0 -0.25677398519544092 -0.035252431040474347 0 -0.26298490762149762 -0.028288561109335052 0 -0.26865722220782928 -0.03157804056148554 0 -0.25677398519544092 -0.035252431040474347 0 -0.26466341753286748 -0.037920767954071663 0 -0.25731672106554421 -0.043934089639349867 0 -0.26408337289057171 -0.047310262150104733 0 -0.24825274505185621 -0.041057344827626747 0 -0.25731672106554421 -0.043934089639349867 0 -0.25677398519544092 -0.035252431040474347 0 -0.24825274505185621 -0.041057344827626747 0 -0.25731672106554421 -0.043934089639349867 0 -0.25041861304965352 -0.048094125714969807 0 -0.24953475547050491 -0.034095205529127627 0 -0.24825274505185621 -0.041057344827626747 0 -0.25677398519544092 -0.035252431040474347 0 -0.24953475547050491 -0.034095205529127627 0 -0.25273509796092419 -0.027913732115031679 0 -0.25677398519544092 -0.035252431040474347 0 -0.27270430177648097 -0.055985092302218209 0 -0.2609994071166466 -0.058328333227814673 0 -0.26232657141592991 -0.069579555736440896 0 -0.25731672106554421 -0.043934089639349867 0 -0.26408337289057171 -0.047310262150104733 0 -0.25606372909370928 -0.052029921394108468 0 -0.2609994071166466 -0.058328333227814673 0 -0.26408337289057171 -0.047310262150104733 0 -0.25606372909370928 -0.052029921394108468 0 -0.25731672106554421 -0.043934089639349867 0 -0.25606372909370928 -0.052029921394108468 0 -0.25041861304965352 -0.048094125714969807 0 -0.24862177842922761 -0.054340961316372213 0 -0.25606372909370928 -0.052029921394108468 0 -0.25041861304965352 -0.048094125714969807 0 -0.24862177842922761 -0.054340961316372213 0 -0.24895267118496359 -0.061295236539277383 0 -0.25408945550355427 -0.057957312182007788 0 -0.24862177842922761 -0.054340961316372213 0 -0.25606372909370928 -0.052029921394108468 0 -0.25408945550355427 -0.057957312182007788 0 -0.2609994071166466 -0.058328333227814673 0 -0.25606372909370928 -0.052029921394108468 0 -0.25408945550355427 -0.057957312182007788 0 -0.2609994071166466 -0.058328333227814673 0 -0.25408945550355427 -0.057957312182007788 0 -0.25580969169322437 -0.063792108432466202 0 -0.24895267118496359 -0.061295236539277383 0 -0.25408945550355427 -0.057957312182007788 0 -0.25580969169322437 -0.063792108432466202 0 -0.26232657141592991 -0.069579555736440896 0 -0.25301655387841049 -0.071259112903562905 0 -0.27274467015907877 -0.076665548133920958 0 -0.25301655387841049 -0.071259112903562905 0 -0.27274467015907877 -0.076665548133920958 0 -0.25580969169322437 -0.063792108432466202 0 -0.26232657141592991 -0.069579555736440896 0 -0.25301655387841049 -0.071259112903562905 0 -0.24895267118496359 -0.061295236539277383 0 -0.25580969169322437 -0.063792108432466202 0 -0.25301655387841049 -0.071259112903562905 0 -0.2609994071166466 -0.058328333227814673 0 -0.25580969169322437 -0.063792108432466202 0 -0.26232657141592991 -0.069579555736440896 0 -0.26232657141592991 -0.069579555736440896 0 -0.25301655387841049 -0.071259112903562905 0 -0.2428933934748953 -0.086509858277010368 0 -0.25301655387841049 -0.071259112903562905 0 -0.25703728698740469 -0.09060205987723953 0 -0.25301655387841049 -0.071259112903562905 0 -0.25703728698740469 -0.09060205987723953 0 -0.27274467015907877 -0.076665548133920958 0 -0.27274467015907877 -0.076665548133920958 0 -0.27278506836563199 -0.09736128258173149 0 -0.27274467015907877 -0.076665548133920958 0 -0.27278506836563199 -0.09736128258173149 0 -0.28836670731841929 -0.09564904379644204 0 -0.25703728698740469 -0.09060205987723953 0 -0.27274467015907877 -0.076665548133920958 0 -0.27278506836563199 -0.09736128258173149 0 -0.27270430177648097 -0.055985092302218209 0 -0.27274467015907877 -0.076665548133920958 0 -0.27270430177648097 -0.055985092302218209 0 -0.27274467015907877 -0.076665548133920958 0 -0.2899387453525219 -0.067007366932537879 0 -0.27270430177648097 -0.055985092302218209 0 -0.26232657141592991 -0.069579555736440896 0 -0.27274467015907877 -0.076665548133920958 0 -0.24683853217084689 -0.1306217582628095 0 -0.27282546657218493 -0.11805701702954199 0 -0.24683853217084689 -0.1306217582628095 0 -0.2580873313086669 -0.1081448409590956 0 -0.27282546657218493 -0.11805701702954199 0 -0.2409503024472662 -0.1040820870441557 0 -0.25703728698740469 -0.09060205987723953 0 -0.2580873313086669 -0.1081448409590956 0 -0.25703728698740469 -0.09060205987723953 0 -0.2580873313086669 -0.1081448409590956 0 -0.27278506836563199 -0.09736128258173149 0 -0.27278506836563199 -0.09736128258173149 0 -0.27282546657218493 -0.11805701702954199 0 -0.2580873313086669 -0.1081448409590956 0 -0.27278506836563199 -0.09736128258173149 0 -0.27282546657218493 -0.11805701702954199 0 -0.27278506836563199 -0.09736128258173149 0 -0.27282546657218493 -0.11805701702954199 0 -0.28987549721939943 -0.1098132888624128 0 -0.27282546657218493 -0.11805701702954199 0 -0.28987549721939943 -0.1098132888624128 0 -0.29164791409570068 -0.1291358794828483 0 -0.27282546657218493 -0.11805701702954199 0 -0.28987549721939943 -0.1098132888624128 0 -0.28987549721939943 -0.1098132888624128 0 -0.30455115987270948 -0.109755878915135 0 -0.29164791409570068 -0.1291358794828483 0 -0.28987549721939943 -0.1098132888624128 0 -0.28836670731841929 -0.09564904379644204 0 -0.30455115987270948 -0.109755878915135 0 -0.27278506836563199 -0.09736128258173149 0 -0.28987549721939943 -0.1098132888624128 0 -0.28836670731841929 -0.09564904379644204 0 -0.28836670731841929 -0.09564904379644204 0 -0.30455115987270948 -0.109755878915135 0 -0.30187714097527762 -0.084649220489009927 0 -0.30455115987270948 -0.109755878915135 0 -0.30187714097527762 -0.084649220489009927 0 -0.32047191018381721 -0.10077896950876181 0 -0.30455115987270948 -0.109755878915135 0 -0.31778850105622958 -0.12049018840146219 0 -0.30766045842121259 -0.13099719833795681 0 -0.30455115987270948 -0.109755878915135 0 -0.29164791409570068 -0.1291358794828483 0 -0.30766045842121259 -0.13099719833795681 0 -0.27274467015907877 -0.076665548133920958 0 -0.2899387453525219 -0.067007366932537879 0 -0.30187714097527762 -0.084649220489009927 0 -0.27274467015907877 -0.076665548133920958 0 -0.28836670731841929 -0.09564904379644204 0 -0.30187714097527762 -0.084649220489009927 0 -0.27274467015907877 -0.076665548133920958 0 -0.30187714097527762 -0.084649220489009927 0 -0.2899387453525219 -0.067007366932537879 0 -0.30187714097527762 -0.084649220489009927 0 -0.30818573600389021 -0.065358862296760536 0 -0.30187714097527762 -0.084649220489009927 0 -0.30818573600389021 -0.065358862296760536 0 -0.3255049247197771 -0.080310293774929112 0 -0.30818573600389021 -0.065358862296760536 0 -0.3255049247197771 -0.080310293774929112 0 -0.33051653587801683 -0.058799250383795632 0 -0.30187714097527762 -0.084649220489009927 0 -0.3255049247197771 -0.080310293774929112 0 -0.32047191018381721 -0.10077896950876181 0 -0.3255049247197771 -0.080310293774929112 0 -0.34130605946195641 -0.098558505897275842 0 -0.34839514281849571 -0.074883772486064135 0 -0.3255049247197771 -0.080310293774929112 0 -0.32047191018381721 -0.10077896950876181 0 -0.34130605946195641 -0.098558505897275842 0 -0.3255049247197771 -0.080310293774929112 0 -0.34839514281849571 -0.074883772486064135 0 -0.33051653587801683 -0.058799250383795632 0 -0.30455115987270948 -0.109755878915135 0 -0.31778850105622958 -0.12049018840146219 0 -0.32047191018381721 -0.10077896950876181 0 -0.31778850105622958 -0.12049018840146219 0 -0.32047191018381721 -0.10077896950876181 0 -0.33048204964159827 -0.11203648151537331 0 -0.31778850105622958 -0.12049018840146219 0 -0.33048204964159827 -0.11203648151537331 0 -0.33327028405448028 -0.12501157786496089 0 -0.34130605946195641 -0.098558505897275842 0 -0.33048204964159827 -0.11203648151537331 0 -0.34342001744478923 -0.1148102313650681 0 -0.32047191018381721 -0.10077896950876181 0 -0.34130605946195641 -0.098558505897275842 0 -0.33048204964159827 -0.11203648151537331 0 -0.34342001744478923 -0.1148102313650681 0 -0.33327028405448028 -0.12501157786496089 0 -0.34930035975041512 -0.12595457843706889 0 -0.33048204964159827 -0.11203648151537331 0 -0.34342001744478923 -0.1148102313650681 0 -0.33327028405448028 -0.12501157786496089 0 -0.35868970680780299 -0.11034953506778809 0 -0.34930035975041512 -0.12595457843706889 0 -0.36589237398189611 -0.1253297041883886 0 -0.34342001744478923 -0.1148102313650681 0 -0.35868970680780299 -0.11034953506778809 0 -0.34930035975041512 -0.12595457843706889 0 -0.34130605946195641 -0.098558505897275842 0 -0.34342001744478923 -0.1148102313650681 0 -0.35868970680780299 -0.11034953506778809 0 -0.34130605946195641 -0.098558505897275842 0 -0.35868970680780299 -0.11034953506778809 0 -0.35985321306251578 -0.092597464304678412 0 -0.35868970680780299 -0.11034953506778809 0 -0.37476815867760721 -0.09776998629112052 0 -0.35985321306251578 -0.092597464304678412 0 -0.35868970680780299 -0.11034953506778809 0 -0.37476815867760721 -0.09776998629112052 0 -0.37511934721336099 -0.1128696139250065 0 -0.35868970680780299 -0.11034953506778809 0 -0.36589237398189611 -0.1253297041883886 0 -0.37511934721336099 -0.1128696139250065 0 -0.36589237398189611 -0.1253297041883886 0 -0.38309638776026528 -0.12067705325775741 0 -0.37511934721336099 -0.1128696139250065 0 -0.36589237398189611 -0.1253297041883886 0 -0.37511934721336099 -0.1128696139250065 0 -0.34839514281849571 -0.074883772486064135 0 -0.36345074180896642 -0.059301218949499149 0 -0.34872378526152298 -0.053713204417307543 0 -0.34130605946195641 -0.098558505897275842 0 -0.34839514281849571 -0.074883772486064135 0 -0.35985321306251578 -0.092597464304678412 0 -0.34839514281849571 -0.074883772486064135 0 -0.35985321306251578 -0.092597464304678412 0 -0.37205088521483531 -0.075375567204115257 0 -0.37476815867760721 -0.09776998629112052 0 -0.35985321306251578 -0.092597464304678412 0 -0.37205088521483531 -0.075375567204115257 0 -0.34839514281849571 -0.074883772486064135 0 -0.37205088521483531 -0.075375567204115257 0 -0.36345074180896642 -0.059301218949499149 0 -0.37205088521483531 -0.075375567204115257 0 -0.36345074180896642 -0.059301218949499149 0 -0.37726929222554301 -0.057336975391873962 0 -0.36345074180896642 -0.059301218949499149 0 -0.35742175720316433 -0.042343596465804698 0 -0.37205749607193778 -0.043769244132122083 0 -0.36345074180896642 -0.059301218949499149 0 -0.37205749607193778 -0.043769244132122083 0 -0.37726929222554301 -0.057336975391873962 0 -0.36345074180896642 -0.059301218949499149 0 -0.34872378526152298 -0.053713204417307543 0 -0.35742175720316433 -0.042343596465804698 0 -0.34872378526152298 -0.053713204417307543 0 -0.34383474859897167 -0.033238183801374097 0 -0.35742175720316433 -0.042343596465804698 0 -0.34383474859897167 -0.033238183801374097 0 -0.35742175720316433 -0.042343596465804698 0 -0.35925135462971253 -0.02723044547587037 0 -0.35742175720316433 -0.042343596465804698 0 -0.36528646364568063 -0.035668335187337981 0 -0.35925135462971253 -0.02723044547587037 0 -0.35742175720316433 -0.042343596465804698 0 -0.36528646364568063 -0.035668335187337981 0 -0.37205749607193778 -0.043769244132122083 0 -0.36528646364568063 -0.035668335187337981 0 -0.37205749607193778 -0.043769244132122083 0 -0.37243004328639012 -0.032824041619946391 0 -0.36528646364568063 -0.035668335187337981 0 -0.37243004328639012 -0.032824041619946391 0 -0.36621122421465108 -0.02781013388834673 0 -0.36464139059592621 -0.017950453686241281 0 -0.35715296131992608 -0.0076771172189524506 0 -0.35925135462971253 -0.02723044547587037 0 -0.37243004328639012 -0.032824041619946391 0 -0.37277063317299608 -0.022679593593542088 0 -0.37907916605732223 -0.029273017167181059 0 -0.37243004328639012 -0.032824041619946391 0 -0.37277063317299608 -0.022679593593542088 0 -0.36621122421465108 -0.02781013388834673 0 -0.37277063317299608 -0.022679593593542088 0 -0.36464139059592621 -0.017950453686241281 0 -0.36621122421465108 -0.02781013388834673 0 -0.36464139059592621 -0.017950453686241281 0 -0.36621122421465108 -0.02781013388834673 0 -0.35925135462971253 -0.02723044547587037 0 -0.36528646364568063 -0.035668335187337981 0 -0.36621122421465108 -0.02781013388834673 0 -0.35925135462971253 -0.02723044547587037 0 -0.37277063317299608 -0.022679593593542088 0 -0.36464139059592621 -0.017950453686241281 0 -0.36800916043032761 -0.0041271905919835214 0 -0.36464139059592621 -0.017950453686241281 0 -0.36800916043032761 -0.0041271905919835214 0 -0.35715296131992608 -0.0076771172189524506 0 -0.35715296131992608 -0.0076771172189524506 0 -0.36234562177419838 0.002288930207415555 0 -0.36800916043032761 -0.0041271905919835214 0 -0.35715296131992608 -0.0076771172189524506 0 -0.36234562177419838 0.002288930207415555 0 -0.36800916043032761 -0.0041271905919835214 0 -0.35715296131992608 -0.0076771172189524506 0 -0.36800916043032761 -0.0041271905919835214 0 -0.36234562177419838 0.002288930207415555 0 -0.35715296131992608 -0.0076771172189524506 0 -0.34485189770040853 -0.018229789757849842 0 -0.33114487164130613 -0.016181641604311719 0 -0.35715296131992608 -0.0076771172189524506 0 -0.33114487164130613 -0.016181641604311719 0 -0.35715296131992608 -0.0076771172189524506 0 -0.34563008095609887 -0.001415402038955568 0 -0.36234562177419838 0.002288930207415555 0 -0.35715296131992608 -0.0076771172189524506 0 -0.34563008095609887 -0.001415402038955568 0 -0.33114487164130613 -0.016181641604311719 0 -0.34383474859897167 -0.033238183801374097 0 -0.35715296131992608 -0.0076771172189524506 0 -0.34485189770040853 -0.018229789757849842 0 -0.34383474859897167 -0.033238183801374097 0 -0.35715296131992608 -0.0076771172189524506 0 -0.35925135462971253 -0.02723044547587037 0 -0.34383474859897167 -0.033238183801374097 0 -0.35715296131992608 -0.0076771172189524506 0 -0.34383474859897167 -0.033238183801374097 0 -0.34485189770040853 -0.018229789757849842 0 -0.33581801954213319 -0.027962319864912068 0 -0.34485189770040853 -0.018229789757849842 0 -0.33114487164130613 -0.016181641604311719 0 -0.33581801954213319 -0.027962319864912068 0 -0.34563008095609887 -0.001415402038955568 0 -0.33114487164130613 -0.016181641604311719 0 -0.33251598666114068 0.0020107041850400608 0 -0.33114487164130613 -0.016181641604311719 0 -0.31267493755550779 -0.0085487720730209691 0 -0.33251598666114068 0.0020107041850400608 0 -0.30513678196268618 -0.024686165989671671 0 -0.30747335591309982 -0.030576505119971949 0 -0.33114487164130613 -0.016181641604311719 0 -0.30513678196268618 -0.024686165989671671 0 -0.33114487164130613 -0.016181641604311719 0 -0.31267493755550779 -0.0085487720730209691 0 -0.30747335591309982 -0.030576505119971949 0 -0.33114487164130613 -0.016181641604311719 0 -0.33581801954213319 -0.027962319864912068 0 -0.30513678196268618 -0.024686165989671671 0 -0.33114487164130613 -0.016181641604311719 0 -0.30747335591309982 -0.030576505119971949 0 -0.33581801954213319 -0.027962319864912068 0 -0.33581801954213319 -0.027962319864912068 0 -0.32661487899964248 -0.040476894228072553 0 -0.32013223351961317 -0.036225738682880267 0 -0.30747335591309982 -0.030576505119971949 0 -0.33581801954213319 -0.027962319864912068 0 -0.32013223351961317 -0.036225738682880267 0 -0.31062267962357731 -0.045887235518564523 0 -0.32661487899964248 -0.040476894228072553 0 -0.32013223351961317 -0.036225738682880267 0 -0.30747335591309982 -0.030576505119971949 0 -0.31062267962357731 -0.045887235518564523 0 -0.32013223351961317 -0.036225738682880267 0 -0.31062267962357731 -0.045887235518564523 0 -0.32661487899964248 -0.040476894228072553 0 -0.33051653587801683 -0.058799250383795632 0 -0.31062267962357731 -0.045887235518564523 0 -0.30818573600389021 -0.065358862296760536 0 -0.33051653587801683 -0.058799250383795632 0 -0.34839514281849571 -0.074883772486064135 0 -0.34872378526152298 -0.053713204417307543 0 -0.33051653587801683 -0.058799250383795632 0 -0.34872378526152298 -0.053713204417307543 0 -0.34383474859897167 -0.033238183801374097 0 -0.33051653587801683 -0.058799250383795632 0 -0.34383474859897167 -0.033238183801374097 0 -0.32661487899964248 -0.040476894228072553 0 -0.33051653587801683 -0.058799250383795632 0 -0.34383474859897167 -0.033238183801374097 0 -0.33051653587801683 -0.058799250383795632 0 -0.34383474859897167 -0.033238183801374097 0 -0.33581801954213319 -0.027962319864912068 0 -0.32661487899964248 -0.040476894228072553 0 -0.30705890722761642 -0.24252910105173059 0 -0.30682745251198112 -0.22547984288478651 0 -0.29551923689341369 -0.2377258519584631 0 -0.3021196426598462 -0.25389421830362668 0 -0.30705890722761642 -0.24252910105173059 0 -0.29551923689341369 -0.2377258519584631 0 -0.3021196426598462 -0.25389421830362668 0 -0.29551923689341369 -0.2377258519584631 0 -0.30705890722761642 -0.24252910105173059 0 -0.30682745251198112 -0.22547984288478651 0 -0.32213089999030081 -0.24086328174933441 0 -0.31447374353419461 -0.25288678371517498 0 -0.3021196426598462 -0.25389421830362668 0 -0.30705890722761642 -0.24252910105173059 0 -0.30682745251198112 -0.22547984288478651 0 -0.28628162904172039 -0.23283593001193431 0 -0.30387757196889809 -0.20907439612189341 0 -0.28628162904172039 -0.23283593001193431 0 -0.30387757196889809 -0.20907439612189341 0 -0.30682745251198112 -0.22547984288478651 0 -0.28628162904172039 -0.23283593001193431 0 -0.29551923689341369 -0.2377258519584631 0 -0.28628162904172039 -0.23283593001193431 0 -0.27319684921913973 -0.22997688507906669 0 -0.285311554194419 -0.21372170809755731 0 -0.28628162904172039 -0.23283593001193431 0 -0.29551923689341369 -0.2377258519584631 0 -0.28040576467040979 -0.2422619100853925 0 -0.28715721559520269 -0.25108193235664411 0 -0.3021196426598462 -0.25389421830362668 0 -0.29551923689341369 -0.2377258519584631 0 -0.28715721559520269 -0.25108193235664411 0 -0.29551923689341369 -0.2377258519584631 0 -0.28040576467040979 -0.2422619100853925 0 -0.27198482704117011 -0.2554546739122816 0 -0.28715721559520269 -0.25108193235664411 0 -0.28040576467040979 -0.2422619100853925 0 -0.28628162904172039 -0.23283593001193431 0 -0.28040576467040979 -0.2422619100853925 0 -0.27319684921913973 -0.22997688507906669 0 -0.28040576467040979 -0.2422619100853925 0 -0.26575365835036091 -0.24169776597770681 0 -0.27319684921913973 -0.22997688507906669 0 -0.27198482704117011 -0.2554546739122816 0 -0.28040576467040979 -0.2422619100853925 0 -0.26575365835036091 -0.24169776597770681 0 -0.25431501404594598 -0.25676801052014742 0 -0.26575365835036091 -0.24169776597770681 0 -0.25116623381764552 -0.2374479092143516 0 -0.26575365835036091 -0.24169776597770681 0 -0.25116623381764552 -0.2374479092143516 0 -0.26102659226149733 -0.22913254837708399 0 -0.24874382124308331 -0.21872375249164969 0 -0.25116623381764552 -0.2374479092143516 0 -0.26102659226149733 -0.22913254837708399 0 -0.24874382124308331 -0.21872375249164969 0 -0.26102659226149733 -0.22913254837708399 0 -0.2662723986772571 -0.21781642912264501 0 -0.26102659226149733 -0.22913254837708399 0 -0.27319684921913973 -0.22997688507906669 0 -0.2662723986772571 -0.21781642912264501 0 -0.27319684921913973 -0.22997688507906669 0 -0.2662723986772571 -0.21781642912264501 0 -0.285311554194419 -0.21372170809755731 0 -0.26575365835036091 -0.24169776597770681 0 -0.26102659226149733 -0.22913254837708399 0 -0.27319684921913973 -0.22997688507906669 0 -0.2662723986772571 -0.21781642912264501 0 -0.26635951321349499 -0.2024533527604287 0 -0.285311554194419 -0.21372170809755731 0 -0.2496991802272914 -0.200769489153338 0 -0.24874382124308331 -0.21872375249164969 0 -0.25799914799881929 -0.20971605104463731 0 -0.2496991802272914 -0.200769489153338 0 -0.25799914799881929 -0.20971605104463731 0 -0.26635951321349499 -0.2024533527604287 0 -0.24874382124308331 -0.21872375249164969 0 -0.2662723986772571 -0.21781642912264501 0 -0.25799914799881929 -0.20971605104463731 0 -0.2662723986772571 -0.21781642912264501 0 -0.25799914799881929 -0.20971605104463731 0 -0.26635951321349499 -0.2024533527604287 0 -0.2496991802272914 -0.200769489153338 0 -0.2584462381279472 -0.19203996842240961 0 -0.26635951321349499 -0.2024533527604287 0 -0.2496991802272914 -0.200769489153338 0 -0.24280950400343609 -0.18760229449853641 0 -0.2584462381279472 -0.19203996842240961 0 -0.2584462381279472 -0.19203996842240961 0 -0.27733082542916382 -0.1887086151557599 0 -0.26635951321349499 -0.2024533527604287 0 -0.27733082542916382 -0.1887086151557599 0 -0.26635951321349499 -0.2024533527604287 0 -0.285311554194419 -0.21372170809755731 0 -0.27733082542916382 -0.1887086151557599 0 -0.285311554194419 -0.21372170809755731 0 -0.29936596687658318 -0.18940124717674009 0 -0.285311554194419 -0.21372170809755731 0 -0.30387757196889809 -0.20907439612189341 0 -0.29936596687658318 -0.18940124717674009 0 -0.28628162904172039 -0.23283593001193431 0 -0.285311554194419 -0.21372170809755731 0 -0.30387757196889809 -0.20907439612189341 0 -0.30387757196889809 -0.20907439612189341 0 -0.29936596687658318 -0.18940124717674009 0 -0.32147351489607578 -0.18531286223185239 0 -0.29936596687658318 -0.18940124717674009 0 -0.31216943545029852 -0.1657894020463061 0 -0.32147351489607578 -0.18531286223185239 0 -0.29936596687658318 -0.18940124717674009 0 -0.31216943545029852 -0.1657894020463061 0 -0.2909197130955925 -0.16791994050568371 0 -0.31216943545029852 -0.1657894020463061 0 -0.2909197130955925 -0.16791994050568371 0 -0.30539213468515508 -0.14775927594470339 0 -0.2909197130955925 -0.16791994050568371 0 -0.27290346145177569 -0.15801327880380839 0 -0.28674553746804088 -0.1481727045307438 0 -0.27733082542916382 -0.1887086151557599 0 -0.29936596687658318 -0.18940124717674009 0 -0.2909197130955925 -0.16791994050568371 0 -0.27733082542916382 -0.1887086151557599 0 -0.2909197130955925 -0.16791994050568371 0 -0.27245015322808291 -0.17297359376803001 0 -0.27733082542916382 -0.1887086151557599 0 -0.27245015322808291 -0.17297359376803001 0 -0.25840421564139532 -0.17968222638675629 0 -0.2584462381279472 -0.19203996842240961 0 -0.27733082542916382 -0.1887086151557599 0 -0.25840421564139532 -0.17968222638675629 0 -0.24724980765878929 -0.17680374519294309 0 -0.25840421564139532 -0.17968222638675629 0 -0.25382573003102971 -0.1609332633390595 0 -0.24280950400343609 -0.18760229449853641 0 -0.2584462381279472 -0.19203996842240961 0 -0.25840421564139532 -0.17968222638675629 0 -0.27245015322808291 -0.17297359376803001 0 -0.25840421564139532 -0.17968222638675629 0 -0.25382573003102971 -0.1609332633390595 0 -0.2909197130955925 -0.16791994050568371 0 -0.27245015322808291 -0.17297359376803001 0 -0.27290346145177569 -0.15801327880380839 0 -0.27245015322808291 -0.17297359376803001 0 -0.25382573003102971 -0.1609332633390595 0 -0.27290346145177569 -0.15801327880380839 0 -0.27290346145177569 -0.15801327880380839 0 -0.27286446401198078 -0.1380351479166752 0 -0.27290346145177569 -0.15801327880380839 0 -0.25709854924807879 -0.14705889676093931 0 -0.27286446401198078 -0.1380351479166752 0 -0.27290346145177569 -0.15801327880380839 0 -0.27286446401198078 -0.1380351479166752 0 -0.28674553746804088 -0.1481727045307438 0 -0.25382573003102971 -0.1609332633390595 0 -0.27290346145177569 -0.15801327880380839 0 -0.25709854924807879 -0.14705889676093931 0 -0.24683853217084689 -0.1306217582628095 0 -0.27282546657218493 -0.11805701702954199 0 -0.27286446401198078 -0.1380351479166752 0 -0.24683853217084689 -0.1306217582628095 0 -0.25709854924807879 -0.14705889676093931 0 -0.27286446401198078 -0.1380351479166752 0 -0.27282546657218493 -0.11805701702954199 0 -0.27286446401198078 -0.1380351479166752 0 -0.27282546657218493 -0.11805701702954199 0 -0.27286446401198078 -0.1380351479166752 0 -0.29164791409570068 -0.1291358794828483 0 -0.27286446401198078 -0.1380351479166752 0 -0.29164791409570068 -0.1291358794828483 0 -0.28674553746804088 -0.1481727045307438 0 -0.2909197130955925 -0.16791994050568371 0 -0.28674553746804088 -0.1481727045307438 0 -0.30539213468515508 -0.14775927594470339 0 -0.29164791409570068 -0.1291358794828483 0 -0.28674553746804088 -0.1481727045307438 0 -0.30539213468515508 -0.14775927594470339 0 -0.29164791409570068 -0.1291358794828483 0 -0.30539213468515508 -0.14775927594470339 0 -0.30766045842121259 -0.13099719833795681 0 -0.30539213468515508 -0.14775927594470339 0 -0.30766045842121259 -0.13099719833795681 0 -0.32079540418050401 -0.13651134289645669 0 -0.31778850105622958 -0.12049018840146219 0 -0.32079540418050401 -0.13651134289645669 0 -0.33327028405448028 -0.12501157786496089 0 -0.31778850105622958 -0.12049018840146219 0 -0.30766045842121259 -0.13099719833795681 0 -0.32079540418050401 -0.13651134289645669 0 -0.32079540418050401 -0.13651134289645669 0 -0.32318684260790398 -0.150012058718307 0 -0.33783537225334581 -0.14026664457433649 0 -0.31216943545029852 -0.1657894020463061 0 -0.30539213468515508 -0.14775927594470339 0 -0.32318684260790398 -0.150012058718307 0 -0.30539213468515508 -0.14775927594470339 0 -0.32079540418050401 -0.13651134289645669 0 -0.32318684260790398 -0.150012058718307 0 -0.32318684260790398 -0.150012058718307 0 -0.33783537225334581 -0.14026664457433649 0 -0.33906945782325348 -0.1615513283418116 0 -0.32079540418050401 -0.13651134289645669 0 -0.33783537225334581 -0.14026664457433649 0 -0.33327028405448028 -0.12501157786496089 0 -0.33783537225334581 -0.14026664457433649 0 -0.33327028405448028 -0.12501157786496089 0 -0.34930035975041512 -0.12595457843706889 0 -0.33783537225334581 -0.14026664457433649 0 -0.34930035975041512 -0.12595457843706889 0 -0.35666540075043052 -0.13778979445177039 0 -0.34930035975041512 -0.12595457843706889 0 -0.35666540075043052 -0.13778979445177039 0 -0.36589237398189611 -0.1253297041883886 0 -0.33783537225334581 -0.14026664457433649 0 -0.35666540075043052 -0.13778979445177039 0 -0.35666540075043052 -0.13778979445177039 0 -0.36589237398189611 -0.1253297041883886 0 -0.35666540075043052 -0.13778979445177039 0 -0.36589237398189611 -0.1253297041883886 0 -0.38030371823002329 -0.13468047523030999 0 -0.35666540075043052 -0.13778979445177039 0 -0.38030371823002329 -0.13468047523030999 0 -0.35666540075043052 -0.13778979445177039 0 -0.36313085433141312 -0.14487951023109741 0 -0.38030371823002329 -0.13468047523030999 0 -0.36558860022404283 -0.14826043377392151 0 -0.37877283166123987 -0.16639692159950531 0 -0.37529260357574268 -0.1536758012538495 0 -0.36558860022404283 -0.14826043377392151 0 -0.36313085433141312 -0.14487951023109741 0 -0.38030371823002329 -0.13468047523030999 0 -0.36558860022404283 -0.14826043377392151 0 -0.37618161211925588 -0.1466533960836614 0 -0.37529260357574268 -0.1536758012538495 0 -0.36558860022404283 -0.14826043377392151 0 -0.38030371823002329 -0.13468047523030999 0 -0.36558860022404283 -0.14826043377392151 0 -0.37618161211925588 -0.1466533960836614 0 -0.38030371823002329 -0.13468047523030999 0 -0.36558860022404283 -0.14826043377392151 0 -0.36313085433141312 -0.14487951023109741 0 -0.36558860022404283 -0.14826043377392151 0 -0.36313085433141312 -0.14487951023109741 0 -0.36232840250756371 -0.14878161210738231 0 -0.36313085433141312 -0.14487951023109741 0 -0.36232840250756371 -0.14878161210738231 0 -0.35821495473034748 -0.14988091939655521 0 -0.36161982294445327 -0.15183047185526929 0 -0.36232840250756371 -0.14878161210738231 0 -0.35821495473034748 -0.14988091939655521 0 -0.36558860022404283 -0.14826043377392151 0 -0.3640132573942208 -0.1534904362288225 0 -0.36809294903286899 -0.16051408790386279 0 -0.36161982294445327 -0.15183047185526929 0 -0.35821495473034748 -0.14988091939655521 0 -0.35841693674569819 -0.15831164066445169 0 -0.36558860022404283 -0.14826043377392151 0 -0.36161982294445327 -0.15183047185526929 0 -0.36232840250756371 -0.14878161210738231 0 -0.36558860022404283 -0.14826043377392151 0 -0.36161982294445327 -0.15183047185526929 0 -0.3640132573942208 -0.1534904362288225 0 -0.36161982294445327 -0.15183047185526929 0 -0.3640132573942208 -0.1534904362288225 0 -0.35841693674569819 -0.15831164066445169 0 -0.35666540075043052 -0.13778979445177039 0 -0.35821495473034748 -0.14988091939655521 0 -0.33906945782325348 -0.1615513283418116 0 -0.33783537225334581 -0.14026664457433649 0 -0.35666540075043052 -0.13778979445177039 0 -0.33906945782325348 -0.1615513283418116 0 -0.35666540075043052 -0.13778979445177039 0 -0.33906945782325348 -0.1615513283418116 0 -0.35666540075043052 -0.13778979445177039 0 -0.36313085433141312 -0.14487951023109741 0 -0.35821495473034748 -0.14988091939655521 0 -0.35824800107996091 -0.17099815997044221 0 -0.35841693674569819 -0.15831164066445169 0 -0.33906945782325348 -0.1615513283418116 0 -0.35821495473034748 -0.14988091939655521 0 -0.35841693674569819 -0.15831164066445169 0 -0.33906945782325348 -0.1615513283418116 0 -0.36558860022404283 -0.14826043377392151 0 -0.36809294903286899 -0.16051408790386279 0 -0.37877283166123987 -0.16639692159950531 0 -0.36558860022404283 -0.14826043377392151 0 -0.37877283166123987 -0.16639692159950531 0 -0.35824800107996091 -0.17099815997044221 0 -0.35841693674569819 -0.15831164066445169 0 -0.36809294903286899 -0.16051408790386279 0 -0.3640132573942208 -0.1534904362288225 0 -0.35841693674569819 -0.15831164066445169 0 -0.36809294903286899 -0.16051408790386279 0 -0.35824800107996091 -0.17099815997044221 0 -0.36809294903286899 -0.16051408790386279 0 -0.37080588692378308 -0.17257011663589261 0 -0.36809294903286899 -0.16051408790386279 0 -0.37080588692378308 -0.17257011663589261 0 -0.37877283166123987 -0.16639692159950531 0 -0.37009121721063659 -0.18656832922274791 0 -0.37080588692378308 -0.17257011663589261 0 -0.37882443563420909 -0.17837308448290501 0 -0.35824800107996091 -0.17099815997044221 0 -0.37009121721063659 -0.18656832922274791 0 -0.37080588692378308 -0.17257011663589261 0 -0.35824800107996091 -0.17099815997044221 0 -0.37009121721063659 -0.18656832922274791 0 -0.34650402132717689 -0.18477763844592701 0 -0.35824800107996091 -0.17099815997044221 0 -0.34650402132717689 -0.18477763844592701 0 -0.33906945782325348 -0.1615513283418116 0 -0.33906945782325348 -0.1615513283418116 0 -0.32147351489607578 -0.18531286223185239 0 -0.34650402132717689 -0.18477763844592701 0 -0.33906945782325348 -0.1615513283418116 0 -0.32147351489607578 -0.18531286223185239 0 -0.31216943545029852 -0.1657894020463061 0 -0.33906945782325348 -0.1615513283418116 0 -0.32147351489607578 -0.18531286223185239 0 -0.31216943545029852 -0.1657894020463061 0 -0.32318684260790398 -0.150012058718307 0 -0.33906945782325348 -0.1615513283418116 0 -0.30387757196889809 -0.20907439612189341 0 -0.32147351489607578 -0.18531286223185239 0 -0.30387757196889809 -0.20907439612189341 0 -0.32147351489607578 -0.18531286223185239 0 -0.33161430047494922 -0.20484171104178869 0 -0.30682745251198112 -0.22547984288478651 0 -0.30387757196889809 -0.20907439612189341 0 -0.33161430047494922 -0.20484171104178869 0 -0.30682745251198112 -0.22547984288478651 0 -0.33161430047494922 -0.20484171104178869 0 -0.33556937268794179 -0.22486721288945891 0 -0.33161430047494922 -0.20484171104178869 0 -0.35876001330383878 -0.21746810767653069 0 -0.33556937268794179 -0.22486721288945891 0 -0.34650402132717689 -0.18477763844592701 0 -0.32147351489607578 -0.18531286223185239 0 -0.33161430047494922 -0.20484171104178869 0 -0.37009121721063659 -0.18656832922274791 0 -0.34650402132717689 -0.18477763844592701 0 -0.3590696602696577 -0.20005414553013029 0 -0.34650402132717689 -0.18477763844592701 0 -0.33161430047494922 -0.20484171104178869 0 -0.3590696602696577 -0.20005414553013029 0 -0.37009121721063659 -0.18656832922274791 0 -0.3590696602696577 -0.20005414553013029 0 -0.38195065391973571 -0.21006900246360241 0 -0.35876001330383878 -0.21746810767653069 0 -0.38195065391973571 -0.21006900246360241 0 -0.3590696602696577 -0.20005414553013029 0 -0.35876001330383878 -0.21746810767653069 0 -0.38195065391973571 -0.21006900246360241 0 -0.33161430047494922 -0.20484171104178869 0 -0.3590696602696577 -0.20005414553013029 0 -0.35876001330383878 -0.21746810767653069 0 -0.35876001330383878 -0.21746810767653069 0 -0.33556937268794179 -0.22486721288945891 0 -0.35876001330383878 -0.21746810767653069 0 -0.36034056556919303 -0.237243880179689 0 -0.33556937268794179 -0.22486721288945891 0 -0.35876001330383878 -0.21746810767653069 0 -0.37933057617099358 -0.22896850521614229 0 -0.38195065391973571 -0.21006900246360241 0 -0.35876001330383878 -0.21746810767653069 0 -0.36034056556919303 -0.237243880179689 0 -0.37933057617099358 -0.22896850521614229 0 -0.35550970838397372 -0.25214485579249551 0 -0.36909614358114728 -0.25447947052818581 0 -0.36034056556919303 -0.237243880179689 0 -0.36034056556919303 -0.237243880179689 0 -0.37807327786879408 -0.24521479883112249 0 -0.37933057617099358 -0.22896850521614229 0 -0.36909614358114728 -0.25447947052818581 0 -0.36034056556919303 -0.237243880179689 0 -0.37807327786879408 -0.24521479883112249 0 -0.35550970838397372 -0.25214485579249551 0 -0.36034056556919303 -0.237243880179689 0 -0.3406178786116239 -0.24514116923050019 0 -0.36034056556919303 -0.237243880179689 0 -0.3406178786116239 -0.24514116923050019 0 -0.33556937268794179 -0.22486721288945891 0 -0.3406178786116239 -0.24514116923050019 0 -0.33556937268794179 -0.22486721288945891 0 -0.32213089999030081 -0.24086328174933441 0 -0.32927156741263591 -0.25711333387582608 0 -0.3406178786116239 -0.24514116923050019 0 -0.32213089999030081 -0.24086328174933441 0 -0.30682745251198112 -0.22547984288478651 0 -0.33556937268794179 -0.22486721288945891 0 -0.32213089999030081 -0.24086328174933441 0 -0.31447374353419461 -0.25288678371517498 0 -0.30705890722761642 -0.24252910105173059 0 -0.32213089999030081 -0.24086328174933441 0 -0.43378107889250272 -0.24206734736295191 0 -0.42189256455649587 -0.23403532730308749 0 -0.42108237282238858 -0.24264311435264929 0 -0.42295716543023337 -0.25506228393497521 0 -0.43378107889250272 -0.24206734736295191 0 -0.42108237282238858 -0.24264311435264929 0 -0.43541444312282329 -0.22859149562014261 0 -0.42380552796963139 -0.220673926935465 0 -0.4462127620796556 -0.2203657575614881 0 -0.43378107889250272 -0.24206734736295191 0 -0.41946118671406812 -0.2223686223068124 0 -0.43378107889250272 -0.24206734736295191 0 -0.42189256455649587 -0.23403532730308749 0 -0.41946118671406812 -0.2223686223068124 0 -0.42380552796963139 -0.220673926935465 0 -0.4462127620796556 -0.2203657575614881 0 -0.43378107889250272 -0.24206734736295191 0 -0.43541444312282329 -0.22859149562014261 0 -0.42313706777026389 -0.2228007691238004 0 -0.43378107889250272 -0.24206734736295191 0 -0.42313706777026389 -0.2228007691238004 0 -0.41946118671406812 -0.2223686223068124 0 -0.43541444312282329 -0.22859149562014261 0 -0.42313706777026389 -0.2228007691238004 0 -0.42380552796963139 -0.220673926935465 0 -0.42313706777026389 -0.2228007691238004 0 -0.42380552796963139 -0.220673926935465 0 -0.41946118671406812 -0.2223686223068124 0 -0.42313706777026389 -0.2228007691238004 0 -0.42380552796963139 -0.220673926935465 0 -0.42189256455649587 -0.23403532730308749 0 -0.41652372379869362 -0.22882402702319179 0 -0.41946118671406812 -0.2223686223068124 0 -0.42189256455649587 -0.23403532730308749 0 -0.41652372379869362 -0.22882402702319179 0 -0.4157680713773288 -0.2340520280869674 0 -0.41652372379869362 -0.22882402702319179 0 -0.4157680713773288 -0.2340520280869674 0 -0.41091414189481801 -0.22974740351864609 0 -0.41946118671406812 -0.2223686223068124 0 -0.41843119957113672 -0.22095175175449649 0 -0.40923552879580583 -0.22011091157519561 0 -0.41946118671406812 -0.2223686223068124 0 -0.40923552879580583 -0.22011091157519561 0 -0.41403364530084641 -0.22526274110596151 0 -0.42380552796963139 -0.220673926935465 0 -0.41843119957113672 -0.22095175175449649 0 -0.42380552796963139 -0.220673926935465 0 -0.41946118671406812 -0.2223686223068124 0 -0.41843119957113672 -0.22095175175449649 0 -0.41946118671406812 -0.2223686223068124 0 -0.41843119957113672 -0.22095175175449649 0 -0.41652372379869362 -0.22882402702319179 0 -0.41946118671406812 -0.2223686223068124 0 -0.41403364530084641 -0.22526274110596151 0 -0.40923552879580583 -0.22011091157519561 0 -0.41091414189481801 -0.22974740351864609 0 -0.40228611279369858 -0.2257974723550113 0 -0.40923552879580583 -0.22011091157519561 0 -0.41403364530084641 -0.22526274110596151 0 -0.41091414189481801 -0.22974740351864609 0 -0.41652372379869362 -0.22882402702319179 0 -0.41403364530084641 -0.22526274110596151 0 -0.41091414189481801 -0.22974740351864609 0 -0.4124330540413581 -0.23955718133952331 0 -0.40562615774243133 -0.24457222461279149 0 -0.40372387856373121 -0.2355913448881406 0 -0.4157680713773288 -0.2340520280869674 0 -0.41091414189481801 -0.22974740351864609 0 -0.4124330540413581 -0.23955718133952331 0 -0.41091414189481801 -0.22974740351864609 0 -0.4124330540413581 -0.23955718133952331 0 -0.40372387856373121 -0.2355913448881406 0 -0.4157680713773288 -0.2340520280869674 0 -0.4124330540413581 -0.23955718133952331 0 -0.42108237282238858 -0.24264311435264929 0 -0.42189256455649587 -0.23403532730308749 0 -0.4157680713773288 -0.2340520280869674 0 -0.42108237282238858 -0.24264311435264929 0 -0.42295716543023337 -0.25506228393497521 0 -0.41457584860192409 -0.24925828221297019 0 -0.42108237282238858 -0.24264311435264929 0 -0.4124330540413581 -0.23955718133952331 0 -0.41457584860192409 -0.24925828221297019 0 -0.42108237282238858 -0.24264311435264929 0 -0.40547995107984119 -0.25285700175790488 0 -0.41457584860192409 -0.24925828221297019 0 -0.40562615774243133 -0.24457222461279149 0 -0.4124330540413581 -0.23955718133952331 0 -0.41457584860192409 -0.24925828221297019 0 -0.40562615774243133 -0.24457222461279149 0 -0.39705766789495928 -0.25105344411440789 0 -0.40547995107984119 -0.25285700175790488 0 -0.40562615774243133 -0.24457222461279149 0 -0.39705766789495928 -0.25105344411440789 0 -0.40562615774243133 -0.24457222461279149 0 -0.39519403052270768 -0.24175529423827319 0 -0.40562615774243133 -0.24457222461279149 0 -0.40372387856373121 -0.2355913448881406 0 -0.39519403052270768 -0.24175529423827319 0 -0.40372387856373121 -0.2355913448881406 0 -0.39519403052270768 -0.24175529423827319 0 -0.39316429514192719 -0.2324375444314406 0 -0.39519403052270768 -0.24175529423827319 0 -0.38680974182936723 -0.23964012589990549 0 -0.39316429514192719 -0.2324375444314406 0 -0.39705766789495928 -0.25105344411440789 0 -0.39519403052270768 -0.24175529423827319 0 -0.3882865294424136 -0.2498244867825489 0 -0.39519403052270768 -0.24175529423827319 0 -0.3882865294424136 -0.2498244867825489 0 -0.38680974182936723 -0.23964012589990549 0 -0.3882865294424136 -0.2498244867825489 0 -0.38680974182936723 -0.23964012589990549 0 -0.37807327786879408 -0.24521479883112249 0 -0.38680974182936723 -0.23964012589990549 0 -0.37807327786879408 -0.24521479883112249 0 -0.37933057617099358 -0.22896850521614229 0 -0.37933057617099358 -0.22896850521614229 0 -0.39130998495164399 -0.22235399608533599 0 -0.38195065391973571 -0.21006900246360241 0 -0.37933057617099358 -0.22896850521614229 0 -0.39130998495164399 -0.22235399608533599 0 -0.39316429514192719 -0.2324375444314406 0 -0.38680974182936723 -0.23964012589990549 0 -0.37933057617099358 -0.22896850521614229 0 -0.39316429514192719 -0.2324375444314406 0 -0.39130998495164399 -0.22235399608533599 0 -0.40228611279369858 -0.2257974723550113 0 -0.3998182867318647 -0.2144974559604835 0 -0.39130998495164399 -0.22235399608533599 0 -0.39316429514192719 -0.2324375444314406 0 -0.40228611279369858 -0.2257974723550113 0 -0.41091414189481801 -0.22974740351864609 0 -0.40372387856373121 -0.2355913448881406 0 -0.40228611279369858 -0.2257974723550113 0 -0.40372387856373121 -0.2355913448881406 0 -0.39316429514192719 -0.2324375444314406 0 -0.40228611279369858 -0.2257974723550113 0 -0.40923552879580583 -0.22011091157519561 0 -0.40228611279369858 -0.2257974723550113 0 -0.3998182867318647 -0.2144974559604835 0 -0.38195065391973571 -0.21006900246360241 0 -0.40514129453563252 -0.2026698972506738 0 -0.39130998495164399 -0.22235399608533599 0 -0.3998182867318647 -0.2144974559604835 0 -0.38195065391973571 -0.21006900246360241 0 -0.3998182867318647 -0.2144974559604835 0 -0.38195065391973571 -0.21006900246360241 0 -0.40514129453563252 -0.2026698972506738 0 -0.40923552879580583 -0.22011091157519561 0 -0.3998182867318647 -0.2144974559604835 0 -0.40514129453563252 -0.2026698972506738 0 -0.37009121721063659 -0.18656832922274791 0 -0.38195065391973571 -0.21006900246360241 0 -0.3919570630984367 -0.1845334094250892 0 -0.38195065391973571 -0.21006900246360241 0 -0.40514129453563252 -0.2026698972506738 0 -0.3919570630984367 -0.1845334094250892 0 -0.40514129453563252 -0.2026698972506738 0 -0.41858864114723832 -0.18906548230576201 0 -0.3919570630984367 -0.1845334094250892 0 -0.40514129453563252 -0.2026698972506738 0 -0.3919570630984367 -0.1845334094250892 0 -0.40514129453563252 -0.2026698972506738 0 -0.42027059130044542 -0.20828856394426079 0 -0.43217503760238651 -0.19404462843800291 0 -0.40514129453563252 -0.2026698972506738 0 -0.41858864114723832 -0.18906548230576201 0 -0.43217503760238651 -0.19404462843800291 0 -0.40514129453563252 -0.2026698972506738 0 -0.43217503760238651 -0.19404462843800291 0 -0.41843119957113672 -0.22095175175449649 0 -0.40514129453563252 -0.2026698972506738 0 -0.41843119957113672 -0.22095175175449649 0 -0.40514129453563252 -0.2026698972506738 0 -0.42027059130044542 -0.20828856394426079 0 -0.41843119957113672 -0.22095175175449649 0 -0.40923552879580583 -0.22011091157519561 0 -0.40514129453563252 -0.2026698972506738 0 -0.42380552796963139 -0.220673926935465 0 -0.41843119957113672 -0.22095175175449649 0 -0.42027059130044542 -0.20828856394426079 0 -0.42380552796963139 -0.220673926935465 0 -0.43739837869162917 -0.20709396563447591 0 -0.4462127620796556 -0.2203657575614881 0 -0.42380552796963139 -0.220673926935465 0 -0.42027059130044542 -0.20828856394426079 0 -0.43217503760238651 -0.19404462843800291 0 -0.42380552796963139 -0.220673926935465 0 -0.43739837869162917 -0.20709396563447591 0 -0.43217503760238651 -0.19404462843800291 0 -0.42380552796963139 -0.220673926935465 0 -0.43217503760238651 -0.19404462843800291 0 -0.43739837869162917 -0.20709396563447591 0 -0.43365904514108938 -0.19357114742911191 0 -0.43217503760238651 -0.19404462843800291 0 -0.43365904514108938 -0.19357114742911191 0 -0.43217503760238651 -0.19404462843800291 0 -0.43365904514108938 -0.19357114742911191 0 -0.43217503760238651 -0.19404462843800291 0 -0.43935299206053963 -0.17120650526777381 0 -0.43217503760238651 -0.19404462843800291 0 -0.42716378270907202 -0.17579798533609661 0 -0.43935299206053963 -0.17120650526777381 0 -0.43217503760238651 -0.19404462843800291 0 -0.42716378270907202 -0.17579798533609661 0 -0.41125031214847318 -0.17659427577437081 0 -0.43217503760238651 -0.19404462843800291 0 -0.43935299206053963 -0.17120650526777381 0 -0.42622672170101411 -0.16239281264466751 0 -0.44612535049178309 -0.14965886841560261 0 -0.43935299206053963 -0.17120650526777381 0 -0.42716378270907202 -0.17579798533609661 0 -0.42622672170101411 -0.16239281264466751 0 -0.43935299206053963 -0.17120650526777381 0 -0.41125031214847318 -0.17659427577437081 0 -0.39998670015969012 -0.1540001023633136 0 -0.41399804066311768 -0.15338161045662571 0 -0.42716378270907202 -0.17579798533609661 0 -0.42622672170101411 -0.16239281264466751 0 -0.41125031214847318 -0.17659427577437081 0 -0.42622672170101411 -0.16239281264466751 0 -0.41125031214847318 -0.17659427577437081 0 -0.41399804066311768 -0.15338161045662571 0 -0.41858864114723832 -0.18906548230576201 0 -0.41125031214847318 -0.17659427577437081 0 -0.3919570630984367 -0.1845334094250892 0 -0.41858864114723832 -0.18906548230576201 0 -0.43217503760238651 -0.19404462843800291 0 -0.41125031214847318 -0.17659427577437081 0 -0.43217503760238651 -0.19404462843800291 0 -0.41125031214847318 -0.17659427577437081 0 -0.41125031214847318 -0.17659427577437081 0 -0.3919570630984367 -0.1845334094250892 0 -0.38991999066765071 -0.1604344094287963 0 -0.37009121721063659 -0.18656832922274791 0 -0.3919570630984367 -0.1845334094250892 0 -0.37882443563420909 -0.17837308448290501 0 -0.3919570630984367 -0.1845334094250892 0 -0.37877283166123987 -0.16639692159950531 0 -0.3919570630984367 -0.1845334094250892 0 -0.37882443563420909 -0.17837308448290501 0 -0.37877283166123987 -0.16639692159950531 0 -0.37080588692378308 -0.17257011663589261 0 -0.37882443563420909 -0.17837308448290501 0 -0.37877283166123987 -0.16639692159950531 0 -0.3919570630984367 -0.1845334094250892 0 -0.37877283166123987 -0.16639692159950531 0 -0.38991999066765071 -0.1604344094287963 0 -0.37877283166123987 -0.16639692159950531 0 -0.37529260357574268 -0.1536758012538495 0 -0.38062737029843219 -0.15339245355830991 0 -0.37877283166123987 -0.16639692159950531 0 -0.38991999066765071 -0.1604344094287963 0 -0.38062737029843219 -0.15339245355830991 0 -0.41125031214847318 -0.17659427577437081 0 -0.38991999066765071 -0.1604344094287963 0 -0.39998670015969012 -0.1540001023633136 0 -0.41125031214847318 -0.17659427577437081 0 -0.38991999066765071 -0.1604344094287963 0 -0.39998670015969012 -0.1540001023633136 0 -0.40575286505335389 -0.14427146323096579 0 -0.3929733633262541 -0.14365610777580171 0 -0.38991999066765071 -0.1604344094287963 0 -0.39998670015969012 -0.1540001023633136 0 -0.38864874816793521 -0.15137489827938699 0 -0.39998670015969012 -0.1540001023633136 0 -0.3929733633262541 -0.14365610777580171 0 -0.38864874816793521 -0.15137489827938699 0 -0.38991999066765071 -0.1604344094287963 0 -0.38864874816793521 -0.15137489827938699 0 -0.38062737029843219 -0.15339245355830991 0 -0.38864874816793521 -0.15137489827938699 0 -0.38284714890021149 -0.14484341855083149 0 -0.38062737029843219 -0.15339245355830991 0 -0.3929733633262541 -0.14365610777580171 0 -0.38284714890021149 -0.14484341855083149 0 -0.38030371823002329 -0.13468047523030999 0 -0.3929733633262541 -0.14365610777580171 0 -0.38864874816793521 -0.15137489827938699 0 -0.38284714890021149 -0.14484341855083149 0 -0.38284714890021149 -0.14484341855083149 0 -0.37618161211925588 -0.1466533960836614 0 -0.38030371823002329 -0.13468047523030999 0 -0.38284714890021149 -0.14484341855083149 0 -0.37618161211925588 -0.1466533960836614 0 -0.38062737029843219 -0.15339245355830991 0 -0.37618161211925588 -0.1466533960836614 0 -0.37529260357574268 -0.1536758012538495 0 -0.38062737029843219 -0.15339245355830991 0 -0.38030371823002329 -0.13468047523030999 0 -0.39717616654845189 -0.1191096080038023 0 -0.36589237398189611 -0.1253297041883886 0 -0.38030371823002329 -0.13468047523030999 0 -0.38309638776026528 -0.12067705325775741 0 -0.3929733633262541 -0.14365610777580171 0 -0.38030371823002329 -0.13468047523030999 0 -0.40572441619292771 -0.13133670658572849 0 -0.38030371823002329 -0.13468047523030999 0 -0.40572441619292771 -0.13133670658572849 0 -0.38030371823002329 -0.13468047523030999 0 -0.40572441619292771 -0.13133670658572849 0 -0.39717616654845189 -0.1191096080038023 0 -0.40575286505335389 -0.14427146323096579 0 -0.3929733633262541 -0.14365610777580171 0 -0.40572441619292771 -0.13133670658572849 0 -0.40572441619292771 -0.13133670658572849 0 -0.43114511415583201 -0.1279929379411458 0 -0.40572441619292771 -0.13133670658572849 0 -0.43114511415583201 -0.1279929379411458 0 -0.41529311960582699 -0.1187413599623335 0 -0.40572441619292771 -0.13133670658572849 0 -0.41679922810937808 -0.14042899641725001 0 -0.43114511415583201 -0.1279929379411458 0 -0.40575286505335389 -0.14427146323096579 0 -0.40572441619292771 -0.13133670658572849 0 -0.41679922810937808 -0.14042899641725001 0 -0.40575286505335389 -0.14427146323096579 0 -0.41679922810937808 -0.14042899641725001 0 -0.41399804066311768 -0.15338161045662571 0 -0.39998670015969012 -0.1540001023633136 0 -0.40575286505335389 -0.14427146323096579 0 -0.41399804066311768 -0.15338161045662571 0 -0.41679922810937808 -0.14042899641725001 0 -0.41399804066311768 -0.15338161045662571 0 -0.42737570448165929 -0.14516226387178419 0 -0.42622672170101411 -0.16239281264466751 0 -0.41399804066311768 -0.15338161045662571 0 -0.42737570448165929 -0.14516226387178419 0 -0.42622672170101411 -0.16239281264466751 0 -0.42737570448165929 -0.14516226387178419 0 -0.44612535049178309 -0.14965886841560261 0 -0.42737570448165929 -0.14516226387178419 0 -0.43114511415583201 -0.1279929379411458 0 -0.44612535049178309 -0.14965886841560261 0 -0.41679922810937808 -0.14042899641725001 0 -0.42737570448165929 -0.14516226387178419 0 -0.43114511415583201 -0.1279929379411458 0 -0.43114511415583201 -0.1279929379411458 0 -0.45289770892302661 -0.12811123156343129 0 -0.44612535049178309 -0.14965886841560261 0 -0.45289770892302661 -0.12811123156343129 0 -0.44612535049178309 -0.14965886841560261 0 -0.45289770892302661 -0.12811123156343129 0 -0.44612535049178309 -0.14965886841560261 0 -0.46208099137641162 -0.15320007697701379 0 -0.45289770892302661 -0.12811123156343129 0 -0.46208099137641162 -0.15320007697701379 0 -0.47794419374310387 -0.144145664013445 0 -0.45289770892302661 -0.12811123156343129 0 -0.47696867803757198 -0.12650920753138331 0 -0.47794419374310387 -0.144145664013445 0 -0.47696867803757198 -0.12650920753138331 0 -0.49999999999999811 -0.1288399601006209 0 -0.47794419374310387 -0.144145664013445 0 -0.49999999999999811 -0.1288399601006209 0 -0.47794419374310387 -0.144145664013445 0 -0.5 -0.15821237911294839 0 -0.46208099137641162 -0.15320007697701379 0 -0.47794419374310387 -0.144145664013445 0 -0.47347946098872129 -0.16816520471768059 0 -0.47794419374310387 -0.144145664013445 0 -0.47347946098872129 -0.16816520471768059 0 -0.5 -0.15821237911294839 0 -0.47347946098872129 -0.16816520471768059 0 -0.5 -0.15821237911294839 0 -0.48239289335136182 -0.18373699375433389 0 -0.5 -0.15821237911294839 0 -0.48239289335136182 -0.18373699375433389 0 -0.5 -0.18758479812527601 0 -0.47347946098872129 -0.16816520471768059 0 -0.48239289335136182 -0.18373699375433389 0 -0.46538905405844982 -0.19346206923758269 0 -0.45559881321323159 -0.17104338690050239 0 -0.44625681581969517 -0.18955175735519281 0 -0.46538905405844982 -0.19346206923758269 0 -0.47347946098872129 -0.16816520471768059 0 -0.45559881321323159 -0.17104338690050239 0 -0.46538905405844982 -0.19346206923758269 0 -0.44612535049178309 -0.14965886841560261 0 -0.46208099137641162 -0.15320007697701379 0 -0.45559881321323159 -0.17104338690050239 0 -0.46208099137641162 -0.15320007697701379 0 -0.47347946098872129 -0.16816520471768059 0 -0.45559881321323159 -0.17104338690050239 0 -0.44612535049178309 -0.14965886841560261 0 -0.45559881321323159 -0.17104338690050239 0 -0.43935299206053963 -0.17120650526777381 0 -0.44612535049178309 -0.14965886841560261 0 -0.43935299206053963 -0.17120650526777381 0 -0.43365904514108938 -0.19357114742911191 0 -0.43935299206053963 -0.17120650526777381 0 -0.44625681581969517 -0.18955175735519281 0 -0.45559881321323159 -0.17104338690050239 0 -0.43935299206053963 -0.17120650526777381 0 -0.44625681581969517 -0.18955175735519281 0 -0.43365904514108938 -0.19357114742911191 0 -0.45113952066538388 -0.20681436780831289 0 -0.43365904514108938 -0.19357114742911191 0 -0.44625681581969517 -0.18955175735519281 0 -0.45113952066538388 -0.20681436780831289 0 -0.43739837869162917 -0.20709396563447591 0 -0.43365904514108938 -0.19357114742911191 0 -0.45113952066538388 -0.20681436780831289 0 -0.43365904514108938 -0.19357114742911191 0 -0.44625681581969517 -0.18955175735519281 0 -0.43739837869162917 -0.20709396563447591 0 -0.45113952066538388 -0.20681436780831289 0 -0.4462127620796556 -0.2203657575614881 0 -0.45113952066538388 -0.20681436780831289 0 -0.46861999618967981 -0.2200575881875115 0 -0.45113952066538388 -0.20681436780831289 0 -0.46861999618967981 -0.2200575881875115 0 -0.4462127620796556 -0.2203657575614881 0 -0.45113952066538388 -0.20681436780831289 0 -0.46538905405844982 -0.19346206923758269 0 -0.46861999618967981 -0.2200575881875115 0 -0.44625681581969517 -0.18955175735519281 0 -0.45113952066538388 -0.20681436780831289 0 -0.46538905405844982 -0.19346206923758269 0 -0.48239289335136182 -0.18373699375433389 0 -0.46538905405844982 -0.19346206923758269 0 -0.4853832176798859 -0.20372105722866271 0 -0.5 -0.18758479812527601 0 -0.4853832176798859 -0.20372105722866271 0 -0.5 -0.21695721713760341 0 -0.48239289335136182 -0.18373699375433389 0 -0.5 -0.18758479812527601 0 -0.4853832176798859 -0.20372105722866271 0 -0.4853832176798859 -0.20372105722866271 0 -0.5 -0.21695721713760341 0 -0.49730645261402762 -0.21966305991710819 0 -0.4853832176798859 -0.20372105722866271 0 -0.49730645261402762 -0.21966305991710819 0 -0.46861999618967981 -0.2200575881875115 0 -0.46538905405844982 -0.19346206923758269 0 -0.4853832176798859 -0.20372105722866271 0 -0.46861999618967981 -0.2200575881875115 0 -0.49136333527207371 -0.2372879576479073 0 -0.46861999618967981 -0.2200575881875115 0 -0.49730645261402762 -0.21966305991710819 0 -0.46861999618967981 -0.2200575881875115 0 -0.49136333527207371 -0.2372879576479073 0 -0.47243335829366068 -0.2430338505120013 0 -0.46861999618967981 -0.2200575881875115 0 -0.49730645261402762 -0.21966305991710819 0 -0.49136333527207371 -0.2372879576479073 0 -0.46861999618967981 -0.2200575881875115 0 -0.5 -0.21695721713760341 0 -0.49730645261402762 -0.21966305991710819 0 -0.5 -0.24632963614993081 0 -0.49730645261402762 -0.21966305991710819 0 -0.49136333527207371 -0.2372879576479073 0 -0.5 -0.24632963614993081 0 -0.48708423363442932 -0.25555355077311548 0 -0.49136333527207371 -0.2372879576479073 0 -0.5 -0.24632963614993081 0 -0.48708423363442932 -0.25555355077311548 0 -0.49136333527207371 -0.2372879576479073 0 -0.47243335829366068 -0.2430338505120013 0 -0.46183596954241413 -0.25471882930936679 0 -0.47243335829366068 -0.2430338505120013 0 -0.45246753597763961 -0.23912196796794549 0 -0.47243335829366068 -0.2430338505120013 0 -0.46861999618967981 -0.2200575881875115 0 -0.45246753597763961 -0.23912196796794549 0 -0.46861999618967981 -0.2200575881875115 0 -0.4462127620796556 -0.2203657575614881 0 -0.46861999618967981 -0.2200575881875115 0 -0.4462127620796556 -0.2203657575614881 0 -0.45246753597763961 -0.23912196796794549 0 -0.43541444312282329 -0.22859149562014261 0 -0.4462127620796556 -0.2203657575614881 0 -0.45246753597763961 -0.23912196796794549 0 -0.43757215116835091 -0.25601866082990721 0 -0.43378107889250272 -0.24206734736295191 0 -0.45246753597763961 -0.23912196796794549 0 -0.43378107889250272 -0.24206734736295191 0 -0.43541444312282329 -0.22859149562014261 0 -0.45246753597763961 -0.23912196796794549 0 -0.41682109090433539 -0.059425346283788108 0 -0.42482716491149669 -0.03634182645963089 0 -0.40208169075054112 -0.042727345680382812 0 -0.42482716491149669 -0.03634182645963089 0 -0.40363496876637101 -0.02665380403555009 0 -0.40208169075054112 -0.042727345680382812 0 -0.41682109090433539 -0.059425346283788108 0 -0.40208169075054112 -0.042727345680382812 0 -0.41682109090433539 -0.059425346283788108 0 -0.42482716491149669 -0.03634182645963089 0 -0.41682109090433539 -0.059425346283788108 0 -0.40208169075054112 -0.042727345680382812 0 -0.40461206612250389 -0.06380382377780508 0 -0.41682109090433539 -0.059425346283788108 0 -0.41929293029565079 -0.062225648549620767 0 -0.42552208632577948 -0.05432822908912581 0 -0.41682109090433539 -0.059425346283788108 0 -0.41929293029565079 -0.062225648549620767 0 -0.41682109090433539 -0.059425346283788108 0 -0.42552208632577948 -0.05432822908912581 0 -0.42482716491149669 -0.03634182645963089 0 -0.41929293029565079 -0.062225648549620767 0 -0.42552208632577948 -0.05432822908912581 0 -0.42785272966627219 -0.062294997504604523 0 -0.42552208632577948 -0.05432822908912581 0 -0.42785272966627219 -0.062294997504604523 0 -0.43631033820761861 -0.054369416391956402 0 -0.42785272966627219 -0.062294997504604523 0 -0.43631033820761861 -0.054369416391956402 0 -0.43305320918107509 -0.069977177162363513 0 -0.42552208632577948 -0.05432822908912581 0 -0.43295872745567959 -0.049107677089534327 0 -0.43631033820761861 -0.054369416391956402 0 -0.43295872745567959 -0.049107677089534327 0 -0.43631033820761861 -0.054369416391956402 0 -0.42552208632577948 -0.05432822908912581 0 -0.43295872745567959 -0.049107677089534327 0 -0.42482716491149669 -0.03634182645963089 0 -0.43295872745567959 -0.049107677089534327 0 -0.43178828790484408 -0.031471632417583932 0 -0.4384185833308305 -0.021038983552778969 0 -0.43295872745567959 -0.049107677089534327 0 -0.4384185833308305 -0.021038983552778969 0 -0.43295872745567959 -0.049107677089534327 0 -0.42482716491149669 -0.03634182645963089 0 -0.43178828790484408 -0.031471632417583932 0 -0.43295872745567959 -0.049107677089534327 0 -0.42482716491149669 -0.03634182645963089 0 -0.42482716491149669 -0.03634182645963089 0 -0.43178828790484408 -0.031471632417583932 0 -0.43063434725640343 -0.0195982629275906 0 -0.43178828790484408 -0.031471632417583932 0 -0.43063434725640343 -0.0195982629275906 0 -0.4384185833308305 -0.021038983552778969 0 -0.42482716491149669 -0.03634182645963089 0 -0.43063434725640343 -0.0195982629275906 0 -0.42482716491149669 -0.03634182645963089 0 -0.43063434725640343 -0.0195982629275906 0 -0.42156851948913199 -0.017634593395971451 0 -0.43063434725640343 -0.0195982629275906 0 -0.42638086479265941 -0.01167931030869938 0 -0.42156851948913199 -0.017634593395971451 0 -0.43063434725640343 -0.0195982629275906 0 -0.43644152960131011 -0.0028546993955502818 0 -0.42638086479265941 -0.01167931030869938 0 -0.43063434725640343 -0.0195982629275906 0 -0.43644152960131011 -0.0028546993955502818 0 -0.43063434725640343 -0.0195982629275906 0 -0.43644152960131011 -0.0028546993955502818 0 -0.4384185833308305 -0.021038983552778969 0 -0.42638086479265941 -0.01167931030869938 0 -0.42438147089531048 -0.0052512010872020204 0 -0.41658038880838649 -0.0081235796950912438 0 -0.43644152960131011 -0.0028546993955502818 0 -0.42638086479265941 -0.01167931030869938 0 -0.42438147089531048 -0.0052512010872020204 0 -0.42438147089531048 -0.0052512010872020204 0 -0.40791792823651118 0.0027026027567168659 0 -0.42438147089531048 -0.0052512010872020204 0 -0.41658038880838649 -0.0081235796950912438 0 -0.40791792823651118 0.0027026027567168659 0 -0.41658038880838649 -0.0081235796950912438 0 -0.40894106752822318 -0.01140202612174278 0 -0.42156851948913199 -0.017634593395971451 0 -0.42638086479265941 -0.01167931030869938 0 -0.41658038880838649 -0.0081235796950912438 0 -0.42156851948913199 -0.017634593395971451 0 -0.41658038880838649 -0.0081235796950912438 0 -0.40894106752822318 -0.01140202612174278 0 -0.40791792823651118 0.0027026027567168659 0 -0.42482716491149669 -0.03634182645963089 0 -0.40894106752822318 -0.01140202612174278 0 -0.42156851948913199 -0.017634593395971451 0 -0.42482716491149669 -0.03634182645963089 0 -0.40894106752822318 -0.01140202612174278 0 -0.42482716491149669 -0.03634182645963089 0 -0.40894106752822318 -0.01140202612174278 0 -0.40363496876637101 -0.02665380403555009 0 -0.40363496876637101 -0.02665380403555009 0 -0.39763010941662952 -0.011663371160130951 0 -0.38734229059674652 -0.026029345076977791 0 -0.40894106752822318 -0.01140202612174278 0 -0.40363496876637101 -0.02665380403555009 0 -0.39763010941662952 -0.011663371160130951 0 -0.39763010941662952 -0.011663371160130951 0 -0.38734229059674652 -0.026029345076977791 0 -0.39763010941662952 -0.011663371160130951 0 -0.38412445063278322 0.0011424343669239501 0 -0.40023974083523928 0.0064120593258299337 0 -0.39763010941662952 -0.011663371160130951 0 -0.40791792823651118 0.0027026027567168659 0 -0.40023974083523928 0.0064120593258299337 0 -0.40894106752822318 -0.01140202612174278 0 -0.39763010941662952 -0.011663371160130951 0 -0.40791792823651118 0.0027026027567168659 0 -0.39763010941662952 -0.011663371160130951 0 -0.40791792823651118 0.0027026027567168659 0 -0.39763010941662952 -0.011663371160130951 0 -0.38734229059674652 -0.026029345076977791 0 -0.38412445063278322 0.0011424343669239501 0 -0.36800916043032761 -0.0041271905919835214 0 -0.38734229059674652 -0.026029345076977791 0 -0.38412445063278322 0.0011424343669239501 0 -0.36800916043032761 -0.0041271905919835214 0 -0.38412445063278322 0.0011424343669239501 0 -0.36800916043032761 -0.0041271905919835214 0 -0.38734229059674652 -0.026029345076977791 0 -0.37277063317299608 -0.022679593593542088 0 -0.36800916043032761 -0.0041271905919835214 0 -0.38734229059674652 -0.026029345076977791 0 -0.384382940951494 -0.030161799250101731 0 -0.38734229059674652 -0.026029345076977791 0 -0.37907916605732223 -0.029273017167181059 0 -0.384382940951494 -0.030161799250101731 0 -0.38734229059674652 -0.026029345076977791 0 -0.37277063317299608 -0.022679593593542088 0 -0.38734229059674652 -0.026029345076977791 0 -0.37907916605732223 -0.029273017167181059 0 -0.37243004328639012 -0.032824041619946391 0 -0.37907916605732223 -0.029273017167181059 0 -0.38064887456575658 -0.038543547234186563 0 -0.37205749607193778 -0.043769244132122083 0 -0.37243004328639012 -0.032824041619946391 0 -0.38064887456575658 -0.038543547234186563 0 -0.384382940951494 -0.030161799250101731 0 -0.37907916605732223 -0.029273017167181059 0 -0.38064887456575658 -0.038543547234186563 0 -0.37205749607193778 -0.043769244132122083 0 -0.38064887456575658 -0.038543547234186563 0 -0.38713167906300172 -0.045037405632111692 0 -0.384382940951494 -0.030161799250101731 0 -0.38064887456575658 -0.038543547234186563 0 -0.38713167906300172 -0.045037405632111692 0 -0.384382940951494 -0.030161799250101731 0 -0.38734229059674652 -0.026029345076977791 0 -0.40208169075054112 -0.042727345680382812 0 -0.384382940951494 -0.030161799250101731 0 -0.38713167906300172 -0.045037405632111692 0 -0.40208169075054112 -0.042727345680382812 0 -0.40363496876637101 -0.02665380403555009 0 -0.38734229059674652 -0.026029345076977791 0 -0.40208169075054112 -0.042727345680382812 0 -0.38734229059674652 -0.026029345076977791 0 -0.40208169075054112 -0.042727345680382812 0 -0.38713167906300172 -0.045037405632111692 0 -0.40208169075054112 -0.042727345680382812 0 -0.39165565896897392 -0.063201441041521603 0 -0.40208169075054112 -0.042727345680382812 0 -0.40461206612250389 -0.06380382377780508 0 -0.39165565896897392 -0.063201441041521603 0 -0.38713167906300172 -0.045037405632111692 0 -0.37726929222554301 -0.057336975391873962 0 -0.39165565896897392 -0.063201441041521603 0 -0.37205749607193778 -0.043769244132122083 0 -0.38713167906300172 -0.045037405632111692 0 -0.37726929222554301 -0.057336975391873962 0 -0.37205088521483531 -0.075375567204115257 0 -0.37726929222554301 -0.057336975391873962 0 -0.39165565896897392 -0.063201441041521603 0 -0.37205088521483531 -0.075375567204115257 0 -0.38757947802794851 -0.084288993855705541 0 -0.39165565896897392 -0.063201441041521603 0 -0.37476815867760721 -0.09776998629112052 0 -0.37205088521483531 -0.075375567204115257 0 -0.38757947802794851 -0.084288993855705541 0 -0.38757947802794851 -0.084288993855705541 0 -0.4019008127938582 -0.088519462199254884 0 -0.39944723004657168 -0.074923063771182727 0 -0.38757947802794851 -0.084288993855705541 0 -0.4019008127938582 -0.088519462199254884 0 -0.39075879590577439 -0.1041505431302264 0 -0.4019008127938582 -0.088519462199254884 0 -0.39944723004657168 -0.074923063771182727 0 -0.41148813431957432 -0.074801597981626555 0 -0.39944723004657168 -0.074923063771182727 0 -0.40461206612250389 -0.06380382377780508 0 -0.41148813431957432 -0.074801597981626555 0 -0.38757947802794851 -0.084288993855705541 0 -0.39944723004657168 -0.074923063771182727 0 -0.39165565896897392 -0.063201441041521603 0 -0.39944723004657168 -0.074923063771182727 0 -0.40461206612250389 -0.06380382377780508 0 -0.39165565896897392 -0.063201441041521603 0 -0.38309638776026528 -0.12067705325775741 0 -0.39075879590577439 -0.1041505431302264 0 -0.39717616654845189 -0.1191096080038023 0 -0.38030371823002329 -0.13468047523030999 0 -0.38309638776026528 -0.12067705325775741 0 -0.39717616654845189 -0.1191096080038023 0 -0.38309638776026528 -0.12067705325775741 0 -0.37511934721336099 -0.1128696139250065 0 -0.39075879590577439 -0.1041505431302264 0 -0.37476815867760721 -0.09776998629112052 0 -0.37511934721336099 -0.1128696139250065 0 -0.39075879590577439 -0.1041505431302264 0 -0.37476815867760721 -0.09776998629112052 0 -0.38757947802794851 -0.084288993855705541 0 -0.39075879590577439 -0.1041505431302264 0 -0.39075879590577439 -0.1041505431302264 0 -0.39717616654845189 -0.1191096080038023 0 -0.41404861486688149 -0.10353874077729559 0 -0.4019008127938582 -0.088519462199254884 0 -0.39075879590577439 -0.1041505431302264 0 -0.41404861486688149 -0.10353874077729559 0 -0.40572441619292771 -0.13133670658572849 0 -0.39717616654845189 -0.1191096080038023 0 -0.41529311960582699 -0.1187413599623335 0 -0.39717616654845189 -0.1191096080038023 0 -0.41404861486688149 -0.10353874077729559 0 -0.39717616654845189 -0.1191096080038023 0 -0.41529311960582699 -0.1187413599623335 0 -0.41404861486688149 -0.10353874077729559 0 -0.41529311960582699 -0.1187413599623335 0 -0.41404861486688149 -0.10353874077729559 0 -0.42714365054576431 -0.11009338370119991 0 -0.41404861486688149 -0.10353874077729559 0 -0.4309210631853112 -0.087967873550788972 0 -0.42714365054576431 -0.11009338370119991 0 -0.4309210631853112 -0.087967873550788972 0 -0.44185506947641451 -0.1089551606694453 0 -0.41404861486688149 -0.10353874077729559 0 -0.42714365054576431 -0.11009338370119991 0 -0.4309210631853112 -0.087967873550788972 0 -0.43114511415583201 -0.1279929379411458 0 -0.42714365054576431 -0.11009338370119991 0 -0.44185506947641451 -0.1089551606694453 0 -0.43114511415583201 -0.1279929379411458 0 -0.41529311960582699 -0.1187413599623335 0 -0.42714365054576431 -0.11009338370119991 0 -0.41929293029565079 -0.062225648549620767 0 -0.41148813431957432 -0.074801597981626555 0 -0.42301942894003958 -0.074365553037417889 0 -0.41682109090433539 -0.059425346283788108 0 -0.41929293029565079 -0.062225648549620767 0 -0.41148813431957432 -0.074801597981626555 0 -0.41682109090433539 -0.059425346283788108 0 -0.41148813431957432 -0.074801597981626555 0 -0.41682109090433539 -0.059425346283788108 0 -0.40461206612250389 -0.06380382377780508 0 -0.41148813431957432 -0.074801597981626555 0 -0.41404861486688149 -0.10353874077729559 0 -0.41570819041300711 -0.088122353659221733 0 -0.4309210631853112 -0.087967873550788972 0 -0.4019008127938582 -0.088519462199254884 0 -0.41148813431957432 -0.074801597981626555 0 -0.41570819041300711 -0.088122353659221733 0 -0.4019008127938582 -0.088519462199254884 0 -0.41404861486688149 -0.10353874077729559 0 -0.41570819041300711 -0.088122353659221733 0 -0.41148813431957432 -0.074801597981626555 0 -0.41570819041300711 -0.088122353659221733 0 -0.42301942894003958 -0.074365553037417889 0 -0.41570819041300711 -0.088122353659221733 0 -0.4309210631853112 -0.087967873550788972 0 -0.42301942894003958 -0.074365553037417889 0 -0.4309210631853112 -0.087967873550788972 0 -0.42301942894003958 -0.074365553037417889 0 -0.43305320918107509 -0.069977177162363513 0 -0.4309210631853112 -0.087967873550788972 0 -0.43305320918107509 -0.069977177162363513 0 -0.44779351150374042 -0.072397006324281837 0 -0.42785272966627219 -0.062294997504604523 0 -0.42301942894003958 -0.074365553037417889 0 -0.43305320918107509 -0.069977177162363513 0 -0.41929293029565079 -0.062225648549620767 0 -0.42785272966627219 -0.062294997504604523 0 -0.42301942894003958 -0.074365553037417889 0 -0.43631033820761861 -0.054369416391956402 0 -0.44779351150374042 -0.072397006324281837 0 -0.44779351150374042 -0.072397006324281837 0 -0.46069227824415121 -0.060493281357394728 0 -0.44900365520392982 -0.056748288685231192 0 -0.43631033820761861 -0.054369416391956402 0 -0.43305320918107509 -0.069977177162363513 0 -0.44779351150374042 -0.072397006324281837 0 -0.4309210631853112 -0.087967873550788972 0 -0.44779351150374042 -0.072397006324281837 0 -0.44625528499208211 -0.092511421158792795 0 -0.4309210631853112 -0.087967873550788972 0 -0.44779351150374042 -0.072397006324281837 0 -0.44779351150374042 -0.072397006324281837 0 -0.44625528499208211 -0.092511421158792795 0 -0.45514091478060381 -0.088730586781567936 0 -0.44779351150374042 -0.072397006324281837 0 -0.45514091478060381 -0.088730586781567936 0 -0.46224188031957703 -0.095079697030594129 0 -0.44779351150374042 -0.072397006324281837 0 -0.46159727930478139 -0.073958650389430447 0 -0.46224188031957703 -0.095079697030594129 0 -0.46159727930478139 -0.073958650389430447 0 -0.46224188031957703 -0.095079697030594129 0 -0.47203428037718209 -0.078973595286349979 0 -0.44779351150374042 -0.072397006324281837 0 -0.46224188031957703 -0.095079697030594129 0 -0.45514091478060381 -0.088730586781567936 0 -0.46224188031957703 -0.095079697030594129 0 -0.46159727930478139 -0.073958650389430447 0 -0.47020382291945001 -0.067334005459270346 0 -0.47203428037718209 -0.078973595286349979 0 -0.46159727930478139 -0.073958650389430447 0 -0.47020382291945001 -0.067334005459270346 0 -0.46069227824415121 -0.060493281357394728 0 -0.44779351150374042 -0.072397006324281837 0 -0.46159727930478139 -0.073958650389430447 0 -0.46069227824415121 -0.060493281357394728 0 -0.44779351150374042 -0.072397006324281837 0 -0.46069227824415121 -0.060493281357394728 0 -0.43114511415583201 -0.1279929379411458 0 -0.45289770892302661 -0.12811123156343129 0 -0.44185506947641451 -0.1089551606694453 0 -0.45289770892302661 -0.12811123156343129 0 -0.44185506947641451 -0.1089551606694453 0 -0.45556586601434068 -0.1045064784678798 0 -0.44625528499208211 -0.092511421158792795 0 -0.45514091478060381 -0.088730586781567936 0 -0.45556586601434068 -0.1045064784678798 0 -0.44625528499208211 -0.092511421158792795 0 -0.44185506947641451 -0.1089551606694453 0 -0.45556586601434068 -0.1045064784678798 0 -0.4309210631853112 -0.087967873550788972 0 -0.44625528499208211 -0.092511421158792795 0 -0.44185506947641451 -0.1089551606694453 0 -0.45514091478060381 -0.088730586781567936 0 -0.46224188031957703 -0.095079697030594129 0 -0.45556586601434068 -0.1045064784678798 0 -0.46224188031957703 -0.095079697030594129 0 -0.46633728273881309 -0.1015091249873043 0 -0.45556586601434068 -0.1045064784678798 0 -0.46224188031957703 -0.095079697030594129 0 -0.46633728273881309 -0.1015091249873043 0 -0.46633728273881309 -0.1015091249873043 0 -0.45556586601434068 -0.1045064784678798 0 -0.46649602584623862 -0.11555294711578031 0 -0.45289770892302661 -0.12811123156343129 0 -0.45556586601434068 -0.1045064784678798 0 -0.46649602584623862 -0.11555294711578031 0 -0.45289770892302661 -0.12811123156343129 0 -0.47696867803757198 -0.12650920753138331 0 -0.46649602584623862 -0.11555294711578031 0 -0.47696867803757198 -0.12650920753138331 0 -0.46649602584623862 -0.11555294711578031 0 -0.48112094015978701 -0.1119598285656081 0 -0.46633728273881309 -0.1015091249873043 0 -0.46649602584623862 -0.11555294711578031 0 -0.48112094015978701 -0.1119598285656081 0 -0.46224188031957703 -0.095079697030594129 0 -0.46633728273881309 -0.1015091249873043 0 -0.48112094015978701 -0.1119598285656081 0 -0.46224188031957703 -0.095079697030594129 0 -0.48112094015978701 -0.1119598285656081 0 -0.46224188031957703 -0.095079697030594129 0 -0.48112094015978701 -0.1119598285656081 0 -0.48344400202864868 -0.090838759646435521 0 -0.48112094015978701 -0.1119598285656081 0 -0.5 -0.10280433577800301 0 -0.48344400202864868 -0.090838759646435521 0 -0.47696867803757198 -0.12650920753138331 0 -0.49999999999999811 -0.1288399601006209 0 -0.48112094015978701 -0.1119598285656081 0 -0.49999999999999811 -0.1288399601006209 0 -0.48112094015978701 -0.1119598285656081 0 -0.49999999999999811 -0.1288399601006209 0 -0.48112094015978701 -0.1119598285656081 0 -0.5 -0.10280433577800301 0 -0.47020382291945001 -0.067334005459270346 0 -0.48506026809009523 -0.068255830728433234 0 -0.47412469700113691 -0.057230836290112913 0 -0.47020382291945001 -0.067334005459270346 0 -0.47203428037718209 -0.078973595286349979 0 -0.48506026809009523 -0.068255830728433234 0 -0.48344400202864868 -0.090838759646435521 0 -0.47203428037718209 -0.078973595286349979 0 -0.48506026809009523 -0.068255830728433234 0 -0.46224188031957703 -0.095079697030594129 0 -0.48344400202864868 -0.090838759646435521 0 -0.47203428037718209 -0.078973595286349979 0 -0.48344400202864868 -0.090838759646435521 0 -0.5 -0.076768711455384997 0 -0.48506026809009523 -0.068255830728433234 0 -0.5 -0.10280433577800301 0 -0.48344400202864868 -0.090838759646435521 0 -0.5 -0.076768711455384997 0 -0.5 -0.076768711455384997 0 -0.48506026809009523 -0.068255830728433234 0 -0.5 -0.05073308713276703 0 -0.48506026809009523 -0.068255830728433234 0 -0.5 -0.05073308713276703 0 -0.48509316215947068 -0.052412732976451111 0 -0.5 -0.05073308713276703 0 -0.48509316215947068 -0.052412732976451111 0 -0.48454913148117812 -0.038476802943278272 0 -0.5 -0.05073308713276703 0 -0.48454913148117812 -0.038476802943278272 0 -0.5 -0.024697462810149059 0 -0.47359104498456212 -0.048589556390507667 0 -0.46431494029504222 -0.041272340918403573 0 -0.47224247242214201 -0.02675249288308279 0 -0.48454913148117812 -0.038476802943278272 0 -0.47359104498456212 -0.048589556390507667 0 -0.47224247242214201 -0.02675249288308279 0 -0.47359104498456212 -0.048589556390507667 0 -0.47224247242214201 -0.02675249288308279 0 -0.48454913148117812 -0.038476802943278272 0 -0.47359104498456212 -0.048589556390507667 0 -0.48509316215947068 -0.052412732976451111 0 -0.48454913148117812 -0.038476802943278272 0 -0.47359104498456212 -0.048589556390507667 0 -0.48506026809009523 -0.068255830728433234 0 -0.48509316215947068 -0.052412732976451111 0 -0.47412469700113691 -0.057230836290112913 0 -0.48509316215947068 -0.052412732976451111 0 -0.47359104498456212 -0.048589556390507667 0 -0.47412469700113691 -0.057230836290112913 0 -0.47359104498456212 -0.048589556390507667 0 -0.47412469700113691 -0.057230836290112913 0 -0.47359104498456212 -0.048589556390507667 0 -0.47412469700113691 -0.057230836290112913 0 -0.46069227824415121 -0.060493281357394728 0 -0.47020382291945001 -0.067334005459270346 0 -0.47412469700113691 -0.057230836290112913 0 -0.46069227824415121 -0.060493281357394728 0 -0.47359104498456212 -0.048589556390507667 0 -0.46069227824415121 -0.060493281357394728 0 -0.45569113222142488 -0.049348088238964499 0 -0.46069227824415121 -0.060493281357394728 0 -0.45569113222142488 -0.049348088238964499 0 -0.44900365520392982 -0.056748288685231192 0 -0.47359104498456212 -0.048589556390507667 0 -0.46069227824415121 -0.060493281357394728 0 -0.46431494029504222 -0.041272340918403573 0 -0.45292660091518389 -0.038126949584198072 0 -0.47224247242214201 -0.02675249288308279 0 -0.47359104498456212 -0.048589556390507667 0 -0.45569113222142488 -0.049348088238964499 0 -0.46431494029504222 -0.041272340918403573 0 -0.45569113222142488 -0.049348088238964499 0 -0.46431494029504222 -0.041272340918403573 0 -0.45292660091518389 -0.038126949584198072 0 -0.43295872745567959 -0.049107677089534327 0 -0.44392917099859402 -0.036138866297053922 0 -0.4384185833308305 -0.021038983552778969 0 -0.45292660091518389 -0.038126949584198072 0 -0.44392917099859402 -0.036138866297053922 0 -0.44453101584271409 -0.047133651113558342 0 -0.45569113222142488 -0.049348088238964499 0 -0.45292660091518389 -0.038126949584198072 0 -0.44453101584271409 -0.047133651113558342 0 -0.45292660091518389 -0.038126949584198072 0 -0.44392917099859402 -0.036138866297053922 0 -0.45349878827126228 -0.024615027528956331 0 -0.43295872745567959 -0.049107677089534327 0 -0.44392917099859402 -0.036138866297053922 0 -0.44453101584271409 -0.047133651113558342 0 -0.43631033820761861 -0.054369416391956402 0 -0.44779351150374042 -0.072397006324281837 0 -0.44900365520392982 -0.056748288685231192 0 -0.43631033820761861 -0.054369416391956402 0 -0.44453101584271409 -0.047133651113558342 0 -0.44900365520392982 -0.056748288685231192 0 -0.43295872745567959 -0.049107677089534327 0 -0.43631033820761861 -0.054369416391956402 0 -0.44453101584271409 -0.047133651113558342 0 -0.45569113222142488 -0.049348088238964499 0 -0.44453101584271409 -0.047133651113558342 0 -0.44900365520392982 -0.056748288685231192 0 -0.43644152960131011 -0.0028546993955502818 0 -0.4384185833308305 -0.021038983552778969 0 -0.44356411054101691 0.0068294896247770376 0 -0.45068860397040023 -0.0092566380451985716 0 -0.4384185833308305 -0.021038983552778969 0 -0.44356411054101691 0.0068294896247770376 0 -0.4384185833308305 -0.021038983552778969 0 -0.44356411054101691 0.0068294896247770376 0 -0.44392917099859402 -0.036138866297053922 0 -0.4384185833308305 -0.021038983552778969 0 -0.45349878827126228 -0.024615027528956331 0 -0.45068860397040023 -0.0092566380451985716 0 -0.4384185833308305 -0.021038983552778969 0 -0.45349878827126228 -0.024615027528956331 0 -0.45068860397040023 -0.0092566380451985716 0 -0.45349878827126228 -0.024615027528956331 0 -0.46243877143811268 -0.01637939157046292 0 -0.45349878827126228 -0.024615027528956331 0 -0.46243877143811268 -0.01637939157046292 0 -0.47224247242214201 -0.02675249288308279 0 -0.45292660091518389 -0.038126949584198072 0 -0.45349878827126228 -0.024615027528956331 0 -0.47224247242214201 -0.02675249288308279 0 -0.46243877143811268 -0.01637939157046292 0 -0.47089389985972208 -0.0049154293756578198 0 -0.47224247242214201 -0.02675249288308279 0 -0.45068860397040023 -0.0092566380451985716 0 -0.47089389985972208 -0.0049154293756578198 0 -0.45068860397040023 -0.0092566380451985716 0 -0.46243877143811268 -0.01637939157046292 0 -0.47089389985972208 -0.0049154293756578198 0 -0.45068860397040023 -0.0092566380451985716 0 -0.47089389985972208 -0.0049154293756578198 0 -0.46385703546979462 0.004204968200863142 0 -0.47089389985972208 -0.0049154293756578198 0 -0.47224247242214201 -0.02675249288308279 0 -0.47089389985972208 -0.0049154293756578198 0 -0.47224247242214201 -0.02675249288308279 0 -0.48543372976598698 -0.016880490171557749 0 -0.48454913148117812 -0.038476802943278272 0 -0.47224247242214201 -0.02675249288308279 0 -0.48543372976598698 -0.016880490171557749 0 -0.48454913148117812 -0.038476802943278272 0 -0.5 -0.024697462810149059 0 -0.48543372976598698 -0.016880490171557749 0 -0.5 -0.024697462810149059 0 -0.48543372976598698 -0.016880490171557749 0 -0.49999999999999989 0.0013381615124688519 0 -0.47089389985972208 -0.0049154293756578198 0 -0.49999999999999989 0.0013381615124688519 0 -0.47089389985972208 -0.0049154293756578198 0 -0.48543372976598698 -0.016880490171557749 0 -0.49999999999999989 0.0013381615124688519 0 -0.49999999999999989 0.0013381615124688519 0 -0.48554641619969668 0.015073479140562269 0 -0.5 0.027913840208442509 0 -0.49999999999999989 0.0013381615124688519 0 -0.48554641619969668 0.015073479140562269 0 -0.47365449931186698 0.0040694389773459766 0 -0.48554641619969668 0.015073479140562269 0 -0.5 0.027913840208442509 0 -0.48125114215064502 0.027075044183246959 0 -0.46995548569817303 0.01028005228625024 0 -0.46845736008755018 0.034538787049881323 0 -0.48125114215064502 0.027075044183246959 0 -0.46995548569817303 0.01028005228625024 0 -0.46845736008755018 0.034538787049881323 0 -0.48554641619969668 0.015073479140562269 0 -0.48125114215064502 0.027075044183246959 0 -0.46995548569817303 0.01028005228625024 0 -0.48554641619969668 0.015073479140562269 0 -0.46995548569817303 0.01028005228625024 0 -0.47365449931186698 0.0040694389773459766 0 -0.47089389985972208 -0.0049154293756578198 0 -0.49999999999999989 0.0013381615124688519 0 -0.47365449931186698 0.0040694389773459766 0 -0.46995548569817303 0.01028005228625024 0 -0.47365449931186698 0.0040694389773459766 0 -0.47089389985972208 -0.0049154293756578198 0 -0.46995548569817303 0.01028005228625024 0 -0.47089389985972208 -0.0049154293756578198 0 -0.46995548569817303 0.01028005228625024 0 -0.47365449931186698 0.0040694389773459766 0 -0.5 0.054489518904416223 0 -0.48229644876780509 0.047569062231098462 0 -0.4827036502976485 0.081594021171005643 0 -0.5 0.027913840208442509 0 -0.5 0.054489518904416223 0 -0.48229644876780509 0.047569062231098462 0 -0.5 0.027913840208442509 0 -0.48125114215064502 0.027075044183246959 0 -0.48229644876780509 0.047569062231098462 0 -0.48125114215064502 0.027075044183246959 0 -0.48229644876780509 0.047569062231098462 0 -0.46845736008755018 0.034538787049881323 0 -0.48229644876780509 0.047569062231098462 0 -0.46695923447692761 0.058797521813512367 0 -0.46845736008755018 0.034538787049881323 0 -0.46695923447692761 0.058797521813512367 0 -0.45029577080626471 0.04328855122903421 0 -0.45492073207645672 0.068337609146842962 0 -0.46845736008755018 0.034538787049881323 0 -0.45029577080626471 0.04328855122903421 0 -0.46012562825221909 0.026784301757642421 0 -0.45029577080626471 0.04328855122903421 0 -0.46012562825221909 0.026784301757642421 0 -0.46695923447692761 0.058797521813512367 0 -0.46845736008755018 0.034538787049881323 0 -0.45029577080626471 0.04328855122903421 0 -0.46695923447692761 0.058797521813512367 0 -0.46845736008755018 0.034538787049881323 0 -0.44095844095393638 0.035471689366093788 0 -0.45029577080626471 0.04328855122903421 0 -0.44692994067363978 0.025059020426905831 0 -0.44095844095393638 0.035471689366093788 0 -0.44425078614102642 0.053438030559171297 0 -0.42914244200040652 0.032340645228912862 0 -0.45029577080626471 0.04328855122903421 0 -0.44692994067363978 0.025059020426905831 0 -0.45029577080626471 0.04328855122903421 0 -0.46012562825221909 0.026784301757642421 0 -0.44692994067363978 0.025059020426905831 0 -0.44095844095393638 0.035471689366093788 0 -0.45029577080626471 0.04328855122903421 0 -0.44425078614102642 0.053438030559171297 0 -0.45029577080626471 0.04328855122903421 0 -0.44425078614102642 0.053438030559171297 0 -0.45492073207645672 0.068337609146842962 0 -0.45029577080626471 0.04328855122903421 0 -0.45492073207645672 0.068337609146842962 0 -0.45029577080626471 0.04328855122903421 0 -0.44425078614102642 0.053438030559171297 0 -0.44425078614102642 0.053438030559171297 0 -0.45492073207645672 0.068337609146842962 0 -0.46385703546979462 0.004204968200863142 0 -0.44356411054101691 0.0068294896247770376 0 -0.45504124362105092 0.01434607984780259 0 -0.46385703546979462 0.004204968200863142 0 -0.44356411054101691 0.0068294896247770376 0 -0.45504124362105092 0.01434607984780259 0 -0.46385703546979462 0.004204968200863142 0 -0.46236015284664872 0.01180610333614639 0 -0.47089389985972208 -0.0049154293756578198 0 -0.46995548569817303 0.01028005228625024 0 -0.46385703546979462 0.004204968200863142 0 -0.46995548569817303 0.01028005228625024 0 -0.46385703546979462 0.004204968200863142 0 -0.46236015284664872 0.01180610333614639 0 -0.46995548569817303 0.01028005228625024 0 -0.46845736008755018 0.034538787049881323 0 -0.46012562825221909 0.026784301757642421 0 -0.46995548569817303 0.01028005228625024 0 -0.46236015284664872 0.01180610333614639 0 -0.46012562825221909 0.026784301757642421 0 -0.46995548569817303 0.01028005228625024 0 -0.46012562825221909 0.026784301757642421 0 -0.45504124362105092 0.01434607984780259 0 -0.46012562825221909 0.026784301757642421 0 -0.44692994067363978 0.025059020426905831 0 -0.45504124362105092 0.01434607984780259 0 -0.46236015284664872 0.01180610333614639 0 -0.46012562825221909 0.026784301757642421 0 -0.44692994067363978 0.025059020426905831 0 -0.44356411054101691 0.0068294896247770376 0 -0.44692994067363978 0.025059020426905831 0 -0.44356411054101691 0.0068294896247770376 0 -0.4341732651483427 0.023232199386445569 0 -0.44095844095393638 0.035471689366093788 0 -0.44692994067363978 0.025059020426905831 0 -0.4341732651483427 0.023232199386445569 0 -0.45504124362105092 0.01434607984780259 0 -0.44692994067363978 0.025059020426905831 0 -0.44356411054101691 0.0068294896247770376 0 -0.45068860397040023 -0.0092566380451985716 0 -0.46385703546979462 0.004204968200863142 0 -0.44356411054101691 0.0068294896247770376 0 -0.43644152960131011 -0.0028546993955502818 0 -0.42438147089531048 -0.0052512010872020204 0 -0.4136443853191058 0.010699062893198011 0 -0.44356411054101691 0.0068294896247770376 0 -0.4136443853191058 0.010699062893198011 0 -0.4341732651483427 0.023232199386445569 0 -0.44356411054101691 0.0068294896247770376 0 -0.4136443853191058 0.010699062893198011 0 -0.43644152960131011 -0.0028546993955502818 0 -0.44356411054101691 0.0068294896247770376 0 -0.4136443853191058 0.010699062893198011 0 -0.42438147089531048 -0.0052512010872020204 0 -0.4136443853191058 0.010699062893198011 0 -0.40791792823651118 0.0027026027567168659 0 -0.40838497036254512 0.0090755115053374087 0 -0.4136443853191058 0.010699062893198011 0 -0.39843313493572891 0.012666361971859731 0 -0.4136443853191058 0.010699062893198011 0 -0.40791792823651118 0.0027026027567168659 0 -0.40838497036254512 0.0090755115053374087 0 -0.4136443853191058 0.010699062893198011 0 -0.40791792823651118 0.0027026027567168659 0 -0.4136443853191058 0.010699062893198011 0 -0.42914244200040652 0.032340645228912862 0 -0.4136443853191058 0.010699062893198011 0 -0.40896343832398813 0.027435000423866759 0 -0.39843313493572891 0.012666361971859731 0 -0.4136443853191058 0.010699062893198011 0 -0.40896343832398813 0.027435000423866759 0 -0.42914244200040652 0.032340645228912862 0 -0.4136443853191058 0.010699062893198011 0 -0.4341732651483427 0.023232199386445569 0 -0.42914244200040652 0.032340645228912862 0 -0.4341732651483427 0.023232199386445569 0 -0.42914244200040652 0.032340645228912862 0 -0.44095844095393638 0.035471689366093788 0 -0.4341732651483427 0.023232199386445569 0 -0.42914244200040652 0.032340645228912862 0 -0.42914244200040652 0.032340645228912862 0 -0.4190805372575408 0.050558004839349399 0 -0.43532738426888418 0.046710808360132083 0 -0.42914244200040652 0.032340645228912862 0 -0.4190805372575408 0.050558004839349399 0 -0.44425078614102642 0.053438030559171297 0 -0.43532738426888418 0.046710808360132083 0 -0.42914244200040652 0.032340645228912862 0 -0.44425078614102642 0.053438030559171297 0 -0.42914244200040652 0.032340645228912862 0 -0.43532738426888418 0.046710808360132083 0 -0.4190805372575408 0.050558004839349399 0 -0.43532738426888418 0.046710808360132083 0 -0.42443287747805741 0.056461101916416297 0 -0.4190805372575408 0.050558004839349399 0 -0.44425078614102642 0.053438030559171297 0 -0.43124438173879631 0.059733950853590539 0 -0.43266375510024302 0.072892559984569713 0 -0.43532738426888418 0.046710808360132083 0 -0.43124438173879631 0.059733950853590539 0 -0.42443287747805741 0.056461101916416297 0 -0.44425078614102642 0.053438030559171297 0 -0.43532738426888418 0.046710808360132083 0 -0.43124438173879631 0.059733950853590539 0 -0.43124438173879631 0.059733950853590539 0 -0.42443287747805741 0.056461101916416297 0 -0.42170169630138987 0.06701351585550161 0 -0.4190805372575408 0.050558004839349399 0 -0.39665683425900361 0.055867859186276382 0 -0.41476633110015521 0.058264896039829581 0 -0.4190805372575408 0.050558004839349399 0 -0.39665683425900361 0.055867859186276382 0 -0.4190805372575408 0.050558004839349399 0 -0.40373444313597862 0.044403744654840822 0 -0.39665683425900361 0.055867859186276382 0 -0.42443287747805741 0.056461101916416297 0 -0.41476633110015521 0.058264896039829581 0 -0.42170169630138987 0.06701351585550161 0 -0.42443287747805741 0.056461101916416297 0 -0.41476633110015521 0.058264896039829581 0 -0.4190805372575408 0.050558004839349399 0 -0.41476633110015521 0.058264896039829581 0 -0.4190805372575408 0.050558004839349399 0 -0.40896343832398813 0.027435000423866759 0 -0.42914244200040652 0.032340645228912862 0 -0.41517487971532019 0.038461981068566027 0 -0.40896343832398813 0.027435000423866759 0 -0.41517487971532019 0.038461981068566027 0 -0.40373444313597862 0.044403744654840822 0 -0.42914244200040652 0.032340645228912862 0 -0.4190805372575408 0.050558004839349399 0 -0.41517487971532019 0.038461981068566027 0 -0.4190805372575408 0.050558004839349399 0 -0.41517487971532019 0.038461981068566027 0 -0.40373444313597862 0.044403744654840822 0 -0.40373444313597862 0.044403744654840822 0 -0.38222330239014329 0.034956108528420141 0 -0.40896343832398813 0.027435000423866759 0 -0.40373444313597862 0.044403744654840822 0 -0.39531524066763812 0.02681897532590119 0 -0.40373444313597862 0.044403744654840822 0 -0.38222330239014329 0.034956108528420141 0 -0.39531524066763812 0.02681897532590119 0 -0.41476633110015521 0.058264896039829581 0 -0.39449973118031068 0.059721304786516112 0 -0.39665683425900361 0.055867859186276382 0 -0.41476633110015521 0.058264896039829581 0 -0.39449973118031068 0.059721304786516112 0 -0.40373444313597862 0.044403744654840822 0 -0.39665683425900361 0.055867859186276382 0 -0.38333775136081438 0.049623873517442789 0 -0.39449973118031068 0.059721304786516112 0 -0.37423313126046631 0.061177713533202338 0 -0.39665683425900361 0.055867859186276382 0 -0.37423313126046631 0.061177713533202338 0 -0.39665683425900361 0.055867859186276382 0 -0.38333775136081438 0.049623873517442789 0 -0.37423313126046631 0.061177713533202338 0 -0.39449973118031068 0.059721304786516112 0 -0.39665683425900361 0.055867859186276382 0 -0.37423313126046631 0.061177713533202338 0 -0.38333775136081438 0.049623873517442789 0 -0.36866113695203728 0.043064204273069367 0 -0.37423313126046631 0.061177713533202338 0 -0.40373444313597862 0.044403744654840822 0 -0.38333775136081438 0.049623873517442789 0 -0.38222330239014329 0.034956108528420141 0 -0.38333775136081438 0.049623873517442789 0 -0.38222330239014329 0.034956108528420141 0 -0.36866113695203728 0.043064204273069367 0 -0.38222330239014329 0.034956108528420141 0 -0.38322188455235179 0.014633661050518819 0 -0.36071216164430758 0.025508472402000461 0 -0.38222330239014329 0.034956108528420141 0 -0.38322188455235179 0.014633661050518819 0 -0.39531524066763812 0.02681897532590119 0 -0.38322188455235179 0.014633661050518819 0 -0.37354310319873307 0.015885435701492579 0 -0.36800916043032761 -0.0041271905919835214 0 -0.38412445063278322 0.0011424343669239501 0 -0.37340753275891903 0.0060936975973046141 0 -0.38412445063278322 0.0011424343669239501 0 -0.38322188455235179 0.014633661050518819 0 -0.40023974083523928 0.0064120593258299337 0 -0.38322188455235179 0.014633661050518819 0 -0.37354310319873307 0.015885435701492579 0 -0.37340753275891903 0.0060936975973046141 0 -0.38412445063278322 0.0011424343669239501 0 -0.38322188455235179 0.014633661050518819 0 -0.37340753275891903 0.0060936975973046141 0 -0.38322188455235179 0.014633661050518819 0 -0.39843313493572891 0.012666361971859731 0 -0.38412445063278322 0.0011424343669239501 0 -0.40023974083523928 0.0064120593258299337 0 -0.38322188455235179 0.014633661050518819 0 -0.39843313493572891 0.012666361971859731 0 -0.40023974083523928 0.0064120593258299337 0 -0.38322188455235179 0.014633661050518819 0 -0.40023974083523928 0.0064120593258299337 0 -0.40838497036254512 0.0090755115053374087 0 -0.40791792823651118 0.0027026027567168659 0 -0.40023974083523928 0.0064120593258299337 0 -0.40838497036254512 0.0090755115053374087 0 -0.40023974083523928 0.0064120593258299337 0 -0.40791792823651118 0.0027026027567168659 0 -0.40023974083523928 0.0064120593258299337 0 -0.4136443853191058 0.010699062893198011 0 -0.39843313493572891 0.012666361971859731 0 -0.40838497036254512 0.0090755115053374087 0 -0.39843313493572891 0.012666361971859731 0 -0.40023974083523928 0.0064120593258299337 0 -0.40896343832398813 0.027435000423866759 0 -0.39843313493572891 0.012666361971859731 0 -0.39531524066763812 0.02681897532590119 0 -0.38322188455235179 0.014633661050518819 0 -0.39843313493572891 0.012666361971859731 0 -0.39531524066763812 0.02681897532590119 0 -0.38546588911088331 0.11141826431458179 0 -0.39524738868181442 0.093708586100890737 0 -0.41477886664459129 0.10737256943898631 0 -0.38546588911088331 0.11141826431458179 0 -0.41477886664459129 0.10737256943898631 0 -0.39789171765310283 0.12378059481973019 0 -0.38546588911088331 0.11141826431458179 0 -0.41477886664459129 0.10737256943898631 0 -0.39789171765310283 0.12378059481973019 0 -0.38546588911088331 0.11141826431458179 0 -0.37750887379202391 0.1258246628239878 0 -0.38546588911088331 0.11141826431458179 0 -0.37750887379202391 0.1258246628239878 0 -0.38546588911088331 0.11141826431458179 0 -0.37574270482976552 0.1127602309153935 0 -0.37750887379202391 0.1258246628239878 0 -0.38546588911088331 0.11141826431458179 0 -0.37574270482976552 0.1127602309153935 0 -0.38546588911088331 0.11141826431458179 0 -0.37574270482976552 0.1127602309153935 0 -0.37728664115199051 0.096549999617299043 0 -0.38546588911088331 0.11141826431458179 0 -0.37728664115199051 0.096549999617299043 0 -0.39524738868181442 0.093708586100890737 0 -0.38546588911088331 0.11141826431458179 0 -0.39524738868181442 0.093708586100890737 0 -0.37728664115199051 0.096549999617299043 0 -0.38516249845558131 0.078194868366674497 0 -0.39524738868181442 0.093708586100890737 0 -0.37728664115199051 0.096549999617299043 0 -0.38516249845558131 0.078194868366674497 0 -0.36467921020616101 0.082012698274938928 0 -0.39449973118031068 0.059721304786516112 0 -0.38516249845558131 0.078194868366674497 0 -0.37423313126046631 0.061177713533202338 0 -0.41476633110015521 0.058264896039829581 0 -0.39449973118031068 0.059721304786516112 0 -0.40502888825274541 0.07599890788719954 0 -0.39449973118031068 0.059721304786516112 0 -0.38516249845558131 0.078194868366674497 0 -0.40502888825274541 0.07599890788719954 0 -0.38516249845558131 0.078194868366674497 0 -0.40502888825274541 0.07599890788719954 0 -0.39524738868181442 0.093708586100890737 0 -0.40502888825274541 0.07599890788719954 0 -0.39524738868181442 0.093708586100890737 0 -0.41733147167793749 0.088984167262631475 0 -0.40502888825274541 0.07599890788719954 0 -0.39524738868181442 0.093708586100890737 0 -0.40502888825274541 0.07599890788719954 0 -0.41733147167793749 0.088984167262631475 0 -0.42172506837358431 0.077774682823827768 0 -0.41476633110015521 0.058264896039829581 0 -0.40502888825274541 0.07599890788719954 0 -0.42170169630138987 0.06701351585550161 0 -0.41476633110015521 0.058264896039829581 0 -0.40502888825274541 0.07599890788719954 0 -0.40502888825274541 0.07599890788719954 0 -0.42172506837358431 0.077774682823827768 0 -0.42170169630138987 0.06701351585550161 0 -0.43124438173879631 0.059733950853590539 0 -0.42170169630138987 0.06701351585550161 0 -0.43266375510024302 0.072892559984569713 0 -0.42172506837358431 0.077774682823827768 0 -0.42170169630138987 0.06701351585550161 0 -0.43266375510024302 0.072892559984569713 0 -0.41733147167793749 0.088984167262631475 0 -0.43189953053560542 0.083984263129236514 0 -0.43049750357199817 0.093968304400187913 0 -0.41733147167793749 0.088984167262631475 0 -0.42172506837358431 0.077774682823827768 0 -0.43189953053560542 0.083984263129236514 0 -0.42172506837358431 0.077774682823827768 0 -0.43266375510024302 0.072892559984569713 0 -0.43189953053560542 0.083984263129236514 0 -0.43266375510024302 0.072892559984569713 0 -0.43189953053560542 0.083984263129236514 0 -0.44358810087770112 0.086161436503399941 0 -0.43189953053560542 0.083984263129236514 0 -0.43049750357199817 0.093968304400187913 0 -0.44358810087770112 0.086161436503399941 0 -0.43049750357199817 0.093968304400187913 0 -0.41477886664459129 0.10737256943898631 0 -0.44409184417829922 0.1033268745633901 0 -0.41477886664459129 0.10737256943898631 0 -0.44409184417829922 0.1033268745633901 0 -0.41733147167793749 0.088984167262631475 0 -0.43049750357199817 0.093968304400187913 0 -0.41477886664459129 0.10737256943898631 0 -0.39524738868181442 0.093708586100890737 0 -0.41733147167793749 0.088984167262631475 0 -0.41477886664459129 0.10737256943898631 0 -0.39789171765310283 0.12378059481973019 0 -0.41477886664459129 0.10737256943898631 0 -0.41362606074197911 0.1252480519334859 0 -0.41477886664459129 0.10737256943898631 0 -0.42885901608313248 0.12178248185412829 0 -0.41362606074197911 0.1252480519334859 0 -0.41477886664459129 0.10737256943898631 0 -0.42885901608313248 0.12178248185412829 0 -0.44409184417829922 0.1033268745633901 0 -0.44409184417829922 0.1033268745633901 0 -0.44478620151515341 0.12698763162582741 0 -0.42885901608313248 0.12178248185412829 0 -0.44409184417829922 0.1033268745633901 0 -0.44478620151515341 0.12698763162582741 0 -0.4611232330349378 0.11339979176103659 0 -0.44478620151515341 0.12698763162582741 0 -0.44409184417829922 0.1033268745633901 0 -0.4611232330349378 0.11339979176103659 0 -0.44478620151515341 0.12698763162582741 0 -0.44409184417829922 0.1033268745633901 0 -0.46042071142290492 0.1010732101425791 0 -0.43049750357199817 0.093968304400187913 0 -0.44409184417829922 0.1033268745633901 0 -0.44358810087770112 0.086161436503399941 0 -0.44409184417829922 0.1033268745633901 0 -0.46042071142290492 0.1010732101425791 0 -0.45447718491422578 0.090826017412322713 0 -0.44409184417829922 0.1033268745633901 0 -0.44358810087770112 0.086161436503399941 0 -0.46042071142290492 0.1010732101425791 0 -0.4611232330349378 0.11339979176103659 0 -0.47674957866751039 0.098819545721767238 0 -0.44409184417829922 0.1033268745633901 0 -0.46042071142290492 0.1010732101425791 0 -0.4611232330349378 0.11339979176103659 0 -0.46042071142290492 0.1010732101425791 0 -0.46460144112325791 0.096976619205990294 0 -0.47674957866751039 0.098819545721767238 0 -0.46042071142290492 0.1010732101425791 0 -0.47674957866751039 0.098819545721767238 0 -0.46042071142290492 0.1010732101425791 0 -0.46460144112325791 0.096976619205990294 0 -0.45447718491422578 0.090826017412322713 0 -0.4611232330349378 0.11339979176103659 0 -0.44478620151515341 0.12698763162582741 0 -0.46121647776751817 0.1277530636040424 0 -0.4611232330349378 0.11339979176103659 0 -0.47453520727093268 0.1195024679642044 0 -0.46121647776751817 0.1277530636040424 0 -0.44308435757710313 0.068995998443409798 0 -0.44358810087770112 0.086161436503399941 0 -0.44308435757710313 0.068995998443409798 0 -0.45147886049860619 0.078540884738684535 0 -0.44358810087770112 0.086161436503399941 0 -0.43266375510024302 0.072892559984569713 0 -0.44308435757710313 0.068995998443409798 0 -0.44358810087770112 0.086161436503399941 0 -0.44425078614102642 0.053438030559171297 0 -0.43266375510024302 0.072892559984569713 0 -0.44308435757710313 0.068995998443409798 0 -0.44425078614102642 0.053438030559171297 0 -0.43266375510024302 0.072892559984569713 0 -0.44425078614102642 0.053438030559171297 0 -0.44308435757710313 0.068995998443409798 0 -0.45492073207645672 0.068337609146842962 0 -0.44308435757710313 0.068995998443409798 0 -0.45147886049860619 0.078540884738684535 0 -0.45492073207645672 0.068337609146842962 0 -0.44409184417829922 0.1033268745633901 0 -0.44358810087770112 0.086161436503399941 0 -0.45447718491422578 0.090826017412322713 0 -0.45147886049860619 0.078540884738684535 0 -0.44358810087770112 0.086161436503399941 0 -0.45447718491422578 0.090826017412322713 0 -0.46460144112325791 0.096976619205990294 0 -0.45447718491422578 0.090826017412322713 0 -0.46546110886630299 0.083056256577143273 0 -0.46460144112325791 0.096976619205990294 0 -0.46546110886630299 0.083056256577143273 0 -0.46546110886630299 0.083056256577143273 0 -0.45675668608998771 0.082491572085902479 0 -0.45604610145616231 0.07443267484022964 0 -0.45447718491422578 0.090826017412322713 0 -0.46546110886630299 0.083056256577143273 0 -0.45675668608998771 0.082491572085902479 0 -0.45147886049860619 0.078540884738684535 0 -0.45447718491422578 0.090826017412322713 0 -0.45675668608998771 0.082491572085902479 0 -0.45147886049860619 0.078540884738684535 0 -0.45675668608998771 0.082491572085902479 0 -0.45604610145616231 0.07443267484022964 0 -0.46695923447692761 0.058797521813512367 0 -0.46546110886630299 0.083056256577143273 0 -0.45492073207645672 0.068337609146842962 0 -0.46695923447692761 0.058797521813512367 0 -0.46546110886630299 0.083056256577143273 0 -0.46546110886630299 0.083056256577143273 0 -0.45604610145616231 0.07443267484022964 0 -0.45492073207645672 0.068337609146842962 0 -0.45147886049860619 0.078540884738684535 0 -0.45604610145616231 0.07443267484022964 0 -0.45492073207645672 0.068337609146842962 0 -0.46546110886630299 0.083056256577143273 0 -0.45492073207645672 0.068337609146842962 0 -0.45604610145616231 0.07443267484022964 0 -0.45492073207645672 0.068337609146842962 0 -0.48229644876780509 0.047569062231098462 0 -0.46695923447692761 0.058797521813512367 0 -0.4827036502976485 0.081594021171005643 0 -0.46695923447692761 0.058797521813512367 0 -0.46546110886630299 0.083056256577143273 0 -0.4827036502976485 0.081594021171005643 0 -0.46546110886630299 0.083056256577143273 0 -0.47674957866751039 0.098819545721767238 0 -0.46460144112325791 0.096976619205990294 0 -0.46546110886630299 0.083056256577143273 0 -0.47674957866751039 0.098819545721767238 0 -0.46546110886630299 0.083056256577143273 0 -0.4827036502976485 0.081594021171005643 0 -0.47674957866751039 0.098819545721767238 0 -0.4827036502976485 0.081594021171005643 0 -0.47903225280213668 0.098504497445335043 0 -0.47674957866751039 0.098819545721767238 0 -0.499999999999996 0.081065197600389938 0 -0.47903225280213668 0.098504497445335043 0 -0.499999999999996 0.081065197600389938 0 -0.47903225280213668 0.098504497445335043 0 -0.49999999999999722 0.095610587835039507 0 -0.4827036502976485 0.081594021171005643 0 -0.499999999999996 0.081065197600389938 0 -0.47903225280213668 0.098504497445335043 0 -0.5 0.054489518904416223 0 -0.4827036502976485 0.081594021171005643 0 -0.499999999999996 0.081065197600389938 0 -0.47453520727093268 0.1195024679642044 0 -0.48873013227736711 0.11554926498315091 0 -0.48346006637937511 0.13122725366127161 0 -0.47453520727093268 0.1195024679642044 0 -0.47674957866751039 0.098819545721767238 0 -0.48873013227736711 0.11554926498315091 0 -0.4611232330349378 0.11339979176103659 0 -0.47453520727093268 0.1195024679642044 0 -0.47674957866751039 0.098819545721767238 0 -0.4611232330349378 0.11339979176103659 0 -0.47674957866751039 0.098819545721767238 0 -0.47674957866751039 0.098819545721767238 0 -0.48873013227736711 0.11554926498315091 0 -0.47903225280213668 0.098504497445335043 0 -0.47674957866751039 0.098819545721767238 0 -0.48904452992684527 0.10458497702246421 0 -0.47903225280213668 0.098504497445335043 0 -0.47674957866751039 0.098819545721767238 0 -0.47674957866751039 0.098819545721767238 0 -0.48904452992684527 0.10458497702246421 0 -0.48873013227736711 0.11554926498315091 0 -0.49999999999999722 0.095610587835039507 0 -0.48904452992684527 0.10458497702246421 0 -0.5 0.11344858295254751 0 -0.47903225280213668 0.098504497445335043 0 -0.49999999999999722 0.095610587835039507 0 -0.47903225280213668 0.098504497445335043 0 -0.49999999999999722 0.095610587835039507 0 -0.48904452992684527 0.10458497702246421 0 -0.48904452992684527 0.10458497702246421 0 -0.5 0.11344858295254751 0 -0.48873013227736711 0.11554926498315091 0 -0.5 0.11344858295254751 0 -0.48873013227736711 0.11554926498315091 0 -0.50000000000000533 0.13128657807005539 0 -0.48873013227736711 0.11554926498315091 0 -0.50000000000000533 0.13128657807005539 0 -0.48873013227736711 0.11554926498315091 0 -0.50000000000000533 0.13128657807005539 0 -0.48346006637937511 0.13122725366127161 0 -0.50000000000000533 0.13128657807005539 0 -0.48346006637937511 0.13122725366127161 0 -0.48294262145415218 0.1477691352244524 0 -0.48346006637937511 0.13122725366127161 0 -0.46949315901923372 0.13849606702634179 0 -0.48294262145415218 0.1477691352244524 0 -0.47453520727093268 0.1195024679642044 0 -0.48346006637937511 0.13122725366127161 0 -0.46949315901923372 0.13849606702634179 0 -0.46949315901923372 0.13849606702634179 0 -0.48294262145415218 0.1477691352244524 0 -0.46429613899570621 0.15389568693615671 0 -0.50000000000000533 0.13128657807005539 0 -0.48294262145415218 0.1477691352244524 0 -0.5 0.15805902704269981 0 -0.5 0.15805902704269981 0 -0.5 0.184831476015344 0 -0.47588366704394769 0.170940119929851 0 -0.48294262145415218 0.1477691352244524 0 -0.5 0.15805902704269981 0 -0.47588366704394769 0.170940119929851 0 -0.5 0.184831476015344 0 -0.47588366704394769 0.170940119929851 0 -0.47722302021506929 0.19249533431850999 0 -0.47588366704394769 0.170940119929851 0 -0.47722302021506929 0.19249533431850999 0 -0.45344081906717892 0.18774640165664899 0 -0.48294262145415218 0.1477691352244524 0 -0.47588366704394769 0.170940119929851 0 -0.46429613899570621 0.15389568693615671 0 -0.47588366704394769 0.170940119929851 0 -0.45491566494536628 0.1671609365067179 0 -0.46429613899570621 0.15389568693615671 0 -0.45491566494536628 0.1671609365067179 0 -0.44559469981402833 0.15453782922540649 0 -0.46429613899570621 0.15389568693615671 0 -0.47588366704394769 0.170940119929851 0 -0.45491566494536628 0.1671609365067179 0 -0.45344081906717892 0.18774640165664899 0 -0.45344081906717892 0.18774640165664899 0 -0.42590427308512607 0.19462497869985479 0 -0.43536299980597037 0.16868464478552639 0 -0.45491566494536628 0.1671609365067179 0 -0.45344081906717892 0.18774640165664899 0 -0.43536299980597037 0.16868464478552639 0 -0.44559469981402833 0.15453782922540649 0 -0.43270949979210099 0.14951015732100309 0 -0.43536299980597037 0.16868464478552639 0 -0.45491566494536628 0.1671609365067179 0 -0.44559469981402833 0.15453782922540649 0 -0.43536299980597037 0.16868464478552639 0 -0.44559469981402833 0.15453782922540649 0 -0.44478620151515341 0.12698763162582741 0 -0.44559469981402833 0.15453782922540649 0 -0.43578268805750991 0.13447603604830641 0 -0.43270949979210099 0.14951015732100309 0 -0.44559469981402833 0.15453782922540649 0 -0.44478620151515341 0.12698763162582741 0 -0.45614458799733321 0.1403793596428019 0 -0.44559469981402833 0.15453782922540649 0 -0.44478620151515341 0.12698763162582741 0 -0.43578268805750991 0.13447603604830641 0 -0.44478620151515341 0.12698763162582741 0 -0.43578268805750991 0.13447603604830641 0 -0.47453520727093268 0.1195024679642044 0 -0.46949315901923372 0.13849606702634179 0 -0.46121647776751817 0.1277530636040424 0 -0.44478620151515341 0.12698763162582741 0 -0.45614458799733321 0.1403793596428019 0 -0.46121647776751817 0.1277530636040424 0 -0.46949315901923372 0.13849606702634179 0 -0.45614458799733321 0.1403793596428019 0 -0.46121647776751817 0.1277530636040424 0 -0.46949315901923372 0.13849606702634179 0 -0.45614458799733321 0.1403793596428019 0 -0.46429613899570621 0.15389568693615671 0 -0.44559469981402833 0.15453782922540649 0 -0.45614458799733321 0.1403793596428019 0 -0.46429613899570621 0.15389568693615671 0 -0.4777107433763656 0.23261797455159541 0 -0.46067917674487202 0.24578791896303159 0 -0.48400787175212889 0.23948172502518 0 -0.4777107433763656 0.23261797455159541 0 -0.47496881677379238 0.25062421766738041 0 -0.4777107433763656 0.23261797455159541 0 -0.47077952417142249 0.2252081329933085 0 -0.46067917674487202 0.24578791896303159 0 -0.4777107433763656 0.23261797455159541 0 -0.46067917674487202 0.24578791896303159 0 -0.47496881677379238 0.25062421766738041 0 -0.48400787175212889 0.23948172502518 0 -0.4902262165559268 0.24480711952533471 0 -0.49073105890795932 0.25297858040334048 0 -0.5 0.23837637396063249 0 -0.4957417560300621 0.23875679201432851 0 -0.49999999999999972 0.26514882293327691 0 -0.4902262165559268 0.24480711952533471 0 -0.4957417560300621 0.23875679201432851 0 -0.49073105890795932 0.25297858040334048 0 -0.4957417560300621 0.23875679201432851 0 -0.48869746897848487 0.23481224793742711 0 -0.48966832832915069 0.2394644711255676 0 -0.4902262165559268 0.24480711952533471 0 -0.4957417560300621 0.23875679201432851 0 -0.48966832832915069 0.2394644711255676 0 -0.48400787175212889 0.23948172502518 0 -0.4902262165559268 0.24480711952533471 0 -0.48966832832915069 0.2394644711255676 0 -0.48400787175212889 0.23948172502518 0 -0.48869746897848487 0.23481224793742711 0 -0.48966832832915069 0.2394644711255676 0 -0.5 0.23837637396063249 0 -0.49148351206012469 0.21236476109538011 0 -0.5 0.2116039249879883 0 -0.48400787175212889 0.23948172502518 0 -0.48869746897848487 0.23481224793742711 0 -0.48199343101925562 0.22796983251877209 0 -0.5 0.23837637396063249 0 -0.4957417560300621 0.23875679201432851 0 -0.49148351206012469 0.21236476109538011 0 -0.4957417560300621 0.23875679201432851 0 -0.49148351206012469 0.21236476109538011 0 -0.4957417560300621 0.23875679201432851 0 -0.48937716542715543 0.2267157986288191 0 -0.49148351206012469 0.21236476109538011 0 -0.4957417560300621 0.23875679201432851 0 -0.48869746897848487 0.23481224793742711 0 -0.48937716542715543 0.2267157986288191 0 -0.48869746897848487 0.23481224793742711 0 -0.48937716542715543 0.2267157986288191 0 -0.48199343101925562 0.22796983251877209 0 -0.48937716542715543 0.2267157986288191 0 -0.4845867387303458 0.21914278117625169 0 -0.48199343101925562 0.22796983251877209 0 -0.48937716542715543 0.2267157986288191 0 -0.4845867387303458 0.21914278117625169 0 -0.49148351206012469 0.21236476109538011 0 -0.4845867387303458 0.21914278117625169 0 -0.48199343101925562 0.22796983251877209 0 -0.47731240031577271 0.2182069761348274 0 -0.48199343101925562 0.22796983251877209 0 -0.47077952417142249 0.2252081329933085 0 -0.47731240031577271 0.2182069761348274 0 -0.48400787175212889 0.23948172502518 0 -0.4777107433763656 0.23261797455159541 0 -0.48199343101925562 0.22796983251877209 0 -0.4777107433763656 0.23261797455159541 0 -0.48199343101925562 0.22796983251877209 0 -0.47077952417142249 0.2252081329933085 0 -0.48160755418296852 0.20907870647212151 0 -0.47722302021506929 0.19249533431850999 0 -0.46622187808287407 0.21083401931047371 0 -0.48160755418296852 0.20907870647212151 0 -0.47731240031577271 0.2182069761348274 0 -0.46622187808287407 0.21083401931047371 0 -0.47077952417142249 0.2252081329933085 0 -0.47731240031577271 0.2182069761348274 0 -0.46622187808287407 0.21083401931047371 0 -0.4845867387303458 0.21914278117625169 0 -0.48160755418296852 0.20907870647212151 0 -0.47731240031577271 0.2182069761348274 0 -0.4845867387303458 0.21914278117625169 0 -0.48160755418296852 0.20907870647212151 0 -0.49148351206012469 0.21236476109538011 0 -0.49148351206012469 0.21236476109538011 0 -0.5 0.2116039249879883 0 -0.49004492276513267 0.19956226775057109 0 -0.48160755418296852 0.20907870647212151 0 -0.49148351206012469 0.21236476109538011 0 -0.49004492276513267 0.19956226775057109 0 -0.5 0.184831476015344 0 -0.5 0.2116039249879883 0 -0.49004492276513267 0.19956226775057109 0 -0.5 0.184831476015344 0 -0.49004492276513267 0.19956226775057109 0 -0.47722302021506929 0.19249533431850999 0 -0.48160755418296852 0.20907870647212151 0 -0.49004492276513267 0.19956226775057109 0 -0.47722302021506929 0.19249533431850999 0 -0.47722302021506929 0.19249533431850999 0 -0.45344081906717892 0.18774640165664899 0 -0.46622187808287407 0.21083401931047371 0 -0.45344081906717892 0.18774640165664899 0 -0.44449922720541402 0.21587353703306711 0 -0.45344081906717892 0.18774640165664899 0 -0.44449922720541402 0.21587353703306711 0 -0.42590427308512607 0.19462497869985479 0 -0.44449922720541402 0.21587353703306711 0 -0.46622187808287407 0.21083401931047371 0 -0.45753097077584082 0.22585121553349469 0 -0.45344081906717892 0.18774640165664899 0 -0.44449922720541402 0.21587353703306711 0 -0.46622187808287407 0.21083401931047371 0 -0.47077952417142249 0.2252081329933085 0 -0.45753097077584082 0.22585121553349469 0 -0.46067917674487202 0.24578791896303159 0 -0.47077952417142249 0.2252081329933085 0 -0.46622187808287407 0.21083401931047371 0 -0.45753097077584082 0.22585121553349469 0 -0.44449922720541402 0.21587353703306711 0 -0.45753097077584082 0.22585121553349469 0 -0.4487859626744779 0.23551111825593171 0 -0.44449922720541402 0.21587353703306711 0 -0.43555763534364911 0.24400067240948509 0 -0.44449922720541402 0.21587353703306711 0 -0.4487859626744779 0.23551111825593171 0 -0.43555763534364911 0.24400067240948509 0 -0.4487859626744779 0.23551111825593171 0 -0.43555763534364911 0.24400067240948509 0 -0.4436476101133785 0.25895786337446769 0 -0.4487859626744779 0.23551111825593171 0 -0.46067917674487202 0.24578791896303159 0 -0.4436476101133785 0.25895786337446769 0 -0.45753097077584082 0.22585121553349469 0 -0.4487859626744779 0.23551111825593171 0 -0.46067917674487202 0.24578791896303159 0 -0.42328482236974002 0.23446116313630311 0 -0.40167854475825282 0.24059208437640539 0 -0.42060660074010942 0.25473258134287657 0 -0.43555763534364911 0.24400067240948509 0 -0.42328482236974002 0.23446116313630311 0 -0.42060660074010942 0.25473258134287657 0 -0.44449922720541402 0.21587353703306711 0 -0.43555763534364911 0.24400067240948509 0 -0.42328482236974002 0.23446116313630311 0 -0.44449922720541402 0.21587353703306711 0 -0.42328482236974002 0.23446116313630311 0 -0.41408210380127469 0.2171069405196816 0 -0.42328482236974002 0.23446116313630311 0 -0.41408210380127469 0.2171069405196816 0 -0.40167854475825282 0.24059208437640539 0 -0.44449922720541402 0.21587353703306711 0 -0.41408210380127469 0.2171069405196816 0 -0.42590427308512607 0.19462497869985479 0 -0.41408210380127469 0.2171069405196816 0 -0.42590427308512607 0.19462497869985479 0 -0.40308419936571338 0.19337225810846431 0 -0.40308419936571338 0.19337225810846431 0 -0.37903381136129222 0.19782039269195281 0 -0.3932116165985492 0.17846036317337741 0 -0.40308419936571338 0.19337225810846431 0 -0.37903381136129222 0.19782039269195281 0 -0.39484244052267398 0.21029376986273299 0 -0.37903381136129222 0.19782039269195281 0 -0.39484244052267398 0.21029376986273299 0 -0.37996649634587798 0.2238659538747296 0 -0.37903381136129222 0.19782039269195281 0 -0.37996649634587798 0.2238659538747296 0 -0.41408210380127469 0.2171069405196816 0 -0.40308419936571338 0.19337225810846431 0 -0.39484244052267398 0.21029376986273299 0 -0.39484244052267398 0.21029376986273299 0 -0.37996649634587798 0.2238659538747296 0 -0.40167854475825282 0.24059208437640539 0 -0.41408210380127469 0.2171069405196816 0 -0.39484244052267398 0.21029376986273299 0 -0.40167854475825282 0.24059208437640539 0 -0.37996649634587798 0.2238659538747296 0 -0.38089918133046369 0.24991151505750661 0 -0.40167854475825282 0.24059208437640539 0 -0.37996649634587798 0.2238659538747296 0 -0.38089918133046369 0.24991151505750661 0 -0.36613552699662999 0.2498380616322399 0 -0.37996649634587798 0.2238659538747296 0 -0.38089918133046369 0.24991151505750661 0 -0.38089918133046369 0.24991151505750661 0 -0.40167854475825282 0.24059208437640539 0 -0.39219796448779942 0.25747026977617682 0 -0.40790265270205062 0.14969588176604079 0 -0.42112902719063128 0.13812359298361959 0 -0.40547167613843738 0.1351810205709652 0 -0.40790265270205062 0.14969588176604079 0 -0.42112902719063128 0.13812359298361959 0 -0.4222546429265801 0.1556044223086093 0 -0.41362606074197911 0.1252480519334859 0 -0.42112902719063128 0.13812359298361959 0 -0.40547167613843738 0.1351810205709652 0 -0.42885901608313248 0.12178248185412829 0 -0.41362606074197911 0.1252480519334859 0 -0.42112902719063128 0.13812359298361959 0 -0.42885901608313248 0.12178248185412829 0 -0.42112902719063128 0.13812359298361959 0 -0.43578268805750991 0.13447603604830641 0 -0.42885901608313248 0.12178248185412829 0 -0.44478620151515341 0.12698763162582741 0 -0.43578268805750991 0.13447603604830641 0 -0.42112902719063128 0.13812359298361959 0 -0.43578268805750991 0.13447603604830641 0 -0.43270949979210099 0.14951015732100309 0 -0.42112902719063128 0.13812359298361959 0 -0.4222546429265801 0.1556044223086093 0 -0.43270949979210099 0.14951015732100309 0 -0.4222546429265801 0.1556044223086093 0 -0.43270949979210099 0.14951015732100309 0 -0.43536299980597037 0.16868464478552639 0 -0.4222546429265801 0.1556044223086093 0 -0.43536299980597037 0.16868464478552639 0 -0.41209170193111161 0.17058418254244431 0 -0.42590427308512607 0.19462497869985479 0 -0.43536299980597037 0.16868464478552639 0 -0.41209170193111161 0.17058418254244431 0 -0.42590427308512607 0.19462497869985479 0 -0.40308419936571338 0.19337225810846431 0 -0.41209170193111161 0.17058418254244431 0 -0.40790265270205062 0.14969588176604079 0 -0.4222546429265801 0.1556044223086093 0 -0.41209170193111161 0.17058418254244431 0 -0.41209170193111161 0.17058418254244431 0 -0.39374724395792221 0.1587501510148496 0 -0.3932116165985492 0.17846036317337741 0 -0.40790265270205062 0.14969588176604079 0 -0.41209170193111161 0.17058418254244431 0 -0.39374724395792221 0.1587501510148496 0 -0.40308419936571338 0.19337225810846431 0 -0.41209170193111161 0.17058418254244431 0 -0.3932116165985492 0.17846036317337741 0 -0.37903381136129222 0.19782039269195281 0 -0.3781011263767064 0.171774831509176 0 -0.37903381136129222 0.19782039269195281 0 -0.3932116165985492 0.17846036317337741 0 -0.3781011263767064 0.171774831509176 0 -0.39374724395792221 0.1587501510148496 0 -0.3781011263767064 0.171774831509176 0 -0.37716844139212058 0.14572927032639921 0 -0.39374724395792221 0.1587501510148496 0 -0.3932116165985492 0.17846036317337741 0 -0.3781011263767064 0.171774831509176 0 -0.3781011263767064 0.171774831509176 0 -0.37716844139212058 0.14572927032639921 0 -0.39374724395792221 0.1587501510148496 0 -0.37716844139212058 0.14572927032639921 0 -0.39272162406762168 0.1399319211757567 0 -0.40790265270205062 0.14969588176604079 0 -0.39374724395792221 0.1587501510148496 0 -0.39272162406762168 0.1399319211757567 0 -0.40790265270205062 0.14969588176604079 0 -0.40547167613843738 0.1351810205709652 0 -0.39272162406762168 0.1399319211757567 0 -0.39789171765310283 0.12378059481973019 0 -0.40547167613843738 0.1351810205709652 0 -0.39272162406762168 0.1399319211757567 0 -0.39789171765310283 0.12378059481973019 0 -0.41362606074197911 0.1252480519334859 0 -0.40547167613843738 0.1351810205709652 0 -0.39789171765310283 0.12378059481973019 0 -0.39272162406762168 0.1399319211757567 0 -0.37750887379202391 0.1258246628239878 0 -0.37716844139212058 0.14572927032639921 0 -0.39272162406762168 0.1399319211757567 0 -0.37750887379202391 0.1258246628239878 0 -0.37716844139212058 0.14572927032639921 0 -0.3657684372237478 0.13220172536522559 0 -0.35647587307076278 0.14289703800607989 0 -0.37750887379202391 0.1258246628239878 0 -0.3657684372237478 0.13220172536522559 0 -0.36705056219853383 0.1194023578563024 0 -0.37716844139212058 0.14572927032639921 0 -0.37750887379202391 0.1258246628239878 0 -0.3657684372237478 0.13220172536522559 0 -0.35647587307076278 0.14289703800607989 0 -0.33732249104276257 0.131346910735954 0 -0.3544766847842245 0.1222383725199034 0 -0.3657684372237478 0.13220172536522559 0 -0.35647587307076278 0.14289703800607989 0 -0.3544766847842245 0.1222383725199034 0 -0.35647587307076278 0.14289703800607989 0 -0.35357979475610862 0.15700481946059139 0 -0.34343108307258757 0.1592076902785616 0 -0.35647587307076278 0.14289703800607989 0 -0.34343108307258757 0.1592076902785616 0 -0.33732249104276257 0.131346910735954 0 -0.35647587307076278 0.14289703800607989 0 -0.36287855408809822 0.1599056134502603 0 -0.35357979475610862 0.15700481946059139 0 -0.37716844139212058 0.14572927032639921 0 -0.35647587307076278 0.14289703800607989 0 -0.36287855408809822 0.1599056134502603 0 -0.3781011263767064 0.171774831509176 0 -0.36287855408809822 0.1599056134502603 0 -0.35964015679024341 0.17946935691621579 0 -0.3781011263767064 0.171774831509176 0 -0.37716844139212058 0.14572927032639921 0 -0.36287855408809822 0.1599056134502603 0 -0.37903381136129222 0.19782039269195281 0 -0.3781011263767064 0.171774831509176 0 -0.35964015679024341 0.17946935691621579 0 -0.35964015679024341 0.17946935691621579 0 -0.35153366879298581 0.16600893610746389 0 -0.34309734718244622 0.17838870404507201 0 -0.35964015679024341 0.17946935691621579 0 -0.34309734718244622 0.17838870404507201 0 -0.35210511399334521 0.19841662263689869 0 -0.36287855408809822 0.1599056134502603 0 -0.35964015679024341 0.17946935691621579 0 -0.35153366879298581 0.16600893610746389 0 -0.36287855408809822 0.1599056134502603 0 -0.35357979475610862 0.15700481946059139 0 -0.35153366879298581 0.16600893610746389 0 -0.35153366879298581 0.16600893610746389 0 -0.34174847804485808 0.16712149937682669 0 -0.34309734718244622 0.17838870404507201 0 -0.35153366879298581 0.16600893610746389 0 -0.34343108307258757 0.1592076902785616 0 -0.34174847804485808 0.16712149937682669 0 -0.35357979475610862 0.15700481946059139 0 -0.35153366879298581 0.16600893610746389 0 -0.34343108307258757 0.1592076902785616 0 -0.34343108307258757 0.1592076902785616 0 -0.33432708244801629 0.15811351469167401 0 -0.33475155756043201 0.1639364017332065 0 -0.34343108307258757 0.1592076902785616 0 -0.34174847804485808 0.16712149937682669 0 -0.33475155756043201 0.1639364017332065 0 -0.34343108307258757 0.1592076902785616 0 -0.33475155756043201 0.1639364017332065 0 -0.34174847804485808 0.16712149937682669 0 -0.33507698246585732 0.16840053263125401 0 -0.34309734718244622 0.17838870404507201 0 -0.34174847804485808 0.16712149937682669 0 -0.33507698246585732 0.16840053263125401 0 -0.33475155756043201 0.1639364017332065 0 -0.33507698246585732 0.16840053263125401 0 -0.33475155756043201 0.1639364017332065 0 -0.33432708244801629 0.15811351469167401 0 -0.33475155756043201 0.1639364017332065 0 -0.32432794481027177 0.1563985660706535 0 -0.33432708244801629 0.15811351469167401 0 -0.33475155756043201 0.1639364017332065 0 -0.33475155756043201 0.1639364017332065 0 -0.33072720783987869 0.1902815528335329 0 -0.33507698246585732 0.16840053263125401 0 -0.33475155756043201 0.1639364017332065 0 -0.33072720783987869 0.1902815528335329 0 -0.33507698246585732 0.16840053263125401 0 -0.34309734718244622 0.17838870404507201 0 -0.33072720783987869 0.1902815528335329 0 -0.33475155756043201 0.1639364017332065 0 -0.33072720783987869 0.1902815528335329 0 -0.31179304608146408 0.17644447905380189 0 -0.33475155756043201 0.1639364017332065 0 -0.31179304608146408 0.17644447905380189 0 -0.33475155756043201 0.1639364017332065 0 -0.31813664190152002 0.16295708823369881 0 -0.31179304608146408 0.17644447905380189 0 -0.33475155756043201 0.1639364017332065 0 -0.32432794481027177 0.1563985660706535 0 -0.31813664190152002 0.16295708823369881 0 -0.31813664190152002 0.16295708823369881 0 -0.30856386166484862 0.1645608001949356 0 -0.31179304608146408 0.17644447905380189 0 -0.32432794481027177 0.1563985660706535 0 -0.31813664190152002 0.16295708823369881 0 -0.31068956915755891 0.15163639437157039 0 -0.32432794481027177 0.1563985660706535 0 -0.32488084722991911 0.14472509056433 0 -0.31068956915755891 0.15163639437157039 0 -0.33432708244801629 0.15811351469167401 0 -0.32432794481027177 0.1563985660706535 0 -0.32488084722991911 0.14472509056433 0 -0.32488084722991911 0.14472509056433 0 -0.31637874872836419 0.13602927015073479 0 -0.31068956915755891 0.15163639437157039 0 -0.31637874872836419 0.13602927015073479 0 -0.31396029814211412 0.128045844920089 0 -0.31998236019302739 0.12711111886087451 0 -0.31637874872836419 0.13602927015073479 0 -0.31998236019302739 0.12711111886087451 0 -0.32416042792964311 0.1337897183166753 0 -0.31998236019302739 0.12711111886087451 0 -0.32503944756169523 0.12816637289491789 0 -0.32361881508428458 0.1201388783835504 0 -0.32503944756169523 0.12816637289491789 0 -0.33239618703982549 0.1316257760185712 0 -0.32361881508428458 0.1201388783835504 0 -0.32503944756169523 0.12816637289491789 0 -0.32416042792964311 0.1337897183166753 0 -0.33239618703982549 0.1316257760185712 0 -0.31998236019302739 0.12711111886087451 0 -0.32503944756169523 0.12816637289491789 0 -0.32416042792964311 0.1337897183166753 0 -0.32488084722991911 0.14472509056433 0 -0.32416042792964311 0.1337897183166753 0 -0.33239618703982549 0.1316257760185712 0 -0.32488084722991911 0.14472509056433 0 -0.31637874872836419 0.13602927015073479 0 -0.32416042792964311 0.1337897183166753 0 -0.33432708244801629 0.15811351469167401 0 -0.33732249104276257 0.131346910735954 0 -0.33239618703982549 0.1316257760185712 0 -0.33432708244801629 0.15811351469167401 0 -0.33239618703982549 0.1316257760185712 0 -0.34343108307258757 0.1592076902785616 0 -0.33432708244801629 0.15811351469167401 0 -0.33732249104276257 0.131346910735954 0 -0.33432708244801629 0.15811351469167401 0 -0.33732249104276257 0.131346910735954 0 -0.33432708244801629 0.15811351469167401 0 -0.32488084722991911 0.14472509056433 0 -0.33239618703982549 0.1316257760185712 0 -0.35815669801932182 0.23741593730322669 0 -0.343002765192368 0.226709150239149 0 -0.34640570802889492 0.25478041898938741 0 -0.35815669801932182 0.23741593730322669 0 -0.36613552699662999 0.2498380616322399 0 -0.34640570802889492 0.25478041898938741 0 -0.37996649634587798 0.2238659538747296 0 -0.35815669801932182 0.23741593730322669 0 -0.36613552699662999 0.2498380616322399 0 -0.37996649634587798 0.2238659538747296 0 -0.35815669801932182 0.23741593730322669 0 -0.35921964598704281 0.2183631755868444 0 -0.35815669801932182 0.23741593730322669 0 -0.35921964598704281 0.2183631755868444 0 -0.343002765192368 0.226709150239149 0 -0.35815669801932182 0.23741593730322669 0 -0.343002765192368 0.226709150239149 0 -0.35921964598704281 0.2183631755868444 0 -0.35210511399334521 0.19841662263689869 0 -0.34258071307560978 0.20995457289429931 0 -0.35921964598704281 0.2183631755868444 0 -0.34258071307560978 0.20995457289429931 0 -0.343002765192368 0.226709150239149 0 -0.37903381136129222 0.19782039269195281 0 -0.35921964598704281 0.2183631755868444 0 -0.35210511399334521 0.19841662263689869 0 -0.37903381136129222 0.19782039269195281 0 -0.37996649634587798 0.2238659538747296 0 -0.35921964598704281 0.2183631755868444 0 -0.37903381136129222 0.19782039269195281 0 -0.35964015679024341 0.17946935691621579 0 -0.35210511399334521 0.19841662263689869 0 -0.34309734718244622 0.17838870404507201 0 -0.35210511399334521 0.19841662263689869 0 -0.33072720783987869 0.1902815528335329 0 -0.35210511399334521 0.19841662263689869 0 -0.33072720783987869 0.1902815528335329 0 -0.34258071307560978 0.20995457289429931 0 -0.33072720783987869 0.1902815528335329 0 -0.32784883236541401 0.2160023631750719 0 -0.30891064852678651 0.2026218695397892 0 -0.33072720783987869 0.1902815528335329 0 -0.30891064852678651 0.2026218695397892 0 -0.31179304608146408 0.17644447905380189 0 -0.32784883236541401 0.2160023631750719 0 -0.30844096500423068 0.22337903807044199 0 -0.30891064852678651 0.2026218695397892 0 -0.32784883236541401 0.2160023631750719 0 -0.30891064852678651 0.2026218695397892 0 -0.33072720783987869 0.1902815528335329 0 -0.32784883236541401 0.2160023631750719 0 -0.34258071307560978 0.20995457289429931 0 -0.32784883236541401 0.2160023631750719 0 -0.34258071307560978 0.20995457289429931 0 -0.343002765192368 0.226709150239149 0 -0.33072720783987869 0.1902815528335329 0 -0.32784883236541401 0.2160023631750719 0 -0.32784883236541401 0.2160023631750719 0 -0.343002765192368 0.226709150239149 0 -0.32451948051288149 0.24575304313981139 0 -0.32784883236541401 0.2160023631750719 0 -0.343002765192368 0.226709150239149 0 -0.32784883236541401 0.2160023631750719 0 -0.32451948051288149 0.24575304313981139 0 -0.32784883236541401 0.2160023631750719 0 -0.32451948051288149 0.24575304313981139 0 -0.30844096500423068 0.22337903807044199 0 -0.32451948051288149 0.24575304313981139 0 -0.3049348337754611 0.24434814692371409 0 -0.30844096500423068 0.22337903807044199 0 -0.343002765192368 0.226709150239149 0 -0.32451948051288149 0.24575304313981139 0 -0.34640570802889492 0.25478041898938741 0 -0.28959499031476021 0.2320916660336404 0 -0.28937940074773799 0.25656505057758427 0 -0.28959499031476021 0.2320916660336404 0 -0.28294327759730942 0.23134468057995761 0 -0.27814010919050952 0.25176293348782253 0 -0.3049348337754611 0.24434814692371409 0 -0.28959499031476021 0.2320916660336404 0 -0.28937940074773799 0.25656505057758427 0 -0.28959499031476021 0.2320916660336404 0 -0.28937940074773799 0.25656505057758427 0 -0.27814010919050952 0.25176293348782253 0 -0.3049348337754611 0.24434814692371409 0 -0.30844096500423068 0.22337903807044199 0 -0.28959499031476021 0.2320916660336404 0 -0.30844096500423068 0.22337903807044199 0 -0.28959499031476021 0.2320916660336404 0 -0.29964575421616368 0.2109221122719975 0 -0.28959499031476021 0.2320916660336404 0 -0.28294327759730942 0.23134468057995761 0 -0.2816165828600119 0.21996524530816619 0 -0.28959499031476021 0.2320916660336404 0 -0.28984900016437098 0.20325687215512911 0 -0.29964575421616368 0.2109221122719975 0 -0.28959499031476021 0.2320916660336404 0 -0.28984900016437098 0.20325687215512911 0 -0.28959499031476021 0.2320916660336404 0 -0.2816165828600119 0.21996524530816619 0 -0.28984900016437098 0.20325687215512911 0 -0.28984900016437098 0.20325687215512911 0 -0.29964575421616368 0.2109221122719975 0 -0.29760537579140312 0.19865145002889309 0 -0.30844096500423068 0.22337903807044199 0 -0.29964575421616368 0.2109221122719975 0 -0.30891064852678651 0.2026218695397892 0 -0.29964575421616368 0.2109221122719975 0 -0.29760537579140312 0.19865145002889309 0 -0.30891064852678651 0.2026218695397892 0 -0.30891064852678651 0.2026218695397892 0 -0.28924622533874211 0.1887282622355636 0 -0.31179304608146408 0.17644447905380189 0 -0.30891064852678651 0.2026218695397892 0 -0.28924622533874211 0.1887282622355636 0 -0.29760537579140312 0.19865145002889309 0 -0.30891064852678651 0.2026218695397892 0 -0.28924622533874211 0.1887282622355636 0 -0.28924622533874211 0.1887282622355636 0 -0.27361342722148618 0.19724520148779021 0 -0.28984900016437098 0.20325687215512911 0 -0.28924622533874211 0.1887282622355636 0 -0.27361342722148618 0.19724520148779021 0 -0.28984900016437098 0.20325687215512911 0 -0.28924622533874211 0.1887282622355636 0 -0.28984900016437098 0.20325687215512911 0 -0.29760537579140312 0.19865145002889309 0 -0.28924622533874211 0.1887282622355636 0 -0.28984900016437098 0.20325687215512911 0 -0.29760537579140312 0.19865145002889309 0 -0.28924622533874211 0.1887282622355636 0 -0.27361342722148618 0.19724520148779021 0 -0.2727101439512673 0.1865456406387391 0 -0.27361342722148618 0.19724520148779021 0 -0.2727101439512673 0.1865456406387391 0 -0.2608686744814202 0.1871192703135045 0 -0.27361342722148618 0.19724520148779021 0 -0.25463573431352149 0.20422342595113879 0 -0.2608686744814202 0.1871192703135045 0 -0.25463573431352149 0.20422342595113879 0 -0.2608686744814202 0.1871192703135045 0 -0.24241414195184999 0.18797788129826851 0 -0.27361342722148618 0.19724520148779021 0 -0.25463573431352149 0.20422342595113879 0 -0.26792932170493411 0.21627189064201929 0 -0.25463573431352149 0.20422342595113879 0 -0.26792932170493411 0.21627189064201929 0 -0.24600964324549701 0.22928690912890909 0 -0.2816165828600119 0.21996524530816619 0 -0.28984900016437098 0.20325687215512911 0 -0.26792932170493411 0.21627189064201929 0 -0.28984900016437098 0.20325687215512911 0 -0.26792932170493411 0.21627189064201929 0 -0.28984900016437098 0.20325687215512911 0 -0.27361342722148618 0.19724520148779021 0 -0.26792932170493411 0.21627189064201929 0 -0.26792932170493411 0.21627189064201929 0 -0.27530817406882868 0.2239359110770868 0 -0.26406626432459401 0.23767814437306889 0 -0.2816165828600119 0.21996524530816619 0 -0.26792932170493411 0.21627189064201929 0 -0.27530817406882868 0.2239359110770868 0 -0.28294327759730942 0.23134468057995761 0 -0.2816165828600119 0.21996524530816619 0 -0.27530817406882868 0.2239359110770868 0 -0.28294327759730942 0.23134468057995761 0 -0.27530817406882868 0.2239359110770868 0 -0.27372490646797021 0.23435310599723211 0 -0.27530817406882868 0.2239359110770868 0 -0.27372490646797021 0.23435310599723211 0 -0.26406626432459401 0.23767814437306889 0 -0.26792932170493411 0.21627189064201929 0 -0.24600964324549701 0.22928690912890909 0 -0.26792932170493411 0.21627189064201929 0 -0.26406626432459401 0.23767814437306889 0 -0.24600964324549701 0.22928690912890909 0 -0.26406626432459401 0.23767814437306889 0 -0.24214295464715219 0.25181578413355249 0 -0.24600964324549701 0.22928690912890909 0 -0.28294327759730942 0.23134468057995761 0 -0.27814010919050952 0.25176293348782253 0 -0.27372490646797021 0.23435310599723211 0 -0.26406626432459401 0.23767814437306889 0 -0.27814010919050952 0.25176293348782253 0 -0.28294327759730942 0.23134468057995761 0 -0.27372490646797021 0.23435310599723211 0 -0.27814010919050952 0.25176293348782253 0 -0.29033787195669608 0.1477609243152149 0 -0.28459285848618299 0.13847238542715221 0 -0.29053418833428019 0.12547540156361031 0 -0.29033787195669608 0.1477609243152149 0 -0.29053418833428019 0.12547540156361031 0 -0.28459285848618299 0.13847238542715221 0 -0.29053418833428019 0.12547540156361031 0 -0.27294954465462068 0.12717409495958071 0 -0.29033787195669608 0.1477609243152149 0 -0.29053418833428019 0.12547540156361031 0 -0.30378778077063368 0.12994101069166569 0 -0.31637874872836419 0.13602927015073479 0 -0.30378778077063368 0.12994101069166569 0 -0.31068956915755891 0.15163639437157039 0 -0.31396029814211412 0.128045844920089 0 -0.30378778077063368 0.12994101069166569 0 -0.31331521520385308 0.1197024868491269 0 -0.31637874872836419 0.13602927015073479 0 -0.31396029814211412 0.128045844920089 0 -0.30378778077063368 0.12994101069166569 0 -0.29033787195669608 0.1477609243152149 0 -0.31068956915755891 0.15163639437157039 0 -0.30047619437735118 0.1600419100803154 0 -0.29033787195669608 0.1477609243152149 0 -0.31068956915755891 0.15163639437157039 0 -0.29033787195669608 0.1477609243152149 0 -0.30378778077063368 0.12994101069166569 0 -0.31068956915755891 0.15163639437157039 0 -0.31068956915755891 0.15163639437157039 0 -0.30856386166484862 0.1645608001949356 0 -0.30047619437735118 0.1600419100803154 0 -0.31813664190152002 0.16295708823369881 0 -0.31068956915755891 0.15163639437157039 0 -0.30856386166484862 0.1645608001949356 0 -0.30856386166484862 0.1645608001949356 0 -0.30172385680634872 0.17172412923529121 0 -0.31179304608146408 0.17644447905380189 0 -0.30172385680634872 0.17172412923529121 0 -0.30047619437735118 0.1600419100803154 0 -0.29017094391053938 0.16671033045398101 0 -0.30856386166484862 0.1645608001949356 0 -0.30172385680634872 0.17172412923529121 0 -0.30047619437735118 0.1600419100803154 0 -0.28924622533874211 0.1887282622355636 0 -0.30172385680634872 0.17172412923529121 0 -0.31179304608146408 0.17644447905380189 0 -0.28924622533874211 0.1887282622355636 0 -0.31179304608146408 0.17644447905380189 0 -0.28924622533874211 0.1887282622355636 0 -0.28412748171532132 0.17921415920581291 0 -0.29017094391053938 0.16671033045398101 0 -0.28924622533874211 0.1887282622355636 0 -0.30172385680634872 0.17172412923529121 0 -0.29017094391053938 0.16671033045398101 0 -0.28924622533874211 0.1887282622355636 0 -0.29017094391053938 0.16671033045398101 0 -0.29033787195669608 0.1477609243152149 0 -0.29017094391053938 0.16671033045398101 0 -0.29033787195669608 0.1477609243152149 0 -0.29017094391053938 0.16671033045398101 0 -0.26769298475079017 0.1569552180197499 0 -0.29033787195669608 0.1477609243152149 0 -0.30047619437735118 0.1600419100803154 0 -0.29017094391053938 0.16671033045398101 0 -0.30172385680634872 0.17172412923529121 0 -0.29017094391053938 0.16671033045398101 0 -0.29017094391053938 0.16671033045398101 0 -0.26769298475079017 0.1569552180197499 0 -0.29017094391053938 0.16671033045398101 0 -0.26769298475079017 0.1569552180197499 0 -0.26711224876342082 0.1730898285180977 0 -0.28924622533874211 0.1887282622355636 0 -0.28412748171532132 0.17921415920581291 0 -0.26711224876342082 0.1730898285180977 0 -0.28924622533874211 0.1887282622355636 0 -0.26711224876342082 0.1730898285180977 0 -0.28924622533874211 0.1887282622355636 0 -0.26711224876342082 0.1730898285180977 0 -0.2727101439512673 0.1865456406387391 0 -0.28412748171532132 0.17921415920581291 0 -0.29017094391053938 0.16671033045398101 0 -0.26711224876342082 0.1730898285180977 0 -0.26711224876342082 0.1730898285180977 0 -0.2727101439512673 0.1865456406387391 0 -0.2608686744814202 0.1871192703135045 0 -0.2608686744814202 0.1871192703135045 0 -0.25257003298746361 0.17477546459566609 0 -0.24241414195184999 0.18797788129826851 0 -0.26711224876342082 0.1730898285180977 0 -0.2608686744814202 0.1871192703135045 0 -0.25257003298746361 0.17477546459566609 0 -0.26769298475079017 0.1569552180197499 0 -0.26711224876342082 0.1730898285180977 0 -0.25632071909283261 0.16308063945061729 0 -0.26711224876342082 0.1730898285180977 0 -0.25257003298746361 0.17477546459566609 0 -0.25632071909283261 0.16308063945061729 0 -0.25257003298746361 0.17477546459566609 0 -0.25632071909283261 0.16308063945061729 0 -0.2459770815842531 0.16170448909819829 0 -0.26769298475079017 0.1569552180197499 0 -0.26470633974480962 0.14288004216542491 0 -0.24521502559104091 0.14720010558551899 0 -0.26769298475079017 0.1569552180197499 0 -0.24521502559104091 0.14720010558551899 0 -0.26470633974480962 0.14288004216542491 0 -0.24774217926603451 0.13964964347593009 0 -0.26470633974480962 0.14288004216542491 0 -0.24774217926603451 0.13964964347593009 0 -0.24521502559104091 0.14720010558551899 0 -0.26470633974480962 0.14288004216542491 0 -0.24521502559104091 0.14720010558551899 0 -0.26769298475079017 0.1569552180197499 0 -0.25632071909283261 0.16308063945061729 0 -0.24521502559104091 0.14720010558551899 0 -0.29033787195669608 0.1477609243152149 0 -0.26769298475079017 0.1569552180197499 0 -0.26470633974480962 0.14288004216542491 0 -0.29033787195669608 0.1477609243152149 0 -0.26470633974480962 0.14288004216542491 0 -0.29033787195669608 0.1477609243152149 0 -0.28459285848618299 0.13847238542715221 0 -0.26470633974480962 0.14288004216542491 0 -0.28459285848618299 0.13847238542715221 0 -0.26470633974480962 0.14288004216542491 0 -0.28459285848618299 0.13847238542715221 0 -0.26470633974480962 0.14288004216542491 0 -0.27294954465462068 0.12717409495958071 0 -0.26470633974480962 0.14288004216542491 0 -0.27294954465462068 0.12717409495958071 0 -0.2582266665269089 0.1307493748176754 0 -0.27294954465462068 0.12717409495958071 0 -0.2582266665269089 0.1307493748176754 0 -0.26077517672653422 0.11896779550668581 0 -0.2582266665269089 0.1307493748176754 0 -0.24467470510727141 0.12314208916258861 0 -0.24774217926603451 0.13964964347593009 0 -0.26470633974480962 0.14288004216542491 0 -0.2582266665269089 0.1307493748176754 0 -0.24774217926603451 0.13964964347593009 0 -0.26077517672653422 0.11896779550668581 0 -0.25458367379753782 0.1065984124678885 0 -0.27320328792144871 0.11064123070666319 0 -0.2582266665269089 0.1307493748176754 0 -0.26077517672653422 0.11896779550668581 0 -0.24467470510727141 0.12314208916258861 0 -0.26077517672653422 0.11896779550668581 0 -0.25458367379753782 0.1065984124678885 0 -0.24467470510727141 0.12314208916258861 0 -0.25458367379753782 0.1065984124678885 0 -0.26778285326097168 0.086384766596825396 0 -0.24463888543250151 0.091865177133262033 0 -0.25458367379753782 0.1065984124678885 0 -0.27320328792144871 0.11064123070666319 0 -0.26778285326097168 0.086384766596825396 0 -0.27320328792144871 0.11064123070666319 0 -0.29073050471186412 0.10318987881200579 0 -0.26778285326097168 0.086384766596825396 0 -0.29053418833428019 0.12547540156361031 0 -0.27294954465462068 0.12717409495958071 0 -0.27320328792144871 0.11064123070666319 0 -0.27294954465462068 0.12717409495958071 0 -0.26077517672653422 0.11896779550668581 0 -0.27320328792144871 0.11064123070666319 0 -0.29053418833428019 0.12547540156361031 0 -0.27320328792144871 0.11064123070666319 0 -0.29073050471186412 0.10318987881200579 0 -0.29053418833428019 0.12547540156361031 0 -0.29073050471186412 0.10318987881200579 0 -0.30085870291025668 0.1130384297868431 0 -0.29053418833428019 0.12547540156361031 0 -0.29073050471186412 0.10318987881200579 0 -0.29073050471186412 0.10318987881200579 0 -0.30393605586951239 0.099250599870062725 0 -0.29092682108944479 0.080904356060401209 0 -0.29073050471186412 0.10318987881200579 0 -0.30393605586951239 0.099250599870062725 0 -0.30085870291025668 0.1130384297868431 0 -0.30393605586951239 0.099250599870062725 0 -0.30977133298868781 0.090777064065670848 0 -0.3139326208486023 0.099688130692420177 0 -0.30393605586951239 0.099250599870062725 0 -0.30983202961862832 0.1096210262974341 0 -0.3139326208486023 0.099688130692420177 0 -0.30393605586951239 0.099250599870062725 0 -0.30983202961862832 0.1096210262974341 0 -0.30085870291025668 0.1130384297868431 0 -0.30983202961862832 0.1096210262974341 0 -0.30085870291025668 0.1130384297868431 0 -0.31331521520385308 0.1197024868491269 0 -0.30378778077063368 0.12994101069166569 0 -0.30085870291025668 0.1130384297868431 0 -0.31331521520385308 0.1197024868491269 0 -0.29053418833428019 0.12547540156361031 0 -0.30378778077063368 0.12994101069166569 0 -0.30085870291025668 0.1130384297868431 0 -0.29850497263064429 0.07910987631254246 0 -0.29562838419692478 0.068442285726245583 0 -0.32181836377492479 0.073589346928202556 0 -0.29562838419692478 0.068442285726245583 0 -0.32181836377492479 0.073589346928202556 0 -0.29850497263064429 0.07910987631254246 0 -0.32181836377492479 0.073589346928202556 0 -0.29520094554600262 0.066857164797817822 0 -0.30107103576395061 0.05707356279654225 0 -0.32007019034702261 0.065069998435682216 0 -0.29520094554600262 0.066857164797817822 0 -0.32007019034702261 0.065069998435682216 0 -0.29520094554600262 0.066857164797817822 0 -0.29562838419692478 0.068442285726245583 0 -0.32007019034702261 0.065069998435682216 0 -0.29850497263064429 0.07910987631254246 0 -0.29562838419692478 0.068442285726245583 0 -0.30393605586951239 0.099250599870062725 0 -0.29850497263064429 0.07910987631254246 0 -0.30393605586951239 0.099250599870062725 0 -0.30977133298868781 0.090777064065670848 0 -0.29850497263064429 0.07910987631254246 0 -0.29850497263064429 0.07910987631254246 0 -0.31391606373412267 0.083865301522364266 0 -0.32181836377492479 0.073589346928202556 0 -0.30393605586951239 0.099250599870062725 0 -0.29850497263064429 0.07910987631254246 0 -0.29092682108944479 0.080904356060401209 0 -0.30977133298868781 0.090777064065670848 0 -0.29850497263064429 0.07910987631254246 0 -0.31391606373412267 0.083865301522364266 0 -0.29850497263064429 0.07910987631254246 0 -0.29092682108944479 0.080904356060401209 0 -0.29073050471186412 0.10318987881200579 0 -0.29092682108944479 0.080904356060401209 0 -0.26778285326097168 0.086384766596825396 0 -0.29073050471186412 0.10318987881200579 0 -0.29092682108944479 0.080904356060401209 0 -0.29092682108944479 0.080904356060401209 0 -0.28960790882913462 0.067259094456827664 0 -0.2802601227364645 0.075755177533668894 0 -0.29092682108944479 0.080904356060401209 0 -0.29562838419692478 0.068442285726245583 0 -0.2910445370113271 0.067541431949920128 0 -0.29092682108944479 0.080904356060401209 0 -0.2910445370113271 0.067541431949920128 0 -0.29850497263064429 0.07910987631254246 0 -0.29092682108944479 0.080904356060401209 0 -0.29562838419692478 0.068442285726245583 0 -0.29092682108944479 0.080904356060401209 0 -0.2910445370113271 0.067541431949920128 0 -0.28960790882913462 0.067259094456827664 0 -0.2910445370113271 0.067541431949920128 0 -0.28960790882913462 0.067259094456827664 0 -0.28743445505387188 0.058969290886947148 0 -0.29520094554600262 0.066857164797817822 0 -0.29562838419692478 0.068442285726245583 0 -0.2910445370113271 0.067541431949920128 0 -0.29562838419692478 0.068442285726245583 0 -0.2910445370113271 0.067541431949920128 0 -0.29520094554600262 0.066857164797817822 0 -0.2910445370113271 0.067541431949920128 0 -0.29520094554600262 0.066857164797817822 0 -0.29562838419692478 0.068442285726245583 0 -0.2910445370113271 0.067541431949920128 0 -0.28960790882913462 0.067259094456827664 0 -0.28960790882913462 0.067259094456827664 0 -0.27272290776630359 0.068472493020621306 0 -0.26648610881661322 0.062715016084812919 0 -0.28960790882913462 0.067259094456827664 0 -0.27272290776630359 0.068472493020621306 0 -0.2802601227364645 0.075755177533668894 0 -0.28960790882913462 0.067259094456827664 0 -0.27272290776630359 0.068472493020621306 0 -0.28960790882913462 0.067259094456827664 0 -0.26648610881661322 0.062715016084812919 0 -0.27272290776630359 0.068472493020621306 0 -0.2802601227364645 0.075755177533668894 0 -0.26778285326097168 0.086384766596825396 0 -0.28960790882913462 0.067259094456827664 0 -0.26648610881661322 0.062715016084812919 0 -0.27493336567810078 0.059421307982294738 0 -0.29092682108944479 0.080904356060401209 0 -0.26778285326097168 0.086384766596825396 0 -0.29092682108944479 0.080904356060401209 0 -0.2802601227364645 0.075755177533668894 0 -0.26778285326097168 0.086384766596825396 0 -0.26778285326097168 0.086384766596825396 0 -0.24463888543250151 0.091865177133262033 0 -0.25583790670347267 0.069685891584415155 0 -0.24463888543250151 0.091865177133262033 0 -0.26778285326097168 0.086384766596825396 0 -0.25583790670347267 0.069685891584415155 0 -0.24463888543250151 0.091865177133262033 0 -0.27272290776630359 0.068472493020621306 0 -0.26648610881661322 0.062715016084812919 0 -0.25583790670347267 0.069685891584415155 0 -0.27272290776630359 0.068472493020621306 0 -0.25583790670347267 0.069685891584415155 0 -0.27272290776630359 0.068472493020621306 0 -0.26778285326097168 0.086384766596825396 0 -0.25583790670347267 0.069685891584415155 0 -0.25583790670347267 0.069685891584415155 0 -0.24514501346171769 0.070454309735769605 0 -0.25583790670347267 0.069685891584415155 0 -0.26418094752337168 0.053037090208517587 0 -0.2530487658585131 0.043979437238689002 0 -0.25583790670347267 0.069685891584415155 0 -0.2530487658585131 0.043979437238689002 0 -0.24514501346171769 0.070454309735769605 0 -0.26648610881661322 0.062715016084812919 0 -0.25583790670347267 0.069685891584415155 0 -0.26418094752337168 0.053037090208517587 0 -0.25583790670347267 0.069685891584415155 0 -0.26418094752337168 0.053037090208517587 0 -0.26418094752337168 0.053037090208517587 0 -0.2530487658585131 0.043979437238689002 0 -0.27252398834326869 0.03638828883261902 0 -0.2530487658585131 0.043979437238689002 0 -0.27252398834326869 0.03638828883261902 0 -0.26095251825530857 0.01750456474160824 0 -0.27250825342722018 0.044449182417825667 0 -0.27252398834326869 0.03638828883261902 0 -0.26418094752337168 0.053037090208517587 0 -0.27252398834326869 0.03638828883261902 0 -0.26418094752337168 0.053037090208517587 0 -0.27250825342722018 0.044449182417825667 0 -0.27252398834326869 0.03638828883261902 0 -0.27252398834326869 0.03638828883261902 0 -0.28092377144035102 0.041864104700090263 0 -0.28616344038116409 0.033342323435780287 0 -0.27250825342722018 0.044449182417825667 0 -0.28092377144035102 0.041864104700090263 0 -0.27843135279754361 0.049299505055936298 0 -0.27250825342722018 0.044449182417825667 0 -0.27252398834326869 0.03638828883261902 0 -0.28092377144035102 0.041864104700090263 0 -0.27250825342722018 0.044449182417825667 0 -0.27843135279754361 0.049299505055936298 0 -0.27213392257702251 0.052491260143875867 0 -0.27843135279754361 0.049299505055936298 0 -0.27493336567810078 0.059421307982294738 0 -0.27213392257702251 0.052491260143875867 0 -0.26648610881661322 0.062715016084812919 0 -0.26418094752337168 0.053037090208517587 0 -0.26943358614877699 0.056916168604875278 0 -0.26648610881661322 0.062715016084812919 0 -0.27493336567810078 0.059421307982294738 0 -0.26943358614877699 0.056916168604875278 0 -0.27493336567810078 0.059421307982294738 0 -0.26943358614877699 0.056916168604875278 0 -0.27213392257702251 0.052491260143875867 0 -0.26418094752337168 0.053037090208517587 0 -0.26943358614877699 0.056916168604875278 0 -0.27213392257702251 0.052491260143875867 0 -0.26418094752337168 0.053037090208517587 0 -0.27250825342722018 0.044449182417825667 0 -0.27213392257702251 0.052491260143875867 0 -0.26883646879479978 -0.0089039782930802475 0 -0.2605698332130289 8.0402539788944994e-05 0 -0.26095251825530857 0.01750456474160824 0 -0.26883646879479978 -0.0089039782930802475 0 -0.26095251825530857 0.01750456474160824 0 -0.2605698332130289 8.0402539788944994e-05 0 -0.25406732548350502 0.005811738835174279 0 -0.26095251825530857 0.01750456474160824 0 -0.25454557886518481 -0.002208813397413151 0 -0.25406732548350502 0.005811738835174279 0 -0.24862522939258691 0.002025091944098644 0 -0.25454557886518481 -0.002208813397413151 0 -0.2605698332130289 8.0402539788944994e-05 0 -0.25406732548350502 0.005811738835174279 0 -0.25406732548350502 0.005811738835174279 0 -0.26095251825530857 0.01750456474160824 0 -0.2461075249054161 0.0121032197105191 0 -0.2530487658585131 0.043979437238689002 0 -0.26095251825530857 0.01750456474160824 0 -0.2530487658585131 0.043979437238689002 0 -0.26095251825530857 0.01750456474160824 0 -0.24678590150662069 0.029992421989188521 0 -0.26095251825530857 0.01750456474160824 0 -0.24678590150662069 0.029992421989188521 0 -0.2461075249054161 0.0121032197105191 0 -0.26095251825530857 0.01750456474160824 0 -0.24678590150662069 0.029992421989188521 0 -0.27252398834326869 0.03638828883261902 0 -0.27257081662971511 0.01239846691613059 0 -0.28192567599656498 0.017626924275398258 0 -0.27252398834326869 0.03638828883261902 0 -0.26095251825530857 0.01750456474160824 0 -0.27257081662971511 0.01239846691613059 0 -0.27252398834326869 0.03638828883261902 0 -0.28192567599656498 0.017626924275398258 0 -0.27252398834326869 0.03638828883261902 0 -0.28192567599656498 0.017626924275398258 0 -0.28616344038116409 0.033342323435780287 0 -0.27252398834326869 0.03638828883261902 0 -0.27257081662971511 0.01239846691613059 0 -0.2726176449161643 -0.011591355000357869 0 -0.27257081662971511 0.01239846691613059 0 -0.27033073474202313 0.0092376771141261978 0 -0.26883646879479978 -0.0089039782930802475 0 -0.26095251825530857 0.01750456474160824 0 -0.27033073474202313 0.0092376771141261978 0 -0.2726176449161643 -0.011591355000357869 0 -0.27257081662971511 0.01239846691613059 0 -0.27423347697587541 -0.01089896037987154 0 -0.28192567599656498 0.017626924275398258 0 -0.27423347697587541 -0.01089896037987154 0 -0.27257081662971511 0.01239846691613059 0 -0.28192567599656498 0.017626924275398258 0 -0.26095251825530857 0.01750456474160824 0 -0.27257081662971511 0.01239846691613059 0 -0.27033073474202313 0.0092376771141261978 0 -0.26095251825530857 0.01750456474160824 0 -0.27033073474202313 0.0092376771141261978 0 -0.27423347697587541 -0.01089896037987154 0 -0.28918294955411111 0.0031448057530975991 0 -0.28192567599656498 0.017626924275398258 0 -0.29101078968297522 -0.0037097720016964829 0 -0.28918294955411111 0.0031448057530975991 0 -0.2981590546254097 0.0071380010349398598 0 -0.28918294955411111 0.0031448057530975991 0 -0.28192567599656498 0.017626924275398258 0 -0.28918294955411111 0.0031448057530975991 0 -0.29155502641102898 0.013903975571094679 0 -0.28192567599656498 0.017626924275398258 0 -0.28918294955411111 0.0031448057530975991 0 -0.29155502641102898 0.013903975571094679 0 -0.2981590546254097 0.0071380010349398598 0 -0.29155502641102898 0.013903975571094679 0 -0.29806729915099028 0.017850138549451069 0 -0.2981590546254097 0.0071380010349398598 0 -0.28192567599656498 0.017626924275398258 0 -0.28616344038116409 0.033342323435780287 0 -0.28192567599656498 0.017626924275398258 0 -0.29044015272806711 0.023760008242587172 0 -0.28616344038116409 0.033342323435780287 0 -0.29155502641102898 0.013903975571094679 0 -0.29044015272806711 0.023760008242587172 0 -0.29806729915099028 0.017850138549451069 0 -0.29155502641102898 0.013903975571094679 0 -0.28192567599656498 0.017626924275398258 0 -0.29044015272806711 0.023760008242587172 0 -0.29044015272806711 0.023760008242587172 0 -0.29806729915099028 0.017850138549451069 0 -0.30073071245799121 0.032198262069810073 0 -0.29044015272806711 0.023760008242587172 0 -0.28616344038116409 0.033342323435780287 0 -0.30073071245799121 0.032198262069810073 0 -0.30725226215731288 0.016053807823697471 0 -0.29806729915099028 0.017850138549451069 0 -0.30073071245799121 0.032198262069810073 0 -0.30725226215731288 0.016053807823697471 0 -0.30073071245799121 0.032198262069810073 0 -0.31534208246755302 0.032347119763871099 0 -0.29565872852974379 -0.0030628233792267972 0 -0.30778810239007659 0.0034794163764746791 0 -0.31756537222015518 0.0065585165944901606 0 -0.29101078968297522 -0.0037097720016964829 0 -0.30778810239007659 0.0034794163764746791 0 -0.2981590546254097 0.0071380010349398598 0 -0.29565872852974379 -0.0030628233792267972 0 -0.31756537222015518 0.0065585165944901606 0 -0.30725226215731288 0.016053807823697471 0 -0.29806729915099028 0.017850138549451069 0 -0.2981590546254097 0.0071380010349398598 0 -0.30725226215731288 0.016053807823697471 0 -0.30778810239007659 0.0034794163764746791 0 -0.2981590546254097 0.0071380010349398598 0 -0.30725226215731288 0.016053807823697471 0 -0.30778810239007659 0.0034794163764746791 0 -0.31756537222015518 0.0065585165944901606 0 -0.29118186022840248 0.051952718893436389 0 -0.29040120476576081 0.049057722596162992 0 -0.30107103576395061 0.05707356279654225 0 -0.29118186022840248 0.051952718893436389 0 -0.29040120476576081 0.049057722596162992 0 -0.28743445505387188 0.058969290886947148 0 -0.29118186022840248 0.051952718893436389 0 -0.29040120476576081 0.049057722596162992 0 -0.29520094554600262 0.066857164797817822 0 -0.29118186022840248 0.051952718893436389 0 -0.30107103576395061 0.05707356279654225 0 -0.2910445370113271 0.067541431949920128 0 -0.29118186022840248 0.051952718893436389 0 -0.2910445370113271 0.067541431949920128 0 -0.29118186022840248 0.051952718893436389 0 -0.28743445505387188 0.058969290886947148 0 -0.29520094554600262 0.066857164797817822 0 -0.2910445370113271 0.067541431949920128 0 -0.29118186022840248 0.051952718893436389 0 -0.29520094554600262 0.066857164797817822 0 -0.29118186022840248 0.051952718893436389 0 -0.28960790882913462 0.067259094456827664 0 -0.27493336567810078 0.059421307982294738 0 -0.28743445505387188 0.058969290886947148 0 -0.27493336567810078 0.059421307982294738 0 -0.29040120476576081 0.049057722596162992 0 -0.28743445505387188 0.058969290886947148 0 -0.27843135279754361 0.049299505055936298 0 -0.27493336567810078 0.059421307982294738 0 -0.29040120476576081 0.049057722596162992 0 -0.27493336567810078 0.059421307982294738 0 -0.29040120476576081 0.049057722596162992 0 -0.28092377144035102 0.041864104700090263 0 -0.27843135279754361 0.049299505055936298 0 -0.29040120476576081 0.049057722596162992 0 -0.28092377144035102 0.041864104700090263 0 -0.29040120476576081 0.049057722596162992 0 -0.28616344038116409 0.033342323435780287 0 -0.29040120476576081 0.049057722596162992 0 -0.29125787282230808 0.043323890205157513 0 -0.30073071245799121 0.032198262069810073 0 -0.29040120476576081 0.049057722596162992 0 -0.28616344038116409 0.033342323435780287 0 -0.29125787282230808 0.043323890205157513 0 -0.29040120476576081 0.049057722596162992 0 -0.28616344038116409 0.033342323435780287 0 -0.28616344038116409 0.033342323435780287 0 -0.29125787282230808 0.043323890205157513 0 -0.30073071245799121 0.032198262069810073 0 -0.29040120476576081 0.049057722596162992 0 -0.29125787282230808 0.043323890205157513 0 -0.29040120476576081 0.049057722596162992 0 -0.31534208246755302 0.032347119763871099 0 -0.29040120476576081 0.049057722596162992 0 -0.31115574236283228 0.043886811478422313 0 -0.31534208246755302 0.032347119763871099 0 -0.29040120476576081 0.049057722596162992 0 -0.30073071245799121 0.032198262069810073 0 -0.31534208246755302 0.032347119763871099 0 -0.30509359193750119 0.050440685130196783 0 -0.30107103576395061 0.05707356279654225 0 -0.3145711141776526 0.052573457263500267 0 -0.30107103576395061 0.05707356279654225 0 -0.3145711141776526 0.052573457263500267 0 -0.32007019034702261 0.065069998435682216 0 -0.31115574236283228 0.043886811478422313 0 -0.30509359193750119 0.050440685130196783 0 -0.3145711141776526 0.052573457263500267 0 -0.29040120476576081 0.049057722596162992 0 -0.31115574236283228 0.043886811478422313 0 -0.30509359193750119 0.050440685130196783 0 -0.29040120476576081 0.049057722596162992 0 -0.30509359193750119 0.050440685130196783 0 -0.30107103576395061 0.05707356279654225 0 -0.3145711141776526 0.052573457263500267 0 -0.3281560815124574 0.054700788573511697 0 -0.32007019034702261 0.065069998435682216 0 -0.3145711141776526 0.052573457263500267 0 -0.32188004314215168 0.044268897166646413 0 -0.3281560815124574 0.054700788573511697 0 -0.31115574236283228 0.043886811478422313 0 -0.3145711141776526 0.052573457263500267 0 -0.32188004314215168 0.044268897166646413 0 -0.31115574236283228 0.043886811478422313 0 -0.31534208246755302 0.032347119763871099 0 -0.32188004314215168 0.044268897166646413 0 -0.31534208246755302 0.032347119763871099 0 -0.32188004314215168 0.044268897166646413 0 -0.32838468249717651 0.032948107920393002 0 -0.32188004314215168 0.044268897166646413 0 -0.34129610239322988 0.034888684784323741 0 -0.33672460351926181 0.047077471812437592 0 -0.32188004314215168 0.044268897166646413 0 -0.34129610239322988 0.034888684784323741 0 -0.32188004314215168 0.044268897166646413 0 -0.32838468249717651 0.032948107920393002 0 -0.34129610239322988 0.034888684784323741 0 -0.32838468249717651 0.032948107920393002 0 -0.34129610239322988 0.034888684784323741 0 -0.33792487243494218 0.027183858352023409 0 -0.34129610239322988 0.034888684784323741 0 -0.33672460351926181 0.047077471812437592 0 -0.34780326289184188 0.037692018469648737 0 -0.33672460351926181 0.047077471812437592 0 -0.34780326289184188 0.037692018469648737 0 -0.34493943514804248 0.06328283207354482 0 -0.33672460351926181 0.047077471812437592 0 -0.3281560815124574 0.054700788573511697 0 -0.34493943514804248 0.06328283207354482 0 -0.3281560815124574 0.054700788573511697 0 -0.34493943514804248 0.06328283207354482 0 -0.32007019034702261 0.065069998435682216 0 -0.32188004314215168 0.044268897166646413 0 -0.33672460351926181 0.047077471812437592 0 -0.3281560815124574 0.054700788573511697 0 -0.31267493755550779 -0.0085487720730209691 0 -0.31756537222015518 0.0065585165944901606 0 -0.33251598666114068 0.0020107041850400608 0 -0.31534208246755302 0.032347119763871099 0 -0.32838468249717651 0.032948107920393002 0 -0.33947201591056692 0.016179856568206561 0 -0.31534208246755302 0.032347119763871099 0 -0.31756537222015518 0.0065585165944901606 0 -0.33947201591056692 0.016179856568206561 0 -0.30725226215731288 0.016053807823697471 0 -0.31534208246755302 0.032347119763871099 0 -0.31756537222015518 0.0065585165944901606 0 -0.31534208246755302 0.032347119763871099 0 -0.33947201591056692 0.016179856568206561 0 -0.32838468249717651 0.032948107920393002 0 -0.33792487243494218 0.027183858352023409 0 -0.33947201591056692 0.016179856568206561 0 -0.34129610239322988 0.034888684784323741 0 -0.33792487243494218 0.027183858352023409 0 -0.3425466889387957 0.02471878413516982 0 -0.33792487243494218 0.027183858352023409 0 -0.3425466889387957 0.02471878413516982 0 -0.33947201591056692 0.016179856568206561 0 -0.3425466889387957 0.02471878413516982 0 -0.33947201591056692 0.016179856568206561 0 -0.34711932036586829 0.019538532460631419 0 -0.33947201591056692 0.016179856568206561 0 -0.34711932036586829 0.019538532460631419 0 -0.31756537222015518 0.0065585165944901606 0 -0.33947201591056692 0.016179856568206561 0 -0.31756537222015518 0.0065585165944901606 0 -0.33947201591056692 0.016179856568206561 0 -0.33251598666114068 0.0020107041850400608 0 -0.33947201591056692 0.016179856568206561 0 -0.33251598666114068 0.0020107041850400608 0 -0.34499096338392232 0.0124821142360305 0 -0.33947201591056692 0.016179856568206561 0 -0.34499096338392232 0.0124821142360305 0 -0.34563008095609887 -0.001415402038955568 0 -0.33251598666114068 0.0020107041850400608 0 -0.34499096338392232 0.0124821142360305 0 -0.34499096338392232 0.0124821142360305 0 -0.34711932036586829 0.019538532460631419 0 -0.36234562177419838 0.002288930207415555 0 -0.34711932036586829 0.019538532460631419 0 -0.36234562177419838 0.002288930207415555 0 -0.34711932036586829 0.019538532460631419 0 -0.367188181184468 0.0115830439228789 0 -0.36234562177419838 0.002288930207415555 0 -0.34563008095609887 -0.001415402038955568 0 -0.34499096338392232 0.0124821142360305 0 -0.36234562177419838 0.002288930207415555 0 -0.34129610239322988 0.034888684784323741 0 -0.36071216164430758 0.025508472402000461 0 -0.34129610239322988 0.034888684784323741 0 -0.3425466889387957 0.02471878413516982 0 -0.36071216164430758 0.025508472402000461 0 -0.34711932036586829 0.019538532460631419 0 -0.36071216164430758 0.025508472402000461 0 -0.367188181184468 0.0115830439228789 0 -0.3425466889387957 0.02471878413516982 0 -0.34711932036586829 0.019538532460631419 0 -0.36071216164430758 0.025508472402000461 0 -0.34711932036586829 0.019538532460631419 0 -0.36071216164430758 0.025508472402000461 0 -0.33947201591056692 0.016179856568206561 0 -0.34499096338392232 0.0124821142360305 0 -0.34711932036586829 0.019538532460631419 0 -0.3425466889387957 0.02471878413516982 0 -0.34711932036586829 0.019538532460631419 0 -0.38322188455235179 0.014633661050518819 0 -0.36071216164430758 0.025508472402000461 0 -0.37354310319873307 0.015885435701492579 0 -0.38322188455235179 0.014633661050518819 0 -0.36071216164430758 0.025508472402000461 0 -0.38222330239014329 0.034956108528420141 0 -0.36071216164430758 0.025508472402000461 0 -0.36071216164430758 0.025508472402000461 0 -0.37354310319873307 0.015885435701492579 0 -0.367188181184468 0.0115830439228789 0 -0.37354310319873307 0.015885435701492579 0 -0.367188181184468 0.0115830439228789 0 -0.37340753275891903 0.0060936975973046141 0 -0.367188181184468 0.0115830439228789 0 -0.37340753275891903 0.0060936975973046141 0 -0.36234562177419838 0.002288930207415555 0 -0.36800916043032761 -0.0041271905919835214 0 -0.37340753275891903 0.0060936975973046141 0 -0.36234562177419838 0.002288930207415555 0 -0.367188181184468 0.0115830439228789 0 -0.36234562177419838 0.002288930207415555 0 -0.35718140894045991 0.049083478369856853 0 -0.37423313126046631 0.061177713533202338 0 -0.34493943514804248 0.06328283207354482 0 -0.34780326289184188 0.037692018469648737 0 -0.34493943514804248 0.06328283207354482 0 -0.35718140894045991 0.049083478369856853 0 -0.34780326289184188 0.037692018469648737 0 -0.34493943514804248 0.06328283207354482 0 -0.34129610239322988 0.034888684784323741 0 -0.36071216164430758 0.025508472402000461 0 -0.34780326289184188 0.037692018469648737 0 -0.36071216164430758 0.025508472402000461 0 -0.34780326289184188 0.037692018469648737 0 -0.35844184910103499 0.037384059719796747 0 -0.35718140894045991 0.049083478369856853 0 -0.34780326289184188 0.037692018469648737 0 -0.35844184910103499 0.037384059719796747 0 -0.36071216164430758 0.025508472402000461 0 -0.35844184910103499 0.037384059719796747 0 -0.36866113695203728 0.043064204273069367 0 -0.38222330239014329 0.034956108528420141 0 -0.36071216164430758 0.025508472402000461 0 -0.36866113695203728 0.043064204273069367 0 -0.35718140894045991 0.049083478369856853 0 -0.35844184910103499 0.037384059719796747 0 -0.36866113695203728 0.043064204273069367 0 -0.37423313126046631 0.061177713533202338 0 -0.34493943514804248 0.06328283207354482 0 -0.35718140894045991 0.049083478369856853 0 -0.36866113695203728 0.043064204273069367 0 -0.37423313126046631 0.061177713533202338 0 -0.37423313126046631 0.061177713533202338 0 -0.35930857995174897 0.064711795020442386 0 -0.36467921020616101 0.082012698274938928 0 -0.38516249845558131 0.078194868366674497 0 -0.37423313126046631 0.061177713533202338 0 -0.36467921020616101 0.082012698274938928 0 -0.37423313126046631 0.061177713533202338 0 -0.35930857995174897 0.064711795020442386 0 -0.34493943514804248 0.06328283207354482 0 -0.37423313126046631 0.061177713533202338 0 -0.35930857995174897 0.064711795020442386 0 -0.35930857995174897 0.064711795020442386 0 -0.34438402864303108 0.068245876507679049 0 -0.35930857995174897 0.064711795020442386 0 -0.34438402864303108 0.068245876507679049 0 -0.34331330823225609 0.077813702824514275 0 -0.35930857995174897 0.064711795020442386 0 -0.36467921020616101 0.082012698274938928 0 -0.34331330823225609 0.077813702824514275 0 -0.34438402864303108 0.068245876507679049 0 -0.34331330823225609 0.077813702824514275 0 -0.35930857995174897 0.064711795020442386 0 -0.34438402864303108 0.068245876507679049 0 -0.34493943514804248 0.06328283207354482 0 -0.34438402864303108 0.068245876507679049 0 -0.34493943514804248 0.06328283207354482 0 -0.36467921020616101 0.082012698274938928 0 -0.34331330823225609 0.077813702824514275 0 -0.35251663210970829 0.092098376384172259 0 -0.34031789963750919 0.1045803067802341 0 -0.34331330823225609 0.077813702824514275 0 -0.35251663210970829 0.092098376384172259 0 -0.36467921020616101 0.082012698274938928 0 -0.34331330823225609 0.077813702824514275 0 -0.35251663210970829 0.092098376384172259 0 -0.36467921020616101 0.082012698274938928 0 -0.3617561103629075 0.10398679765700181 0 -0.37728664115199051 0.096549999617299043 0 -0.36467921020616101 0.082012698274938928 0 -0.3617561103629075 0.10398679765700181 0 -0.37574270482976552 0.1127602309153935 0 -0.37728664115199051 0.096549999617299043 0 -0.3617561103629075 0.10398679765700181 0 -0.3617561103629075 0.10398679765700181 0 -0.36705056219853383 0.1194023578563024 0 -0.3544766847842245 0.1222383725199034 0 -0.37574270482976552 0.1127602309153935 0 -0.37750887379202391 0.1258246628239878 0 -0.36705056219853383 0.1194023578563024 0 -0.37574270482976552 0.1127602309153935 0 -0.3617561103629075 0.10398679765700181 0 -0.36705056219853383 0.1194023578563024 0 -0.3657684372237478 0.13220172536522559 0 -0.36705056219853383 0.1194023578563024 0 -0.3544766847842245 0.1222383725199034 0 -0.33732249104276257 0.131346910735954 0 -0.3544766847842245 0.1222383725199034 0 -0.34031789963750919 0.1045803067802341 0 -0.3617561103629075 0.10398679765700181 0 -0.3544766847842245 0.1222383725199034 0 -0.34031789963750919 0.1045803067802341 0 -0.35251663210970829 0.092098376384172259 0 -0.3617561103629075 0.10398679765700181 0 -0.34031789963750919 0.1045803067802341 0 -0.34031789963750919 0.1045803067802341 0 -0.33046529163163441 0.10513803734546839 0 -0.33536594103847828 0.091538195644305514 0 -0.33732249104276257 0.131346910735954 0 -0.34031789963750919 0.1045803067802341 0 -0.33239618703982549 0.1316257760185712 0 -0.33046529163163441 0.10513803734546839 0 -0.32361881508428458 0.1201388783835504 0 -0.33732249104276257 0.131346910735954 0 -0.33239618703982549 0.1316257760185712 0 -0.33046529163163441 0.10513803734546839 0 -0.33239618703982549 0.1316257760185712 0 -0.33046529163163441 0.10513803734546839 0 -0.33732249104276257 0.131346910735954 0 -0.34031789963750919 0.1045803067802341 0 -0.33046529163163441 0.10513803734546839 0 -0.33046529163163441 0.10513803734546839 0 -0.32361881508428458 0.1201388783835504 0 -0.3183898399802878 0.10779851523839511 0 -0.30983202961862832 0.1096210262974341 0 -0.31331521520385308 0.1197024868491269 0 -0.3183898399802878 0.10779851523839511 0 -0.32361881508428458 0.1201388783835504 0 -0.31331521520385308 0.1197024868491269 0 -0.3183898399802878 0.10779851523839511 0 -0.31998236019302739 0.12711111886087451 0 -0.32361881508428458 0.1201388783835504 0 -0.31331521520385308 0.1197024868491269 0 -0.31396029814211412 0.128045844920089 0 -0.31998236019302739 0.12711111886087451 0 -0.31331521520385308 0.1197024868491269 0 -0.33046529163163441 0.10513803734546839 0 -0.32272467555812301 0.098968719734577326 0 -0.32853439622344333 0.078650298672365671 0 -0.33046529163163441 0.10513803734546839 0 -0.32272467555812301 0.098968719734577326 0 -0.3183898399802878 0.10779851523839511 0 -0.32272467555812301 0.098968719734577326 0 -0.3183898399802878 0.10779851523839511 0 -0.3139326208486023 0.099688130692420177 0 -0.30983202961862832 0.1096210262974341 0 -0.3183898399802878 0.10779851523839511 0 -0.3139326208486023 0.099688130692420177 0 -0.32272467555812301 0.098968719734577326 0 -0.3139326208486023 0.099688130692420177 0 -0.3189417910763746 0.091712858948380951 0 -0.30977133298868781 0.090777064065670848 0 -0.3139326208486023 0.099688130692420177 0 -0.3189417910763746 0.091712858948380951 0 -0.30977133298868781 0.090777064065670848 0 -0.3189417910763746 0.091712858948380951 0 -0.31391606373412267 0.083865301522364266 0 -0.32272467555812301 0.098968719734577326 0 -0.3189417910763746 0.091712858948380951 0 -0.32853439622344333 0.078650298672365671 0 -0.3189417910763746 0.091712858948380951 0 -0.32080265370221628 0.081954451517828542 0 -0.32853439622344333 0.078650298672365671 0 -0.32080265370221628 0.081954451517828542 0 -0.31391606373412267 0.083865301522364266 0 -0.32181836377492479 0.073589346928202556 0 -0.3189417910763746 0.091712858948380951 0 -0.32080265370221628 0.081954451517828542 0 -0.31391606373412267 0.083865301522364266 0 -0.29562838419692478 0.068442285726245583 0 -0.32007019034702261 0.065069998435682216 0 -0.32181836377492479 0.073589346928202556 0 -0.32080265370221628 0.081954451517828542 0 -0.32181836377492479 0.073589346928202556 0 -0.32853439622344333 0.078650298672365671 0 -0.34493943514804248 0.06328283207354482 0 -0.32007019034702261 0.065069998435682216 0 -0.32181836377492479 0.073589346928202556 0 -0.34331330823225609 0.077813702824514275 0 -0.32853439622344333 0.078650298672365671 0 -0.34438402864303108 0.068245876507679049 0 -0.32181836377492479 0.073589346928202556 0 -0.34438402864303108 0.068245876507679049 0 -0.32181836377492479 0.073589346928202556 0 -0.34331330823225609 0.077813702824514275 0 -0.34438402864303108 0.068245876507679049 0 -0.32007019034702261 0.065069998435682216 0 -0.32181836377492479 0.073589346928202556 0 -0.34438402864303108 0.068245876507679049 0 -0.34493943514804248 0.06328283207354482 0 -0.32007019034702261 0.065069998435682216 0 -0.32181836377492479 0.073589346928202556 0 -0.34331330823225609 0.077813702824514275 0 -0.34031789963750919 0.1045803067802341 0 -0.34331330823225609 0.077813702824514275 0 -0.33536594103847828 0.091538195644305514 0 -0.34031789963750919 0.1045803067802341 0 -0.34331330823225609 0.077813702824514275 0 -0.33046529163163441 0.10513803734546839 0 -0.33536594103847828 0.091538195644305514 0 -0.32853439622344333 0.078650298672365671 0 -0.33046529163163441 0.10513803734546839 0 -0.32853439622344333 0.078650298672365671 0 -0.34331330823225609 0.077813702824514275 0 -0.33536594103847828 0.091538195644305514 0 -0.32853439622344333 0.078650298672365671 0 -0.40048400796718181 0.47703971778443571 0 -0.38446376869890919 0.48310862586315739 0 -0.38892092878364798 0.46319837857428559 0 -0.40048400796718181 0.47703971778443571 0 -0.39958999000350098 0.5 0 -0.38446376869890919 0.48310862586315739 0 -0.40048400796718181 0.47703971778443571 0 -0.39958999000350098 0.5 0 -0.4173191422869611 0.48151611402025618 0 -0.38446376869890919 0.48310862586315739 0 -0.36782199703103591 0.47258802124512161 0 -0.37368083654603879 0.49999999999999262 0 -0.39958999000350098 0.5 0 -0.38446376869890919 0.48310862586315739 0 -0.37368083654603879 0.49999999999999262 0 -0.38446376869890919 0.48310862586315739 0 -0.38892092878364798 0.46319837857428559 0 -0.36782199703103591 0.47258802124512161 0 -0.38892092878364798 0.46319837857428559 0 -0.37692936517546732 0.45425665042366792 0 -0.36782199703103591 0.47258802124512161 0 -0.38892092878364798 0.46319837857428559 0 -0.37692936517546732 0.45425665042366792 0 -0.38359682996978389 0.44387784281117748 0 -0.38359682996978389 0.44387784281117748 0 -0.37870989817609391 0.43349500203550279 0 -0.37390443285869412 0.44200958240375687 0 -0.37692936517546732 0.45425665042366792 0 -0.38359682996978389 0.44387784281117748 0 -0.37390443285869412 0.44200958240375687 0 -0.38359682996978389 0.44387784281117748 0 -0.40771231188760382 0.44820347084646539 0 -0.39377198850750411 0.43277117736120491 0 -0.40771231188760382 0.44820347084646539 0 -0.40940399663893701 0.43260896082227479 0 -0.39377198850750411 0.43277117736120491 0 -0.38892092878364798 0.46319837857428559 0 -0.38359682996978389 0.44387784281117748 0 -0.40771231188760382 0.44820347084646539 0 -0.38359682996978389 0.44387784281117748 0 -0.40771231188760382 0.44820347084646539 0 -0.40048400796718181 0.47703971778443571 0 -0.38892092878364798 0.46319837857428559 0 -0.41193061032440043 0.46265720357823542 0 -0.38892092878364798 0.46319837857428559 0 -0.41193061032440043 0.46265720357823542 0 -0.40771231188760382 0.44820347084646539 0 -0.41193061032440043 0.46265720357823542 0 -0.40771231188760382 0.44820347084646539 0 -0.43182779380542391 0.45252909888175291 0 -0.40771231188760382 0.44820347084646539 0 -0.43182779380542391 0.45252909888175291 0 -0.40771231188760382 0.44820347084646539 0 -0.42462660024182719 0.4360091227804459 0 -0.40940399663893701 0.43260896082227479 0 -0.40771231188760382 0.44820347084646539 0 -0.43182779380542391 0.45252909888175291 0 -0.42462660024182719 0.4360091227804459 0 -0.43182779380542391 0.45252909888175291 0 -0.44268670427198697 0.42504405656020661 0 -0.43182779380542391 0.45252909888175291 0 -0.44268670427198697 0.42504405656020661 0 -0.42462660024182719 0.4360091227804459 0 -0.41193061032440043 0.46265720357823542 0 -0.43182779380542391 0.45252909888175291 0 -0.42672885274621708 0.46543505397170221 0 -0.43182779380542391 0.45252909888175291 0 -0.42672885274621708 0.46543505397170221 0 -0.43182779380542391 0.45252909888175291 0 -0.42672885274621708 0.46543505397170221 0 -0.44040704932786839 0.46597007888789871 0 -0.42672885274621708 0.46543505397170221 0 -0.43358487404063489 0.47964575731103609 0 -0.44040704932786839 0.46597007888789871 0 -0.42672885274621708 0.46543505397170221 0 -0.43358487404063489 0.47964575731103609 0 -0.4173191422869611 0.48151611402025618 0 -0.40048400796718181 0.47703971778443571 0 -0.41193061032440043 0.46265720357823542 0 -0.4173191422869611 0.48151611402025618 0 -0.41193061032440043 0.46265720357823542 0 -0.42672885274621708 0.46543505397170221 0 -0.4173191422869611 0.48151611402025618 0 -0.39958999000350098 0.5 0 -0.4173191422869611 0.48151611402025618 0 -0.4254991434609634 0.5 0 -0.43358487404063489 0.47964575731103609 0 -0.4254991434609634 0.5 0 -0.45140829691842549 0.5 0 -0.43358487404063489 0.47964575731103609 0 -0.4173191422869611 0.48151611402025618 0 -0.4254991434609634 0.5 0 -0.43358487404063489 0.47964575731103609 0 -0.45140829691842549 0.5 0 -0.4528918818509185 0.47603658974160362 0 -0.43358487404063489 0.47964575731103609 0 -0.4528918818509185 0.47603658974160362 0 -0.44040704932786839 0.46597007888789871 0 -0.4528918818509185 0.47603658974160362 0 -0.46821023108548637 0.47279158631599072 0 -0.46436287364715501 0.48766267932278418 0 -0.45140829691842549 0.5 0 -0.4528918818509185 0.47603658974160362 0 -0.46436287364715501 0.48766267932278418 0 -0.45140829691842549 0.5 0 -0.46436287364715501 0.48766267932278418 0 -0.47731745037588769 0.49999999999999761 0 -0.47731745037588769 0.49999999999999761 0 -0.48096466964761703 0.48099852826867079 0 -0.49139413964174178 0.47693820713780138 0 -0.5 0.5 0 -0.49999999999999722 0.46475724374518879 0 -0.46436287364715501 0.48766267932278418 0 -0.47731745037588769 0.49999999999999761 0 -0.48096466964761703 0.48099852826867079 0 -0.48096466964761703 0.48099852826867079 0 -0.48461188891935342 0.46199705653734541 0 -0.46821023108548637 0.47279158631599072 0 -0.48096466964761703 0.48099852826867079 0 -0.48461188891935342 0.46199705653734541 0 -0.46821023108548637 0.47279158631599072 0 -0.46436287364715501 0.48766267932278418 0 -0.48096466964761703 0.48099852826867079 0 -0.48096466964761703 0.48099852826867079 0 -0.49139413964174178 0.47693820713780138 0 -0.48461188891935342 0.46199705653734541 0 -0.47731745037588769 0.49999999999999761 0 -0.48096466964761703 0.48099852826867079 0 -0.5 0.5 0 -0.48096466964761703 0.48099852826867079 0 -0.49139413964174178 0.47693820713780138 0 -0.5 0.5 0 -0.49405705401154759 0.44045684063000018 0 -0.5 0.44906001156674252 0 -0.50000000000000222 0.43336277938829632 0 -0.48749403650342921 0.44698149488220862 0 -0.49405705401154759 0.44045684063000018 0 -0.49037618408751182 0.43196593322707327 0 -0.48749403650342921 0.44698149488220862 0 -0.49037618408751182 0.43196593322707327 0 -0.48749403650342921 0.44698149488220862 0 -0.49405705401154759 0.44045684063000018 0 -0.5 0.44906001156674252 0 -0.48749403650342921 0.44698149488220862 0 -0.5 0.44906001156674252 0 -0.49246730937117061 0.45572047132892801 0 -0.49246730937117061 0.45572047132892801 0 -0.49999999999999722 0.46475724374518879 0 -0.48461188891935342 0.46199705653734541 0 -0.5 0.44906001156674252 0 -0.49246730937117061 0.45572047132892801 0 -0.49999999999999722 0.46475724374518879 0 -0.49999999999999722 0.46475724374518879 0 -0.48461188891935342 0.46199705653734541 0 -0.49139413964174178 0.47693820713780138 0 -0.49999999999999722 0.46475724374518879 0 -0.48461188891935342 0.46199705653734541 0 -0.48749403650342921 0.44698149488220862 0 -0.49246730937117061 0.45572047132892801 0 -0.48461188891935342 0.46199705653734541 0 -0.48749403650342921 0.44698149488220862 0 -0.48461188891935342 0.46199705653734541 0 -0.48749403650342921 0.44698149488220862 0 -0.48461188891935342 0.46199705653734541 0 -0.45821984136238852 0.45726307770954933 0 -0.48461188891935342 0.46199705653734541 0 -0.45821984136238852 0.45726307770954933 0 -0.46821023108548637 0.47279158631599072 0 -0.48461188891935342 0.46199705653734541 0 -0.45821984136238852 0.45726307770954933 0 -0.48749403650342921 0.44698149488220862 0 -0.45821984136238852 0.45726307770954933 0 -0.46653144417974929 0.4285049948936408 0 -0.43182779380542391 0.45252909888175291 0 -0.45821984136238852 0.45726307770954933 0 -0.44268670427198697 0.42504405656020661 0 -0.4528918818509185 0.47603658974160362 0 -0.46821023108548637 0.47279158631599072 0 -0.45821984136238852 0.45726307770954933 0 -0.43182779380542391 0.45252909888175291 0 -0.45821984136238852 0.45726307770954933 0 -0.44040704932786839 0.46597007888789871 0 -0.43182779380542391 0.45252909888175291 0 -0.45821984136238852 0.45726307770954933 0 -0.4528918818509185 0.47603658974160362 0 -0.45821984136238852 0.45726307770954933 0 -0.44040704932786839 0.46597007888789871 0 -0.45821984136238852 0.45726307770954933 0 -0.44268670427198697 0.42504405656020661 0 -0.46653144417974929 0.4285049948936408 0 -0.44268670427198697 0.42504405656020661 0 -0.46058469027537452 0.41434484606210398 0 -0.45273132444668301 0.39962006844875692 0 -0.44268670427198697 0.42504405656020661 0 -0.45273132444668301 0.39962006844875692 0 -0.43075024772865889 0.40295998759017643 0 -0.44268670427198697 0.42504405656020661 0 -0.45273132444668301 0.39962006844875692 0 -0.46058469027537452 0.41434484606210398 0 -0.46653144417974929 0.4285049948936408 0 -0.47493751870639439 0.41400223312603007 0 -0.46058469027537452 0.41434484606210398 0 -0.47493751870639439 0.41400223312603007 0 -0.46603645977205838 0.40455287728188649 0 -0.44268670427198697 0.42504405656020661 0 -0.46058469027537452 0.41434484606210398 0 -0.46653144417974929 0.4285049948936408 0 -0.44268670427198697 0.42504405656020661 0 -0.46653144417974929 0.4285049948936408 0 -0.48749403650342921 0.44698149488220862 0 -0.46653144417974929 0.4285049948936408 0 -0.49037618408751182 0.43196593322707327 0 -0.46653144417974929 0.4285049948936408 0 -0.47955432354338401 0.42191052021014269 0 -0.49037618408751182 0.43196593322707327 0 -0.46653144417974929 0.4285049948936408 0 -0.49037618408751182 0.43196593322707327 0 -0.46653144417974929 0.4285049948936408 0 -0.47955432354338401 0.42191052021014269 0 -0.47493751870639439 0.41400223312603007 0 -0.47493751870639439 0.41400223312603007 0 -0.48245250851162991 0.40205804532266731 0 -0.46603645977205838 0.40455287728188649 0 -0.47493751870639439 0.41400223312603007 0 -0.48637214719988109 0.41316891959382451 0 -0.48245250851162991 0.40205804532266731 0 -0.47955432354338401 0.42191052021014269 0 -0.47493751870639439 0.41400223312603007 0 -0.48637214719988109 0.41316891959382451 0 -0.49037618408751182 0.43196593322707327 0 -0.49536606802621852 0.40596937762130891 0 -0.5 0.40877236590846472 0 -0.49037618408751182 0.43196593322707327 0 -0.49536606802621852 0.40596937762130891 0 -0.48637214719988109 0.41316891959382451 0 -0.49037618408751182 0.43196593322707327 0 -0.49536606802621852 0.40596937762130891 0 -0.48637214719988109 0.41316891959382451 0 -0.48910179160554917 0.40443398601215907 0 -0.48245250851162991 0.40205804532266731 0 -0.48637214719988109 0.41316891959382451 0 -0.49536606802621852 0.40596937762130891 0 -0.48910179160554917 0.40443398601215907 0 -0.47955432354338401 0.42191052021014269 0 -0.48637214719988109 0.41316891959382451 0 -0.49037618408751182 0.43196593322707327 0 -0.5 0.40877236590846472 0 -0.50000000000000222 0.43336277938829632 0 -0.49037618408751182 0.43196593322707327 0 -0.49405705401154759 0.44045684063000018 0 -0.50000000000000222 0.43336277938829632 0 -0.49037618408751182 0.43196593322707327 0 -0.50000000000000222 0.43336277938829632 0 -0.49037618408751182 0.43196593322707327 0 -0.5 0.38418195242863312 0 -0.49221644268446779 0.396539601510836 0 -0.48351645561768059 0.38949926340776531 0 -0.5 0.38418195242863312 0 -0.48351645561768059 0.38949926340776531 0 -0.47958081921859619 0.37550870423523702 0 -0.5 0.40877236590846472 0 -0.5 0.38418195242863312 0 -0.49221644268446779 0.396539601510836 0 -0.49221644268446779 0.396539601510836 0 -0.49536606802621852 0.40596937762130891 0 -0.48910179160554917 0.40443398601215907 0 -0.5 0.40877236590846472 0 -0.49221644268446779 0.396539601510836 0 -0.49536606802621852 0.40596937762130891 0 -0.49221644268446779 0.396539601510836 0 -0.48910179160554917 0.40443398601215907 0 -0.48245250851162991 0.40205804532266731 0 -0.49221644268446779 0.396539601510836 0 -0.48245250851162991 0.40205804532266731 0 -0.48351645561768059 0.38949926340776531 0 -0.48245250851162991 0.40205804532266731 0 -0.47407574119002338 0.39398269719495638 0 -0.48351645561768059 0.38949926340776531 0 -0.48245250851162991 0.40205804532266731 0 -0.47407574119002338 0.39398269719495638 0 -0.46603645977205838 0.40455287728188649 0 -0.47407574119002338 0.39398269719495638 0 -0.47277322210136608 0.384724579754262 0 -0.46567853842630158 0.39141526060343368 0 -0.47277322210136608 0.384724579754262 0 -0.47958081921859619 0.37550870423523702 0 -0.46277594462137711 0.37419608033730639 0 -0.47277322210136608 0.384724579754262 0 -0.48351645561768059 0.38949926340776531 0 -0.47958081921859619 0.37550870423523702 0 -0.47407574119002338 0.39398269719495638 0 -0.47277322210136608 0.384724579754262 0 -0.48351645561768059 0.38949926340776531 0 -0.45273132444668301 0.39962006844875692 0 -0.46277594462137711 0.37419608033730639 0 -0.47277322210136608 0.384724579754262 0 -0.46567853842630158 0.39141526060343368 0 -0.46277594462137711 0.37419608033730639 0 -0.46567853842630158 0.39141526060343368 0 -0.45273132444668301 0.39962006844875692 0 -0.46277594462137711 0.37419608033730639 0 -0.45273132444668301 0.39962006844875692 0 -0.44940451384749769 0.38023448536030668 0 -0.46277594462137711 0.37419608033730639 0 -0.46603645977205838 0.40455287728188649 0 -0.46567853842630158 0.39141526060343368 0 -0.45273132444668301 0.39962006844875692 0 -0.47407574119002338 0.39398269719495638 0 -0.46603645977205838 0.40455287728188649 0 -0.46567853842630158 0.39141526060343368 0 -0.46058469027537452 0.41434484606210398 0 -0.46603645977205838 0.40455287728188649 0 -0.45273132444668301 0.39962006844875692 0 -0.45273132444668301 0.39962006844875692 0 -0.43722731906228429 0.3884827031630893 0 -0.43075024772865889 0.40295998759017643 0 -0.45273132444668301 0.39962006844875692 0 -0.44940451384749769 0.38023448536030668 0 -0.43722731906228429 0.3884827031630893 0 -0.44940451384749769 0.38023448536030668 0 -0.43472277428519468 0.37718058985670272 0 -0.43722731906228429 0.3884827031630893 0 -0.43472277428519468 0.37718058985670272 0 -0.42254090279310341 0.38424532459618371 0 -0.42487511763212121 0.36779714931772289 0 -0.43472277428519468 0.37718058985670272 0 -0.43722731906228429 0.3884827031630893 0 -0.42254090279310341 0.38424532459618371 0 -0.42254090279310341 0.38424532459618371 0 -0.4102278605539959 0.38523768344562659 0 -0.41089381354180632 0.37187348318713492 0 -0.42254090279310341 0.38424532459618371 0 -0.4102278605539959 0.38523768344562659 0 -0.40897583843372842 0.39855555757916711 0 -0.4102278605539959 0.38523768344562659 0 -0.39763918539791338 0.38111655572875042 0 -0.41089381354180632 0.37187348318713492 0 -0.42254090279310341 0.38424532459618371 0 -0.40897583843372842 0.39855555757916711 0 -0.43075024772865889 0.40295998759017643 0 -0.43722731906228429 0.3884827031630893 0 -0.42254090279310341 0.38424532459618371 0 -0.43075024772865889 0.40295998759017643 0 -0.44268670427198697 0.42504405656020661 0 -0.43075024772865889 0.40295998759017643 0 -0.42084051348005502 0.42187319709837939 0 -0.44268670427198697 0.42504405656020661 0 -0.42084051348005502 0.42187319709837939 0 -0.44268670427198697 0.42504405656020661 0 -0.42462660024182719 0.4360091227804459 0 -0.42084051348005502 0.42187319709837939 0 -0.40940399663893701 0.43260896082227479 0 -0.42084051348005502 0.42187319709837939 0 -0.39899432268812279 0.41870233763655268 0 -0.42462660024182719 0.4360091227804459 0 -0.40940399663893701 0.43260896082227479 0 -0.42084051348005502 0.42187319709837939 0 -0.40897583843372842 0.39855555757916711 0 -0.42084051348005502 0.42187319709837939 0 -0.39899432268812279 0.41870233763655268 0 -0.42084051348005502 0.42187319709837939 0 -0.39899432268812279 0.41870233763655268 0 -0.40897583843372842 0.39855555757916711 0 -0.43075024772865889 0.40295998759017643 0 -0.42084051348005502 0.42187319709837939 0 -0.39899432268812279 0.41870233763655268 0 -0.38544218349442422 0.41923028725360673 0 -0.38802431252112363 0.39933920511102922 0 -0.40940399663893701 0.43260896082227479 0 -0.39899432268812279 0.41870233763655268 0 -0.39377198850750411 0.43277117736120491 0 -0.39899432268812279 0.41870233763655268 0 -0.39377198850750411 0.43277117736120491 0 -0.38544218349442422 0.41923028725360673 0 -0.38359682996978389 0.44387784281117748 0 -0.39377198850750411 0.43277117736120491 0 -0.37870989817609391 0.43349500203550279 0 -0.39377198850750411 0.43277117736120491 0 -0.37870989817609391 0.43349500203550279 0 -0.38544218349442422 0.41923028725360673 0 -0.38544218349442422 0.41923028725360673 0 -0.38802431252112363 0.39933920511102922 0 -0.37360293226699409 0.40939973286782638 0 -0.37870989817609391 0.43349500203550279 0 -0.38544218349442422 0.41923028725360673 0 -0.37360293226699409 0.40939973286782638 0 -0.37870989817609391 0.43349500203550279 0 -0.37360293226699409 0.40939973286782638 0 -0.38802431252112363 0.39933920511102922 0 -0.3684959663578945 0.38530446370014998 0 -0.37360293226699409 0.40939973286782638 0 -0.38802431252112363 0.39933920511102922 0 -0.38395455760122488 0.38227123121330669 0 -0.39763918539791338 0.38111655572875042 0 -0.38802431252112363 0.39933920511102922 0 -0.38395455760122488 0.38227123121330669 0 -0.3684959663578945 0.38530446370014998 0 -0.38395455760122488 0.38227123121330669 0 -0.37528696268018708 0.37198715513043629 0 -0.3684959663578945 0.38530446370014998 0 -0.38395455760122488 0.38227123121330669 0 -0.39763918539791338 0.38111655572875042 0 -0.38616607085469978 0.36955797562589748 0 -0.4102278605539959 0.38523768344562659 0 -0.40897583843372842 0.39855555757916711 0 -0.39763918539791338 0.38111655572875042 0 -0.40897583843372842 0.39855555757916711 0 -0.38802431252112363 0.39933920511102922 0 -0.39763918539791338 0.38111655572875042 0 -0.40897583843372842 0.39855555757916711 0 -0.39899432268812279 0.41870233763655268 0 -0.38802431252112363 0.39933920511102922 0 -0.39456649753897882 0.35763274886154722 0 -0.39101422043087908 0.34758550679278089 0 -0.40444613248228911 0.34608785590364921 0 -0.39456649753897882 0.35763274886154722 0 -0.40444613248228911 0.34608785590364921 0 -0.40494630681743982 0.36112627493142768 0 -0.40494630681743982 0.36112627493142768 0 -0.39770428536895269 0.36809875754326898 0 -0.41089381354180632 0.37187348318713492 0 -0.39456649753897882 0.35763274886154722 0 -0.40494630681743982 0.36112627493142768 0 -0.39770428536895269 0.36809875754326898 0 -0.39763918539791338 0.38111655572875042 0 -0.39770428536895269 0.36809875754326898 0 -0.41089381354180632 0.37187348318713492 0 -0.39763918539791338 0.38111655572875042 0 -0.39770428536895269 0.36809875754326898 0 -0.38616607085469978 0.36955797562589748 0 -0.39456649753897882 0.35763274886154722 0 -0.39770428536895269 0.36809875754326898 0 -0.38616607085469978 0.36955797562589748 0 -0.39456649753897882 0.35763274886154722 0 -0.38616607085469978 0.36955797562589748 0 -0.38424931976243332 0.35696130308558988 0 -0.38395455760122488 0.38227123121330669 0 -0.38616607085469978 0.36955797562589748 0 -0.37528696268018708 0.37198715513043629 0 -0.38616607085469978 0.36955797562589748 0 -0.37528696268018708 0.37198715513043629 0 -0.37413640492081651 0.36130780354415809 0 -0.38616607085469978 0.36955797562589748 0 -0.38424931976243332 0.35696130308558988 0 -0.37413640492081651 0.36130780354415809 0 -0.38424931976243332 0.35696130308558988 0 -0.37999219374207199 0.34687376916698243 0 -0.37413640492081651 0.36130780354415809 0 -0.39456649753897882 0.35763274886154722 0 -0.39101422043087908 0.34758550679278089 0 -0.38424931976243332 0.35696130308558988 0 -0.39101422043087908 0.34758550679278089 0 -0.38424931976243332 0.35696130308558988 0 -0.37999219374207199 0.34687376916698243 0 -0.37999219374207199 0.34687376916698243 0 -0.37601543153736572 0.33313452262712728 0 -0.38943288509552071 0.33465909486214768 0 -0.37999219374207199 0.34687376916698243 0 -0.37601543153736572 0.33313452262712728 0 -0.36983217950573682 0.34039220066898879 0 -0.37601543153736572 0.33313452262712728 0 -0.38943288509552071 0.33465909486214768 0 -0.38081013793138108 0.32425707770014728 0 -0.39101422043087908 0.34758550679278089 0 -0.37999219374207199 0.34687376916698243 0 -0.38943288509552071 0.33465909486214768 0 -0.38943288509552071 0.33465909486214768 0 -0.38081013793138108 0.32425707770014728 0 -0.39191418996105082 0.31838610164523362 0 -0.38081013793138108 0.32425707770014728 0 -0.39191418996105082 0.31838610164523362 0 -0.3744393805172796 0.31247428710198982 0 -0.37601543153736572 0.33313452262712728 0 -0.38081013793138108 0.32425707770014728 0 -0.37137244083342141 0.32477040145267583 0 -0.38081013793138108 0.32425707770014728 0 -0.3744393805172796 0.31247428710198982 0 -0.37137244083342141 0.32477040145267583 0 -0.38943288509552071 0.33465909486214768 0 -0.39191418996105082 0.31838610164523362 0 -0.40304997030566209 0.32860445737715122 0 -0.39191418996105082 0.31838610164523362 0 -0.40304997030566209 0.32860445737715122 0 -0.41438993902560739 0.31176022368235079 0 -0.40444613248228911 0.34608785590364921 0 -0.38943288509552071 0.33465909486214768 0 -0.40304997030566209 0.32860445737715122 0 -0.39101422043087908 0.34758550679278089 0 -0.40444613248228911 0.34608785590364921 0 -0.38943288509552071 0.33465909486214768 0 -0.40444613248228911 0.34608785590364921 0 -0.40304997030566209 0.32860445737715122 0 -0.41633866804279579 0.33443011196028982 0 -0.40304997030566209 0.32860445737715122 0 -0.41633866804279579 0.33443011196028982 0 -0.41438993902560739 0.31176022368235079 0 -0.43921925047701771 0.32273891803891053 0 -0.41438993902560739 0.31176022368235079 0 -0.43921925047701771 0.32273891803891053 0 -0.43204107734184671 0.30685441950589148 0 -0.41438993902560739 0.31176022368235079 0 -0.41633866804279579 0.33443011196028982 0 -0.43921925047701771 0.32273891803891053 0 -0.41438993902560739 0.31176022368235079 0 -0.41633866804279579 0.33443011196028982 0 -0.43113312395714432 0.34496010591901238 0 -0.43921925047701771 0.32273891803891053 0 -0.43113312395714432 0.34496010591901238 0 -0.43049186520734012 0.35713342828446931 0 -0.44033324809686419 0.3531167737685238 0 -0.43049186520734012 0.35713342828446931 0 -0.43956601809096713 0.36514328684621078 0 -0.44033324809686419 0.3531167737685238 0 -0.43113312395714432 0.34496010591901238 0 -0.43049186520734012 0.35713342828446931 0 -0.4165518182596033 0.35464982557087638 0 -0.40444613248228911 0.34608785590364921 0 -0.41633866804279579 0.33443011196028982 0 -0.4165518182596033 0.35464982557087638 0 -0.41633866804279579 0.33443011196028982 0 -0.43113312395714432 0.34496010591901238 0 -0.4165518182596033 0.35464982557087638 0 -0.40444613248228911 0.34608785590364921 0 -0.40494630681743982 0.36112627493142768 0 -0.4165518182596033 0.35464982557087638 0 -0.4165518182596033 0.35464982557087638 0 -0.41089381354180632 0.37187348318713492 0 -0.42487511763212121 0.36779714931772289 0 -0.40494630681743982 0.36112627493142768 0 -0.4165518182596033 0.35464982557087638 0 -0.41089381354180632 0.37187348318713492 0 -0.42254090279310341 0.38424532459618371 0 -0.41089381354180632 0.37187348318713492 0 -0.42487511763212121 0.36779714931772289 0 -0.43049186520734012 0.35713342828446931 0 -0.4165518182596033 0.35464982557087638 0 -0.42487511763212121 0.36779714931772289 0 -0.43049186520734012 0.35713342828446931 0 -0.42487511763212121 0.36779714931772289 0 -0.43956601809096713 0.36514328684621078 0 -0.43472277428519468 0.37718058985670272 0 -0.42487511763212121 0.36779714931772289 0 -0.43956601809096713 0.36514328684621078 0 -0.44940451384749769 0.38023448536030668 0 -0.43472277428519468 0.37718058985670272 0 -0.43956601809096713 0.36514328684621078 0 -0.44940451384749769 0.38023448536030668 0 -0.43956601809096713 0.36514328684621078 0 -0.45672653788796308 0.35697604887788797 0 -0.44940451384749769 0.38023448536030668 0 -0.45672653788796308 0.35697604887788797 0 -0.43113312395714432 0.34496010591901238 0 -0.44033324809686419 0.3531167737685238 0 -0.44737128845083401 0.34221912372998609 0 -0.43956601809096713 0.36514328684621078 0 -0.44033324809686419 0.3531167737685238 0 -0.45672653788796308 0.35697604887788797 0 -0.44033324809686419 0.3531167737685238 0 -0.45672653788796308 0.35697604887788797 0 -0.44737128845083401 0.34221912372998609 0 -0.45672653788796308 0.35697604887788797 0 -0.46404856192842842 0.33371761239546938 0 -0.44737128845083401 0.34221912372998609 0 -0.45672653788796308 0.35697604887788797 0 -0.46404856192842842 0.33371761239546938 0 -0.45672653788796308 0.35697604887788797 0 -0.47282056479607121 0.34877209222585598 0 -0.46404856192842842 0.33371761239546938 0 -0.46277594462137711 0.37419608033730639 0 -0.47282056479607121 0.34877209222585598 0 -0.45672653788796308 0.35697604887788797 0 -0.46277594462137711 0.37419608033730639 0 -0.47282056479607121 0.34877209222585598 0 -0.44940451384749769 0.38023448536030668 0 -0.45672653788796308 0.35697604887788797 0 -0.46277594462137711 0.37419608033730639 0 -0.46277594462137711 0.37419608033730639 0 -0.47552563821392341 0.36464122554116601 0 -0.47282056479607121 0.34877209222585598 0 -0.47958081921859619 0.37550870423523702 0 -0.46277594462137711 0.37419608033730639 0 -0.47552563821392341 0.36464122554116601 0 -0.47958081921859619 0.37550870423523702 0 -0.47552563821392341 0.36464122554116601 0 -0.48692522421964901 0.36008802536626477 0 -0.47282056479607121 0.34877209222585598 0 -0.48692522421964901 0.36008802536626477 0 -0.48652777741376663 0.34365717260726969 0 -0.47552563821392341 0.36464122554116601 0 -0.47282056479607121 0.34877209222585598 0 -0.48692522421964901 0.36008802536626477 0 -0.49080092707593392 0.34554661703155592 0 -0.49309831698460571 0.35208634433392799 0 -0.5 0.33500112546896987 0 -0.49309831698460571 0.35208634433392799 0 -0.48692522421964901 0.36008802536626477 0 -0.48652777741376663 0.34365717260726969 0 -0.49309831698460571 0.35208634433392799 0 -0.5 0.35959153894880153 0 -0.5 0.33500112546896987 0 -0.48692522421964901 0.36008802536626477 0 -0.48652777741376663 0.34365717260726969 0 -0.49080092707593392 0.34554661703155592 0 -0.49309831698460571 0.35208634433392799 0 -0.48652777741376663 0.34365717260726969 0 -0.49080092707593392 0.34554661703155592 0 -0.48652777741376663 0.34365717260726969 0 -0.49309831698460571 0.35208634433392799 0 -0.5 0.35959153894880153 0 -0.48692522421964901 0.36008802536626477 0 -0.5 0.38418195242863312 0 -0.5 0.35959153894880153 0 -0.48692522421964901 0.36008802536626477 0 -0.5 0.38418195242863312 0 -0.47958081921859619 0.37550870423523702 0 -0.48692522421964901 0.36008802536626477 0 -0.48592825813183171 0.31887243940061771 0 -0.5 0.33500112546896987 0 -0.49999999999999861 0.31041071198913828 0 -0.48592825813183171 0.31887243940061771 0 -0.5 0.33500112546896987 0 -0.48652777741376663 0.34365717260726969 0 -0.48592825813183171 0.31887243940061771 0 -0.48652777741376663 0.34365717260726969 0 -0.49080092707593392 0.34554661703155592 0 -0.5 0.33500112546896987 0 -0.48652777741376663 0.34365717260726969 0 -0.47282056479607121 0.34877209222585598 0 -0.48652777741376663 0.34365717260726969 0 -0.46404856192842842 0.33371761239546938 0 -0.48592825813183171 0.31887243940061771 0 -0.48652777741376663 0.34365717260726969 0 -0.46404856192842842 0.33371761239546938 0 -0.48652777741376663 0.34365717260726969 0 -0.46404856192842842 0.33371761239546938 0 -0.48592825813183171 0.31887243940061771 0 -0.46404856192842842 0.33371761239546938 0 -0.47142843999141282 0.31027540239625101 0 -0.46404856192842842 0.33371761239546938 0 -0.47142843999141282 0.31027540239625101 0 -0.45529872585997128 0.31644224477087263 0 -0.46404856192842842 0.33371761239546938 0 -0.47142843999141282 0.31027540239625101 0 -0.46404856192842842 0.33371761239546938 0 -0.43921925047701771 0.32273891803891053 0 -0.43113312395714432 0.34496010591901238 0 -0.44737128845083401 0.34221912372998609 0 -0.43921925047701771 0.32273891803891053 0 -0.46404856192842842 0.33371761239546938 0 -0.44737128845083401 0.34221912372998609 0 -0.43921925047701771 0.32273891803891053 0 -0.45529872585997128 0.31644224477087263 0 -0.46404856192842842 0.33371761239546938 0 -0.43921925047701771 0.32273891803891053 0 -0.45529872585997128 0.31644224477087263 0 -0.43921925047701771 0.32273891803891053 0 -0.44712622457634649 0.30123014939894621 0 -0.43921925047701771 0.32273891803891053 0 -0.44712622457634649 0.30123014939894621 0 -0.43204107734184671 0.30685441950589148 0 -0.44712622457634649 0.30123014939894621 0 -0.43689910241905561 0.29603748260767182 0 -0.43204107734184671 0.30685441950589148 0 -0.44700363711970248 0.28864203712158482 0 -0.44507828897678159 0.27840574737841101 0 -0.43735529567774112 0.28489315462788278 0 -0.44700363711970248 0.28864203712158482 0 -0.43735529567774112 0.28489315462788278 0 -0.43689910241905561 0.29603748260767182 0 -0.44712622457634649 0.30123014939894621 0 -0.44700363711970248 0.28864203712158482 0 -0.43689910241905561 0.29603748260767182 0 -0.44712622457634649 0.30123014939894621 0 -0.44700363711970248 0.28864203712158482 0 -0.45807585156697361 0.29289630333145988 0 -0.44700363711970248 0.28864203712158482 0 -0.45699434826899688 0.28137922443773289 0 -0.44507828897678159 0.27840574737841101 0 -0.45699434826899688 0.28137922443773289 0 -0.45807585156697361 0.29289630333145988 0 -0.46756559898006539 0.28767268721147621 0 -0.44700363711970248 0.28864203712158482 0 -0.45699434826899688 0.28137922443773289 0 -0.45807585156697361 0.29289630333145988 0 -0.45699434826899688 0.28137922443773289 0 -0.46756559898006539 0.28767268721147621 0 -0.46857548463923843 0.27544830888716748 0 -0.45529872585997128 0.31644224477087263 0 -0.44712622457634649 0.30123014939894621 0 -0.47142843999141282 0.31027540239625101 0 -0.45807585156697361 0.29289630333145988 0 -0.46756559898006539 0.28767268721147621 0 -0.47142843999141282 0.31027540239625101 0 -0.44712622457634649 0.30123014939894621 0 -0.45807585156697361 0.29289630333145988 0 -0.47142843999141282 0.31027540239625101 0 -0.47142843999141282 0.31027540239625101 0 -0.47880831805439789 0.28683319239703281 0 -0.47142843999141282 0.31027540239625101 0 -0.47880831805439789 0.28683319239703281 0 -0.48532873884989641 0.29408770619396563 0 -0.48592825813183171 0.31887243940061771 0 -0.47142843999141282 0.31027540239625101 0 -0.48532873884989641 0.29408770619396563 0 -0.46756559898006539 0.28767268721147621 0 -0.47142843999141282 0.31027540239625101 0 -0.47880831805439789 0.28683319239703281 0 -0.47936177313079609 0.28507514029707248 0 -0.48532873884989641 0.29408770619396563 0 -0.48466830530101312 0.26678471560957279 0 -0.47936177313079609 0.28507514029707248 0 -0.47880831805439789 0.28683319239703281 0 -0.46857548463923843 0.27544830888716748 0 -0.46756559898006539 0.28767268721147621 0 -0.47880831805439789 0.28683319239703281 0 -0.46857548463923843 0.27544830888716748 0 -0.47936177313079609 0.28507514029707248 0 -0.47880831805439789 0.28683319239703281 0 -0.48532873884989641 0.29408770619396563 0 -0.47936177313079609 0.28507514029707248 0 -0.47880831805439789 0.28683319239703281 0 -0.47880831805439789 0.28683319239703281 0 -0.48532873884989641 0.29408770619396563 0 -0.5 0.28777976746120759 0 -0.48532873884989641 0.29408770619396563 0 -0.49345423925009257 0.27646429519724208 0 -0.5 0.28777976746120759 0 -0.48532873884989641 0.29408770619396563 0 -0.49999999999999861 0.31041071198913828 0 -0.48592825813183171 0.31887243940061771 0 -0.48532873884989641 0.29408770619396563 0 -0.49999999999999861 0.31041071198913828 0 -0.48592825813183171 0.31887243940061771 0 -0.48532873884989641 0.29408770619396563 0 -0.48532873884989641 0.29408770619396563 0 -0.49999999999999861 0.31041071198913828 0 -0.48400787175212889 0.23948172502518 0 -0.49073105890795932 0.25297858040334048 0 -0.48466830530101312 0.26678471560957279 0 -0.4957417560300621 0.23875679201432851 0 -0.49999999999999972 0.26514882293327691 0 -0.4957417560300621 0.23875679201432851 0 -0.49073105890795932 0.25297858040334048 0 -0.49999999999999972 0.26514882293327691 0 -0.49073105890795932 0.25297858040334048 0 -0.49999999999999972 0.26514882293327691 0 -0.48466830530101312 0.26678471560957279 0 -0.5 0.28777976746120759 0 -0.49999999999999972 0.26514882293327691 0 -0.49345423925009257 0.27646429519724208 0 -0.48532873884989641 0.29408770619396563 0 -0.49345423925009257 0.27646429519724208 0 -0.48466830530101312 0.26678471560957279 0 -0.48532873884989641 0.29408770619396563 0 -0.48466830530101312 0.26678471560957279 0 -0.49999999999999972 0.26514882293327691 0 -0.49345423925009257 0.27646429519724208 0 -0.48466830530101312 0.26678471560957279 0 -0.48466830530101312 0.26678471560957279 0 -0.46831493632022531 0.26165729838068319 0 -0.46857548463923843 0.27544830888716748 0 -0.47936177313079609 0.28507514029707248 0 -0.48466830530101312 0.26678471560957279 0 -0.46857548463923843 0.27544830888716748 0 -0.47880831805439789 0.28683319239703281 0 -0.46857548463923843 0.27544830888716748 0 -0.48400787175212889 0.23948172502518 0 -0.48466830530101312 0.26678471560957279 0 -0.48466830530101312 0.26678471560957279 0 -0.47496881677379238 0.25062421766738041 0 -0.46831493632022531 0.26165729838068319 0 -0.48400787175212889 0.23948172502518 0 -0.48466830530101312 0.26678471560957279 0 -0.47496881677379238 0.25062421766738041 0 -0.46067917674487202 0.24578791896303159 0 -0.46831493632022531 0.26165729838068319 0 -0.45484523825219808 0.26697463673635308 0 -0.46067917674487202 0.24578791896303159 0 -0.47496881677379238 0.25062421766738041 0 -0.46831493632022531 0.26165729838068319 0 -0.46831493632022531 0.26165729838068319 0 -0.46857548463923843 0.27544830888716748 0 -0.45484523825219808 0.26697463673635308 0 -0.45699434826899688 0.28137922443773289 0 -0.46857548463923843 0.27544830888716748 0 -0.45484523825219808 0.26697463673635308 0 -0.45699434826899688 0.28137922443773289 0 -0.45484523825219808 0.26697463673635308 0 -0.44507828897678159 0.27840574737841101 0 -0.45484523825219808 0.26697463673635308 0 -0.44241869297812608 0.27057436516883038 0 -0.44507828897678159 0.27840574737841101 0 -0.44241869297812608 0.27057436516883038 0 -0.4436476101133785 0.25895786337446769 0 -0.43225286510683131 0.27221487891833918 0 -0.44507828897678159 0.27840574737841101 0 -0.43626946244144088 0.27631869943658122 0 -0.43735529567774112 0.28489315462788278 0 -0.44241869297812608 0.27057436516883038 0 -0.44507828897678159 0.27840574737841101 0 -0.43626946244144088 0.27631869943658122 0 -0.46067917674487202 0.24578791896303159 0 -0.4436476101133785 0.25895786337446769 0 -0.46067917674487202 0.24578791896303159 0 -0.45484523825219808 0.26697463673635308 0 -0.4436476101133785 0.25895786337446769 0 -0.45484523825219808 0.26697463673635308 0 -0.44241869297812608 0.27057436516883038 0 -0.4436476101133785 0.25895786337446769 0 -0.4436476101133785 0.25895786337446769 0 -0.42661604348188448 0.2721278077859034 0 -0.43555763534364911 0.24400067240948509 0 -0.4436476101133785 0.25895786337446769 0 -0.42661604348188448 0.2721278077859034 0 -0.43555763534364911 0.24400067240948509 0 -0.42060660074010942 0.25473258134287657 0 -0.42661604348188448 0.2721278077859034 0 -0.43555763534364911 0.24400067240948509 0 -0.42661604348188448 0.2721278077859034 0 -0.42060660074010942 0.25473258134287657 0 -0.4165526710681558 0.26558490018247338 0 -0.40438226554742929 0.26342040343051221 0 -0.42060660074010942 0.25473258134287657 0 -0.4165526710681558 0.26558490018247338 0 -0.42661604348188448 0.2721278077859034 0 -0.40167854475825282 0.24059208437640539 0 -0.42060660074010942 0.25473258134287657 0 -0.40438226554742929 0.26342040343051221 0 -0.4165526710681558 0.26558490018247338 0 -0.41089089823461927 0.27288806951224981 0 -0.42661604348188448 0.2721278077859034 0 -0.41089089823461927 0.27288806951224981 0 -0.42661604348188448 0.2721278077859034 0 -0.40808833552804091 0.286454668555849 0 -0.42661604348188448 0.2721278077859034 0 -0.42722318679739379 0.28272390765424421 0 -0.40808833552804091 0.286454668555849 0 -0.42661604348188448 0.2721278077859034 0 -0.40808833552804091 0.286454668555849 0 -0.4165526710681558 0.26558490018247338 0 -0.41089089823461927 0.27288806951224981 0 -0.40438226554742929 0.26342040343051221 0 -0.42661604348188448 0.2721278077859034 0 -0.4303277363337249 0.27651977430647412 0 -0.42722318679739379 0.28272390765424421 0 -0.4436476101133785 0.25895786337446769 0 -0.42661604348188448 0.2721278077859034 0 -0.43225286510683131 0.27221487891833918 0 -0.42866686641450868 0.27331170210576539 0 -0.42661604348188448 0.2721278077859034 0 -0.4303277363337249 0.27651977430647412 0 -0.42866686641450868 0.27331170210576539 0 -0.42661604348188448 0.2721278077859034 0 -0.43225286510683131 0.27221487891833918 0 -0.44241869297812608 0.27057436516883038 0 -0.43225286510683131 0.27221487891833918 0 -0.43626946244144088 0.27631869943658122 0 -0.43321090817008973 0.28027204466830158 0 -0.43626946244144088 0.27631869943658122 0 -0.43735529567774112 0.28489315462788278 0 -0.43321090817008973 0.28027204466830158 0 -0.4303277363337249 0.27651977430647412 0 -0.43626946244144088 0.27631869943658122 0 -0.43321090817008973 0.28027204466830158 0 -0.4303277363337249 0.27651977430647412 0 -0.42722318679739379 0.28272390765424421 0 -0.42866686641450868 0.27331170210576539 0 -0.43225286510683131 0.27221487891833918 0 -0.4303277363337249 0.27651977430647412 0 -0.43225286510683131 0.27221487891833918 0 -0.4303277363337249 0.27651977430647412 0 -0.43626946244144088 0.27631869943658122 0 -0.43321090817008973 0.28027204466830158 0 -0.43735529567774112 0.28489315462788278 0 -0.42722318679739379 0.28272390765424421 0 -0.43735529567774112 0.28489315462788278 0 -0.42630197482938181 0.29482615070754631 0 -0.42722318679739379 0.28272390765424421 0 -0.43735529567774112 0.28489315462788278 0 -0.43689910241905561 0.29603748260767182 0 -0.42630197482938181 0.29482615070754631 0 -0.42630197482938181 0.29482615070754631 0 -0.43204107734184671 0.30685441950589148 0 -0.41438993902560739 0.31176022368235079 0 -0.43689910241905561 0.29603748260767182 0 -0.42630197482938181 0.29482615070754631 0 -0.43204107734184671 0.30685441950589148 0 -0.42630197482938181 0.29482615070754631 0 -0.41438993902560739 0.31176022368235079 0 -0.40808833552804091 0.286454668555849 0 -0.42630197482938181 0.29482615070754631 0 -0.42722318679739379 0.28272390765424421 0 -0.40808833552804091 0.286454668555849 0 -0.40808833552804091 0.286454668555849 0 -0.39061369645968907 0.28777406485344692 0 -0.39649337787972289 0.27737085594504129 0 -0.40808833552804091 0.286454668555849 0 -0.38956062757419618 0.30078152932579322 0 -0.39061369645968907 0.28777406485344692 0 -0.40808833552804091 0.286454668555849 0 -0.38956062757419618 0.30078152932579322 0 -0.39061369645968907 0.28777406485344692 0 -0.38865049628673692 0.28053292385147988 0 -0.39649337787972289 0.27737085594504129 0 -0.41438993902560739 0.31176022368235079 0 -0.40808833552804091 0.286454668555849 0 -0.38956062757419618 0.30078152932579322 0 -0.41438993902560739 0.31176022368235079 0 -0.38956062757419618 0.30078152932579322 0 -0.39191418996105082 0.31838610164523362 0 -0.41438993902560739 0.31176022368235079 0 -0.38956062757419618 0.30078152932579322 0 -0.39191418996105082 0.31838610164523362 0 -0.38956062757419618 0.30078152932579322 0 -0.3744393805172796 0.31247428710198982 0 -0.38956062757419618 0.30078152932579322 0 -0.37497241903855549 0.2943311095050084 0 -0.3744393805172796 0.31247428710198982 0 -0.38956062757419618 0.30078152932579322 0 -0.37497241903855549 0.2943311095050084 0 -0.38956062757419618 0.30078152932579322 0 -0.3744393805172796 0.31247428710198982 0 -0.38956062757419618 0.30078152932579322 0 -0.39061369645968907 0.28777406485344692 0 -0.37497241903855549 0.2943311095050084 0 -0.39061369645968907 0.28777406485344692 0 -0.381970544701139 0.27982971968294063 0 -0.37497241903855549 0.2943311095050084 0 -0.39061369645968907 0.28777406485344692 0 -0.381970544701139 0.27982971968294063 0 -0.38865049628673692 0.28053292385147988 0 -0.38183186631505212 0.27595707624028332 0 -0.381970544701139 0.27982971968294063 0 -0.38183186631505212 0.27595707624028332 0 -0.381970544701139 0.27982971968294063 0 -0.38865049628673692 0.28053292385147988 0 -0.38183186631505212 0.27595707624028332 0 -0.38865049628673692 0.28053292385147988 0 -0.39649337787972289 0.27737085594504129 0 -0.38089918133046369 0.24991151505750661 0 -0.38183186631505212 0.27595707624028332 0 -0.37118311982732283 0.26471588601651491 0 -0.38089918133046369 0.24991151505750661 0 -0.38183186631505212 0.27595707624028332 0 -0.38089918133046369 0.24991151505750661 0 -0.38183186631505212 0.27595707624028332 0 -0.39219796448779942 0.25747026977617682 0 -0.40167854475825282 0.24059208437640539 0 -0.39219796448779942 0.25747026977617682 0 -0.40438226554742929 0.26342040343051221 0 -0.38183186631505212 0.27595707624028332 0 -0.39219796448779942 0.25747026977617682 0 -0.40438226554742929 0.26342040343051221 0 -0.41089089823461927 0.27288806951224981 0 -0.40438226554742929 0.26342040343051221 0 -0.39649337787972289 0.27737085594504129 0 -0.38183186631505212 0.27595707624028332 0 -0.40438226554742929 0.26342040343051221 0 -0.38183186631505212 0.27595707624028332 0 -0.40438226554742929 0.26342040343051221 0 -0.39649337787972289 0.27737085594504129 0 -0.41089089823461927 0.27288806951224981 0 -0.40808833552804091 0.286454668555849 0 -0.39649337787972289 0.27737085594504129 0 -0.3531936270013627 0.27296428681047319 0 -0.34640570802889492 0.25478041898938741 0 -0.33677772351961199 0.2774426875701132 0 -0.3531936270013627 0.27296428681047319 0 -0.36038421050291441 0.28788068968422498 0 -0.33677772351961199 0.2774426875701132 0 -0.3531936270013627 0.27296428681047319 0 -0.36416145047644333 0.27337524294889842 0 -0.36038421050291441 0.28788068968422498 0 -0.36613552699662999 0.2498380616322399 0 -0.34640570802889492 0.25478041898938741 0 -0.36095997885807152 0.26366501307353962 0 -0.3531936270013627 0.27296428681047319 0 -0.34640570802889492 0.25478041898938741 0 -0.36095997885807152 0.26366501307353962 0 -0.36613552699662999 0.2498380616322399 0 -0.36095997885807152 0.26366501307353962 0 -0.37118311982732283 0.26471588601651491 0 -0.38089918133046369 0.24991151505750661 0 -0.36613552699662999 0.2498380616322399 0 -0.37118311982732283 0.26471588601651491 0 -0.37118311982732283 0.26471588601651491 0 -0.36416145047644333 0.27337524294889842 0 -0.37045317698238822 0.27550113327223491 0 -0.38183186631505212 0.27595707624028332 0 -0.381970544701139 0.27982971968294063 0 -0.36038421050291441 0.28788068968422498 0 -0.38183186631505212 0.27595707624028332 0 -0.37118311982732283 0.26471588601651491 0 -0.37045317698238822 0.27550113327223491 0 -0.38183186631505212 0.27595707624028332 0 -0.37045317698238822 0.27550113327223491 0 -0.36038421050291441 0.28788068968422498 0 -0.36095997885807152 0.26366501307353962 0 -0.37118311982732283 0.26471588601651491 0 -0.36416145047644333 0.27337524294889842 0 -0.3531936270013627 0.27296428681047319 0 -0.36095997885807152 0.26366501307353962 0 -0.36416145047644333 0.27337524294889842 0 -0.36416145047644333 0.27337524294889842 0 -0.37045317698238822 0.27550113327223491 0 -0.36038421050291441 0.28788068968422498 0 -0.38183186631505212 0.27595707624028332 0 -0.36038421050291441 0.28788068968422498 0 -0.381970544701139 0.27982971968294063 0 -0.37497241903855549 0.2943311095050084 0 -0.36038421050291441 0.28788068968422498 0 -0.37497241903855549 0.2943311095050084 0 -0.36038421050291441 0.28788068968422498 0 -0.37497241903855549 0.2943311095050084 0 -0.36038421050291441 0.28788068968422498 0 -0.36109113476700933 0.29857094419803842 0 -0.37497241903855549 0.2943311095050084 0 -0.3744393805172796 0.31247428710198982 0 -0.36557960009838392 0.30896346928429569 0 -0.37497241903855549 0.2943311095050084 0 -0.36109113476700933 0.29857094419803842 0 -0.36557960009838392 0.30896346928429569 0 -0.36109113476700933 0.29857094419803842 0 -0.36557960009838392 0.30896346928429569 0 -0.35593490501953851 0.30434676385610021 0 -0.36557960009838392 0.30896346928429569 0 -0.35593490501953851 0.30434676385610021 0 -0.3577311178113004 0.31268010782440281 0 -0.35593490501953851 0.30434676385610021 0 -0.34920718883245278 0.30567825279746552 0 -0.3577311178113004 0.31268010782440281 0 -0.36109113476700933 0.29857094419803842 0 -0.35593490501953851 0.30434676385610021 0 -0.34606548358854622 0.29584104517629839 0 -0.35593490501953851 0.30434676385610021 0 -0.34920718883245278 0.30567825279746552 0 -0.34606548358854622 0.29584104517629839 0 -0.34920718883245278 0.30567825279746552 0 -0.34485586012493308 0.31374122629784479 0 -0.3577311178113004 0.31268010782440281 0 -0.36038421050291441 0.28788068968422498 0 -0.33677772351961199 0.2774426875701132 0 -0.36038421050291441 0.28788068968422498 0 -0.34606548358854622 0.29584104517629839 0 -0.33677772351961199 0.2774426875701132 0 -0.36038421050291441 0.28788068968422498 0 -0.36109113476700933 0.29857094419803842 0 -0.34606548358854622 0.29584104517629839 0 -0.36038421050291441 0.28788068968422498 0 -0.34606548358854622 0.29584104517629839 0 -0.34606548358854622 0.29584104517629839 0 -0.33110280865141428 0.29299256061127932 0 -0.33677772351961199 0.2774426875701132 0 -0.33110280865141428 0.29299256061127932 0 -0.32103468670634311 0.28561740771421051 0 -0.33677772351961199 0.2774426875701132 0 -0.34920718883245278 0.30567825279746552 0 -0.34606548358854622 0.29584104517629839 0 -0.33174675667417591 0.30380140066836792 0 -0.34920718883245278 0.30567825279746552 0 -0.33174675667417591 0.30380140066836792 0 -0.34485586012493308 0.31374122629784479 0 -0.34606548358854622 0.29584104517629839 0 -0.33174675667417591 0.30380140066836792 0 -0.34606548358854622 0.29584104517629839 0 -0.33110280865141428 0.29299256061127932 0 -0.33174675667417591 0.30380140066836792 0 -0.33110280865141428 0.29299256061127932 0 -0.33174675667417591 0.30380140066836792 0 -0.32784487852360689 0.29971661717219122 0 -0.33174675667417591 0.30380140066836792 0 -0.32909824505711632 0.30245354363155291 0 -0.3252268787515345 0.30330085774374288 0 -0.33174675667417591 0.30380140066836792 0 -0.32909824505711632 0.30245354363155291 0 -0.32784487852360689 0.29971661717219122 0 -0.33174675667417591 0.30380140066836792 0 -0.31947495640036738 0.30600282422544972 0 -0.31112804952138667 0.31526416825272302 0 -0.33174675667417591 0.30380140066836792 0 -0.31112804952138667 0.31526416825272302 0 -0.33174675667417591 0.30380140066836792 0 -0.31112804952138667 0.31526416825272302 0 -0.32415951583201602 0.31663507166942428 0 -0.3252268787515345 0.30330085774374288 0 -0.31947495640036738 0.30600282422544972 0 -0.32294982564045949 0.29677488624087961 0 -0.33174675667417591 0.30380140066836792 0 -0.3252268787515345 0.30330085774374288 0 -0.31947495640036738 0.30600282422544972 0 -0.32909824505711632 0.30245354363155291 0 -0.3252268787515345 0.30330085774374288 0 -0.32784487852360689 0.29971661717219122 0 -0.3252268787515345 0.30330085774374288 0 -0.32784487852360689 0.29971661717219122 0 -0.32294982564045949 0.29677488624087961 0 -0.31947495640036738 0.30600282422544972 0 -0.31039103873462648 0.29595886643612918 0 -0.31061707089720608 0.3060677795354913 0 -0.31947495640036738 0.30600282422544972 0 -0.32294982564045949 0.29677488624087961 0 -0.31039103873462648 0.29595886643612918 0 -0.31947495640036738 0.30600282422544972 0 -0.31061707089720608 0.3060677795354913 0 -0.31112804952138667 0.31526416825272302 0 -0.33110280865141428 0.29299256061127932 0 -0.32784487852360689 0.29971661717219122 0 -0.32294982564045949 0.29677488624087961 0 -0.33110280865141428 0.29299256061127932 0 -0.32103468670634311 0.28561740771421051 0 -0.32294982564045949 0.29677488624087961 0 -0.32103468670634311 0.28561740771421051 0 -0.32294982564045949 0.29677488624087961 0 -0.31039103873462648 0.29595886643612918 0 -0.32103468670634311 0.28561740771421051 0 -0.31317123653630968 0.26700468545600059 0 -0.33677772351961199 0.2774426875701132 0 -0.32103468670634311 0.28561740771421051 0 -0.31317123653630968 0.26700468545600059 0 -0.30460498261159419 0.27985373466183111 0 -0.31317123653630968 0.26700468545600059 0 -0.33677772351961199 0.2774426875701132 0 -0.33021853714942451 0.26124520878882812 0 -0.31317123653630968 0.26700468545600059 0 -0.33677772351961199 0.2774426875701132 0 -0.32451948051288149 0.24575304313981139 0 -0.34640570802889492 0.25478041898938741 0 -0.33021853714942451 0.26124520878882812 0 -0.34640570802889492 0.25478041898938741 0 -0.33677772351961199 0.2774426875701132 0 -0.33021853714942451 0.26124520878882812 0 -0.32451948051288149 0.24575304313981139 0 -0.3049348337754611 0.24434814692371409 0 -0.31317123653630968 0.26700468545600059 0 -0.32451948051288149 0.24575304313981139 0 -0.31317123653630968 0.26700468545600059 0 -0.33021853714942451 0.26124520878882812 0 -0.31317123653630968 0.26700468545600059 0 -0.28937940074773799 0.25656505057758427 0 -0.28934098046515072 0.26092645991215169 0 -0.31317123653630968 0.26700468545600059 0 -0.28937940074773799 0.25656505057758427 0 -0.3049348337754611 0.24434814692371409 0 -0.31317123653630968 0.26700468545600059 0 -0.28937940074773799 0.25656505057758427 0 -0.31317123653630968 0.26700468545600059 0 -0.30460498261159419 0.27985373466183111 0 -0.28934098046515072 0.26092645991215169 0 -0.28934098046515072 0.26092645991215169 0 -0.27333694078370968 0.27218118639568739 0 -0.28119720026045059 0.28132108813136142 0 -0.28934098046515072 0.26092645991215169 0 -0.28908697061554112 0.28976125379066298 0 -0.30460498261159419 0.27985373466183111 0 -0.28934098046515072 0.26092645991215169 0 -0.28908697061554112 0.28976125379066298 0 -0.28934098046515072 0.26092645991215169 0 -0.28119720026045059 0.28132108813136142 0 -0.28908697061554112 0.28976125379066298 0 -0.28937940074773799 0.25656505057758427 0 -0.28934098046515072 0.26092645991215169 0 -0.28937940074773799 0.25656505057758427 0 -0.28934098046515072 0.26092645991215169 0 -0.27814010919050952 0.25176293348782253 0 -0.28934098046515072 0.26092645991215169 0 -0.27814010919050952 0.25176293348782253 0 -0.27333694078370968 0.27218118639568739 0 -0.27814010919050952 0.25176293348782253 0 -0.27333694078370968 0.27218118639568739 0 -0.26406626432459401 0.23767814437306889 0 -0.27814010919050952 0.25176293348782253 0 -0.26001647837282271 0.26160301861755331 0 -0.27814010919050952 0.25176293348782253 0 -0.27333694078370968 0.27218118639568739 0 -0.26001647837282271 0.26160301861755331 0 -0.27333694078370968 0.27218118639568739 0 -0.27325568514091231 0.2891296935192042 0 -0.28119720026045059 0.28132108813136142 0 -0.27333694078370968 0.27218118639568739 0 -0.2605132354383905 0.27886162704811451 0 -0.26853377237691117 0.29259943930355259 0 -0.2605132354383905 0.27886162704811451 0 -0.26001647837282271 0.26160301861755331 0 -0.2446388535331426 0.2762043510430276 0 -0.27333694078370968 0.27218118639568739 0 -0.2605132354383905 0.27886162704811451 0 -0.26001647837282271 0.26160301861755331 0 -0.26406626432459401 0.23767814437306889 0 -0.26001647837282271 0.26160301861755331 0 -0.24214295464715219 0.25181578413355249 0 -0.25314696190835279 0.30390594228787221 0 -0.26853377237691117 0.29259943930355259 0 -0.26282370428094581 0.31687291977103382 0 -0.25314696190835279 0.30390594228787221 0 -0.26282370428094581 0.31687291977103382 0 -0.23776015143979429 0.3152124452721915 0 -0.25314696190835279 0.30390594228787221 0 -0.26853377237691117 0.29259943930355259 0 -0.2605132354383905 0.27886162704811451 0 -0.25272870130594038 0.28890713845571209 0 -0.26853377237691117 0.29259943930355259 0 -0.2605132354383905 0.27886162704811451 0 -0.25272870130594038 0.28890713845571209 0 -0.2446388535331426 0.2762043510430276 0 -0.25314696190835279 0.30390594228787221 0 -0.25272870130594038 0.28890713845571209 0 -0.26853377237691117 0.29259943930355259 0 -0.27333694078370968 0.27218118639568739 0 -0.26853377237691117 0.29259943930355259 0 -0.27325568514091231 0.2891296935192042 0 -0.27333694078370968 0.27218118639568739 0 -0.26853377237691117 0.29259943930355259 0 -0.26853377237691117 0.29259943930355259 0 -0.27325568514091231 0.2891296935192042 0 -0.27325568514091231 0.2891296935192042 0 -0.28119720026045059 0.28132108813136142 0 -0.27922756028611889 0.29229739058858362 0 -0.26853377237691117 0.29259943930355259 0 -0.27325568514091231 0.2891296935192042 0 -0.27922756028611889 0.29229739058858362 0 -0.26853377237691117 0.29259943930355259 0 -0.27922756028611889 0.29229739058858362 0 -0.28058844501513741 0.30405656529710129 0 -0.26853377237691117 0.29259943930355259 0 -0.26282370428094581 0.31687291977103382 0 -0.26853377237691117 0.29259943930355259 0 -0.28058844501513741 0.30405656529710129 0 -0.26282370428094581 0.31687291977103382 0 -0.28908697061554112 0.28976125379066298 0 -0.28883296076592702 0.31859604766917438 0 -0.28058844501513741 0.30405656529710129 0 -0.28908697061554112 0.28976125379066298 0 -0.28883296076592702 0.31859604766917438 0 -0.28908697061554112 0.28976125379066298 0 -0.30163489900607182 0.30663995810010503 0 -0.28883296076592702 0.31859604766917438 0 -0.28119720026045059 0.28132108813136142 0 -0.27922756028611889 0.29229739058858362 0 -0.28908697061554112 0.28976125379066298 0 -0.27922756028611889 0.29229739058858362 0 -0.28058844501513741 0.30405656529710129 0 -0.28908697061554112 0.28976125379066298 0 -0.32103468670634311 0.28561740771421051 0 -0.30460498261159419 0.27985373466183111 0 -0.31039103873462648 0.29595886643612918 0 -0.30460498261159419 0.27985373466183111 0 -0.28908697061554112 0.28976125379066298 0 -0.31039103873462648 0.29595886643612918 0 -0.28908697061554112 0.28976125379066298 0 -0.31039103873462648 0.29595886643612918 0 -0.30163489900607182 0.30663995810010503 0 -0.31039103873462648 0.29595886643612918 0 -0.30163489900607182 0.30663995810010503 0 -0.31061707089720608 0.3060677795354913 0 -0.30163489900607182 0.30663995810010503 0 -0.31061707089720608 0.3060677795354913 0 -0.31112804952138667 0.31526416825272302 0 -0.31112804952138667 0.31526416825272302 0 -0.30125502667739917 0.319419016535546 0 -0.30691824557922792 0.3299887234924499 0 -0.30163489900607182 0.30663995810010503 0 -0.31112804952138667 0.31526416825272302 0 -0.30125502667739917 0.319419016535546 0 -0.30163489900607182 0.30663995810010503 0 -0.30125502667739917 0.319419016535546 0 -0.28883296076592702 0.31859604766917438 0 -0.30125502667739917 0.319419016535546 0 -0.30691824557922792 0.3299887234924499 0 -0.28864829602230269 0.33955889547743301 0 -0.30691824557922792 0.3299887234924499 0 -0.28864829602230269 0.33955889547743301 0 -0.30246175173771039 0.34422696886639959 0 -0.30246175173771039 0.34422696886639959 0 -0.31464955589821919 0.34993191472040419 0 -0.31391762701124942 0.33708925737457102 0 -0.30691824557922792 0.3299887234924499 0 -0.30246175173771039 0.34422696886639959 0 -0.31391762701124942 0.33708925737457102 0 -0.28864829602230269 0.33955889547743301 0 -0.28883296076592702 0.31859604766917438 0 -0.2726544183697161 0.33375354466263668 0 -0.28864829602230269 0.33955889547743301 0 -0.28883296076592702 0.31859604766917438 0 -0.30125502667739917 0.319419016535546 0 -0.28864829602230269 0.33955889547743301 0 -0.28883296076592702 0.31859604766917438 0 -0.30125502667739917 0.319419016535546 0 -0.28883296076592702 0.31859604766917438 0 -0.28883296076592702 0.31859604766917438 0 -0.2726544183697161 0.33375354466263668 0 -0.26282370428094581 0.31687291977103382 0 -0.28058844501513741 0.30405656529710129 0 -0.28883296076592702 0.31859604766917438 0 -0.26282370428094581 0.31687291977103382 0 -0.28883296076592702 0.31859604766917438 0 -0.26282370428094581 0.31687291977103382 0 -0.2726544183697161 0.33375354466263668 0 -0.26807762084896142 0.34588115685936088 0 -0.27767665119464541 0.35040078766436289 0 -0.28864829602230269 0.33955889547743301 0 -0.2726544183697161 0.33375354466263668 0 -0.27767665119464541 0.35040078766436289 0 -0.2726544183697161 0.33375354466263668 0 -0.25704488749120552 0.34143865070691742 0 -0.26807762084896142 0.34588115685936088 0 -0.25704488749120552 0.34143865070691742 0 -0.26282370428094581 0.31687291977103382 0 -0.2726544183697161 0.33375354466263668 0 -0.25704488749120552 0.34143865070691742 0 -0.26282370428094581 0.31687291977103382 0 -0.25704488749120552 0.34143865070691742 0 -0.25389434779743858 0.32383608782264178 0 -0.24565220057314491 0.33603888307632612 0 -0.26282370428094581 0.31687291977103382 0 -0.23776015143979429 0.3152124452721915 0 -0.25704488749120552 0.34143865070691742 0 -0.25389434779743858 0.32383608782264178 0 -0.26282370428094581 0.31687291977103382 0 -0.25389434779743858 0.32383608782264178 0 -0.26282370428094581 0.31687291977103382 0 -0.23776015143979429 0.3152124452721915 0 -0.26379989327169828 0.36827120351384351 0 -0.25126607070146301 0.36600438164280041 0 -0.2668852268214022 0.35725629733907049 0 -0.26379989327169828 0.36827120351384351 0 -0.27004792936901217 0.37443205298337162 0 -0.26007906330776021 0.38034583881876782 0 -0.26379989327169828 0.36827120351384351 0 -0.25126607070146301 0.36600438164280041 0 -0.26007906330776021 0.38034583881876782 0 -0.25704488749120552 0.34143865070691742 0 -0.2668852268214022 0.35725629733907049 0 -0.26807762084896142 0.34588115685936088 0 -0.25704488749120552 0.34143865070691742 0 -0.25126607070146301 0.36600438164280041 0 -0.2668852268214022 0.35725629733907049 0 -0.25704488749120552 0.34143865070691742 0 -0.25126607070146301 0.36600438164280041 0 -0.25704488749120552 0.34143865070691742 0 -0.25126607070146301 0.36600438164280041 0 -0.24410524378779749 0.35581516123685802 0 -0.2668852268214022 0.35725629733907049 0 -0.26807762084896142 0.34588115685936088 0 -0.27767665119464541 0.35040078766436289 0 -0.2668852268214022 0.35725629733907049 0 -0.27767665119464541 0.35040078766436289 0 -0.27661296498871613 0.35800535908112319 0 -0.27767665119464541 0.35040078766436289 0 -0.27661296498871613 0.35800535908112319 0 -0.28449375984198477 0.36048531913324577 0 -0.27661296498871613 0.35800535908112319 0 -0.27917029157203271 0.36219267703247321 0 -0.28449375984198477 0.36048531913324577 0 -0.27917029157203271 0.36219267703247321 0 -0.27402391517212321 0.36562632346096807 0 -0.28155052628530708 0.36465370645455558 0 -0.27661296498871613 0.35800535908112319 0 -0.27917029157203271 0.36219267703247321 0 -0.27402391517212321 0.36562632346096807 0 -0.26379989327169828 0.36827120351384351 0 -0.2668852268214022 0.35725629733907049 0 -0.27402391517212321 0.36562632346096807 0 -0.2668852268214022 0.35725629733907049 0 -0.27661296498871613 0.35800535908112319 0 -0.27402391517212321 0.36562632346096807 0 -0.26379989327169828 0.36827120351384351 0 -0.27402391517212321 0.36562632346096807 0 -0.27004792936901217 0.37443205298337162 0 -0.27402391517212321 0.36562632346096807 0 -0.27004792936901217 0.37443205298337162 0 -0.2815265797335253 0.37447278862882011 0 -0.27402391517212321 0.36562632346096807 0 -0.2815265797335253 0.37447278862882011 0 -0.28155052628530708 0.36465370645455558 0 -0.28846363127867142 0.36052174328569159 0 -0.28825624646783221 0.38406373696565382 0 -0.28846363127867142 0.36052174328569159 0 -0.30088930960570098 0.37285361298283481 0 -0.28825624646783221 0.38406373696565382 0 -0.2815265797335253 0.37447278862882011 0 -0.28846363127867142 0.36052174328569159 0 -0.28825624646783221 0.38406373696565382 0 -0.2815265797335253 0.37447278862882011 0 -0.28155052628530708 0.36465370645455558 0 -0.28846363127867142 0.36052174328569159 0 -0.28155052628530708 0.36465370645455558 0 -0.28449375984198477 0.36048531913324577 0 -0.28846363127867142 0.36052174328569159 0 -0.27917029157203271 0.36219267703247321 0 -0.28155052628530708 0.36465370645455558 0 -0.28449375984198477 0.36048531913324577 0 -0.28449375984198477 0.36048531913324577 0 -0.28846363127867142 0.36052174328569159 0 -0.28864829602230269 0.33955889547743301 0 -0.28846363127867142 0.36052174328569159 0 -0.30246175173771039 0.34422696886639959 0 -0.28864829602230269 0.33955889547743301 0 -0.27767665119464541 0.35040078766436289 0 -0.28846363127867142 0.36052174328569159 0 -0.28864829602230269 0.33955889547743301 0 -0.28846363127867142 0.36052174328569159 0 -0.27767665119464541 0.35040078766436289 0 -0.28449375984198477 0.36048531913324577 0 -0.28846363127867142 0.36052174328569159 0 -0.28846363127867142 0.36052174328569159 0 -0.30246175173771039 0.34422696886639959 0 -0.30617371452314751 0.3606842358958966 0 -0.30246175173771039 0.34422696886639959 0 -0.30617371452314751 0.3606842358958966 0 -0.31464955589821919 0.34993191472040419 0 -0.28846363127867142 0.36052174328569159 0 -0.30617371452314751 0.3606842358958966 0 -0.28846363127867142 0.36052174328569159 0 -0.30088930960570098 0.37285361298283481 0 -0.30617371452314751 0.3606842358958966 0 -0.30088930960570098 0.37285361298283481 0 -0.30617371452314751 0.3606842358958966 0 -0.31514558450882602 0.37328169242434472 0 -0.30617371452314751 0.3606842358958966 0 -0.32388379776762349 0.36084672850610222 0 -0.31514558450882602 0.37328169242434472 0 -0.32388379776762349 0.36084672850610222 0 -0.33308183247715828 0.37221042966199519 0 -0.30617371452314751 0.3606842358958966 0 -0.31514558450882602 0.37328169242434472 0 -0.32388379776762349 0.36084672850610222 0 -0.31514558450882602 0.37328169242434472 0 -0.32388379776762349 0.36084672850610222 0 -0.33308183247715828 0.37221042966199519 0 -0.34438663897101612 0.36294010622563999 0 -0.33589615148725122 0.38655675863451278 0 -0.32388379776762349 0.36084672850610222 0 -0.34397862200044788 0.36103110146449757 0 -0.32388379776762349 0.36084672850610222 0 -0.33308183247715828 0.37221042966199519 0 -0.34397862200044788 0.36103110146449757 0 -0.34438663897101612 0.36294010622563999 0 -0.33589615148725122 0.38655675863451278 0 -0.33308183247715828 0.37221042966199519 0 -0.34438663897101612 0.36294010622563999 0 -0.34397862200044788 0.36103110146449757 0 -0.32388379776762349 0.36084672850610222 0 -0.32458273369428647 0.33927851261392572 0 -0.33926190670246442 0.33896282340193279 0 -0.33926190670246442 0.33896282340193279 0 -0.34397862200044788 0.36103110146449757 0 -0.34605925440558299 0.35828765518469552 0 -0.32388379776762349 0.36084672850610222 0 -0.33926190670246442 0.33896282340193279 0 -0.34397862200044788 0.36103110146449757 0 -0.33926190670246442 0.33896282340193279 0 -0.34397862200044788 0.36103110146449757 0 -0.32388379776762349 0.36084672850610222 0 -0.33926190670246442 0.33896282340193279 0 -0.32388379776762349 0.36084672850610222 0 -0.31464955589821919 0.34993191472040419 0 -0.32458273369428647 0.33927851261392572 0 -0.30617371452314751 0.3606842358958966 0 -0.32388379776762349 0.36084672850610222 0 -0.31464955589821919 0.34993191472040419 0 -0.31464955589821919 0.34993191472040419 0 -0.31391762701124942 0.33708925737457102 0 -0.32458273369428647 0.33927851261392572 0 -0.32458273369428647 0.33927851261392572 0 -0.31981498419011878 0.32588868332349291 0 -0.33550433168832 0.32138211203515038 0 -0.31391762701124942 0.33708925737457102 0 -0.32458273369428647 0.33927851261392572 0 -0.31981498419011878 0.32588868332349291 0 -0.30691824557922792 0.3299887234924499 0 -0.31391762701124942 0.33708925737457102 0 -0.31981498419011878 0.32588868332349291 0 -0.31981498419011878 0.32588868332349291 0 -0.32415951583201602 0.31663507166942428 0 -0.33550433168832 0.32138211203515038 0 -0.31112804952138667 0.31526416825272302 0 -0.31981498419011878 0.32588868332349291 0 -0.32415951583201602 0.31663507166942428 0 -0.31112804952138667 0.31526416825272302 0 -0.30691824557922792 0.3299887234924499 0 -0.31981498419011878 0.32588868332349291 0 -0.33174675667417591 0.30380140066836792 0 -0.32415951583201602 0.31663507166942428 0 -0.33550433168832 0.32138211203515038 0 -0.33174675667417591 0.30380140066836792 0 -0.33550433168832 0.32138211203515038 0 -0.33174675667417591 0.30380140066836792 0 -0.33550433168832 0.32138211203515038 0 -0.34485586012493308 0.31374122629784479 0 -0.33550433168832 0.32138211203515038 0 -0.34485586012493308 0.31374122629784479 0 -0.34849651225688211 0.3258214656131676 0 -0.32458273369428647 0.33927851261392572 0 -0.33550433168832 0.32138211203515038 0 -0.33926190670246442 0.33896282340193279 0 -0.33550433168832 0.32138211203515038 0 -0.33926190670246442 0.33896282340193279 0 -0.33550433168832 0.32138211203515038 0 -0.33926190670246442 0.33896282340193279 0 -0.34849651225688211 0.3258214656131676 0 -0.3588008488537362 0.3395617526593932 0 -0.35410577375879571 0.31783917423179697 0 -0.33926190670246442 0.33896282340193279 0 -0.34940709710788331 0.34234690000780449 0 -0.34849651225688211 0.3258214656131676 0 -0.34940709710788331 0.34234690000780449 0 -0.3588008488537362 0.3395617526593932 0 -0.34849651225688211 0.3258214656131676 0 -0.33926190670246442 0.33896282340193279 0 -0.34940709710788331 0.34234690000780449 0 -0.348244447933588 0.34927448671583039 0 -0.33926190670246442 0.33896282340193279 0 -0.34849651225688211 0.3258214656131676 0 -0.3588008488537362 0.3395617526593932 0 -0.3593181334603624 0.3241670448781856 0 -0.35410577375879571 0.31783917423179697 0 -0.3588008488537362 0.3395617526593932 0 -0.34849651225688211 0.3258214656131676 0 -0.35410577375879571 0.31783917423179697 0 -0.34485586012493308 0.31374122629784479 0 -0.34849651225688211 0.3258214656131676 0 -0.35410577375879571 0.31783917423179697 0 -0.34849651225688211 0.3258214656131676 0 -0.35410577375879571 0.31783917423179697 0 -0.3593181334603624 0.3241670448781856 0 -0.35410577375879571 0.31783917423179697 0 -0.3577311178113004 0.31268010782440281 0 -0.34485586012493308 0.31374122629784479 0 -0.35410577375879571 0.31783917423179697 0 -0.3577311178113004 0.31268010782440281 0 -0.35410577375879571 0.31783917423179697 0 -0.3577311178113004 0.31268010782440281 0 -0.3744393805172796 0.31247428710198982 0 -0.3593181334603624 0.3241670448781856 0 -0.36557960009838392 0.30896346928429569 0 -0.3593181334603624 0.3241670448781856 0 -0.3577311178113004 0.31268010782440281 0 -0.3744393805172796 0.31247428710198982 0 -0.36557960009838392 0.30896346928429569 0 -0.3593181334603624 0.3241670448781856 0 -0.3593181334603624 0.3241670448781856 0 -0.37137244083342141 0.32477040145267583 0 -0.36690568109338728 0.33241492031725478 0 -0.3744393805172796 0.31247428710198982 0 -0.3593181334603624 0.3241670448781856 0 -0.37137244083342141 0.32477040145267583 0 -0.3588008488537362 0.3395617526593932 0 -0.36983217950573682 0.34039220066898879 0 -0.36906799974949411 0.34987867997437988 0 -0.3588008488537362 0.3395617526593932 0 -0.36690568109338728 0.33241492031725478 0 -0.36983217950573682 0.34039220066898879 0 -0.3588008488537362 0.3395617526593932 0 -0.3593181334603624 0.3241670448781856 0 -0.36690568109338728 0.33241492031725478 0 -0.37601543153736572 0.33313452262712728 0 -0.37137244083342141 0.32477040145267583 0 -0.36690568109338728 0.33241492031725478 0 -0.37601543153736572 0.33313452262712728 0 -0.36690568109338728 0.33241492031725478 0 -0.36983217950573682 0.34039220066898879 0 -0.37999219374207199 0.34687376916698243 0 -0.36983217950573682 0.34039220066898879 0 -0.36906799974949411 0.34987867997437988 0 -0.3588008488537362 0.3395617526593932 0 -0.36906799974949411 0.34987867997437988 0 -0.36338900044879469 0.36120919453247369 0 -0.3588008488537362 0.3395617526593932 0 -0.36338900044879469 0.36120919453247369 0 -0.36906799974949411 0.34987867997437988 0 -0.37413640492081651 0.36130780354415809 0 -0.36338900044879469 0.36120919453247369 0 -0.37999219374207199 0.34687376916698243 0 -0.36906799974949411 0.34987867997437988 0 -0.37413640492081651 0.36130780354415809 0 -0.37528696268018708 0.37198715513043629 0 -0.37413640492081651 0.36130780354415809 0 -0.36338900044879469 0.36120919453247369 0 -0.37413640492081651 0.36130780354415809 0 -0.36338900044879469 0.36120919453247369 0 -0.36338900044879469 0.36120919453247369 0 -0.3684959663578945 0.38530446370014998 0 -0.36338900044879469 0.36120919453247369 0 -0.35608132841044637 0.37470739330589098 0 -0.3684959663578945 0.38530446370014998 0 -0.37528696268018708 0.37198715513043629 0 -0.36338900044879469 0.36120919453247369 0 -0.3684959663578945 0.38530446370014998 0 -0.36338900044879469 0.36120919453247369 0 -0.34397862200044788 0.36103110146449757 0 -0.36338900044879469 0.36120919453247369 0 -0.34397862200044788 0.36103110146449757 0 -0.35213730136185861 0.35639934901025061 0 -0.36338900044879469 0.36120919453247369 0 -0.35241579985970167 0.36594741370831269 0 -0.34397862200044788 0.36103110146449757 0 -0.36338900044879469 0.36120919453247369 0 -0.35241579985970167 0.36594741370831269 0 -0.35608132841044637 0.37470739330589098 0 -0.35241579985970167 0.36594741370831269 0 -0.35608132841044637 0.37470739330589098 0 -0.34438663897101612 0.36294010622563999 0 -0.35241579985970167 0.36594741370831269 0 -0.34438663897101612 0.36294010622563999 0 -0.34397862200044788 0.36103110146449757 0 -0.34438663897101612 0.36294010622563999 0 -0.34397862200044788 0.36103110146449757 0 -0.34397862200044788 0.36103110146449757 0 -0.34605925440558299 0.35828765518469552 0 -0.34605925440558299 0.35828765518469552 0 -0.348244447933588 0.34927448671583039 0 -0.35213730136185861 0.35639934901025061 0 -0.34397862200044788 0.36103110146449757 0 -0.34605925440558299 0.35828765518469552 0 -0.35213730136185861 0.35639934901025061 0 -0.3588008488537362 0.3395617526593932 0 -0.36338900044879469 0.36120919453247369 0 -0.35435668009014948 0.35037570597446849 0 -0.33926190670246442 0.33896282340193279 0 -0.34605925440558299 0.35828765518469552 0 -0.348244447933588 0.34927448671583039 0 -0.34940709710788331 0.34234690000780449 0 -0.348244447933588 0.34927448671583039 0 -0.35435668009014948 0.35037570597446849 0 -0.34940709710788331 0.34234690000780449 0 -0.3588008488537362 0.3395617526593932 0 -0.35435668009014948 0.35037570597446849 0 -0.36338900044879469 0.36120919453247369 0 -0.35435668009014948 0.35037570597446849 0 -0.35213730136185861 0.35639934901025061 0 -0.348244447933588 0.34927448671583039 0 -0.35435668009014948 0.35037570597446849 0 -0.35213730136185861 0.35639934901025061 0 -0.35024547848602278 0.39035208498051011 0 -0.35610431800102721 0.41776406373538072 0 -0.35024547848602278 0.39035208498051011 0 -0.35610431800102721 0.41776406373538072 0 -0.34039545811519178 0.4012426762486716 0 -0.35024547848602278 0.39035208498051011 0 -0.36211217377798471 0.4007050863209668 0 -0.35610431800102721 0.41776406373538072 0 -0.34438663897101612 0.36294010622563999 0 -0.35024547848602278 0.39035208498051011 0 -0.35608132841044637 0.37470739330589098 0 -0.35024547848602278 0.39035208498051011 0 -0.3684959663578945 0.38530446370014998 0 -0.35608132841044637 0.37470739330589098 0 -0.34438663897101612 0.36294010622563999 0 -0.35024547848602278 0.39035208498051011 0 -0.35024547848602278 0.39035208498051011 0 -0.3684959663578945 0.38530446370014998 0 -0.36211217377798471 0.4007050863209668 0 -0.3684959663578945 0.38530446370014998 0 -0.37360293226699409 0.40939973286782638 0 -0.3684959663578945 0.38530446370014998 0 -0.36211217377798471 0.4007050863209668 0 -0.37360293226699409 0.40939973286782638 0 -0.37360293226699409 0.40939973286782638 0 -0.36930721869085031 0.4228990471545786 0 -0.35610431800102721 0.41776406373538072 0 -0.36211217377798471 0.4007050863209668 0 -0.37360293226699409 0.40939973286782638 0 -0.35610431800102721 0.41776406373538072 0 -0.36799780504853941 0.432268747563894 0 -0.35610431800102721 0.41776406373538072 0 -0.36196315751603159 0.44517604249025122 0 -0.37870989817609391 0.43349500203550279 0 -0.37360293226699409 0.40939973286782638 0 -0.36930721869085031 0.4228990471545786 0 -0.37870989817609391 0.43349500203550279 0 -0.36799780504853941 0.432268747563894 0 -0.37390443285869412 0.44200958240375687 0 -0.37870989817609391 0.43349500203550279 0 -0.36799780504853941 0.432268747563894 0 -0.36930721869085031 0.4228990471545786 0 -0.36799780504853941 0.432268747563894 0 -0.36930721869085031 0.4228990471545786 0 -0.35610431800102721 0.41776406373538072 0 -0.35610431800102721 0.41776406373538072 0 -0.33806631918041907 0.44189250286057802 0 -0.36196315751603159 0.44517604249025122 0 -0.35610431800102721 0.41776406373538072 0 -0.36196315751603159 0.44517604249025122 0 -0.35610431800102721 0.41776406373538072 0 -0.32740566400348903 0.41017341104338662 0 -0.33806631918041907 0.44189250286057802 0 -0.35610431800102721 0.41776406373538072 0 -0.32740566400348903 0.41017341104338662 0 -0.34039545811519178 0.4012426762486716 0 -0.31891517651972678 0.43379006345226029 0 -0.32740566400348903 0.41017341104338662 0 -0.33806631918041907 0.44189250286057802 0 -0.31891517651972678 0.43379006345226029 0 -0.32740566400348903 0.41017341104338662 0 -0.31891517651972678 0.43379006345226029 0 -0.32740566400348903 0.41017341104338662 0 -0.30503875852983903 0.42317271652439109 0 -0.32740566400348903 0.41017341104338662 0 -0.30767725922891498 0.40429603296439059 0 -0.30503875852983903 0.42317271652439109 0 -0.32740566400348903 0.41017341104338662 0 -0.32097926349112849 0.38893056841450258 0 -0.30767725922891498 0.40429603296439059 0 -0.32740566400348903 0.41017341104338662 0 -0.33589615148725122 0.38655675863451278 0 -0.32097926349112849 0.38893056841450258 0 -0.32740566400348903 0.41017341104338662 0 -0.33589615148725122 0.38655675863451278 0 -0.32740566400348903 0.41017341104338662 0 -0.34039545811519178 0.4012426762486716 0 -0.33589615148725122 0.38655675863451278 0 -0.35024547848602278 0.39035208498051011 0 -0.34039545811519178 0.4012426762486716 0 -0.33589615148725122 0.38655675863451278 0 -0.34438663897101612 0.36294010622563999 0 -0.35024547848602278 0.39035208498051011 0 -0.33589615148725122 0.38655675863451278 0 -0.33308183247715828 0.37221042966199519 0 -0.33589615148725122 0.38655675863451278 0 -0.32097926349112849 0.38893056841450258 0 -0.31514558450882602 0.37328169242434472 0 -0.32097926349112849 0.38893056841450258 0 -0.30640737125002798 0.38571665634258689 0 -0.31514558450882602 0.37328169242434472 0 -0.33308183247715828 0.37221042966199519 0 -0.32097926349112849 0.38893056841450258 0 -0.30088930960570098 0.37285361298283481 0 -0.31514558450882602 0.37328169242434472 0 -0.30640737125002798 0.38571665634258689 0 -0.31514558450882602 0.37328169242434472 0 -0.30640737125002798 0.38571665634258689 0 -0.30640737125002798 0.38571665634258689 0 -0.29759743465094141 0.39542053922956177 0 -0.28825624646783221 0.38406373696565382 0 -0.30088930960570098 0.37285361298283481 0 -0.30640737125002798 0.38571665634258689 0 -0.28825624646783221 0.38406373696565382 0 -0.30640737125002798 0.38571665634258689 0 -0.29759743465094141 0.39542053922956177 0 -0.30767725922891498 0.40429603296439059 0 -0.29759743465094141 0.39542053922956177 0 -0.30767725922891498 0.40429603296439059 0 -0.28804886165699051 0.407605730645616 0 -0.32097926349112849 0.38893056841450258 0 -0.30640737125002798 0.38571665634258689 0 -0.30767725922891498 0.40429603296439059 0 -0.28825624646783221 0.38406373696565382 0 -0.28804886165699051 0.407605730645616 0 -0.28825624646783221 0.38406373696565382 0 -0.27556050558319428 0.38668296322479512 0 -0.28804886165699051 0.407605730645616 0 -0.29759743465094141 0.39542053922956177 0 -0.28825624646783221 0.38406373696565382 0 -0.28804886165699051 0.407605730645616 0 -0.2815265797335253 0.37447278862882011 0 -0.28825624646783221 0.38406373696565382 0 -0.27556050558319428 0.38668296322479512 0 -0.27556050558319428 0.38668296322479512 0 -0.26540435296404591 0.39917763130654138 0 -0.26007906330776021 0.38034583881876782 0 -0.27004792936901217 0.37443205298337162 0 -0.2815265797335253 0.37447278862882011 0 -0.27556050558319428 0.38668296322479512 0 -0.27004792936901217 0.37443205298337162 0 -0.27556050558319428 0.38668296322479512 0 -0.26007906330776021 0.38034583881876782 0 -0.27556050558319428 0.38668296322479512 0 -0.26540435296404591 0.39917763130654138 0 -0.28804886165699051 0.407605730645616 0 -0.26540435296404591 0.39917763130654138 0 -0.2456386847525929 0.40787162408274008 0 -0.24548725391172049 0.39057011257868351 0 -0.26540435296404591 0.39917763130654138 0 -0.26007906330776021 0.38034583881876782 0 -0.24548725391172049 0.39057011257868351 0 -0.25126607070146301 0.36600438164280041 0 -0.26007906330776021 0.38034583881876782 0 -0.24548725391172049 0.39057011257868351 0 -0.25943662115342331 0.41822236232351828 0 -0.26506222418692971 0.43821267548703052 0 -0.24342013868608661 0.42700584217287041 0 -0.26540435296404591 0.39917763130654138 0 -0.25943662115342331 0.41822236232351828 0 -0.2456386847525929 0.40787162408274008 0 -0.26540435296404591 0.39917763130654138 0 -0.25943662115342331 0.41822236232351828 0 -0.27521222224944619 0.41916740197112001 0 -0.26540435296404591 0.39917763130654138 0 -0.27521222224944619 0.41916740197112001 0 -0.28804886165699051 0.407605730645616 0 -0.27521222224944619 0.41916740197112001 0 -0.28784147684614869 0.4311477243255783 0 -0.26506222418692971 0.43821267548703052 0 -0.25943662115342331 0.41822236232351828 0 -0.27521222224944619 0.41916740197112001 0 -0.26506222418692971 0.43821267548703052 0 -0.27521222224944619 0.41916740197112001 0 -0.28784147684614869 0.4311477243255783 0 -0.28804886165699051 0.407605730645616 0 -0.28784147684614869 0.4311477243255783 0 -0.28804886165699051 0.407605730645616 0 -0.28784147684614869 0.4311477243255783 0 -0.28804886165699051 0.407605730645616 0 -0.30503875852983903 0.42317271652439109 0 -0.30767725922891498 0.40429603296439059 0 -0.28804886165699051 0.407605730645616 0 -0.30503875852983903 0.42317271652439109 0 -0.31891517651972678 0.43379006345226029 0 -0.30503875852983903 0.42317271652439109 0 -0.30958983243718019 0.45034499801735117 0 -0.28784147684614869 0.4311477243255783 0 -0.30503875852983903 0.42317271652439109 0 -0.30958983243718019 0.45034499801735117 0 -0.30958983243718019 0.45034499801735117 0 -0.28763409203530688 0.45468971800554059 0 -0.30618792226412572 0.47551155597232048 0 -0.28784147684614869 0.4311477243255783 0 -0.30958983243718019 0.45034499801735117 0 -0.28763409203530688 0.45468971800554059 0 -0.28784147684614869 0.4311477243255783 0 -0.28763409203530688 0.45468971800554059 0 -0.28784147684614869 0.4311477243255783 0 -0.28763409203530688 0.45468971800554059 0 -0.26506222418692971 0.43821267548703052 0 -0.28763409203530688 0.45468971800554059 0 -0.25895280360746681 0.46832641025596522 0 -0.26506222418692971 0.43821267548703052 0 -0.28763409203530688 0.45468971800554059 0 -0.25895280360746681 0.46832641025596522 0 -0.27987072047513473 0.47843571809411178 0 -0.25895280360746681 0.46832641025596522 0 -0.26506222418692971 0.43821267548703052 0 -0.2413482777130499 0.44976265373286178 0 -0.25895280360746681 0.46832641025596522 0 -0.25663776707636959 0.5 0 -0.27987072047513473 0.47843571809411178 0 -0.25663776707636959 0.5 0 -0.27987072047513473 0.47843571809411178 0 -0.28589853444378688 0.5 0 -0.27987072047513473 0.47843571809411178 0 -0.28589853444378688 0.5 0 -0.30618792226412572 0.47551155597232048 0 -0.28763409203530688 0.45468971800554059 0 -0.27987072047513473 0.47843571809411178 0 -0.30618792226412572 0.47551155597232048 0 -0.28589853444378688 0.5 0 -0.30618792226412572 0.47551155597232048 0 -0.31515930181120422 0.5 0 -0.30618792226412572 0.47551155597232048 0 -0.31515930181120422 0.5 0 -0.32917563666724459 0.48477294321774161 0 -0.31515930181120422 0.5 0 -0.32917563666724459 0.48477294321774161 0 -0.34442006917862139 0.5 0 -0.32917563666724459 0.48477294321774161 0 -0.34442006917862139 0.5 0 -0.34849373467714012 0.47978249647359311 0 -0.32917563666724459 0.48477294321774161 0 -0.33279413129979452 0.46399256240493841 0 -0.34849373467714012 0.47978249647359311 0 -0.30618792226412572 0.47551155597232048 0 -0.32917563666724459 0.48477294321774161 0 -0.33279413129979452 0.46399256240493841 0 -0.30958983243718019 0.45034499801735117 0 -0.30618792226412572 0.47551155597232048 0 -0.33279413129979452 0.46399256240493841 0 -0.31891517651972678 0.43379006345226029 0 -0.30958983243718019 0.45034499801735117 0 -0.33806631918041907 0.44189250286057802 0 -0.30958983243718019 0.45034499801735117 0 -0.33806631918041907 0.44189250286057802 0 -0.33279413129979452 0.46399256240493841 0 -0.36196315751603159 0.44517604249025122 0 -0.36782199703103591 0.47258802124512161 0 -0.34849373467714012 0.47978249647359311 0 -0.33279413129979452 0.46399256240493841 0 -0.36196315751603159 0.44517604249025122 0 -0.34849373467714012 0.47978249647359311 0 -0.33806631918041907 0.44189250286057802 0 -0.33279413129979452 0.46399256240493841 0 -0.36196315751603159 0.44517604249025122 0 -0.37692936517546732 0.45425665042366792 0 -0.36196315751603159 0.44517604249025122 0 -0.37390443285869412 0.44200958240375687 0 -0.36799780504853941 0.432268747563894 0 -0.36196315751603159 0.44517604249025122 0 -0.37390443285869412 0.44200958240375687 0 -0.37692936517546732 0.45425665042366792 0 -0.36196315751603159 0.44517604249025122 0 -0.36782199703103591 0.47258802124512161 0 -0.36196315751603159 0.44517604249025122 0 -0.36782199703103591 0.47258802124512161 0 -0.36782199703103591 0.47258802124512161 0 -0.37368083654603879 0.49999999999999262 0 -0.34849373467714012 0.47978249647359311 0 -0.36782199703103591 0.47258802124512161 0 -0.37368083654603879 0.49999999999999262 0 -0.37368083654603879 0.49999999999999262 0 -0.34442006917862139 0.5 0 -0.34849373467714012 0.47978249647359311 0 -0.15079920995705301 0.4826083196489801 0 -0.13516243602910141 0.46906199381621683 0 -0.15650679812162049 0.46272277012715501 0 -0.15079920995705301 0.4826083196489801 0 -0.1395946976067004 0.5 0 -0.16885546497411771 0.5 0 -0.15079920995705301 0.4826083196489801 0 -0.1395946976067004 0.5 0 -0.12852006188031539 0.48580009003701241 0 -0.1395946976067004 0.5 0 -0.12852006188031539 0.48580009003701241 0 -0.11033393023928301 0.49999999999999029 0 -0.12852006188031539 0.48580009003701241 0 -0.13516243602910141 0.46906199381621683 0 -0.1138180739365813 0.47540121750527509 0 -0.15079920995705301 0.4826083196489801 0 -0.12852006188031539 0.48580009003701241 0 -0.13516243602910141 0.46906199381621683 0 -0.13516243602910141 0.46906199381621683 0 -0.13516292960171661 0.44965322455976581 0 -0.11740563481913539 0.45007228807421451 0 -0.13516292960171661 0.44965322455976581 0 -0.15650679812162049 0.46272277012715501 0 -0.1477581697742672 0.4365617608779383 0 -0.13516243602910141 0.46906199381621683 0 -0.15650679812162049 0.46272277012715501 0 -0.13516243602910141 0.46906199381621683 0 -0.13516292960171661 0.44965322455976581 0 -0.15650679812162049 0.46272277012715501 0 -0.15650679812162049 0.46272277012715501 0 -0.17785116021413949 0.45638354643809309 0 -0.16902848154144651 0.47586321682287541 0 -0.15650679812162049 0.46272277012715501 0 -0.16563626736773379 0.44558793947311032 0 -0.17785116021413949 0.45638354643809309 0 -0.15650679812162049 0.46272277012715501 0 -0.17785116021413949 0.45638354643809309 0 -0.15650679812162049 0.46272277012715501 0 -0.16563626736773379 0.44558793947311032 0 -0.1477581697742672 0.4365617608779383 0 -0.16563626736773379 0.44558793947311032 0 -0.18246844461892259 0.44033308527523429 0 -0.17785116021413949 0.45638354643809309 0 -0.16563626736773379 0.44558793947311032 0 -0.18246844461892259 0.44033308527523429 0 -0.16924071834674251 0.42991690394625992 0 -0.18246844461892259 0.44033308527523429 0 -0.17785116021413949 0.45638354643809309 0 -0.2005222594300147 0.45183469246612179 0 -0.17785116021413949 0.45638354643809309 0 -0.16902848154144651 0.47586321682287541 0 -0.19112977444030149 0.47760144790014891 0 -0.15079920995705301 0.4826083196489801 0 -0.15650679812162049 0.46272277012715501 0 -0.16902848154144651 0.47586321682287541 0 -0.15079920995705301 0.4826083196489801 0 -0.16902848154144651 0.47586321682287541 0 -0.16885546497411771 0.5 0 -0.16885546497411771 0.5 0 -0.19811623234153511 0.5 0 -0.19112977444030149 0.47760144790014891 0 -0.16902848154144651 0.47586321682287541 0 -0.16885546497411771 0.5 0 -0.19112977444030149 0.47760144790014891 0 -0.19811623234153511 0.5 0 -0.19112977444030149 0.47760144790014891 0 -0.2126588529248325 0.48556801617299189 0 -0.19112977444030149 0.47760144790014891 0 -0.2126588529248325 0.48556801617299189 0 -0.21252271591448979 0.46789540356910708 0 -0.19811623234153511 0.5 0 -0.2126588529248325 0.48556801617299189 0 -0.22737699970895231 0.5 0 -0.25895280360746681 0.46832641025596522 0 -0.25663776707636959 0.5 0 -0.23338324798329849 0.47484417343622731 0 -0.2126588529248325 0.48556801617299189 0 -0.22737699970895231 0.5 0 -0.23338324798329849 0.47484417343622731 0 -0.2126588529248325 0.48556801617299189 0 -0.23338324798329849 0.47484417343622731 0 -0.21252271591448979 0.46789540356910708 0 -0.25663776707636959 0.5 0 -0.22737699970895231 0.5 0 -0.23338324798329849 0.47484417343622731 0 -0.26506222418692971 0.43821267548703052 0 -0.2413482777130499 0.44976265373286178 0 -0.24342013868608661 0.42700584217287041 0 -0.25895280360746681 0.46832641025596522 0 -0.23338324798329849 0.47484417343622731 0 -0.2413482777130499 0.44976265373286178 0 -0.23338324798329849 0.47484417343622731 0 -0.2227606979298882 0.45355985503061519 0 -0.21252271591448979 0.46789540356910708 0 -0.23338324798329849 0.47484417343622731 0 -0.2413482777130499 0.44976265373286178 0 -0.2227606979298882 0.45355985503061519 0 -0.2413482777130499 0.44976265373286178 0 -0.2227606979298882 0.45355985503061519 0 -0.21961007065196711 0.43336527125855367 0 -0.2005222594300147 0.45183469246612179 0 -0.19694266061626239 0.43553852646567798 0 -0.21961007065196711 0.43336527125855367 0 -0.2227606979298882 0.45355985503061519 0 -0.2005222594300147 0.45183469246612179 0 -0.21961007065196711 0.43336527125855367 0 -0.2227606979298882 0.45355985503061519 0 -0.21252271591448979 0.46789540356910708 0 -0.2005222594300147 0.45183469246612179 0 -0.19112977444030149 0.47760144790014891 0 -0.21252271591448979 0.46789540356910708 0 -0.2005222594300147 0.45183469246612179 0 -0.17785116021413949 0.45638354643809309 0 -0.19112977444030149 0.47760144790014891 0 -0.2005222594300147 0.45183469246612179 0 -0.18246844461892259 0.44033308527523429 0 -0.2005222594300147 0.45183469246612179 0 -0.19694266061626239 0.43553852646567798 0 -0.18246844461892259 0.44033308527523429 0 -0.19694266061626239 0.43553852646567798 0 -0.18461760173864261 0.42273690286214349 0 -0.19694266061626239 0.43553852646567798 0 -0.2054896016415706 0.40859506632477299 0 -0.18461760173864261 0.42273690286214349 0 -0.2054896016415706 0.40859506632477299 0 -0.18335621756880849 0.40592991673122658 0 -0.2054896016415706 0.40859506632477299 0 -0.18335621756880849 0.40592991673122658 0 -0.18461760173864261 0.42273690286214349 0 -0.2054896016415706 0.40859506632477299 0 -0.21961007065196711 0.43336527125855367 0 -0.22942495365855731 0.41460046615251811 0 -0.19694266061626239 0.43553852646567798 0 -0.2054896016415706 0.40859506632477299 0 -0.21961007065196711 0.43336527125855367 0 -0.21961007065196711 0.43336527125855367 0 -0.22942495365855731 0.41460046615251811 0 -0.24342013868608661 0.42700584217287041 0 -0.2054896016415706 0.40859506632477299 0 -0.22942495365855731 0.41460046615251811 0 -0.22979151261342459 0.39859023952124573 0 -0.22942495365855731 0.41460046615251811 0 -0.2456386847525929 0.40787162408274008 0 -0.22979151261342459 0.39859023952124573 0 -0.22942495365855731 0.41460046615251811 0 -0.2456386847525929 0.40787162408274008 0 -0.24342013868608661 0.42700584217287041 0 -0.25943662115342331 0.41822236232351828 0 -0.2456386847525929 0.40787162408274008 0 -0.24342013868608661 0.42700584217287041 0 -0.2413482777130499 0.44976265373286178 0 -0.21961007065196711 0.43336527125855367 0 -0.24342013868608661 0.42700584217287041 0 -0.25126607070146301 0.36600438164280041 0 -0.24548725391172049 0.39057011257868351 0 -0.25126607070146301 0.36600438164280041 0 -0.24548725391172049 0.39057011257868351 0 -0.240225890160054 0.36907964246716041 0 -0.24548725391172049 0.39057011257868351 0 -0.23259755694977841 0.38335475081955478 0 -0.240225890160054 0.36907964246716041 0 -0.24548725391172049 0.39057011257868351 0 -0.22979151261342459 0.39859023952124573 0 -0.23259755694977841 0.38335475081955478 0 -0.2456386847525929 0.40787162408274008 0 -0.24548725391172049 0.39057011257868351 0 -0.22979151261342459 0.39859023952124573 0 -0.23259755694977841 0.38335475081955478 0 -0.2241597565869172 0.37464663398491121 0 -0.240225890160054 0.36907964246716041 0 -0.22979151261342459 0.39859023952124573 0 -0.21882027540412621 0.38740767305844098 0 -0.23259755694977841 0.38335475081955478 0 -0.21882027540412621 0.38740767305844098 0 -0.23259755694977841 0.38335475081955478 0 -0.2241597565869172 0.37464663398491121 0 -0.21882027540412621 0.38740767305844098 0 -0.21033514500598921 0.37560702035644322 0 -0.2241597565869172 0.37464663398491121 0 -0.21882027540412621 0.38740767305844098 0 -0.20404403104991239 0.3883852914542687 0 -0.21033514500598921 0.37560702035644322 0 -0.2054896016415706 0.40859506632477299 0 -0.22979151261342459 0.39859023952124573 0 -0.21882027540412621 0.38740767305844098 0 -0.2054896016415706 0.40859506632477299 0 -0.21882027540412621 0.38740767305844098 0 -0.20404403104991239 0.3883852914542687 0 -0.2054896016415706 0.40859506632477299 0 -0.18984594420595791 0.39344033661889261 0 -0.18335621756880849 0.40592991673122658 0 -0.2054896016415706 0.40859506632477299 0 -0.20404403104991239 0.3883852914542687 0 -0.18984594420595791 0.39344033661889261 0 -0.20404403104991239 0.3883852914542687 0 -0.21033514500598921 0.37560702035644322 0 -0.19348576743013721 0.3778229693545358 0 -0.20404403104991239 0.3883852914542687 0 -0.18984594420595791 0.39344033661889261 0 -0.19348576743013721 0.3778229693545358 0 -0.18984594420595791 0.39344033661889261 0 -0.17821186112014059 0.38168011341388908 0 -0.17408634616728691 0.3963969415956406 0 -0.19348576743013721 0.3778229693545358 0 -0.17821186112014059 0.38168011341388908 0 -0.184224201153661 0.373504030361553 0 -0.18984594420595791 0.39344033661889261 0 -0.19348576743013721 0.3778229693545358 0 -0.17821186112014059 0.38168011341388908 0 -0.17821186112014059 0.38168011341388908 0 -0.16611399087285511 0.38924268979752752 0 -0.17408634616728691 0.3963969415956406 0 -0.17821186112014059 0.38168011341388908 0 -0.16349741231276749 0.3769489739477348 0 -0.17491272394858409 0.36699598183422799 0 -0.17821186112014059 0.38168011341388908 0 -0.16611399087285511 0.38924268979752752 0 -0.16349741231276749 0.3769489739477348 0 -0.16611399087285511 0.38924268979752752 0 -0.16349741231276749 0.3769489739477348 0 -0.15355150126803421 0.38792265289269362 0 -0.16611399087285511 0.38924268979752752 0 -0.16122283349604641 0.40326476713767978 0 -0.15355150126803421 0.38792265289269362 0 -0.16611399087285511 0.38924268979752752 0 -0.16122283349604641 0.40326476713767978 0 -0.17408634616728691 0.3963969415956406 0 -0.16122283349604641 0.40326476713767978 0 -0.17408634616728691 0.3963969415956406 0 -0.16122283349604641 0.40326476713767978 0 -0.18335621756880849 0.40592991673122658 0 -0.16122283349604641 0.40326476713767978 0 -0.18335621756880849 0.40592991673122658 0 -0.17408634616728691 0.3963969415956406 0 -0.18984594420595791 0.39344033661889261 0 -0.18335621756880849 0.40592991673122658 0 -0.17408634616728691 0.3963969415956406 0 -0.16122283349604641 0.40326476713767978 0 -0.18335621756880849 0.40592991673122658 0 -0.1711745339230468 0.41587909891472669 0 -0.18335621756880849 0.40592991673122658 0 -0.18461760173864261 0.42273690286214349 0 -0.1711745339230468 0.41587909891472669 0 -0.18246844461892259 0.44033308527523429 0 -0.18461760173864261 0.42273690286214349 0 -0.16924071834674251 0.42991690394625992 0 -0.18461760173864261 0.42273690286214349 0 -0.16924071834674251 0.42991690394625992 0 -0.1711745339230468 0.41587909891472669 0 -0.16924071834674251 0.42991690394625992 0 -0.15706772345018799 0.41882253111801437 0 -0.1477581697742672 0.4365617608779383 0 -0.16563626736773379 0.44558793947311032 0 -0.16924071834674251 0.42991690394625992 0 -0.1477581697742672 0.4365617608779383 0 -0.16924071834674251 0.42991690394625992 0 -0.1711745339230468 0.41587909891472669 0 -0.15706772345018799 0.41882253111801437 0 -0.16122283349604641 0.40326476713767978 0 -0.1711745339230468 0.41587909891472669 0 -0.15706772345018799 0.41882253111801437 0 -0.16122283349604641 0.40326476713767978 0 -0.1411080145988679 0.41400406289041602 0 -0.16122283349604641 0.40326476713767978 0 -0.15706772345018799 0.41882253111801437 0 -0.1411080145988679 0.41400406289041602 0 -0.15706772345018799 0.41882253111801437 0 -0.1411080145988679 0.41400406289041602 0 -0.1477581697742672 0.4365617608779383 0 -0.1411080145988679 0.41400406289041602 0 -0.1477581697742672 0.4365617608779383 0 -0.1209931957016903 0.42474335864315388 0 -0.13516292960171661 0.44965322455976581 0 -0.1477581697742672 0.4365617608779383 0 -0.1209931957016903 0.42474335864315388 0 -0.13272711020643169 0.40799955885712019 0 -0.1246590016832242 0.39886200246445103 0 -0.1209931957016903 0.42474335864315388 0 -0.1411080145988679 0.41400406289041602 0 -0.1209931957016903 0.42474335864315388 0 -0.1411080145988679 0.41400406289041602 0 -0.13272711020643169 0.40799955885712019 0 -0.1209931957016903 0.42474335864315388 0 -0.1411080145988679 0.41400406289041602 0 -0.13272711020643169 0.40799955885712019 0 -0.14294091758963501 0.40106338480106851 0 -0.13272711020643169 0.40799955885712019 0 -0.14294091758963501 0.40106338480106851 0 -0.1246590016832242 0.39886200246445103 0 -0.14294091758963501 0.40106338480106851 0 -0.1246590016832242 0.39886200246445103 0 -0.13949411153955241 0.3873339499478794 0 -0.14294091758963501 0.40106338480106851 0 -0.1246590016832242 0.39886200246445103 0 -0.13949411153955241 0.3873339499478794 0 -0.14813483823840559 0.37484904218810611 0 -0.12818429891846311 0.37397266739307772 0 -0.12818429891846311 0.37397266739307772 0 -0.1246590016832242 0.39886200246445103 0 -0.13949411153955241 0.3873339499478794 0 -0.12818429891846311 0.37397266739307772 0 -0.1246590016832242 0.39886200246445103 0 -0.13949411153955241 0.3873339499478794 0 -0.15355150126803421 0.38792265289269362 0 -0.14813483823840559 0.37484904218810611 0 -0.16349741231276749 0.3769489739477348 0 -0.15355150126803421 0.38792265289269362 0 -0.14813483823840559 0.37484904218810611 0 -0.16122283349604641 0.40326476713767978 0 -0.15355150126803421 0.38792265289269362 0 -0.14294091758963501 0.40106338480106851 0 -0.16122283349604641 0.40326476713767978 0 -0.1411080145988679 0.41400406289041602 0 -0.14294091758963501 0.40106338480106851 0 -0.16122283349604641 0.40326476713767978 0 -0.14294091758963501 0.40106338480106851 0 -0.13949411153955241 0.3873339499478794 0 -0.15355150126803421 0.38792265289269362 0 -0.14294091758963501 0.40106338480106851 0 -0.14838266520830909 0.35808241794341389 0 -0.14585543034207851 0.34730534376345013 0 -0.13170959615369729 0.34908333232170391 0 -0.14585543034207851 0.34730534376345013 0 -0.1543289563620879 0.33895973527599149 0 -0.15699093223328961 0.34933854051957391 0 -0.14838266520830909 0.35808241794341389 0 -0.14585543034207851 0.34730534376345013 0 -0.15699093223328961 0.34933854051957391 0 -0.14838266520830909 0.35808241794341389 0 -0.14813483823840559 0.37484904218810611 0 -0.12818429891846311 0.37397266739307772 0 -0.14838266520830909 0.35808241794341389 0 -0.14813483823840559 0.37484904218810611 0 -0.1590426842102842 0.36659822175231288 0 -0.12818429891846311 0.37397266739307772 0 -0.13170959615369729 0.34908333232170391 0 -0.14838266520830909 0.35808241794341389 0 -0.12818429891846311 0.37397266739307772 0 -0.13170959615369729 0.34908333232170391 0 -0.14585543034207851 0.34730534376345013 0 -0.13170959615369729 0.34908333232170391 0 -0.1365967502022907 0.34277446205133699 0 -0.13170959615369729 0.34908333232170391 0 -0.1365967502022907 0.34277446205133699 0 -0.13170959615369729 0.34908333232170391 0 -0.13247766581341211 0.3436606000404076 0 -0.1365967502022907 0.34277446205133699 0 -0.13170959615369729 0.34908333232170391 0 -0.13247766581341211 0.3436606000404076 0 -0.1189739103913849 0.35635357820431551 0 -0.13170959615369729 0.34908333232170391 0 -0.13247766581341211 0.3436606000404076 0 -0.1265632746693858 0.33778813180784772 0 -0.13247766581341211 0.3436606000404076 0 -0.13414590083340791 0.33188251223112641 0 -0.13414590083340791 0.33188251223112641 0 -0.1181453227407285 0.32627188207417512 0 -0.1265632746693858 0.33778813180784772 0 -0.13414590083340791 0.33188251223112641 0 -0.1181453227407285 0.32627188207417512 0 -0.13414590083340791 0.33188251223112641 0 -0.1369302383112154 0.33742308013083272 0 -0.14270834649272221 0.33488494849031492 0 -0.13414590083340791 0.33188251223112641 0 -0.14270834649272221 0.33488494849031492 0 -0.1365967502022907 0.34277446205133699 0 -0.14270834649272221 0.33488494849031492 0 -0.13247766581341211 0.3436606000404076 0 -0.13414590083340791 0.33188251223112641 0 -0.1369302383112154 0.33742308013083272 0 -0.1369302383112154 0.33742308013083272 0 -0.1365967502022907 0.34277446205133699 0 -0.14270834649272221 0.33488494849031492 0 -0.13247766581341211 0.3436606000404076 0 -0.13414590083340791 0.33188251223112641 0 -0.13247766581341211 0.3436606000404076 0 -0.1365967502022907 0.34277446205133699 0 -0.13247766581341211 0.3436606000404076 0 -0.1369302383112154 0.33742308013083272 0 -0.1365967502022907 0.34277446205133699 0 -0.13414590083340791 0.33188251223112641 0 -0.1379272418805654 0.30518545434872729 0 -0.13414590083340791 0.33188251223112641 0 -0.1379272418805654 0.30518545434872729 0 -0.1220041442996021 0.31214405643054388 0 -0.13414590083340791 0.33188251223112641 0 -0.14758462415470469 0.31569071233397061 0 -0.1379272418805654 0.30518545434872729 0 -0.13414590083340791 0.33188251223112641 0 -0.14758462415470469 0.31569071233397061 0 -0.14858447086479379 0.32477399050676331 0 -0.14858447086479379 0.32477399050676331 0 -0.15611866096003749 0.32759456133466491 0 -0.1596570203405446 0.31969689283030911 0 -0.14858447086479379 0.32477399050676331 0 -0.15611866096003749 0.32759456133466491 0 -0.14530303436335049 0.33153544303067889 0 -0.14758462415470469 0.31569071233397061 0 -0.14858447086479379 0.32477399050676331 0 -0.1596570203405446 0.31969689283030911 0 -0.1365967502022907 0.34277446205133699 0 -0.1543289563620879 0.33895973527599149 0 -0.1365967502022907 0.34277446205133699 0 -0.14270834649272221 0.33488494849031492 0 -0.1543289563620879 0.33895973527599149 0 -0.14585543034207851 0.34730534376345013 0 -0.1365967502022907 0.34277446205133699 0 -0.1543289563620879 0.33895973527599149 0 -0.13414590083340791 0.33188251223112641 0 -0.14858447086479379 0.32477399050676331 0 -0.14530303436335049 0.33153544303067889 0 -0.13414590083340791 0.33188251223112641 0 -0.14270834649272221 0.33488494849031492 0 -0.14530303436335049 0.33153544303067889 0 -0.14270834649272221 0.33488494849031492 0 -0.14530303436335049 0.33153544303067889 0 -0.1543289563620879 0.33895973527599149 0 -0.14270834649272221 0.33488494849031492 0 -0.14530303436335049 0.33153544303067889 0 -0.15611866096003749 0.32759456133466491 0 -0.14530303436335049 0.33153544303067889 0 -0.1543289563620879 0.33895973527599149 0 -0.14270834649272221 0.33488494849031492 0 -0.1543289563620879 0.33895973527599149 0 -0.1543289563620879 0.33895973527599149 0 -0.17969551650810431 0.33350263110545703 0 -0.17188484644587121 0.34511573825073749 0 -0.1543289563620879 0.33895973527599149 0 -0.1681526843371853 0.32576703743224689 0 -0.17969551650810431 0.33350263110545703 0 -0.1543289563620879 0.33895973527599149 0 -0.17188484644587121 0.34511573825073749 0 -0.1543289563620879 0.33895973527599149 0 -0.17969551650810431 0.33350263110545703 0 -0.15611866096003749 0.32759456133466491 0 -0.1543289563620879 0.33895973527599149 0 -0.1681526843371853 0.32576703743224689 0 -0.15611866096003749 0.32759456133466491 0 -0.1596570203405446 0.31969689283030911 0 -0.1681526843371853 0.32576703743224689 0 -0.1596570203405446 0.31969689283030911 0 -0.1681526843371853 0.32576703743224689 0 -0.17375107469143411 0.31097180786900291 0 -0.185364877160903 0.32387659617805742 0 -0.19508743360755421 0.31238535367006598 0 -0.17375107469143411 0.31097180786900291 0 -0.1681526843371853 0.32576703743224689 0 -0.185364877160903 0.32387659617805742 0 -0.17969551650810431 0.33350263110545703 0 -0.1681526843371853 0.32576703743224689 0 -0.185364877160903 0.32387659617805742 0 -0.17375107469143411 0.31097180786900291 0 -0.17969551650810431 0.33350263110545703 0 -0.18310995454294091 0.34102928945955241 0 -0.17188484644587121 0.34511573825073749 0 -0.185364877160903 0.32387659617805742 0 -0.17969551650810431 0.33350263110545703 0 -0.19210004506533751 0.33586744363300958 0 -0.18310995454294091 0.34102928945955241 0 -0.1864266478083591 0.34489588381668512 0 -0.17188484644587121 0.34511573825073749 0 -0.17969551650810431 0.33350263110545703 0 -0.18310995454294091 0.34102928945955241 0 -0.19210004506533751 0.33586744363300958 0 -0.18310995454294091 0.34102928945955241 0 -0.1864266478083591 0.34489588381668512 0 -0.19210004506533751 0.33586744363300958 0 -0.1864266478083591 0.34489588381668512 0 -0.17188484644587121 0.34511573825073749 0 -0.18944073652965451 0.35127174122548299 0 -0.17715330492017331 0.35650207212886809 0 -0.17188484644587121 0.34511573825073749 0 -0.18944073652965451 0.35127174122548299 0 -0.17188484644587121 0.34511573825073749 0 -0.18944073652965451 0.35127174122548299 0 -0.18451989363563151 0.35900363954785469 0 -0.17715330492017331 0.35650207212886809 0 -0.18944073652965451 0.35127174122548299 0 -0.17715330492017331 0.35650207212886809 0 -0.18944073652965451 0.35127174122548299 0 -0.14838266520830909 0.35808241794341389 0 -0.16450276280810089 0.35722946736427758 0 -0.15699093223328961 0.34933854051957391 0 -0.1543289563620879 0.33895973527599149 0 -0.17188484644587121 0.34511573825073749 0 -0.15699093223328961 0.34933854051957391 0 -0.17188484644587121 0.34511573825073749 0 -0.16450276280810089 0.35722946736427758 0 -0.15699093223328961 0.34933854051957391 0 -0.17715330492017331 0.35650207212886809 0 -0.17188484644587121 0.34511573825073749 0 -0.16450276280810089 0.35722946736427758 0 -0.16349741231276749 0.3769489739477348 0 -0.1590426842102842 0.36659822175231288 0 -0.17491272394858409 0.36699598183422799 0 -0.16450276280810089 0.35722946736427758 0 -0.1590426842102842 0.36659822175231288 0 -0.17491272394858409 0.36699598183422799 0 -0.14838266520830909 0.35808241794341389 0 -0.16450276280810089 0.35722946736427758 0 -0.1590426842102842 0.36659822175231288 0 -0.16349741231276749 0.3769489739477348 0 -0.14813483823840559 0.37484904218810611 0 -0.1590426842102842 0.36659822175231288 0 -0.17821186112014059 0.38168011341388908 0 -0.17491272394858409 0.36699598183422799 0 -0.184224201153661 0.373504030361553 0 -0.17715330492017331 0.35650207212886809 0 -0.16450276280810089 0.35722946736427758 0 -0.17491272394858409 0.36699598183422799 0 -0.18451989363563151 0.35900363954785469 0 -0.17715330492017331 0.35650207212886809 0 -0.17491272394858409 0.36699598183422799 0 -0.18451989363563151 0.35900363954785469 0 -0.17491272394858409 0.36699598183422799 0 -0.18965607851380159 0.36583604042883883 0 -0.17491272394858409 0.36699598183422799 0 -0.184224201153661 0.373504030361553 0 -0.18965607851380159 0.36583604042883883 0 -0.19348576743013721 0.3778229693545358 0 -0.18965607851380159 0.36583604042883883 0 -0.2012835144717143 0.36747572270036211 0 -0.21033514500598921 0.37560702035644322 0 -0.19348576743013721 0.3778229693545358 0 -0.2012835144717143 0.36747572270036211 0 -0.19348576743013721 0.3778229693545358 0 -0.184224201153661 0.373504030361553 0 -0.18965607851380159 0.36583604042883883 0 -0.18451989363563151 0.35900363954785469 0 -0.18965607851380159 0.36583604042883883 0 -0.19019289814064011 0.35910794138716129 0 -0.18965607851380159 0.36583604042883883 0 -0.19715488388347269 0.36032034434646859 0 -0.19019289814064011 0.35910794138716129 0 -0.18965607851380159 0.36583604042883883 0 -0.19715488388347269 0.36032034434646859 0 -0.2012835144717143 0.36747572270036211 0 -0.19715488388347269 0.36032034434646859 0 -0.18944073652965451 0.35127174122548299 0 -0.214833313344854 0.36017569184632242 0 -0.18944073652965451 0.35127174122548299 0 -0.2109252736189153 0.34212652342453459 0 -0.18944073652965451 0.35127174122548299 0 -0.214833313344854 0.36017569184632242 0 -0.18944073652965451 0.35127174122548299 0 -0.1926676783510439 0.34834719939098968 0 -0.2109252736189153 0.34212652342453459 0 -0.1864266478083591 0.34489588381668512 0 -0.18944073652965451 0.35127174122548299 0 -0.1926676783510439 0.34834719939098968 0 -0.19715488388347269 0.36032034434646859 0 -0.18944073652965451 0.35127174122548299 0 -0.19019289814064011 0.35910794138716129 0 -0.18451989363563151 0.35900363954785469 0 -0.18944073652965451 0.35127174122548299 0 -0.19019289814064011 0.35910794138716129 0 -0.214833313344854 0.36017569184632242 0 -0.22568678395604991 0.34812349089422662 0 -0.2109252736189153 0.34212652342453459 0 -0.18944073652965451 0.35127174122548299 0 -0.214833313344854 0.36017569184632242 0 -0.2109252736189153 0.34212652342453459 0 -0.19715488388347269 0.36032034434646859 0 -0.2012835144717143 0.36747572270036211 0 -0.214833313344854 0.36017569184632242 0 -0.21033514500598921 0.37560702035644322 0 -0.2012835144717143 0.36747572270036211 0 -0.214833313344854 0.36017569184632242 0 -0.21033514500598921 0.37560702035644322 0 -0.214833313344854 0.36017569184632242 0 -0.2241597565869172 0.37464663398491121 0 -0.214833313344854 0.36017569184632242 0 -0.23272961429050629 0.35665364321525478 0 -0.240225890160054 0.36907964246716041 0 -0.214833313344854 0.36017569184632242 0 -0.240225890160054 0.36907964246716041 0 -0.214833313344854 0.36017569184632242 0 -0.2241597565869172 0.37464663398491121 0 -0.240225890160054 0.36907964246716041 0 -0.214833313344854 0.36017569184632242 0 -0.22568678395604991 0.34812349089422662 0 -0.23272961429050629 0.35665364321525478 0 -0.22568678395604991 0.34812349089422662 0 -0.23272961429050629 0.35665364321525478 0 -0.23925975629575871 0.34589948815215699 0 -0.23272961429050629 0.35665364321525478 0 -0.23925975629575871 0.34589948815215699 0 -0.24410524378779749 0.35581516123685802 0 -0.25704488749120552 0.34143865070691742 0 -0.23925975629575871 0.34589948815215699 0 -0.24410524378779749 0.35581516123685802 0 -0.25126607070146301 0.36600438164280041 0 -0.24410524378779749 0.35581516123685802 0 -0.240225890160054 0.36907964246716041 0 -0.23272961429050629 0.35665364321525478 0 -0.24410524378779749 0.35581516123685802 0 -0.240225890160054 0.36907964246716041 0 -0.25389434779743858 0.32383608782264178 0 -0.23776015143979429 0.3152124452721915 0 -0.2324098107081769 0.33298130562358819 0 -0.25704488749120552 0.34143865070691742 0 -0.23925975629575871 0.34589948815215699 0 -0.24565220057314491 0.33603888307632612 0 -0.25389434779743858 0.32383608782264178 0 -0.2324098107081769 0.33298130562358819 0 -0.25389434779743858 0.32383608782264178 0 -0.24565220057314491 0.33603888307632612 0 -0.2324098107081769 0.33298130562358819 0 -0.23925975629575871 0.34589948815215699 0 -0.24565220057314491 0.33603888307632612 0 -0.2324098107081769 0.33298130562358819 0 -0.22568678395604991 0.34812349089422662 0 -0.2324098107081769 0.33298130562358819 0 -0.2109252736189153 0.34212652342453459 0 -0.2324098107081769 0.33298130562358819 0 -0.2109252736189153 0.34212652342453459 0 -0.2324098107081769 0.33298130562358819 0 -0.2109252736189153 0.34212652342453459 0 -0.21521391489541891 0.33177982233159031 0 -0.22568678395604991 0.34812349089422662 0 -0.23925975629575871 0.34589948815215699 0 -0.2324098107081769 0.33298130562358819 0 -0.23776015143979429 0.3152124452721915 0 -0.21521391489541891 0.33177982233159031 0 -0.23776015143979429 0.3152124452721915 0 -0.21642379252367419 0.31379889947112932 0 -0.21521391489541891 0.33177982233159031 0 -0.23776015143979429 0.3152124452721915 0 -0.21642379252367419 0.31379889947112932 0 -0.23776015143979429 0.3152124452721915 0 -0.2324098107081769 0.33298130562358819 0 -0.21521391489541891 0.33177982233159031 0 -0.20639337075039799 0.32129987855314368 0 -0.21521391489541891 0.33177982233159031 0 -0.19884834197494489 0.3272354387397895 0 -0.21642379252367419 0.31379889947112932 0 -0.20639337075039799 0.32129987855314368 0 -0.19508743360755421 0.31238535367006598 0 -0.21642379252367419 0.31379889947112932 0 -0.19508743360755421 0.31238535367006598 0 -0.21642379252367419 0.31379889947112932 0 -0.20639337075039799 0.32129987855314368 0 -0.21521391489541891 0.33177982233159031 0 -0.1926676783510439 0.34834719939098968 0 -0.2109252736189153 0.34212652342453459 0 -0.21521391489541891 0.33177982233159031 0 -0.1926676783510439 0.34834719939098968 0 -0.21521391489541891 0.33177982233159031 0 -0.1926676783510439 0.34834719939098968 0 -0.21521391489541891 0.33177982233159031 0 -0.19210004506533751 0.33586744363300958 0 -0.21521391489541891 0.33177982233159031 0 -0.19210004506533751 0.33586744363300958 0 -0.19884834197494489 0.3272354387397895 0 -0.185364877160903 0.32387659617805742 0 -0.19210004506533751 0.33586744363300958 0 -0.19884834197494489 0.3272354387397895 0 -0.1864266478083591 0.34489588381668512 0 -0.1926676783510439 0.34834719939098968 0 -0.19210004506533751 0.33586744363300958 0 -0.20639337075039799 0.32129987855314368 0 -0.19884834197494489 0.3272354387397895 0 -0.19508743360755421 0.31238535367006598 0 -0.185364877160903 0.32387659617805742 0 -0.19884834197494489 0.3272354387397895 0 -0.19508743360755421 0.31238535367006598 0 -0.19508743360755421 0.31238535367006598 0 -0.20292943430116239 0.29611266934391528 0 -0.18607291488755609 0.29962226133129682 0 -0.20292943430116239 0.29611266934391528 0 -0.18508067252636101 0.28375653636313403 0 -0.18607291488755609 0.29962226133129682 0 -0.20292943430116239 0.29611266934391528 0 -0.200726590430303 0.27975628776512718 0 -0.18508067252636101 0.28375653636313403 0 -0.20292943430116239 0.29611266934391528 0 -0.2160525164793235 0.28464283468022289 0 -0.200726590430303 0.27975628776512718 0 -0.20292943430116239 0.29611266934391528 0 -0.2160525164793235 0.28464283468022289 0 -0.22199531560337171 0.30054623627269028 0 -0.21642379252367419 0.31379889947112932 0 -0.20292943430116239 0.29611266934391528 0 -0.22199531560337171 0.30054623627269028 0 -0.21642379252367419 0.31379889947112932 0 -0.19508743360755421 0.31238535367006598 0 -0.20292943430116239 0.29611266934391528 0 -0.23776015143979429 0.3152124452721915 0 -0.21642379252367419 0.31379889947112932 0 -0.22199531560337171 0.30054623627269028 0 -0.23776015143979429 0.3152124452721915 0 -0.22199531560337171 0.30054623627269028 0 -0.23681068327290461 0.29296433259599303 0 -0.2160525164793235 0.28464283468022289 0 -0.23681068327290461 0.29296433259599303 0 -0.2294378302900125 0.27941730610060223 0 -0.2160525164793235 0.28464283468022289 0 -0.22199531560337171 0.30054623627269028 0 -0.23681068327290461 0.29296433259599303 0 -0.23681068327290461 0.29296433259599303 0 -0.2446388535331426 0.2762043510430276 0 -0.2294378302900125 0.27941730610060223 0 -0.25272870130594038 0.28890713845571209 0 -0.23681068327290461 0.29296433259599303 0 -0.2446388535331426 0.2762043510430276 0 -0.25314696190835279 0.30390594228787221 0 -0.25272870130594038 0.28890713845571209 0 -0.23681068327290461 0.29296433259599303 0 -0.25314696190835279 0.30390594228787221 0 -0.23776015143979429 0.3152124452721915 0 -0.23681068327290461 0.29296433259599303 0 -0.25314696190835279 0.30390594228787221 0 -0.23776015143979429 0.3152124452721915 0 -0.24214295464715219 0.25181578413355249 0 -0.2446388535331426 0.2762043510430276 0 -0.22552834967111479 0.26259810963350738 0 -0.26001647837282271 0.26160301861755331 0 -0.24214295464715219 0.25181578413355249 0 -0.2446388535331426 0.2762043510430276 0 -0.2294378302900125 0.27941730610060223 0 -0.22552834967111479 0.26259810963350738 0 -0.21111821067560221 0.27091883046688608 0 -0.2446388535331426 0.2762043510430276 0 -0.2294378302900125 0.27941730610060223 0 -0.22552834967111479 0.26259810963350738 0 -0.2160525164793235 0.28464283468022289 0 -0.2294378302900125 0.27941730610060223 0 -0.21111821067560221 0.27091883046688608 0 -0.24214295464715219 0.25181578413355249 0 -0.22552834967111479 0.26259810963350738 0 -0.22408996478605989 0.2423019276157988 0 -0.22552834967111479 0.26259810963350738 0 -0.21111821067560221 0.27091883046688608 0 -0.20217028632662271 0.25531694610268851 0 -0.22552834967111479 0.26259810963350738 0 -0.20217028632662271 0.25531694610268851 0 -0.22408996478605989 0.2423019276157988 0 -0.2160525164793235 0.28464283468022289 0 -0.21111821067560221 0.27091883046688608 0 -0.200726590430303 0.27975628776512718 0 -0.21111821067560221 0.27091883046688608 0 -0.200726590430303 0.27975628776512718 0 -0.19111745026351951 0.26710024320822467 0 -0.200726590430303 0.27975628776512718 0 -0.19111745026351951 0.26710024320822467 0 -0.18508067252636101 0.28375653636313403 0 -0.21111821067560221 0.27091883046688608 0 -0.19111745026351951 0.26710024320822467 0 -0.20217028632662271 0.25531694610268851 0 -0.19111745026351951 0.26710024320822467 0 -0.20217028632662271 0.25531694610268851 0 -0.18907429363208569 0.24597533798117549 0 -0.19111745026351951 0.26710024320822467 0 -0.17660799176630809 0.25779113883275923 0 -0.18907429363208569 0.24597533798117549 0 -0.19111745026351951 0.26710024320822467 0 -0.17660799176630809 0.25779113883275923 0 -0.17721964701317641 0.2714764028399908 0 -0.17660799176630809 0.25779113883275923 0 -0.1610489578705937 0.25479123870834558 0 -0.17721964701317641 0.2714764028399908 0 -0.17660799176630809 0.25779113883275923 0 -0.1610489578705937 0.25479123870834558 0 -0.17660799176630809 0.25779113883275923 0 -0.1610489578705937 0.25479123870834558 0 -0.1725451204332964 0.23836412612381239 0 -0.1610489578705937 0.25479123870834558 0 -0.16412402151462349 0.27833136455463992 0 -0.17721964701317641 0.2714764028399908 0 -0.1610489578705937 0.25479123870834558 0 -0.16412402151462349 0.27833136455463992 0 -0.15298028422293861 0.26638389450449362 0 -0.16412402151462349 0.27833136455463992 0 -0.17721964701317641 0.2714764028399908 0 -0.18508067252636101 0.28375653636313403 0 -0.19111745026351951 0.26710024320822467 0 -0.17721964701317641 0.2714764028399908 0 -0.18508067252636101 0.28375653636313403 0 -0.16412402151462349 0.27833136455463992 0 -0.17351595931126881 0.29488493941036592 0 -0.18508067252636101 0.28375653636313403 0 -0.17351595931126881 0.29488493941036592 0 -0.18508067252636101 0.28375653636313403 0 -0.18607291488755609 0.29962226133129682 0 -0.17351595931126881 0.29488493941036592 0 -0.18607291488755609 0.29962226133129682 0 -0.17375107469143411 0.31097180786900291 0 -0.19508743360755421 0.31238535367006598 0 -0.17375107469143411 0.31097180786900291 0 -0.19508743360755421 0.31238535367006598 0 -0.18607291488755609 0.29962226133129682 0 -0.17375107469143411 0.31097180786900291 0 -0.1596570203405446 0.31969689283030911 0 -0.17375107469143411 0.31097180786900291 0 -0.1568955035458377 0.30046422397333478 0 -0.17351595931126881 0.29488493941036592 0 -0.17375107469143411 0.31097180786900291 0 -0.1568955035458377 0.30046422397333478 0 -0.16412402151462349 0.27833136455463992 0 -0.17351595931126881 0.29488493941036592 0 -0.1568955035458377 0.30046422397333478 0 -0.16412402151462349 0.27833136455463992 0 -0.1568955035458377 0.30046422397333478 0 -0.14170858292772279 0.27848839646632823 0 -0.1568955035458377 0.30046422397333478 0 -0.1379272418805654 0.30518545434872729 0 -0.14170858292772279 0.27848839646632823 0 -0.14758462415470469 0.31569071233397061 0 -0.1596570203405446 0.31969689283030911 0 -0.1568955035458377 0.30046422397333478 0 -0.14758462415470469 0.31569071233397061 0 -0.1568955035458377 0.30046422397333478 0 -0.1379272418805654 0.30518545434872729 0 -0.1379272418805654 0.30518545434872729 0 -0.1249241939559888 0.29082657914631499 0 -0.1220041442996021 0.31214405643054388 0 -0.1379272418805654 0.30518545434872729 0 -0.14170858292772279 0.27848839646632823 0 -0.1379272418805654 0.30518545434872729 0 -0.14170858292772279 0.27848839646632823 0 -0.1249241939559888 0.29082657914631499 0 -0.12548953687431649 0.27287876808634082 0 -0.131694275278922 0.26027706337356132 0 -0.14170858292772279 0.27848839646632823 0 -0.12548953687431649 0.27287876808634082 0 -0.14170858292772279 0.27848839646632823 0 -0.1249241939559888 0.29082657914631499 0 -0.131694275278922 0.26027706337356132 0 -0.14548992397487989 0.25179133858392899 0 -0.14170858292772279 0.27848839646632823 0 -0.131694275278922 0.26027706337356132 0 -0.14548992397487989 0.25179133858392899 0 -0.12312998757139799 0.247480172707678 0 -0.14548992397487989 0.25179133858392899 0 -0.14170858292772279 0.27848839646632823 0 -0.15298028422293861 0.26638389450449362 0 -0.14548992397487989 0.25179133858392899 0 -0.14170858292772279 0.27848839646632823 0 -0.1610489578705937 0.25479123870834558 0 -0.14548992397487989 0.25179133858392899 0 -0.15298028422293861 0.26638389450449362 0 -0.1610489578705937 0.25479123870834558 0 -0.14548992397487989 0.25179133858392899 0 -0.16412402151462349 0.27833136455463992 0 -0.14170858292772279 0.27848839646632823 0 -0.15298028422293861 0.26638389450449362 0 -0.1134755153829717 0.27915682635765848 0 -0.091437387881953269 0.28705153337159051 0 -0.09056717850155438 0.27082639185571211 0 -0.10143686110155679 0.2589456254520347 0 -0.1134755153829717 0.27915682635765848 0 -0.09056717850155438 0.27082639185571211 0 -0.10143686110155679 0.2589456254520347 0 -0.085644315488926481 0.25551381652575039 0 -0.1007700511679166 0.24316900683142401 0 -0.10143686110155679 0.2589456254520347 0 -0.11722229787211839 0.25935344471396388 0 -0.1007700511679166 0.24316900683142401 0 -0.11722229787211839 0.25935344471396388 0 -0.1007700511679166 0.24316900683142401 0 -0.12312998757139799 0.247480172707678 0 -0.131694275278922 0.26027706337356132 0 -0.11722229787211839 0.25935344471396388 0 -0.12312998757139799 0.247480172707678 0 -0.12548953687431649 0.27287876808634082 0 -0.131694275278922 0.26027706337356132 0 -0.11722229787211839 0.25935344471396388 0 -0.12548953687431649 0.27287876808634082 0 -0.11722229787211839 0.25935344471396388 0 -0.1134755153829717 0.27915682635765848 0 -0.12548953687431649 0.27287876808634082 0 -0.1134755153829717 0.27915682635765848 0 -0.1249241939559888 0.29082657914631499 0 -0.10143686110155679 0.2589456254520347 0 -0.11722229787211839 0.25935344471396388 0 -0.1134755153829717 0.27915682635765848 0 -0.11722229787211839 0.25935344471396388 0 -0.1134755153829717 0.27915682635765848 0 -0.1134755153829717 0.27915682635765848 0 -0.1249241939559888 0.29082657914631499 0 -0.109728732893825 0.29896020800135298 0 -0.1134755153829717 0.27915682635765848 0 -0.109728732893825 0.29896020800135298 0 -0.1249241939559888 0.29082657914631499 0 -0.109728732893825 0.29896020800135298 0 -0.1220041442996021 0.31214405643054388 0 -0.109728732893825 0.29896020800135298 0 -0.1220041442996021 0.31214405643054388 0 -0.10598195040467739 0.31876358964504742 0 -0.090215145048658338 0.30418939366959669 0 -0.10598195040467739 0.31876358964504742 0 -0.109728732893825 0.29896020800135298 0 -0.10598195040467739 0.31876358964504742 0 -0.109728732893825 0.29896020800135298 0 -0.090215145048658338 0.30418939366959669 0 -0.10598195040467739 0.31876358964504742 0 -0.109728732893825 0.29896020800135298 0 -0.091437387881953269 0.28705153337159051 0 -0.090215145048658338 0.30418939366959669 0 -0.1134755153829717 0.27915682635765848 0 -0.109728732893825 0.29896020800135298 0 -0.091437387881953269 0.28705153337159051 0 -0.091437387881953269 0.28705153337159051 0 -0.090215145048658338 0.30418939366959669 0 -0.074448339692640572 0.28961519769414468 0 -0.091437387881953269 0.28705153337159051 0 -0.074448339692640572 0.28961519769414468 0 -0.082757243897781607 0.28028863438695489 0 -0.090215145048658338 0.30418939366959669 0 -0.074448339692640572 0.28961519769414468 0 -0.090215145048658338 0.30418939366959669 0 -0.079007615176067317 0.30219290191388809 0 -0.074448339692640572 0.28961519769414468 0 -0.090215145048658338 0.30418939366959669 0 -0.079007615176067317 0.30219290191388809 0 -0.083155696795120707 0.31622750442676251 0 -0.079007615176067317 0.30219290191388809 0 -0.067640865999680222 0.30889120187600622 0 -0.083155696795120707 0.31622750442676251 0 -0.079007615176067317 0.30219290191388809 0 -0.070487734909432956 0.30120779968374373 0 -0.067640865999680222 0.30889120187600622 0 -0.079007615176067317 0.30219290191388809 0 -0.070487734909432956 0.30120779968374373 0 -0.072480609672512561 0.29286590323627432 0 -0.070487734909432956 0.30120779968374373 0 -0.067640865999680222 0.30889120187600622 0 -0.057443837540459002 0.29887752995292699 0 -0.070487734909432956 0.30120779968374373 0 -0.072480609672512561 0.29286590323627432 0 -0.057443837540459002 0.29887752995292699 0 -0.074448339692640572 0.28961519769414468 0 -0.064206234863755859 0.28701010948948941 0 -0.058681534336627893 0.27504100171868717 0 -0.074448339692640572 0.28961519769414468 0 -0.058681534336627893 0.27504100171868717 0 -0.079007615176067317 0.30219290191388809 0 -0.074448339692640572 0.28961519769414468 0 -0.072480609672512561 0.29286590323627432 0 -0.074448339692640572 0.28961519769414468 0 -0.072480609672512561 0.29286590323627432 0 -0.065382535415150822 0.29188611431025452 0 -0.072480609672512561 0.29286590323627432 0 -0.057443837540459002 0.29887752995292699 0 -0.074448339692640572 0.28961519769414468 0 -0.065382535415150822 0.29188611431025452 0 -0.064206234863755859 0.28701010948948941 0 -0.072480609672512561 0.29286590323627432 0 -0.065382535415150822 0.29188611431025452 0 -0.057443837540459002 0.29887752995292699 0 -0.065382535415150822 0.29188611431025452 0 -0.064206234863755859 0.28701010948948941 0 -0.058333655306386151 0.29106183117843692 0 -0.074448339692640572 0.28961519769414468 0 -0.074576069514978194 0.2736614146263725 0 -0.082757243897781607 0.28028863438695489 0 -0.074448339692640572 0.28961519769414468 0 -0.074576069514978194 0.2736614146263725 0 -0.058681534336627893 0.27504100171868717 0 -0.068545824550532347 0.25694942133692961 0 -0.058681534336627893 0.27504100171868717 0 -0.074576069514978194 0.2736614146263725 0 -0.068545824550532347 0.25694942133692961 0 -0.058681534336627893 0.27504100171868717 0 -0.091437387881953269 0.28705153337159051 0 -0.09056717850155438 0.27082639185571211 0 -0.082757243897781607 0.28028863438695489 0 -0.074576069514978194 0.2736614146263725 0 -0.09056717850155438 0.27082639185571211 0 -0.085644315488926481 0.25551381652575039 0 -0.074576069514978194 0.2736614146263725 0 -0.09056717850155438 0.27082639185571211 0 -0.082757243897781607 0.28028863438695489 0 -0.10143686110155679 0.2589456254520347 0 -0.09056717850155438 0.27082639185571211 0 -0.085644315488926481 0.25551381652575039 0 -0.074576069514978194 0.2736614146263725 0 -0.085644315488926481 0.25551381652575039 0 -0.068545824550532347 0.25694942133692961 0 -0.085644315488926481 0.25551381652575039 0 -0.068545824550532347 0.25694942133692961 0 -0.078410114764434921 0.2388578409551709 0 -0.068545824550532347 0.25694942133692961 0 -0.047312044774248448 0.26453150627675892 0 -0.058681534336627893 0.27504100171868717 0 -0.068545824550532347 0.25694942133692961 0 -0.047312044774248448 0.26453150627675892 0 -0.064322961266428391 0.24490656945370051 0 -0.047312044774248448 0.26453150627675892 0 -0.052781921422815223 0.24246660685113591 0 -0.047312044774248448 0.26453150627675892 0 -0.064322961266428391 0.24490656945370051 0 -0.052781921422815223 0.24246660685113591 0 -0.047312044774248448 0.26453150627675892 0 -0.058681534336627893 0.27504100171868717 0 -0.042643511277578858 0.28336387283410408 0 -0.047312044774248448 0.26453150627675892 0 -0.058681534336627893 0.27504100171868717 0 -0.047312044774248448 0.26453150627675892 0 -0.042643511277578858 0.28336387283410408 0 -0.047312044774248448 0.26453150627675892 0 -0.033405582734770303 0.27863138646628682 0 -0.042643511277578858 0.28336387283410408 0 -0.047312044774248448 0.26453150627675892 0 -0.033405582734770303 0.27863138646628682 0 -0.026645333279002599 0.26866554283165772 0 -0.047312044774248448 0.26453150627675892 0 -0.026645333279002599 0.26866554283165772 0 -0.025966110251752189 0.244800189374869 0 -0.047312044774248448 0.26453150627675892 0 -0.052781921422815223 0.24246660685113591 0 -0.025966110251752189 0.244800189374869 0 -0.047312044774248448 0.26453150627675892 0 -0.025966110251752189 0.244800189374869 0 -0.026645333279002599 0.26866554283165772 0 -0.012601642581572991 0.2569366073914971 0 -0.025966110251752189 0.244800189374869 0 -0.026645333279002599 0.26866554283165772 0 -0.0078333566736051106 0.27176121962468153 0 -0.019092905262668609 0.28597771206626937 0 -0.026645333279002599 0.26866554283165772 0 -0.0078333566736051106 0.27176121962468153 0 -0.012601642581572991 0.2569366073914971 0 -0.033405582734770303 0.27863138646628682 0 -0.026645333279002599 0.26866554283165772 0 -0.019092905262668609 0.28597771206626937 0 -0.0078333566736051106 0.27176121962468153 0 -0.012601642581572991 0.2569366073914971 0 0.0047846334504887383 0.25646387099740009 0 -0.012601642581572991 0.2569366073914971 0 -0.0043755340704045732 0.244462551133488 0 0.0047846334504887383 0.25646387099740009 0 -0.009675874912022089 0.2986990909518954 0 -0.01974051849454701 0.3139511293991622 0 0.0029260284193114439 0.32301310212874462 0 -0.0078333566736051106 0.27176121962468153 0 -0.019092905262668609 0.28597771206626937 0 0.0022251657888577091 0.2891371856952531 0 -0.009675874912022089 0.2986990909518954 0 -0.019092905262668609 0.28597771206626937 0 0.0022251657888577091 0.2891371856952531 0 -0.009675874912022089 0.2986990909518954 0 -0.019092905262668609 0.28597771206626937 0 -0.023563679106099501 0.29828849402628399 0 -0.033405582734770303 0.27863138646628682 0 -0.019092905262668609 0.28597771206626937 0 -0.031334119080352989 0.29061829832264408 0 -0.019092905262668609 0.28597771206626937 0 -0.023563679106099501 0.29828849402628399 0 -0.031334119080352989 0.29061829832264408 0 -0.023563679106099501 0.29828849402628399 0 -0.037974977780906818 0.30219623939144891 0 -0.031334119080352989 0.29061829832264408 0 -0.042407065408408433 0.30488915666958738 0 -0.01974051849454701 0.3139511293991622 0 -0.023563679106099501 0.29828849402628399 0 -0.037974977780906818 0.30219623939144891 0 -0.01974051849454701 0.3139511293991622 0 -0.009675874912022089 0.2986990909518954 0 -0.023563679106099501 0.29828849402628399 0 -0.01974051849454701 0.3139511293991622 0 -0.037974977780906818 0.30219623939144891 0 -0.042407065408408433 0.30488915666958738 0 -0.01974051849454701 0.3139511293991622 0 -0.037974977780906818 0.30219623939144891 0 -0.042407065408408433 0.30488915666958738 0 -0.05054429987252175 0.28996507919413922 0 -0.042407065408408433 0.30488915666958738 0 -0.05054429987252175 0.28996507919413922 0 -0.037974977780906818 0.30219623939144891 0 -0.042643511277578858 0.28336387283410408 0 -0.05054429987252175 0.28996507919413922 0 -0.037974977780906818 0.30219623939144891 0 -0.031334119080352989 0.29061829832264408 0 -0.042643511277578858 0.28336387283410408 0 -0.037974977780906818 0.30219623939144891 0 -0.042643511277578858 0.28336387283410408 0 -0.033405582734770303 0.27863138646628682 0 -0.031334119080352989 0.29061829832264408 0 -0.042643511277578858 0.28336387283410408 0 -0.064206234863755859 0.28701010948948941 0 -0.058681534336627893 0.27504100171868717 0 -0.058333655306386151 0.29106183117843692 0 -0.058681534336627893 0.27504100171868717 0 -0.042643511277578858 0.28336387283410408 0 -0.05054429987252175 0.28996507919413922 0 -0.058681534336627893 0.27504100171868717 0 -0.05054429987252175 0.28996507919413922 0 -0.058333655306386151 0.29106183117843692 0 -0.058681534336627893 0.27504100171868717 0 -0.05054429987252175 0.28996507919413922 0 -0.05054429987252175 0.28996507919413922 0 -0.058333655306386151 0.29106183117843692 0 -0.057443837540459002 0.29887752995292699 0 -0.065382535415150822 0.29188611431025452 0 -0.058333655306386151 0.29106183117843692 0 -0.057443837540459002 0.29887752995292699 0 -0.042407065408408433 0.30488915666958738 0 -0.055269213097297459 0.31161405201959907 0 -0.04615675236690369 0.32050184671567822 0 -0.042407065408408433 0.30488915666958738 0 -0.057443837540459002 0.29887752995292699 0 -0.055269213097297459 0.31161405201959907 0 -0.042407065408408433 0.30488915666958738 0 -0.05054429987252175 0.28996507919413922 0 -0.057443837540459002 0.29887752995292699 0 -0.042407065408408433 0.30488915666958738 0 -0.057443837540459002 0.29887752995292699 0 -0.067640865999680222 0.30889120187600622 0 -0.057443837540459002 0.29887752995292699 0 -0.055269213097297459 0.31161405201959907 0 -0.067640865999680222 0.30889120187600622 0 -0.055269213097297459 0.31161405201959907 0 -0.062697544171030406 0.32491052488379379 0 -0.041102320943985499 0.3358996591744744 0 -0.04615675236690369 0.32050184671567822 0 -0.062697544171030406 0.32491052488379379 0 -0.055269213097297459 0.31161405201959907 0 -0.04615675236690369 0.32050184671567822 0 -0.062697544171030406 0.32491052488379379 0 -0.041102320943985499 0.3358996591744744 0 -0.062697544171030406 0.32491052488379379 0 -0.041102320943985499 0.3358996591744744 0 -0.058511465414554063 0.34901156758387331 0 -0.062697544171030406 0.32491052488379379 0 -0.041102320943985499 0.3358996591744744 0 -0.019507097716940591 0.34688879346515522 0 -0.039824621726783332 0.34814897417551061 0 -0.042407065408408433 0.30488915666958738 0 -0.030957081562677319 0.3258889750673728 0 -0.042407065408408433 0.30488915666958738 0 -0.04615675236690369 0.32050184671567822 0 -0.030957081562677319 0.3258889750673728 0 -0.041102320943985499 0.3358996591744744 0 -0.04615675236690369 0.32050184671567822 0 -0.030957081562677319 0.3258889750673728 0 -0.01974051849454701 0.3139511293991622 0 -0.030957081562677319 0.3258889750673728 0 -0.014214492288097879 0.3303816269983037 0 -0.042407065408408433 0.30488915666958738 0 -0.01974051849454701 0.3139511293991622 0 -0.030957081562677319 0.3258889750673728 0 -0.041102320943985499 0.3358996591744744 0 -0.030957081562677319 0.3258889750673728 0 -0.019507097716940591 0.34688879346515522 0 -0.030957081562677319 0.3258889750673728 0 -0.019507097716940591 0.34688879346515522 0 -0.041102320943985499 0.3358996591744744 0 -0.019507097716940591 0.34688879346515522 0 -0.030957081562677319 0.3258889750673728 0 -0.014214492288097879 0.3303816269983037 0 -0.019507097716940591 0.34688879346515522 0 -0.014214492288097879 0.3303816269983037 0 -0.0029822272574283049 0.3407341138868607 0 0.0029260284193114439 0.32301310212874462 0 -0.014214492288097879 0.3303816269983037 0 -0.0029822272574283049 0.3407341138868607 0 -0.019507097716940591 0.34688879346515522 0 -0.01974051849454701 0.3139511293991622 0 -0.014214492288097879 0.3303816269983037 0 0.0029260284193114439 0.32301310212874462 0 -0.01974051849454701 0.3139511293991622 0 0.0029260284193114439 0.32301310212874462 0 -0.0054244803145113568 0.37271698781030083 0 -0.019507097716940591 0.34688879346515522 0 -0.0029822272574283049 0.3407341138868607 0 -0.019507097716940591 0.34688879346515522 0 0.0012384392129950129 0.35744554895031388 0 -0.0054244803145113568 0.37271698781030083 0 -0.019507097716940591 0.34688879346515522 0 0.0012384392129950129 0.35744554895031388 0 -0.019507097716940591 0.34688879346515522 0 0.0012384392129950129 0.35744554895031388 0 -0.0054244803145113568 0.37271698781030083 0 -0.019507097716940591 0.34688879346515522 0 -0.027183601978905691 0.37693002858629782 0 -0.019507097716940591 0.34688879346515522 0 -0.040177602831653142 0.36079587647853978 0 -0.027183601978905691 0.37693002858629782 0 -0.040177602831653142 0.36079587647853978 0 -0.057649982056093327 0.37855517556031337 0 -0.027183601978905691 0.37693002858629782 0 -0.041102320943985499 0.3358996591744744 0 -0.039824621726783332 0.34814897417551061 0 -0.058511465414554063 0.34901156758387331 0 -0.040177602831653142 0.36079587647853978 0 -0.039824621726783332 0.34814897417551061 0 -0.058511465414554063 0.34901156758387331 0 -0.019507097716940591 0.34688879346515522 0 -0.040177602831653142 0.36079587647853978 0 -0.039824621726783332 0.34814897417551061 0 -0.040177602831653142 0.36079587647853978 0 -0.058511465414554063 0.34901156758387331 0 -0.057649982056093327 0.37855517556031337 0 -0.058511465414554063 0.34901156758387331 0 -0.076389653115006867 0.36147635229444841 0 -0.057649982056093327 0.37855517556031337 0 -0.076389653115006867 0.36147635229444841 0 -0.076762926251155189 0.37779349277566188 0 -0.057649982056093327 0.37855517556031337 0 -0.076389653115006867 0.36147635229444841 0 -0.057649982056093327 0.37855517556031337 0 -0.076389653115006867 0.36147635229444841 0 -0.089637963040922433 0.35473435802380471 0 -0.095654452441911508 0.37334892631019428 0 -0.076389653115006867 0.36147635229444841 0 -0.095654452441911508 0.37334892631019428 0 -0.076762926251155189 0.37779349277566188 0 -0.091276491486405043 0.34646986063175877 0 -0.089637963040922433 0.35473435802380471 0 -0.083062762385679167 0.34594502828343288 0 -0.091276491486405043 0.34646986063175877 0 -0.083062762385679167 0.34594502828343288 0 -0.091587039095723632 0.33914379824217672 0 -0.076389653115006867 0.36147635229444841 0 -0.089637963040922433 0.35473435802380471 0 -0.083062762385679167 0.34594502828343288 0 -0.058511465414554063 0.34901156758387331 0 -0.076389653115006867 0.36147635229444841 0 -0.083062762385679167 0.34594502828343288 0 -0.058511465414554063 0.34901156758387331 0 -0.083062762385679167 0.34594502828343288 0 -0.072335951597321993 0.3363319161972369 0 -0.058511465414554063 0.34901156758387331 0 -0.072335951597321993 0.3363319161972369 0 -0.062697544171030406 0.32491052488379379 0 -0.072335951597321993 0.3363319161972369 0 -0.062697544171030406 0.32491052488379379 0 -0.084447810747017113 0.32962142274013062 0 -0.067640865999680222 0.30889120187600622 0 -0.062697544171030406 0.32491052488379379 0 -0.083155696795120707 0.31622750442676251 0 -0.062697544171030406 0.32491052488379379 0 -0.083155696795120707 0.31622750442676251 0 -0.084447810747017113 0.32962142274013062 0 -0.090215145048658338 0.30418939366959669 0 -0.083155696795120707 0.31622750442676251 0 -0.10598195040467739 0.31876358964504742 0 -0.083155696795120707 0.31622750442676251 0 -0.084447810747017113 0.32962142274013062 0 -0.094334482781782497 0.32910112807089498 0 -0.083062762385679167 0.34594502828343288 0 -0.084447810747017113 0.32962142274013062 0 -0.091587039095723632 0.33914379824217672 0 -0.083062762385679167 0.34594502828343288 0 -0.072335951597321993 0.3363319161972369 0 -0.084447810747017113 0.32962142274013062 0 -0.084447810747017113 0.32962142274013062 0 -0.091587039095723632 0.33914379824217672 0 -0.094334482781782497 0.32910112807089498 0 -0.091587039095723632 0.33914379824217672 0 -0.094334482781782497 0.32910112807089498 0 -0.1008182014232949 0.34605625797762091 0 -0.10900401260230071 0.34201930072819903 0 -0.10598195040467739 0.31876358964504742 0 -0.1008182014232949 0.34605625797762091 0 -0.10598195040467739 0.31876358964504742 0 -0.1008182014232949 0.34605625797762091 0 -0.094334482781782497 0.32910112807089498 0 -0.10598195040467739 0.31876358964504742 0 -0.1008182014232949 0.34605625797762091 0 -0.083155696795120707 0.31622750442676251 0 -0.094334482781782497 0.32910112807089498 0 -0.10598195040467739 0.31876358964504742 0 -0.13414590083340791 0.33188251223112641 0 -0.1220041442996021 0.31214405643054388 0 -0.1181453227407285 0.32627188207417512 0 -0.1265632746693858 0.33778813180784772 0 -0.10598195040467739 0.31876358964504742 0 -0.1181453227407285 0.32627188207417512 0 -0.1220041442996021 0.31214405643054388 0 -0.10598195040467739 0.31876358964504742 0 -0.1181453227407285 0.32627188207417512 0 -0.1265632746693858 0.33778813180784772 0 -0.13247766581341211 0.3436606000404076 0 -0.11550511214516559 0.33750926015590921 0 -0.1265632746693858 0.33778813180784772 0 -0.10598195040467739 0.31876358964504742 0 -0.1265632746693858 0.33778813180784772 0 -0.10598195040467739 0.31876358964504742 0 -0.11550511214516559 0.33750926015590921 0 -0.13247766581341211 0.3436606000404076 0 -0.10900401260230071 0.34201930072819903 0 -0.11550511214516559 0.33750926015590921 0 -0.10900401260230071 0.34201930072819903 0 -0.10598195040467739 0.31876358964504742 0 -0.11550511214516559 0.33750926015590921 0 -0.13247766581341211 0.3436606000404076 0 -0.1039847509972469 0.34979027640878119 0 -0.13170959615369729 0.34908333232170391 0 -0.1189739103913849 0.35635357820431551 0 -0.11380244331640769 0.372199833876314 0 -0.13247766581341211 0.3436606000404076 0 -0.1126552178531272 0.35402796739925613 0 -0.1189739103913849 0.35635357820431551 0 -0.13247766581341211 0.3436606000404076 0 -0.1126552178531272 0.35402796739925613 0 -0.1039847509972469 0.34979027640878119 0 -0.13247766581341211 0.3436606000404076 0 -0.10900401260230071 0.34201930072819903 0 -0.1039847509972469 0.34979027640878119 0 -0.1126552178531272 0.35402796739925613 0 -0.1189739103913849 0.35635357820431551 0 -0.10855073559843489 0.3625779984773897 0 -0.1189739103913849 0.35635357820431551 0 -0.11380244331640769 0.372199833876314 0 -0.10855073559843489 0.3625779984773897 0 -0.12818429891846311 0.37397266739307772 0 -0.13170959615369729 0.34908333232170391 0 -0.11380244331640769 0.372199833876314 0 -0.13170959615369729 0.34908333232170391 0 -0.11380244331640769 0.372199833876314 0 -0.11380244331640769 0.372199833876314 0 -0.095654452441911508 0.37334892631019428 0 -0.10855073559843489 0.3625779984773897 0 -0.095654452441911508 0.37334892631019428 0 -0.10855073559843489 0.3625779984773897 0 -0.1041506511014577 0.35652579981898341 0 -0.095654452441911508 0.37334892631019428 0 -0.1008182014232949 0.34605625797762091 0 -0.095654452441911508 0.37334892631019428 0 -0.1008182014232949 0.34605625797762091 0 -0.1041506511014577 0.35652579981898341 0 -0.089637963040922433 0.35473435802380471 0 -0.095654452441911508 0.37334892631019428 0 -0.1008182014232949 0.34605625797762091 0 -0.091276491486405043 0.34646986063175877 0 -0.089637963040922433 0.35473435802380471 0 -0.1008182014232949 0.34605625797762091 0 -0.091276491486405043 0.34646986063175877 0 -0.091587039095723632 0.33914379824217672 0 -0.1008182014232949 0.34605625797762091 0 -0.1008182014232949 0.34605625797762091 0 -0.1039847509972469 0.34979027640878119 0 -0.1041506511014577 0.35652579981898341 0 -0.10900401260230071 0.34201930072819903 0 -0.1008182014232949 0.34605625797762091 0 -0.1039847509972469 0.34979027640878119 0 -0.1126552178531272 0.35402796739925613 0 -0.10855073559843489 0.3625779984773897 0 -0.1041506511014577 0.35652579981898341 0 -0.1126552178531272 0.35402796739925613 0 -0.1039847509972469 0.34979027640878119 0 -0.1041506511014577 0.35652579981898341 0 -0.1041613186130048 0.39639381271436491 0 -0.095895290479122444 0.39531633543092731 0 -0.1133404706020444 0.38734893037582702 0 -0.1041613186130048 0.39639381271436491 0 -0.1005795356372487 0.40304937784810302 0 -0.1106942084479562 0.40687922775048202 0 -0.1005795356372487 0.40304937784810302 0 -0.095895290479122444 0.39531633543092731 0 -0.090490703460528107 0.40064159464276772 0 -0.1041613186130048 0.39639381271436491 0 -0.1005795356372487 0.40304937784810302 0 -0.095895290479122444 0.39531633543092731 0 -0.095654452441911508 0.37334892631019428 0 -0.095895290479122444 0.39531633543092731 0 -0.090490703460528107 0.40064159464276772 0 -0.11380244331640769 0.372199833876314 0 -0.095654452441911508 0.37334892631019428 0 -0.095895290479122444 0.39531633543092731 0 -0.11380244331640769 0.372199833876314 0 -0.095895290479122444 0.39531633543092731 0 -0.1133404706020444 0.38734893037582702 0 -0.11380244331640769 0.372199833876314 0 -0.095895290479122444 0.39531633543092731 0 -0.12818429891846311 0.37397266739307772 0 -0.1133404706020444 0.38734893037582702 0 -0.1246590016832242 0.39886200246445103 0 -0.12818429891846311 0.37397266739307772 0 -0.11380244331640769 0.372199833876314 0 -0.1133404706020444 0.38734893037582702 0 -0.1041613186130048 0.39639381271436491 0 -0.1246590016832242 0.39886200246445103 0 -0.1041613186130048 0.39639381271436491 0 -0.1246590016832242 0.39886200246445103 0 -0.1106942084479562 0.40687922775048202 0 -0.1041613186130048 0.39639381271436491 0 -0.1133404706020444 0.38734893037582702 0 -0.1246590016832242 0.39886200246445103 0 -0.1106942084479562 0.40687922775048202 0 -0.1209931957016903 0.42474335864315388 0 -0.1015485077747463 0.41636936597783891 0 -0.1246590016832242 0.39886200246445103 0 -0.1209931957016903 0.42474335864315388 0 -0.1246590016832242 0.39886200246445103 0 -0.1106942084479562 0.40687922775048202 0 -0.1209931957016903 0.42474335864315388 0 -0.1209931957016903 0.42474335864315388 0 -0.1026931403400789 0.43451375269066528 0 -0.11740563481913539 0.45007228807421451 0 -0.1209931957016903 0.42474335864315388 0 -0.1026931403400789 0.43451375269066528 0 -0.1209931957016903 0.42474335864315388 0 -0.11740563481913539 0.45007228807421451 0 -0.1026931403400789 0.43451375269066528 0 -0.1015485077747463 0.41636936597783891 0 -0.085326954479144693 0.42793426297534121 0 -0.1209931957016903 0.42474335864315388 0 -0.1026931403400789 0.43451375269066528 0 -0.1015485077747463 0.41636936597783891 0 -0.1005795356372487 0.40304937784810302 0 -0.1015485077747463 0.41636936597783891 0 -0.090490703460528107 0.40064159464276772 0 -0.1005795356372487 0.40304937784810302 0 -0.1106942084479562 0.40687922775048202 0 -0.1015485077747463 0.41636936597783891 0 -0.1015485077747463 0.41636936597783891 0 -0.085326954479144693 0.42793426297534121 0 -0.090490703460528107 0.40064159464276772 0 -0.078130916894869618 0.41244477306765792 0 -0.085326954479144693 0.42793426297534121 0 -0.090490703460528107 0.40064159464276772 0 -0.085326954479144693 0.42793426297534121 0 -0.090490703460528107 0.40064159464276772 0 -0.1026931403400789 0.43451375269066528 0 -0.085326954479144693 0.42793426297534121 0 -0.084393084978468355 0.44428414673817812 0 -0.069504274941454211 0.42442926199730618 0 -0.056064567002227339 0.4357079007640382 0 -0.06822179828740027 0.44071342303891392 0 -0.085326954479144693 0.42793426297534121 0 -0.069504274941454211 0.42442926199730618 0 -0.06822179828740027 0.44071342303891392 0 -0.069504274941454211 0.42442926199730618 0 -0.066321644944970337 0.4079098482181146 0 -0.055193316034793272 0.42129397100701849 0 -0.078130916894869618 0.41244477306765792 0 -0.085326954479144693 0.42793426297534121 0 -0.069504274941454211 0.42442926199730618 0 -0.078130916894869618 0.41244477306765792 0 -0.069504274941454211 0.42442926199730618 0 -0.066321644944970337 0.4079098482181146 0 -0.078130916894869618 0.41244477306765792 0 -0.066321644944970337 0.4079098482181146 0 -0.079011006648250656 0.40130889750476001 0 -0.066321644944970337 0.4079098482181146 0 -0.07262673580794915 0.39174491204632722 0 -0.079011006648250656 0.40130889750476001 0 -0.066321644944970337 0.4079098482181146 0 -0.07262673580794915 0.39174491204632722 0 -0.057036644164677158 0.3959014771188677 0 -0.07262673580794915 0.39174491204632722 0 -0.079011006648250656 0.40130889750476001 0 -0.082008126220309896 0.39497272230231611 0 -0.078130916894869618 0.41244477306765792 0 -0.079011006648250656 0.40130889750476001 0 -0.090490703460528107 0.40064159464276772 0 -0.079011006648250656 0.40130889750476001 0 -0.082008126220309896 0.39497272230231611 0 -0.090490703460528107 0.40064159464276772 0 -0.07262673580794915 0.39174491204632722 0 -0.082008126220309896 0.39497272230231611 0 -0.08590405896451167 0.38619548501540968 0 -0.082008126220309896 0.39497272230231611 0 -0.090490703460528107 0.40064159464276772 0 -0.08590405896451167 0.38619548501540968 0 -0.095654452441911508 0.37334892631019428 0 -0.090490703460528107 0.40064159464276772 0 -0.095654452441911508 0.37334892631019428 0 -0.090490703460528107 0.40064159464276772 0 -0.08590405896451167 0.38619548501540968 0 -0.095654452441911508 0.37334892631019428 0 -0.08590405896451167 0.38619548501540968 0 -0.076762926251155189 0.37779349277566188 0 -0.07262673580794915 0.39174491204632722 0 -0.08590405896451167 0.38619548501540968 0 -0.076762926251155189 0.37779349277566188 0 -0.07262673580794915 0.39174491204632722 0 -0.076762926251155189 0.37779349277566188 0 -0.057649982056093327 0.37855517556031337 0 -0.057649982056093327 0.37855517556031337 0 -0.057036644164677158 0.3959014771188677 0 -0.038910310997179752 0.39563399882617839 0 -0.07262673580794915 0.39174491204632722 0 -0.057649982056093327 0.37855517556031337 0 -0.057036644164677158 0.3959014771188677 0 -0.057649982056093327 0.37855517556031337 0 -0.038910310997179752 0.39563399882617839 0 -0.057036644164677158 0.3959014771188677 0 -0.038910310997179752 0.39563399882617839 0 -0.051357094211629567 0.4080090287501838 0 -0.066321644944970337 0.4079098482181146 0 -0.057036644164677158 0.3959014771188677 0 -0.051357094211629567 0.4080090287501838 0 -0.057649982056093327 0.37855517556031337 0 -0.038910310997179752 0.39563399882617839 0 -0.027183601978905691 0.37693002858629782 0 -0.038910310997179752 0.39563399882617839 0 -0.027183601978905691 0.37693002858629782 0 -0.012436301854645631 0.39371880367991291 0 -0.038910310997179752 0.39563399882617839 0 -0.020170639938266319 0.41271282209204341 0 -0.038910310997179752 0.39563399882617839 0 -0.012436301854645631 0.39371880367991291 0 -0.020170639938266319 0.41271282209204341 0 -0.012436301854645631 0.39371880367991291 0 -0.00074221871097843097 0.41583171984994571 0 0.0086581370879179401 0.39854518215544638 0 -0.0054244803145113568 0.37271698781030083 0 -0.012436301854645631 0.39371880367991291 0 0.0086581370879179401 0.39854518215544638 0 -0.0054244803145113568 0.37271698781030083 0 -0.027183601978905691 0.37693002858629782 0 -0.012436301854645631 0.39371880367991291 0 -0.0052094923632051964 0.43526164348507312 0 -0.00074221871097843097 0.41583171984994571 0 -0.02294182244616905 0.43047735757632888 0 -0.012436301854645631 0.39371880367991291 0 -0.00074221871097843097 0.41583171984994571 0 -0.020170639938266319 0.41271282209204341 0 -0.00074221871097843097 0.41583171984994571 0 -0.020170639938266319 0.41271282209204341 0 -0.02294182244616905 0.43047735757632888 0 -0.020170639938266319 0.41271282209204341 0 -0.02294182244616905 0.43047735757632888 0 -0.039323554916527392 0.4193058485807396 0 -0.0052094923632051964 0.43526164348507312 0 -0.02294182244616905 0.43047735757632888 0 -0.02282418897077295 0.44136496539883829 0 -0.040686309574329928 0.43660876979453622 0 -0.039323554916527392 0.4193058485807396 0 -0.047816936881969481 0.42822912253658307 0 -0.02294182244616905 0.43047735757632888 0 -0.040686309574329928 0.43660876979453622 0 -0.03102552468263076 0.44175809326872528 0 -0.02294182244616905 0.43047735757632888 0 -0.040686309574329928 0.43660876979453622 0 -0.039323554916527392 0.4193058485807396 0 -0.038910310997179752 0.39563399882617839 0 -0.039323554916527392 0.4193058485807396 0 -0.051357094211629567 0.4080090287501838 0 -0.038910310997179752 0.39563399882617839 0 -0.020170639938266319 0.41271282209204341 0 -0.039323554916527392 0.4193058485807396 0 -0.039323554916527392 0.4193058485807396 0 -0.051357094211629567 0.4080090287501838 0 -0.055193316034793272 0.42129397100701849 0 -0.066321644944970337 0.4079098482181146 0 -0.051357094211629567 0.4080090287501838 0 -0.055193316034793272 0.42129397100701849 0 -0.039323554916527392 0.4193058485807396 0 -0.055193316034793272 0.42129397100701849 0 -0.047816936881969481 0.42822912253658307 0 -0.040686309574329928 0.43660876979453622 0 -0.047816936881969481 0.42822912253658307 0 -0.056064567002227339 0.4357079007640382 0 -0.055193316034793272 0.42129397100701849 0 -0.047816936881969481 0.42822912253658307 0 -0.056064567002227339 0.4357079007640382 0 -0.069504274941454211 0.42442926199730618 0 -0.055193316034793272 0.42129397100701849 0 -0.056064567002227339 0.4357079007640382 0 -0.056064567002227339 0.4357079007640382 0 -0.053978123605127132 0.44739926558063842 0 -0.06822179828740027 0.44071342303891392 0 -0.053978123605127132 0.44739926558063842 0 -0.065251089838838122 0.45564936978252513 0 -0.06822179828740027 0.44071342303891392 0 -0.040686309574329928 0.43660876979453622 0 -0.056064567002227339 0.4357079007640382 0 -0.053978123605127132 0.44739926558063842 0 -0.053978123605127132 0.44739926558063842 0 -0.053208161624805142 0.46503136578081489 0 -0.040436815303162031 0.45068476432300209 0 -0.053978123605127132 0.44739926558063842 0 -0.053208161624805142 0.46503136578081489 0 -0.065251089838838122 0.45564936978252513 0 -0.053208161624805142 0.46503136578081489 0 -0.034374688468694022 0.46188826212926098 0 -0.040436815303162031 0.45068476432300209 0 -0.034374688468694022 0.46188826212926098 0 -0.040436815303162031 0.45068476432300209 0 -0.028238487118719829 0.44965460925092082 0 -0.040686309574329928 0.43660876979453622 0 -0.053978123605127132 0.44739926558063842 0 -0.040436815303162031 0.45068476432300209 0 -0.040436815303162031 0.45068476432300209 0 -0.03102552468263076 0.44175809326872528 0 -0.028238487118719829 0.44965460925092082 0 -0.040686309574329928 0.43660876979453622 0 -0.040436815303162031 0.45068476432300209 0 -0.03102552468263076 0.44175809326872528 0 -0.02294182244616905 0.43047735757632888 0 -0.03102552468263076 0.44175809326872528 0 -0.02282418897077295 0.44136496539883829 0 -0.03102552468263076 0.44175809326872528 0 -0.02282418897077295 0.44136496539883829 0 -0.028238487118719829 0.44965460925092082 0 -0.017301074439852519 0.44974655781760342 0 -0.028238487118719829 0.44965460925092082 0 -0.02282418897077295 0.44136496539883829 0 -0.017301074439852519 0.44974655781760342 0 -0.028238487118719829 0.44965460925092082 0 -0.034374688468694022 0.46188826212926098 0 -0.017301074439852519 0.44974655781760342 0 -0.028238487118719829 0.44965460925092082 0 -0.034374688468694022 0.46188826212926098 0 -0.017301074439852519 0.44974655781760342 0 -0.023697120474604049 0.4748732789088021 0 -0.017301074439852519 0.44974655781760342 0 -0.01147799246148431 0.46490968690221568 0 -0.023697120474604049 0.4748732789088021 0 -0.017301074439852519 0.44974655781760342 0 -0.023697120474604049 0.4748732789088021 0 -0.017301074439852519 0.44974655781760342 0 -0.01147799246148431 0.46490968690221568 0 -0.01301859844821714 0.44978255970770742 0 -0.01147799246148431 0.46490968690221568 0 -0.01301859844821714 0.44978255970770742 0 0.0060165733909027727 0.46697482077036129 0 -0.01301859844821714 0.44978255970770742 0 0.0060165733909027727 0.46697482077036129 0 -0.0052094923632051964 0.43526164348507312 0 -0.01301859844821714 0.44978255970770742 0 0.0097611487264646687 0.44997406433166343 0 -0.01301859844821714 0.44978255970770742 0 0.0097611487264646687 0.44997406433166343 0 -0.0052094923632051964 0.43526164348507312 0 -0.02282418897077295 0.44136496539883829 0 -0.017301074439852519 0.44974655781760342 0 -0.0052094923632051964 0.43526164348507312 0 -0.017301074439852519 0.44974655781760342 0 -0.01301859844821714 0.44978255970770742 0 -0.017301074439852519 0.44974655781760342 0 -0.01301859844821714 0.44978255970770742 0 -0.0053626627449780973 0.5 0 -0.0093840284783354815 0.48249154585877091 0 0.0067487602434605949 0.48597569081655001 0 -0.0053626627449780973 0.5 0 -0.0093840284783354815 0.48249154585877091 0 -0.030093166509354039 0.50000000000000122 0 -0.01147799246148431 0.46490968690221568 0 -0.0093840284783354815 0.48249154585877091 0 -0.023697120474604049 0.4748732789088021 0 -0.01147799246148431 0.46490968690221568 0 -0.0093840284783354815 0.48249154585877091 0 0.0060165733909027727 0.46697482077036129 0 -0.0093840284783354815 0.48249154585877091 0 -0.023697120474604049 0.4748732789088021 0 -0.030093166509354039 0.50000000000000122 0 -0.023697120474604049 0.4748732789088021 0 -0.030093166509354039 0.50000000000000122 0 -0.030093166509354039 0.50000000000000122 0 -0.043366471851020577 0.48133899669442198 0 -0.056840087752663693 0.5 0 -0.023697120474604049 0.4748732789088021 0 -0.030093166509354039 0.50000000000000122 0 -0.043366471851020577 0.48133899669442198 0 -0.053208161624805142 0.46503136578081489 0 -0.034374688468694022 0.46188826212926098 0 -0.043366471851020577 0.48133899669442198 0 -0.034374688468694022 0.46188826212926098 0 -0.023697120474604049 0.4748732789088021 0 -0.043366471851020577 0.48133899669442198 0 -0.053208161624805142 0.46503136578081489 0 -0.043366471851020577 0.48133899669442198 0 -0.06039901984282741 0.48041162909114099 0 -0.053208161624805142 0.46503136578081489 0 -0.06039901984282741 0.48041162909114099 0 -0.070222922623790762 0.46975484790390287 0 -0.043366471851020577 0.48133899669442198 0 -0.06039901984282741 0.48041162909114099 0 -0.056840087752663693 0.5 0 -0.06039901984282741 0.48041162909114099 0 -0.056840087752663693 0.5 0 -0.078357455361856843 0.48593293507656538 0 -0.056840087752663693 0.5 0 -0.083587008995973378 0.5 0 -0.078357455361856843 0.48593293507656538 0 -0.078357455361856843 0.48593293507656538 0 -0.08918656903187866 0.48991271642708201 0 -0.096087764649219629 0.48066707629092209 0 -0.083587008995973378 0.5 0 -0.078357455361856843 0.48593293507656538 0 -0.08918656903187866 0.48991271642708201 0 -0.078357455361856843 0.48593293507656538 0 -0.088084569368711133 0.46694243054787621 0 -0.096087764649219629 0.48066707629092209 0 -0.078357455361856843 0.48593293507656538 0 -0.070222922623790762 0.46975484790390287 0 -0.088084569368711133 0.46694243054787621 0 -0.078357455361856843 0.48593293507656538 0 -0.096087764649219629 0.48066707629092209 0 -0.06039901984282741 0.48041162909114099 0 -0.078357455361856843 0.48593293507656538 0 -0.070222922623790762 0.46975484790390287 0 -0.053208161624805142 0.46503136578081489 0 -0.070222922623790762 0.46975484790390287 0 -0.065251089838838122 0.45564936978252513 0 -0.070222922623790762 0.46975484790390287 0 -0.065251089838838122 0.45564936978252513 0 -0.080163205497761264 0.45522693130791458 0 -0.085326954479144693 0.42793426297534121 0 -0.06822179828740027 0.44071342303891392 0 -0.080163205497761264 0.45522693130791458 0 -0.065251089838838122 0.45564936978252513 0 -0.06822179828740027 0.44071342303891392 0 -0.080163205497761264 0.45522693130791458 0 -0.085326954479144693 0.42793426297534121 0 -0.080163205497761264 0.45522693130791458 0 -0.085326954479144693 0.42793426297534121 0 -0.084393084978468355 0.44428414673817812 0 -0.080163205497761264 0.45522693130791458 0 -0.1026931403400789 0.43451375269066528 0 -0.084393084978468355 0.44428414673817812 0 -0.1026931403400789 0.43451375269066528 0 -0.084393084978468355 0.44428414673817812 0 -0.089906547318651803 0.45270426027634569 0 -0.084393084978468355 0.44428414673817812 0 -0.089906547318651803 0.45270426027634569 0 -0.080163205497761264 0.45522693130791458 0 -0.070222922623790762 0.46975484790390287 0 -0.080163205497761264 0.45522693130791458 0 -0.088084569368711133 0.46694243054787621 0 -0.089906547318651803 0.45270426027634569 0 -0.080163205497761264 0.45522693130791458 0 -0.088084569368711133 0.46694243054787621 0 -0.089906547318651803 0.45270426027634569 0 -0.088084569368711133 0.46694243054787621 0 -0.099552332284367107 0.45520335861690681 0 -0.088084569368711133 0.46694243054787621 0 -0.099552332284367107 0.45520335861690681 0 -0.1027931272498106 0.46664308282290679 0 -0.099552332284367107 0.45520335861690681 0 -0.1027931272498106 0.46664308282290679 0 -0.11740563481913539 0.45007228807421451 0 -0.1026931403400789 0.43451375269066528 0 -0.089906547318651803 0.45270426027634569 0 -0.099552332284367107 0.45520335861690681 0 -0.1026931403400789 0.43451375269066528 0 -0.099552332284367107 0.45520335861690681 0 -0.11740563481913539 0.45007228807421451 0 -0.13516292960171661 0.44965322455976581 0 -0.1209931957016903 0.42474335864315388 0 -0.11740563481913539 0.45007228807421451 0 -0.13516243602910141 0.46906199381621683 0 -0.11740563481913539 0.45007228807421451 0 -0.1138180739365813 0.47540121750527509 0 -0.1027931272498106 0.46664308282290679 0 -0.11740563481913539 0.45007228807421451 0 -0.1138180739365813 0.47540121750527509 0 -0.11740563481913539 0.45007228807421451 0 -0.1138180739365813 0.47540121750527509 0 -0.13516243602910141 0.46906199381621683 0 -0.1138180739365813 0.47540121750527509 0 -0.12852006188031539 0.48580009003701241 0 -0.1138180739365813 0.47540121750527509 0 -0.11033393023928301 0.49999999999999029 0 -0.1138180739365813 0.47540121750527509 0 -0.11033393023928301 0.49999999999999029 0 -0.1138180739365813 0.47540121750527509 0 -0.11033393023928301 0.49999999999999029 0 -0.096087764649219629 0.48066707629092209 0 -0.08918656903187866 0.48991271642708201 0 -0.11033393023928301 0.49999999999999029 0 -0.096087764649219629 0.48066707629092209 0 -0.083587008995973378 0.5 0 -0.08918656903187866 0.48991271642708201 0 -0.11033393023928301 0.49999999999999029 0 -0.1027931272498106 0.46664308282290679 0 -0.1138180739365813 0.47540121750527509 0 -0.096087764649219629 0.48066707629092209 0 -0.1138180739365813 0.47540121750527509 0 -0.096087764649219629 0.48066707629092209 0 -0.088084569368711133 0.46694243054787621 0 -0.1027931272498106 0.46664308282290679 0 -0.096087764649219629 0.48066707629092209 0 -0.16961381529586969 0.075882171246410363 0 -0.17006333988594891 0.10044960298698111 0 -0.15199610654598389 0.095159123707473786 0 -0.16961381529586969 0.075882171246410363 0 -0.1458557664497894 0.077589484277727286 0 -0.1543589191676468 0.067906130066869644 0 -0.16961381529586969 0.075882171246410363 0 -0.1458557664497894 0.077589484277727286 0 -0.16567400973839991 0.06469656740249187 0 -0.16961381529586969 0.075882171246410363 0 -0.1543589191676468 0.067906130066869644 0 -0.16567400973839991 0.06469656740249187 0 -0.1543589191676468 0.067906130066869644 0 -0.15652771442602589 0.060948234357097189 0 -0.16567400973839991 0.06469656740249187 0 -0.16961381529586969 0.075882171246410363 0 -0.18010182618289849 0.064354042903557784 0 -0.16961381529586969 0.075882171246410363 0 -0.18010182618289849 0.064354042903557784 0 -0.19337311312365221 0.074192238371951963 0 -0.16961381529586969 0.075882171246410363 0 -0.19337311312365221 0.074192238371951963 0 -0.16961381529586969 0.075882171246410363 0 -0.185909983407782 0.090967767967412128 0 -0.17006333988594891 0.10044960298698111 0 -0.16961381529586969 0.075882171246410363 0 -0.185909983407782 0.090967767967412128 0 -0.19337311312365221 0.074192238371951963 0 -0.17249501376828461 0.11886832425123529 0 -0.17006333988594891 0.10044960298698111 0 -0.18966488750057461 0.1077277171609843 0 -0.185909983407782 0.090967767967412128 0 -0.17006333988594891 0.10044960298698111 0 -0.18966488750057461 0.1077277171609843 0 -0.17249501376828461 0.11886832425123529 0 -0.18961910453139949 0.1217950061864484 0 -0.18966488750057461 0.1077277171609843 0 -0.17249501376828461 0.11886832425123529 0 -0.18966488750057461 0.1077277171609843 0 -0.17249501376828461 0.11886832425123529 0 -0.1533949464146572 0.1129657407012821 0 -0.15532514003599471 0.13000893134148619 0 -0.17249501376828461 0.11886832425123529 0 -0.15532514003599471 0.13000893134148619 0 -0.17249501376828461 0.11886832425123529 0 -0.17006333988594891 0.10044960298698111 0 -0.1533949464146572 0.1129657407012821 0 -0.17006333988594891 0.10044960298698111 0 -0.15199610654598389 0.095159123707473786 0 -0.1533949464146572 0.1129657407012821 0 -0.15199610654598389 0.095159123707473786 0 -0.14300046670922781 0.1043621634128421 0 -0.1533949464146572 0.1129657407012821 0 -0.15199610654598389 0.095159123707473786 0 -0.14300046670922781 0.1043621634128421 0 -0.13736328076155829 0.092161304070877637 0 -0.1533949464146572 0.1129657407012821 0 -0.15532514003599471 0.13000893134148619 0 -0.14394943667733151 0.12574043048764161 0 -0.14300046670922781 0.1043621634128421 0 -0.1533949464146572 0.1129657407012821 0 -0.1385018827476612 0.1146676464666347 0 -0.1533949464146572 0.1129657407012821 0 -0.1385018827476612 0.1146676464666347 0 -0.14394943667733151 0.12574043048764161 0 -0.13336413733565949 0.1226541595693881 0 -0.1385018827476612 0.1146676464666347 0 -0.14394943667733151 0.12574043048764161 0 -0.13336413733565949 0.1226541595693881 0 -0.1385018827476612 0.1146676464666347 0 -0.1292441336541986 0.11340788685384171 0 -0.1385018827476612 0.1146676464666347 0 -0.1292441336541986 0.11340788685384171 0 -0.13305612932328709 0.10436548741651031 0 -0.1292441336541986 0.11340788685384171 0 -0.1240747090480155 0.1058960799589593 0 -0.1227949117246859 0.111337436456521 0 -0.12547712541990549 0.1168704235612987 0 -0.1292441336541986 0.11340788685384171 0 -0.1227949117246859 0.111337436456521 0 -0.13336413733565949 0.1226541595693881 0 -0.12547712541990549 0.1168704235612987 0 -0.1292441336541986 0.11340788685384171 0 -0.13336413733565949 0.1226541595693881 0 -0.12547712541990549 0.1168704235612987 0 -0.12688413323997941 0.1277235279650504 0 -0.14300046670922781 0.1043621634128421 0 -0.13305612932328709 0.10436548741651031 0 -0.13736328076155829 0.092161304070877637 0 -0.14300046670922781 0.1043621634128421 0 -0.1385018827476612 0.1146676464666347 0 -0.13305612932328709 0.10436548741651031 0 -0.13305612932328709 0.10436548741651031 0 -0.1233385787441182 0.095052943995671366 0 -0.1240747090480155 0.1058960799589593 0 -0.1292441336541986 0.11340788685384171 0 -0.13305612932328709 0.10436548741651031 0 -0.1240747090480155 0.1058960799589593 0 -0.13305612932328709 0.10436548741651031 0 -0.13736328076155829 0.092161304070877637 0 -0.1233385787441182 0.095052943995671366 0 -0.13736328076155829 0.092161304070877637 0 -0.1458557664497894 0.077589484277727286 0 -0.1220977176037092 0.079296797309044209 0 -0.1458557664497894 0.077589484277727286 0 -0.1220977176037092 0.079296797309044209 0 -0.13736328076155829 0.092161304070877637 0 -0.1220977176037092 0.079296797309044209 0 -0.1233385787441182 0.095052943995671366 0 -0.15199610654598389 0.095159123707473786 0 -0.13736328076155829 0.092161304070877637 0 -0.1458557664497894 0.077589484277727286 0 -0.16961381529586969 0.075882171246410363 0 -0.15199610654598389 0.095159123707473786 0 -0.1458557664497894 0.077589484277727286 0 -0.1458557664497894 0.077589484277727286 0 -0.1543589191676468 0.067906130066869644 0 -0.13815821537356901 0.068109932290240663 0 -0.1543589191676468 0.067906130066869644 0 -0.13815821537356901 0.068109932290240663 0 -0.14746208463518579 0.061459140186594888 0 -0.1543589191676468 0.067906130066869644 0 -0.14746208463518579 0.061459140186594888 0 -0.15652771442602589 0.060948234357097189 0 -0.1458557664497894 0.077589484277727286 0 -0.13815821537356901 0.068109932290240663 0 -0.1220977176037092 0.079296797309044209 0 -0.13815821537356901 0.068109932290240663 0 -0.1220977176037092 0.079296797309044209 0 -0.11807988910961301 0.057388915499099732 0 -0.14601553155016339 0.055704127728663323 0 -0.1434372136447315 0.057098739089340753 0 -0.11807988910961301 0.057388915499099732 0 -0.14601553155016339 0.055704127728663323 0 -0.11807988910961301 0.057388915499099732 0 -0.1313644189270744 0.042240778430714887 0 -0.14601553155016339 0.055704127728663323 0 -0.11807988910961301 0.057388915499099732 0 -0.13815821537356901 0.068109932290240663 0 -0.1434372136447315 0.057098739089340753 0 -0.11807988910961301 0.057388915499099732 0 -0.1313644189270744 0.042240778430714887 0 -0.14311215162608171 0.043083674787198691 0 -0.14601553155016339 0.055704127728663323 0 -0.1313644189270744 0.042240778430714887 0 -0.1362030456203811 0.027250533052470459 0 -0.11441225685918641 0.029434972527870688 0 -0.1313644189270744 0.042240778430714887 0 -0.14311215162608171 0.043083674787198691 0 -0.1362030456203811 0.027250533052470459 0 -0.14311215162608171 0.043083674787198691 0 -0.1509401848587929 0.034050455690090173 0 -0.14926314277423619 0.044438514521356318 0 -0.14311215162608171 0.043083674787198691 0 -0.1509401848587929 0.034050455690090173 0 -0.1362030456203811 0.027250533052470459 0 -0.1509401848587929 0.034050455690090173 0 -0.14926314277423619 0.044438514521356318 0 -0.15698470306190679 0.044915799879473098 0 -0.14926314277423619 0.044438514521356318 0 -0.14601553155016339 0.055704127728663323 0 -0.15698470306190679 0.044915799879473098 0 -0.14601553155016339 0.055704127728663323 0 -0.14746208463518579 0.061459140186594888 0 -0.15652771442602589 0.060948234357097189 0 -0.13815821537356901 0.068109932290240663 0 -0.14746208463518579 0.061459140186594888 0 -0.1434372136447315 0.057098739089340753 0 -0.14601553155016339 0.055704127728663323 0 -0.14746208463518579 0.061459140186594888 0 -0.1434372136447315 0.057098739089340753 0 -0.14601553155016339 0.055704127728663323 0 -0.1434372136447315 0.057098739089340753 0 -0.14311215162608171 0.043083674787198691 0 -0.14926314277423619 0.044438514521356318 0 -0.14601553155016339 0.055704127728663323 0 -0.12705603436313739 0.011468810593014351 0 -0.1362030456203811 0.027250533052470459 0 -0.11441225685918641 0.029434972527870688 0 -0.12705603436313739 0.011468810593014351 0 -0.1362030456203811 0.027250533052470459 0 -0.1568189069987071 0.01162741287239054 0 -0.1509401848587929 0.034050455690090173 0 -0.1362030456203811 0.027250533052470459 0 -0.1568189069987071 0.01162741287239054 0 -0.14306110324583091 -0.0044799994510859691 0 -0.12705603436313739 0.011468810593014351 0 -0.1568189069987071 0.01162741287239054 0 -0.12705603436313739 0.011468810593014351 0 -0.1568189069987071 0.01162741287239054 0 -0.1568189069987071 0.01162741287239054 0 -0.1865817796342768 0.01178601515176673 0 -0.16329241061398961 -0.01075854211927168 0 -0.1568189069987071 0.01162741287239054 0 -0.1865817796342768 0.01178601515176673 0 -0.1568189069987071 0.01162741287239054 0 -0.1634309799137538 0.030287744802557321 0 -0.17786585274955691 0.026760253801302921 0 -0.1509401848587929 0.034050455690090173 0 -0.1568189069987071 0.01162741287239054 0 -0.1634309799137538 0.030287744802557321 0 -0.17786585274955691 0.026760253801302921 0 -0.1865817796342768 0.01178601515176673 0 -0.19501967333768949 0.029197802533780799 0 -0.1568189069987071 0.01162741287239054 0 -0.17786585274955691 0.026760253801302921 0 -0.1865817796342768 0.01178601515176673 0 -0.14601553155016339 0.055704127728663323 0 -0.17051760244392641 0.042450965131221742 0 -0.14601553155016339 0.055704127728663323 0 -0.15698470306190679 0.044915799879473098 0 -0.17051760244392641 0.042450965131221742 0 -0.14601553155016339 0.055704127728663323 0 -0.16776777361955841 0.054392258438524348 0 -0.14601553155016339 0.055704127728663323 0 -0.16776777361955841 0.054392258438524348 0 -0.17051760244392641 0.042450965131221742 0 -0.14601553155016339 0.055704127728663323 0 -0.16776777361955841 0.054392258438524348 0 -0.15652771442602589 0.060948234357097189 0 -0.16567400973839991 0.06469656740249187 0 -0.18010182618289849 0.064354042903557784 0 -0.16776777361955841 0.054392258438524348 0 -0.16567400973839991 0.06469656740249187 0 -0.16776777361955841 0.054392258438524348 0 -0.15652771442602589 0.060948234357097189 0 -0.1634309799137538 0.030287744802557321 0 -0.15698470306190679 0.044915799879473098 0 -0.17051760244392641 0.042450965131221742 0 -0.1634309799137538 0.030287744802557321 0 -0.17786585274955691 0.026760253801302921 0 -0.17051760244392641 0.042450965131221742 0 -0.1509401848587929 0.034050455690090173 0 -0.1634309799137538 0.030287744802557321 0 -0.15698470306190679 0.044915799879473098 0 -0.17051760244392641 0.042450965131221742 0 -0.18390445389851159 0.04421791961543739 0 -0.19501967333768949 0.029197802533780799 0 -0.17051760244392641 0.042450965131221742 0 -0.19501967333768949 0.029197802533780799 0 -0.17786585274955691 0.026760253801302921 0 -0.17051760244392641 0.042450965131221742 0 -0.19501967333768949 0.029197802533780799 0 -0.16776777361955841 0.054392258438524348 0 -0.18390445389851159 0.04421791961543739 0 -0.1895200156889533 0.05308038914838481 0 -0.16776777361955841 0.054392258438524348 0 -0.1895200156889533 0.05308038914838481 0 -0.16776777361955841 0.054392258438524348 0 -0.17051760244392641 0.042450965131221742 0 -0.18390445389851159 0.04421791961543739 0 -0.18010182618289849 0.064354042903557784 0 -0.16776777361955841 0.054392258438524348 0 -0.1895200156889533 0.05308038914838481 0 -0.18010182618289849 0.064354042903557784 0 -0.1895200156889533 0.05308038914838481 0 -0.19330197621178241 0.063297684851241584 0 -0.1895200156889533 0.05308038914838481 0 -0.21127225775834821 0.051768519858245279 0 -0.1895200156889533 0.05308038914838481 0 -0.1966972044024303 0.041968182825275223 0 -0.21127225775834821 0.051768519858245279 0 -0.20287391813732611 0.058548437862800909 0 -0.1895200156889533 0.05308038914838481 0 -0.19330197621178241 0.063297684851241584 0 -0.20287391813732611 0.058548437862800909 0 -0.1895200156889533 0.05308038914838481 0 -0.21127225775834821 0.051768519858245279 0 -0.18390445389851159 0.04421791961543739 0 -0.1895200156889533 0.05308038914838481 0 -0.1966972044024303 0.041968182825275223 0 -0.18390445389851159 0.04421791961543739 0 -0.1966972044024303 0.041968182825275223 0 -0.19501967333768949 0.029197802533780799 0 -0.1966972044024303 0.041968182825275223 0 -0.20594862956869109 0.034267552828895258 0 -0.19501967333768949 0.029197802533780799 0 -0.2073949918871581 0.041976174141488243 0 -0.21308724905886969 0.044925337856662972 0 -0.21127225775834821 0.051768519858245279 0 -0.1966972044024303 0.041968182825275223 0 -0.2073949918871581 0.041976174141488243 0 -0.21127225775834821 0.051768519858245279 0 -0.1966972044024303 0.041968182825275223 0 -0.2073949918871581 0.041976174141488243 0 -0.20594862956869109 0.034267552828895258 0 -0.2073949918871581 0.041976174141488243 0 -0.20594862956869109 0.034267552828895258 0 -0.21326690023552269 0.039671369733773512 0 -0.20594862956869109 0.034267552828895258 0 -0.2146979801344199 0.033406566937613277 0 -0.21326690023552269 0.039671369733773512 0 -0.20594862956869109 0.034267552828895258 0 -0.2146979801344199 0.033406566937613277 0 -0.21305763072902109 0.027064584185229161 0 -0.2146979801344199 0.033406566937613277 0 -0.22036488327071499 0.033982354506922843 0 -0.21883170506546329 0.038286374600644123 0 -0.2146979801344199 0.033406566937613277 0 -0.21326690023552269 0.039671369733773512 0 -0.21883170506546329 0.038286374600644123 0 -0.2146979801344199 0.033406566937613277 0 -0.21786194508613421 0.030181924586794528 0 -0.22036488327071499 0.033982354506922843 0 -0.2073949918871581 0.041976174141488243 0 -0.21308724905886969 0.044925337856662972 0 -0.21326690023552269 0.039671369733773512 0 -0.21308724905886969 0.044925337856662972 0 -0.21326690023552269 0.039671369733773512 0 -0.21729663464353621 0.043236791037642899 0 -0.21326690023552269 0.039671369733773512 0 -0.21729663464353621 0.043236791037642899 0 -0.21883170506546329 0.038286374600644123 0 -0.21308724905886969 0.044925337856662972 0 -0.21729663464353621 0.043236791037642899 0 -0.21620546076978331 0.047973834512164963 0 -0.21729663464353621 0.043236791037642899 0 -0.21620546076978331 0.047973834512164963 0 -0.2225014027314263 0.043357282921613893 0 -0.21308724905886969 0.044925337856662972 0 -0.21620546076978331 0.047973834512164963 0 -0.21127225775834821 0.051768519858245279 0 -0.21620546076978331 0.047973834512164963 0 -0.21127225775834821 0.051768519858245279 0 -0.21763154192849329 0.055691958230967342 0 -0.21763154192849329 0.055691958230967342 0 -0.20264379909905361 0.068903637225165529 0 -0.20287391813732611 0.058548437862800909 0 -0.21763154192849329 0.055691958230967342 0 -0.20264379909905361 0.068903637225165529 0 -0.20287391813732611 0.058548437862800909 0 -0.21127225775834821 0.051768519858245279 0 -0.21763154192849329 0.055691958230967342 0 -0.18656919721888451 -0.011866890122376669 0 -0.1865817796342768 0.01178601515176673 0 -0.20595653275629711 0.0100010409540266 0 -0.1865817796342768 0.01178601515176673 0 -0.20595653275629711 0.0100010409540266 0 -0.21634465226984639 0.011944617431142911 0 -0.1865817796342768 0.01178601515176673 0 -0.21634465226984639 0.011944617431142911 0 -0.1865817796342768 0.01178601515176673 0 -0.19501967333768949 0.029197802533780799 0 -0.21634465226984639 0.011944617431142911 0 -0.20594862956869109 0.034267552828895258 0 -0.19501967333768949 0.029197802533780799 0 -0.21305763072902109 0.027064584185229161 0 -0.19501967333768949 0.029197802533780799 0 -0.21634465226984639 0.011944617431142911 0 -0.2195217442314526 0.015944639936339839 0 -0.19501967333768949 0.029197802533780799 0 -0.21305763072902109 0.027064584185229161 0 -0.2195217442314526 0.015944639936339839 0 -0.19501967333768949 0.029197802533780799 0 -0.2195217442314526 0.015944639936339839 0 -0.2146979801344199 0.033406566937613277 0 -0.21786194508613421 0.030181924586794528 0 -0.21305763072902109 0.027064584185229161 0 -0.21786194508613421 0.030181924586794528 0 -0.21305763072902109 0.027064584185229161 0 -0.21888147837893149 0.026299098076500431 0 -0.21305763072902109 0.027064584185229161 0 -0.21969060472171029 0.022570669837413009 0 -0.21888147837893149 0.026299098076500431 0 -0.21305763072902109 0.027064584185229161 0 -0.2195217442314526 0.015944639936339839 0 -0.21969060472171029 0.022570669837413009 0 -0.20595653275629711 0.0100010409540266 0 -0.21634465226984639 0.011944617431142911 0 -0.21261263221628951 0.005745472707778569 0 -0.21634465226984639 0.011944617431142911 0 -0.21261263221628951 0.005745472707778569 0 -0.2176439914819886 0.0059642160132264777 0 -0.2066496501855046 -0.0025137608563201982 0 -0.21261263221628951 0.005745472707778569 0 -0.21748899213025111 0.0010571944288816661 0 -0.21261263221628951 0.005745472707778569 0 -0.2176439914819886 0.0059642160132264777 0 -0.21748899213025111 0.0010571944288816661 0 -0.2066496501855046 -0.0025137608563201982 0 -0.20595653275629711 0.0100010409540266 0 -0.21261263221628951 0.005745472707778569 0 -0.21634465226984639 0.011944617431142911 0 -0.22651946576868481 0.003714465585732938 0 -0.2461075249054161 0.0121032197105191 0 -0.21634465226984639 0.011944617431142911 0 -0.2342413452914946 0.019148248823491958 0 -0.2461075249054161 0.0121032197105191 0 -0.21634465226984639 0.011944617431142911 0 -0.2461075249054161 0.0121032197105191 0 -0.2294508146791108 -0.0010370962082505879 0 -0.22651946576868481 0.003714465585732938 0 -0.23527211258631189 0.00096094505569513204 0 -0.2176439914819886 0.0059642160132264777 0 -0.21748899213025111 0.0010571944288816661 0 -0.22651946576868481 0.003714465585732938 0 -0.21634465226984639 0.011944617431142911 0 -0.2176439914819886 0.0059642160132264777 0 -0.22651946576868481 0.003714465585732938 0 -0.21634465226984639 0.011944617431142911 0 -0.2342413452914946 0.019148248823491958 0 -0.2195217442314526 0.015944639936339839 0 -0.2342413452914946 0.019148248823491958 0 -0.22868167588740679 0.021967254967704759 0 -0.2195217442314526 0.015944639936339839 0 -0.2342413452914946 0.019148248823491958 0 -0.22868167588740679 0.021967254967704759 0 -0.2342289226416899 0.026717851931933 0 -0.22868167588740679 0.021967254967704759 0 -0.2195217442314526 0.015944639936339839 0 -0.22412246175050621 0.022086848796593121 0 -0.2195217442314526 0.015944639936339839 0 -0.21969060472171029 0.022570669837413009 0 -0.22412246175050621 0.022086848796593121 0 -0.21969060472171029 0.022570669837413009 0 -0.22412246175050621 0.022086848796593121 0 -0.22290239494344061 0.025379177406513818 0 -0.22412246175050621 0.022086848796593121 0 -0.22290239494344061 0.025379177406513818 0 -0.22754522932500881 0.0266877224143071 0 -0.21969060472171029 0.022570669837413009 0 -0.22290239494344061 0.025379177406513818 0 -0.21888147837893149 0.026299098076500431 0 -0.22290239494344061 0.025379177406513818 0 -0.21888147837893149 0.026299098076500431 0 -0.2223077529175837 0.03015701922770694 0 -0.21786194508613421 0.030181924586794528 0 -0.21888147837893149 0.026299098076500431 0 -0.2223077529175837 0.03015701922770694 0 -0.2223077529175837 0.03015701922770694 0 -0.22754522932500881 0.0266877224143071 0 -0.22739526357296311 0.03174081059329778 0 -0.22290239494344061 0.025379177406513818 0 -0.2223077529175837 0.03015701922770694 0 -0.22754522932500881 0.0266877224143071 0 -0.2300321660746508 0.029837817046726101 0 -0.22754522932500881 0.0266877224143071 0 -0.22739526357296311 0.03174081059329778 0 -0.22868167588740679 0.021967254967704759 0 -0.22754522932500881 0.0266877224143071 0 -0.2342289226416899 0.026717851931933 0 -0.22868167588740679 0.021967254967704759 0 -0.22412246175050621 0.022086848796593121 0 -0.22754522932500881 0.0266877224143071 0 -0.2300321660746508 0.029837817046726101 0 -0.22754522932500881 0.0266877224143071 0 -0.2342289226416899 0.026717851931933 0 -0.2300321660746508 0.029837817046726101 0 -0.2342289226416899 0.026717851931933 0 -0.23263668262207679 0.032954477586658808 0 -0.2342413452914946 0.019148248823491958 0 -0.24678590150662069 0.029992421989188521 0 -0.2461075249054161 0.0121032197105191 0 -0.2342289226416899 0.026717851931933 0 -0.24678590150662069 0.029992421989188521 0 -0.23263668262207679 0.032954477586658808 0 -0.2342413452914946 0.019148248823491958 0 -0.2342289226416899 0.026717851931933 0 -0.24678590150662069 0.029992421989188521 0 -0.22651946576868481 0.003714465585732938 0 -0.2461075249054161 0.0121032197105191 0 -0.23527211258631189 0.00096094505569513204 0 -0.2461075249054161 0.0121032197105191 0 -0.24862522939258691 0.002025091944098644 0 -0.24219842850912701 0.0008805445637728726 0 -0.25406732548350502 0.005811738835174279 0 -0.2461075249054161 0.0121032197105191 0 -0.24862522939258691 0.002025091944098644 0 -0.2461075249054161 0.0121032197105191 0 -0.24219842850912701 0.0008805445637728726 0 -0.23527211258631189 0.00096094505569513204 0 -0.2326192847579335 0.042480279236769697 0 -0.229614154373495 0.071570396257885568 0 -0.21763154192849329 0.055691958230967342 0 -0.2326192847579335 0.042480279236769697 0 -0.229614154373495 0.071570396257885568 0 -0.21620546076978331 0.047973834512164963 0 -0.21763154192849329 0.055691958230967342 0 -0.2225014027314263 0.043357282921613893 0 -0.21763154192849329 0.055691958230967342 0 -0.2326192847579335 0.042480279236769697 0 -0.21763154192849329 0.055691958230967342 0 -0.2225014027314263 0.043357282921613893 0 -0.2326192847579335 0.042480279236769697 0 -0.21729663464353621 0.043236791037642899 0 -0.2225014027314263 0.043357282921613893 0 -0.21883170506546329 0.038286374600644123 0 -0.2225014027314263 0.043357282921613893 0 -0.21883170506546329 0.038286374600644123 0 -0.22460009587350341 0.035891890450154007 0 -0.2225014027314263 0.043357282921613893 0 -0.22460009587350341 0.035891890450154007 0 -0.22914864415966829 0.038125814759044273 0 -0.21786194508613421 0.030181924586794528 0 -0.2223077529175837 0.03015701922770694 0 -0.22036488327071499 0.033982354506922843 0 -0.2223077529175837 0.03015701922770694 0 -0.22036488327071499 0.033982354506922843 0 -0.22460009587350341 0.035891890450154007 0 -0.22036488327071499 0.033982354506922843 0 -0.21883170506546329 0.038286374600644123 0 -0.22460009587350341 0.035891890450154007 0 -0.2223077529175837 0.03015701922770694 0 -0.22460009587350341 0.035891890450154007 0 -0.22739526357296311 0.03174081059329778 0 -0.22817229752956361 0.034694946791924218 0 -0.22739526357296311 0.03174081059329778 0 -0.23263668262207679 0.032954477586658808 0 -0.2300321660746508 0.029837817046726101 0 -0.22739526357296311 0.03174081059329778 0 -0.23263668262207679 0.032954477586658808 0 -0.22460009587350341 0.035891890450154007 0 -0.22817229752956361 0.034694946791924218 0 -0.22739526357296311 0.03174081059329778 0 -0.22460009587350341 0.035891890450154007 0 -0.22817229752956361 0.034694946791924218 0 -0.22914864415966829 0.038125814759044273 0 -0.22817229752956361 0.034694946791924218 0 -0.22914864415966829 0.038125814759044273 0 -0.23263668262207679 0.032954477586658808 0 -0.22914864415966829 0.038125814759044273 0 -0.23263668262207679 0.032954477586658808 0 -0.23286850080545901 0.040067830171803348 0 -0.2225014027314263 0.043357282921613893 0 -0.22914864415966829 0.038125814759044273 0 -0.2326192847579335 0.042480279236769697 0 -0.22914864415966829 0.038125814759044273 0 -0.23286850080545901 0.040067830171803348 0 -0.2326192847579335 0.042480279236769697 0 -0.23286850080545901 0.040067830171803348 0 -0.2326192847579335 0.042480279236769697 0 -0.2530487658585131 0.043979437238689002 0 -0.24678590150662069 0.029992421989188521 0 -0.2326192847579335 0.042480279236769697 0 -0.24678590150662069 0.029992421989188521 0 -0.2326192847579335 0.042480279236769697 0 -0.24678590150662069 0.029992421989188521 0 -0.23286850080545901 0.040067830171803348 0 -0.2326192847579335 0.042480279236769697 0 -0.24678590150662069 0.029992421989188521 0 -0.23263668262207679 0.032954477586658808 0 -0.23286850080545901 0.040067830171803348 0 -0.2326192847579335 0.042480279236769697 0 -0.24196389382814831 0.055087404009729037 0 -0.229614154373495 0.071570396257885568 0 -0.2530487658585131 0.043979437238689002 0 -0.2326192847579335 0.042480279236769697 0 -0.24196389382814831 0.055087404009729037 0 -0.2530487658585131 0.043979437238689002 0 -0.24196389382814831 0.055087404009729037 0 -0.24514501346171769 0.070454309735769605 0 -0.2530487658585131 0.043979437238689002 0 -0.24514501346171769 0.070454309735769605 0 -0.24196389382814831 0.055087404009729037 0 -0.24514501346171769 0.070454309735769605 0 -0.229614154373495 0.071570396257885568 0 -0.25583790670347267 0.069685891584415155 0 -0.24514501346171769 0.070454309735769605 0 -0.24463888543250151 0.091865177133262033 0 -0.24514501346171769 0.070454309735769605 0 -0.23653304097465341 0.082860095683330026 0 -0.229614154373495 0.071570396257885568 0 -0.24514501346171769 0.070454309735769605 0 -0.229614154373495 0.071570396257885568 0 -0.24463888543250151 0.091865177133262033 0 -0.23653304097465341 0.082860095683330026 0 -0.2270752180795885 0.096147683912804247 0 -0.24514501346171769 0.070454309735769605 0 -0.24463888543250151 0.091865177133262033 0 -0.23653304097465341 0.082860095683330026 0 -0.22842485626857181 0.083082981942803502 0 -0.2068347612328644 0.096587110070732923 0 -0.2270752180795885 0.096147683912804247 0 -0.22842485626857181 0.083082981942803502 0 -0.2270752180795885 0.096147683912804247 0 -0.23653304097465341 0.082860095683330026 0 -0.22842485626857181 0.083082981942803502 0 -0.2270752180795885 0.096147683912804247 0 -0.23653304097465341 0.082860095683330026 0 -0.22842485626857181 0.083082981942803502 0 -0.229614154373495 0.071570396257885568 0 -0.22842485626857181 0.083082981942803502 0 -0.229614154373495 0.071570396257885568 0 -0.21149300925772249 0.072872627236489823 0 -0.21763154192849329 0.055691958230967342 0 -0.229614154373495 0.071570396257885568 0 -0.21149300925772249 0.072872627236489823 0 -0.229614154373495 0.071570396257885568 0 -0.21149300925772249 0.072872627236489823 0 -0.22842485626857181 0.083082981942803502 0 -0.229614154373495 0.071570396257885568 0 -0.21763154192849329 0.055691958230967342 0 -0.21149300925772249 0.072872627236489823 0 -0.20264379909905361 0.068903637225165529 0 -0.21149300925772249 0.072872627236489823 0 -0.19337311312365221 0.074192238371951963 0 -0.2068347612328644 0.096587110070732923 0 -0.22842485626857181 0.083082981942803502 0 -0.21149300925772249 0.072872627236489823 0 -0.2068347612328644 0.096587110070732923 0 -0.22842485626857181 0.083082981942803502 0 -0.2068347612328644 0.096587110070732923 0 -0.185909983407782 0.090967767967412128 0 -0.19337311312365221 0.074192238371951963 0 -0.2068347612328644 0.096587110070732923 0 -0.19337311312365221 0.074192238371951963 0 -0.2068347612328644 0.096587110070732923 0 -0.21149300925772249 0.072872627236489823 0 -0.19337311312365221 0.074192238371951963 0 -0.21149300925772249 0.072872627236489823 0 -0.19337311312365221 0.074192238371951963 0 -0.20264379909905361 0.068903637225165529 0 -0.18010182618289849 0.064354042903557784 0 -0.19337311312365221 0.074192238371951963 0 -0.19330197621178241 0.063297684851241584 0 -0.19337311312365221 0.074192238371951963 0 -0.19330197621178241 0.063297684851241584 0 -0.20264379909905361 0.068903637225165529 0 -0.20287391813732611 0.058548437862800909 0 -0.19330197621178241 0.063297684851241584 0 -0.20264379909905361 0.068903637225165529 0 -0.20247855838368259 0.1116349804390598 0 -0.18961910453139949 0.1217950061864484 0 -0.20355189485401731 0.12373615801775351 0 -0.20247855838368259 0.1116349804390598 0 -0.18961910453139949 0.1217950061864484 0 -0.18966488750057461 0.1077277171609843 0 -0.18966488750057461 0.1077277171609843 0 -0.2068347612328644 0.096587110070732923 0 -0.185909983407782 0.090967767967412128 0 -0.18966488750057461 0.1077277171609843 0 -0.2068347612328644 0.096587110070732923 0 -0.20247855838368259 0.1116349804390598 0 -0.18966488750057461 0.1077277171609843 0 -0.2068347612328644 0.096587110070732923 0 -0.2068347612328644 0.096587110070732923 0 -0.2188063900100615 0.1165031774285844 0 -0.2270752180795885 0.096147683912804247 0 -0.20247855838368259 0.1116349804390598 0 -0.2068347612328644 0.096587110070732923 0 -0.2188063900100615 0.1165031774285844 0 -0.2068347612328644 0.096587110070732923 0 -0.2188063900100615 0.1165031774285844 0 -0.20247855838368259 0.1116349804390598 0 -0.20355189485401731 0.12373615801775351 0 -0.2188063900100615 0.1165031774285844 0 -0.20355189485401731 0.12373615801775351 0 -0.2188063900100615 0.1165031774285844 0 -0.21099720770149941 0.12787046373561889 0 -0.23635955781961329 0.1085555517836507 0 -0.2280126536898387 0.1252120625163842 0 -0.22453628178568219 0.12072497156772299 0 -0.2188063900100615 0.1165031774285844 0 -0.23077801878725929 0.13641924478643561 0 -0.22453628178568219 0.12072497156772299 0 -0.23635955781961329 0.1085555517836507 0 -0.2280126536898387 0.1252120625163842 0 -0.22453628178568219 0.12072497156772299 0 -0.2188063900100615 0.1165031774285844 0 -0.2270752180795885 0.096147683912804247 0 -0.22453628178568219 0.12072497156772299 0 -0.2270752180795885 0.096147683912804247 0 -0.23635955781961329 0.1085555517836507 0 -0.22453628178568219 0.12072497156772299 0 -0.2270752180795885 0.096147683912804247 0 -0.25458367379753782 0.1065984124678885 0 -0.24463888543250151 0.091865177133262033 0 -0.23635955781961329 0.1085555517836507 0 -0.24463888543250151 0.091865177133262033 0 -0.2270752180795885 0.096147683912804247 0 -0.23635955781961329 0.1085555517836507 0 -0.24463888543250151 0.091865177133262033 0 -0.23635955781961329 0.1085555517836507 0 -0.25458367379753782 0.1065984124678885 0 -0.23635955781961329 0.1085555517836507 0 -0.24467470510727141 0.12314208916258861 0 -0.23635955781961329 0.1085555517836507 0 -0.24467470510727141 0.12314208916258861 0 -0.2280126536898387 0.1252120625163842 0 -0.24774217926603451 0.13964964347593009 0 -0.23077801878725929 0.13641924478643561 0 -0.24774217926603451 0.13964964347593009 0 -0.23077801878725929 0.13641924478643561 0 -0.23445021610123781 0.14252833239829241 0 -0.24467470510727141 0.12314208916258861 0 -0.24774217926603451 0.13964964347593009 0 -0.23725233075676461 0.12973861359425279 0 -0.24774217926603451 0.13964964347593009 0 -0.23725233075676461 0.12973861359425279 0 -0.23077801878725929 0.13641924478643561 0 -0.24467470510727141 0.12314208916258861 0 -0.23725233075676461 0.12973861359425279 0 -0.2280126536898387 0.1252120625163842 0 -0.2188063900100615 0.1165031774285844 0 -0.23077801878725929 0.13641924478643561 0 -0.2170964209512436 0.1338139277844545 0 -0.23725233075676461 0.12973861359425279 0 -0.2280126536898387 0.1252120625163842 0 -0.23077801878725929 0.13641924478643561 0 -0.2188063900100615 0.1165031774285844 0 -0.23077801878725929 0.13641924478643561 0 -0.22453628178568219 0.12072497156772299 0 -0.2280126536898387 0.1252120625163842 0 -0.23077801878725929 0.13641924478643561 0 -0.23077801878725929 0.13641924478643561 0 -0.22053282488964229 0.13648838388270751 0 -0.23445021610123781 0.14252833239829241 0 -0.22053282488964229 0.13648838388270751 0 -0.23445021610123781 0.14252833239829241 0 -0.23077801878725929 0.13641924478643561 0 -0.23445021610123781 0.14252833239829241 0 -0.23077801878725929 0.13641924478643561 0 -0.22053282488964229 0.13648838388270751 0 -0.2170964209512436 0.1338139277844545 0 -0.23077801878725929 0.13641924478643561 0 -0.2170964209512436 0.1338139277844545 0 -0.22053282488964229 0.13648838388270751 0 -0.22601480263567919 0.14408472749116871 0 -0.21685845183459129 0.14532328079031051 0 -0.22297628088596949 0.1521291107183326 0 -0.22601480263567919 0.14408472749116871 0 -0.21685845183459129 0.14532328079031051 0 -0.22053282488964229 0.13648838388270751 0 -0.22601480263567919 0.14408472749116871 0 -0.23445021610123781 0.14252833239829241 0 -0.22297628088596949 0.1521291107183326 0 -0.22601480263567919 0.14408472749116871 0 -0.23819386045964361 0.14875627970550301 0 -0.22601480263567919 0.14408472749116871 0 -0.23819386045964361 0.14875627970550301 0 -0.23445021610123781 0.14252833239829241 0 -0.22297628088596949 0.1521291107183326 0 -0.23819386045964361 0.14875627970550301 0 -0.2318749068983155 0.16280736681237359 0 -0.22297628088596949 0.1521291107183326 0 -0.23819386045964361 0.14875627970550301 0 -0.23819386045964361 0.14875627970550301 0 -0.2459770815842531 0.16170448909819829 0 -0.23445021610123781 0.14252833239829241 0 -0.24521502559104091 0.14720010558551899 0 -0.23819386045964361 0.14875627970550301 0 -0.23445021610123781 0.14252833239829241 0 -0.24521502559104091 0.14720010558551899 0 -0.23819386045964361 0.14875627970550301 0 -0.23445021610123781 0.14252833239829241 0 -0.23819386045964361 0.14875627970550301 0 -0.24521502559104091 0.14720010558551899 0 -0.24774217926603451 0.13964964347593009 0 -0.23445021610123781 0.14252833239829241 0 -0.24521502559104091 0.14720010558551899 0 -0.23819386045964361 0.14875627970550301 0 -0.24521502559104091 0.14720010558551899 0 -0.2459770815842531 0.16170448909819829 0 -0.25632071909283261 0.16308063945061729 0 -0.24521502559104091 0.14720010558551899 0 -0.2459770815842531 0.16170448909819829 0 -0.25257003298746361 0.17477546459566609 0 -0.2459770815842531 0.16170448909819829 0 -0.2399923441208045 0.17292138623155609 0 -0.2459770815842531 0.16170448909819829 0 -0.2399923441208045 0.17292138623155609 0 -0.2318749068983155 0.16280736681237359 0 -0.23819386045964361 0.14875627970550301 0 -0.2459770815842531 0.16170448909819829 0 -0.2318749068983155 0.16280736681237359 0 -0.2399923441208045 0.17292138623155609 0 -0.2263580600443329 0.17675979079325441 0 -0.24241414195184999 0.18797788129826851 0 -0.25257003298746361 0.17477546459566609 0 -0.2399923441208045 0.17292138623155609 0 -0.24241414195184999 0.18797788129826851 0 -0.2263580600443329 0.17675979079325441 0 -0.24241414195184999 0.18797788129826851 0 -0.2208785630207131 0.19550779959160269 0 -0.22297628088596949 0.1521291107183326 0 -0.2318749068983155 0.16280736681237359 0 -0.21553904526712581 0.16570551726924571 0 -0.2263580600443329 0.17675979079325441 0 -0.2318749068983155 0.16280736681237359 0 -0.21553904526712581 0.16570551726924571 0 -0.2399923441208045 0.17292138623155609 0 -0.2263580600443329 0.17675979079325441 0 -0.2318749068983155 0.16280736681237359 0 -0.21553904526712581 0.16570551726924571 0 -0.20674581461942851 0.18115906637446089 0 -0.19922672259750029 0.1648766192872281 0 -0.22297628088596949 0.1521291107183326 0 -0.21553904526712581 0.16570551726924571 0 -0.20775870131229501 0.15550194173116111 0 -0.21553904526712581 0.16570551726924571 0 -0.19922672259750029 0.1648766192872281 0 -0.20775870131229501 0.15550194173116111 0 -0.2263580600443329 0.17675979079325441 0 -0.21553904526712581 0.16570551726924571 0 -0.20674581461942851 0.18115906637446089 0 -0.2263580600443329 0.17675979079325441 0 -0.20674581461942851 0.18115906637446089 0 -0.2208785630207131 0.19550779959160269 0 -0.20674581461942851 0.18115906637446089 0 -0.19922672259750029 0.1648766192872281 0 -0.18053983500751791 0.18263620436368491 0 -0.19922672259750029 0.1648766192872281 0 -0.19941059416733051 0.1476454083288207 0 -0.1853663452113046 0.15661157765599559 0 -0.19922672259750029 0.1648766192872281 0 -0.1853663452113046 0.15661157765599559 0 -0.18053983500751791 0.18263620436368491 0 -0.19922672259750029 0.1648766192872281 0 -0.19941059416733051 0.1476454083288207 0 -0.20775870131229501 0.15550194173116111 0 -0.19941059416733051 0.1476454083288207 0 -0.1919657002034926 0.1360341330452994 0 -0.1853663452113046 0.15661157765599559 0 -0.18961910453139949 0.1217950061864484 0 -0.20355189485401731 0.12373615801775351 0 -0.1919657002034926 0.1360341330452994 0 -0.20355189485401731 0.12373615801775351 0 -0.1919657002034926 0.1360341330452994 0 -0.20676536532829631 0.135943577400021 0 -0.19941059416733051 0.1476454083288207 0 -0.1919657002034926 0.1360341330452994 0 -0.20676536532829631 0.135943577400021 0 -0.2188063900100615 0.1165031774285844 0 -0.21099720770149941 0.12787046373561889 0 -0.2170964209512436 0.1338139277844545 0 -0.20676536532829631 0.135943577400021 0 -0.21450439281200309 0.13933661349950899 0 -0.2093637084719592 0.1443989074189844 0 -0.20355189485401731 0.12373615801775351 0 -0.20676536532829631 0.135943577400021 0 -0.21099720770149941 0.12787046373561889 0 -0.20676536532829631 0.135943577400021 0 -0.21099720770149941 0.12787046373561889 0 -0.2170964209512436 0.1338139277844545 0 -0.22053282488964229 0.13648838388270751 0 -0.21450439281200309 0.13933661349950899 0 -0.21685845183459129 0.14532328079031051 0 -0.20676536532829631 0.135943577400021 0 -0.21450439281200309 0.13933661349950899 0 -0.2170964209512436 0.1338139277844545 0 -0.22053282488964229 0.13648838388270751 0 -0.21450439281200309 0.13933661349950899 0 -0.2170964209512436 0.1338139277844545 0 -0.21685845183459129 0.14532328079031051 0 -0.20775870131229501 0.15550194173116111 0 -0.2093637084719592 0.1443989074189844 0 -0.21450439281200309 0.13933661349950899 0 -0.21685845183459129 0.14532328079031051 0 -0.2093637084719592 0.1443989074189844 0 -0.22297628088596949 0.1521291107183326 0 -0.21685845183459129 0.14532328079031051 0 -0.20775870131229501 0.15550194173116111 0 -0.22297628088596949 0.1521291107183326 0 -0.20775870131229501 0.15550194173116111 0 -0.19941059416733051 0.1476454083288207 0 -0.20775870131229501 0.15550194173116111 0 -0.2093637084719592 0.1443989074189844 0 -0.19941059416733051 0.1476454083288207 0 -0.20676536532829631 0.135943577400021 0 -0.2093637084719592 0.1443989074189844 0 -0.24214295464715219 0.25181578413355249 0 -0.22408996478605989 0.2423019276157988 0 -0.24600964324549701 0.22928690912890909 0 -0.22408996478605989 0.2423019276157988 0 -0.24600964324549701 0.22928690912890909 0 -0.22408996478605989 0.2423019276157988 0 -0.24600964324549701 0.22928690912890909 0 -0.21728792448464709 0.21956121725997749 0 -0.23656051229652131 0.20694858333754571 0 -0.2208785630207131 0.19550779959160269 0 -0.21728792448464709 0.21956121725997749 0 -0.24600964324549701 0.22928690912890909 0 -0.23656051229652131 0.20694858333754571 0 -0.21728792448464709 0.21956121725997749 0 -0.25463573431352149 0.20422342595113879 0 -0.24600964324549701 0.22928690912890909 0 -0.23656051229652131 0.20694858333754571 0 -0.25463573431352149 0.20422342595113879 0 -0.23656051229652131 0.20694858333754571 0 -0.24241414195184999 0.18797788129826851 0 -0.23656051229652131 0.20694858333754571 0 -0.24241414195184999 0.18797788129826851 0 -0.2208785630207131 0.19550779959160269 0 -0.20674581461942851 0.18115906637446089 0 -0.2208785630207131 0.19550779959160269 0 -0.19745041303685049 0.20139267922685219 0 -0.20674581461942851 0.18115906637446089 0 -0.19745041303685049 0.20139267922685219 0 -0.18053983500751791 0.18263620436368491 0 -0.19745041303685049 0.20139267922685219 0 -0.21728792448464709 0.21956121725997749 0 -0.18846039293573749 0.2235106383664992 0 -0.2208785630207131 0.19550779959160269 0 -0.19745041303685049 0.20139267922685219 0 -0.21728792448464709 0.21956121725997749 0 -0.21728792448464709 0.21956121725997749 0 -0.18846039293573749 0.2235106383664992 0 -0.20484504707871781 0.23686978164302541 0 -0.22408996478605989 0.2423019276157988 0 -0.21728792448464709 0.21956121725997749 0 -0.20484504707871781 0.23686978164302541 0 -0.20217028632662271 0.25531694610268851 0 -0.18907429363208569 0.24597533798117549 0 -0.20484504707871781 0.23686978164302541 0 -0.18846039293573749 0.2235106383664992 0 -0.18907429363208569 0.24597533798117549 0 -0.20484504707871781 0.23686978164302541 0 -0.20217028632662271 0.25531694610268851 0 -0.22408996478605989 0.2423019276157988 0 -0.20484504707871781 0.23686978164302541 0 -0.20217028632662271 0.25531694610268851 0 -0.22408996478605989 0.2423019276157988 0 -0.1610489578705937 0.25479123870834558 0 -0.15919092532091991 0.2377068496274799 0 -0.1725451204332964 0.23836412612381239 0 -0.17660799176630809 0.25779113883275923 0 -0.18907429363208569 0.24597533798117549 0 -0.1725451204332964 0.23836412612381239 0 -0.18846039293573749 0.2235106383664992 0 -0.18907429363208569 0.24597533798117549 0 -0.1725451204332964 0.23836412612381239 0 -0.18846039293573749 0.2235106383664992 0 -0.1725451204332964 0.23836412612381239 0 -0.1671519527602662 0.22240518108118121 0 -0.1671519527602662 0.22240518108118121 0 -0.16103034428728061 0.21087275271646111 0 -0.1495693821566092 0.22298951144159229 0 -0.15919092532091991 0.2377068496274799 0 -0.1671519527602662 0.22240518108118121 0 -0.1495693821566092 0.22298951144159229 0 -0.15919092532091991 0.2377068496274799 0 -0.1725451204332964 0.23836412612381239 0 -0.1671519527602662 0.22240518108118121 0 -0.1671519527602662 0.22240518108118121 0 -0.16103034428728061 0.21087275271646111 0 -0.17375120189391041 0.2039086340438154 0 -0.19745041303685049 0.20139267922685219 0 -0.18846039293573749 0.2235106383664992 0 -0.17375120189391041 0.2039086340438154 0 -0.18846039293573749 0.2235106383664992 0 -0.1671519527602662 0.22240518108118121 0 -0.17375120189391041 0.2039086340438154 0 -0.19745041303685049 0.20139267922685219 0 -0.17375120189391041 0.2039086340438154 0 -0.18053983500751791 0.18263620436368491 0 -0.1536488403383367 0.19418768429925551 0 -0.18053983500751791 0.18263620436368491 0 -0.16103034428728061 0.21087275271646111 0 -0.17375120189391041 0.2039086340438154 0 -0.1536488403383367 0.19418768429925551 0 -0.17375120189391041 0.2039086340438154 0 -0.1536488403383367 0.19418768429925551 0 -0.18053983500751791 0.18263620436368491 0 -0.1536488403383367 0.19418768429925551 0 -0.1316619551247504 0.20363252137258789 0 -0.1536488403383367 0.19418768429925551 0 -0.14439400872732169 0.1886757166978609 0 -0.1316619551247504 0.20363252137258789 0 -0.1536488403383367 0.19418768429925551 0 -0.1551773431729444 0.1833961349150586 0 -0.1536488403383367 0.19418768429925551 0 -0.14439400872732169 0.1886757166978609 0 -0.1551773431729444 0.1833961349150586 0 -0.1316619551247504 0.20363252137258789 0 -0.13623431800876709 0.184505379499044 0 -0.1206330972516169 0.18317828504492839 0 -0.14439400872732169 0.1886757166978609 0 -0.1316619551247504 0.20363252137258789 0 -0.13623431800876709 0.184505379499044 0 -0.1316619551247504 0.20363252137258789 0 -0.1495693821566092 0.22298951144159229 0 -0.12204749744513679 0.2278444913649661 0 -0.16103034428728061 0.21087275271646111 0 -0.1536488403383367 0.19418768429925551 0 -0.1495693821566092 0.22298951144159229 0 -0.1536488403383367 0.19418768429925551 0 -0.1495693821566092 0.22298951144159229 0 -0.1536488403383367 0.19418768429925551 0 -0.1316619551247504 0.20363252137258789 0 -0.1495693821566092 0.22298951144159229 0 -0.1495693821566092 0.22298951144159229 0 -0.13553273356041659 0.23741992574435081 0 -0.12204749744513679 0.2278444913649661 0 -0.13553273356041659 0.23741992574435081 0 -0.12312998757139799 0.247480172707678 0 -0.12204749744513679 0.2278444913649661 0 -0.14548992397487989 0.25179133858392899 0 -0.13553273356041659 0.23741992574435081 0 -0.12312998757139799 0.247480172707678 0 -0.14548992397487989 0.25179133858392899 0 -0.12312998757139799 0.247480172707678 0 -0.1610489578705937 0.25479123870834558 0 -0.14548992397487989 0.25179133858392899 0 -0.15919092532091991 0.2377068496274799 0 -0.14548992397487989 0.25179133858392899 0 -0.15919092532091991 0.2377068496274799 0 -0.1495693821566092 0.22298951144159229 0 -0.14548992397487989 0.25179133858392899 0 -0.1495693821566092 0.22298951144159229 0 -0.13553273356041659 0.23741992574435081 0 -0.14548992397487989 0.25179133858392899 0 -0.1495693821566092 0.22298951144159229 0 -0.17370443427162391 0.13792034727476829 0 -0.1669160178872075 0.15656539066677991 0 -0.15587037344636309 0.14643506547861859 0 -0.1669160178872075 0.15656539066677991 0 -0.15254426457889569 0.16566749811357909 0 -0.15587037344636309 0.14643506547861859 0 -0.17249501376828461 0.11886832425123529 0 -0.17370443427162391 0.13792034727476829 0 -0.15532514003599471 0.13000893134148619 0 -0.17370443427162391 0.13792034727476829 0 -0.15587037344636309 0.14643506547861859 0 -0.15532514003599471 0.13000893134148619 0 -0.17249501376828461 0.11886832425123529 0 -0.18961910453139949 0.1217950061864484 0 -0.17370443427162391 0.13792034727476829 0 -0.18961910453139949 0.1217950061864484 0 -0.1919657002034926 0.1360341330452994 0 -0.17370443427162391 0.13792034727476829 0 -0.17370443427162391 0.13792034727476829 0 -0.1853663452113046 0.15661157765599559 0 -0.1669160178872075 0.15656539066677991 0 -0.1919657002034926 0.1360341330452994 0 -0.17370443427162391 0.13792034727476829 0 -0.1853663452113046 0.15661157765599559 0 -0.1853663452113046 0.15661157765599559 0 -0.18053983500751791 0.18263620436368491 0 -0.16785887021828139 0.17160196086156901 0 -0.1853663452113046 0.15661157765599559 0 -0.1669160178872075 0.15656539066677991 0 -0.16785887021828139 0.17160196086156901 0 -0.1536488403383367 0.19418768429925551 0 -0.18053983500751791 0.18263620436368491 0 -0.1551773431729444 0.1833961349150586 0 -0.16785887021828139 0.17160196086156901 0 -0.15254426457889569 0.16566749811357909 0 -0.1551773431729444 0.1833961349150586 0 -0.18053983500751791 0.18263620436368491 0 -0.16785887021828139 0.17160196086156901 0 -0.1551773431729444 0.1833961349150586 0 -0.1669160178872075 0.15656539066677991 0 -0.16785887021828139 0.17160196086156901 0 -0.15254426457889569 0.16566749811357909 0 -0.15254426457889569 0.16566749811357909 0 -0.1452475869918099 0.1776568634033584 0 -0.13659900165202249 0.1703130580432021 0 -0.15254426457889569 0.16566749811357909 0 -0.13659900165202249 0.1703130580432021 0 -0.13866995533495499 0.1462179489684082 0 -0.15254426457889569 0.16566749811357909 0 -0.1551773431729444 0.1833961349150586 0 -0.1452475869918099 0.1776568634033584 0 -0.14439400872732169 0.1886757166978609 0 -0.1452475869918099 0.1776568634033584 0 -0.13623431800876709 0.184505379499044 0 -0.14439400872732169 0.1886757166978609 0 -0.1551773431729444 0.1833961349150586 0 -0.1452475869918099 0.1776568634033584 0 -0.13623431800876709 0.184505379499044 0 -0.13659900165202249 0.1703130580432021 0 -0.1206330972516169 0.18317828504492839 0 -0.1452475869918099 0.1776568634033584 0 -0.13623431800876709 0.184505379499044 0 -0.13659900165202249 0.1703130580432021 0 -0.13659900165202249 0.1703130580432021 0 -0.13866995533495499 0.1462179489684082 0 -0.12148057295623529 0.16188989965911549 0 -0.13659900165202249 0.1703130580432021 0 -0.12148057295623529 0.16188989965911549 0 -0.1206330972516169 0.18317828504492839 0 -0.13866995533495499 0.1462179489684082 0 -0.1231141014545194 0.14619198163497499 0 -0.12148057295623529 0.16188989965911549 0 -0.13866995533495499 0.1462179489684082 0 -0.1237099839896731 0.1306475231929396 0 -0.1231141014545194 0.14619198163497499 0 -0.13866995533495499 0.1462179489684082 0 -0.15587037344636309 0.14643506547861859 0 -0.15532514003599471 0.13000893134148619 0 -0.15254426457889569 0.16566749811357909 0 -0.13866995533495499 0.1462179489684082 0 -0.15587037344636309 0.14643506547861859 0 -0.13866995533495499 0.1462179489684082 0 -0.15532514003599471 0.13000893134148619 0 -0.14394943667733151 0.12574043048764161 0 -0.13336413733565949 0.1226541595693881 0 -0.13866995533495499 0.1462179489684082 0 -0.14394943667733151 0.12574043048764161 0 -0.13336413733565949 0.1226541595693881 0 -0.13866995533495499 0.1462179489684082 0 -0.12688413323997941 0.1277235279650504 0 -0.13866995533495499 0.1462179489684082 0 -0.12688413323997941 0.1277235279650504 0 -0.13866995533495499 0.1462179489684082 0 -0.12688413323997941 0.1277235279650504 0 -0.1237099839896731 0.1306475231929396 0 -0.1237099839896731 0.1306475231929396 0 -0.1188146628740837 0.1302036642666746 0 -0.1166769103878514 0.12346009443389359 0 -0.1237099839896731 0.1306475231929396 0 -0.1188146628740837 0.1302036642666746 0 -0.11912100381936649 0.1381099274994485 0 -0.1237099839896731 0.1306475231929396 0 -0.11912100381936649 0.1381099274994485 0 -0.1231141014545194 0.14619198163497499 0 -0.1188146628740837 0.1302036642666746 0 -0.11912100381936649 0.1381099274994485 0 -0.1151325589808626 0.13191553261351369 0 -0.11912100381936649 0.1381099274994485 0 -0.1151325589808626 0.13191553261351369 0 -0.10917244671014199 0.13682919752908451 0 -0.1151325589808626 0.13191553261351369 0 -0.1114798624555096 0.12746559923364431 0 -0.10917244671014199 0.13682919752908451 0 -0.1188146628740837 0.1302036642666746 0 -0.11519728670512031 0.12739422686189769 0 -0.1166769103878514 0.12346009443389359 0 -0.11519728670512031 0.12739422686189769 0 -0.1114798624555096 0.12746559923364431 0 -0.11388243882729419 0.12392624376176251 0 -0.1188146628740837 0.1302036642666746 0 -0.11519728670512031 0.12739422686189769 0 -0.1151325589808626 0.13191553261351369 0 -0.11519728670512031 0.12739422686189769 0 -0.1151325589808626 0.13191553261351369 0 -0.1114798624555096 0.12746559923364431 0 -0.1114798624555096 0.12746559923364431 0 -0.10540272701199351 0.12932555536201351 0 -0.1083303094454002 0.12283836377898701 0 -0.10540272701199351 0.12932555536201351 0 -0.099840978436991301 0.12566498740148779 0 -0.1083303094454002 0.12283836377898701 0 -0.1114798624555096 0.12746559923364431 0 -0.10540272701199351 0.12932555536201351 0 -0.10917244671014199 0.13682919752908451 0 -0.10540272701199351 0.12932555536201351 0 -0.10917244671014199 0.13682919752908451 0 -0.098190038011924455 0.13382962886686409 0 -0.10917244671014199 0.13682919752908451 0 -0.098190038011924455 0.13382962886686409 0 -0.098356392370339718 0.14812198660195031 0 -0.10540272701199351 0.12932555536201351 0 -0.098190038011924455 0.13382962886686409 0 -0.099840978436991301 0.12566498740148779 0 -0.098190038011924455 0.13382962886686409 0 -0.099840978436991301 0.12566498740148779 0 -0.088973339360985587 0.12735164772417679 0 -0.098356392370339718 0.14812198660195031 0 -0.11226237736289341 0.15011456443276189 0 -0.10232974686675721 0.1695443936719975 0 -0.098190038011924455 0.13382962886686409 0 -0.098356392370339718 0.14812198660195031 0 -0.089534928169694106 0.1399596441835706 0 -0.10917244671014199 0.13682919752908451 0 -0.098356392370339718 0.14812198660195031 0 -0.11226237736289341 0.15011456443276189 0 -0.11226237736289341 0.15011456443276189 0 -0.1231141014545194 0.14619198163497499 0 -0.12148057295623529 0.16188989965911549 0 -0.11912100381936649 0.1381099274994485 0 -0.10917244671014199 0.13682919752908451 0 -0.11226237736289341 0.15011456443276189 0 -0.11912100381936649 0.1381099274994485 0 -0.11226237736289341 0.15011456443276189 0 -0.1231141014545194 0.14619198163497499 0 -0.11226237736289341 0.15011456443276189 0 -0.12148057295623529 0.16188989965911549 0 -0.10232974686675721 0.1695443936719975 0 -0.12148057295623529 0.16188989965911549 0 -0.1206330972516169 0.18317828504492839 0 -0.10232974686675721 0.1695443936719975 0 -0.1206330972516169 0.18317828504492839 0 -0.10557484068831199 0.185762104800787 0 -0.10232974686675721 0.1695443936719975 0 -0.1206330972516169 0.18317828504492839 0 -0.10232974686675721 0.1695443936719975 0 -0.10557484068831199 0.185762104800787 0 -0.10232974686675721 0.1695443936719975 0 -0.088436373773960145 0.18292492331448171 0 -0.098356392370339718 0.14812198660195031 0 -0.10232974686675721 0.1695443936719975 0 -0.084026396481897636 0.15591050229906661 0 -0.088436373773960145 0.18292492331448171 0 -0.06782192743242299 0.1700437963265857 0 -0.084026396481897636 0.15591050229906661 0 -0.10232974686675721 0.1695443936719975 0 -0.088436373773960145 0.18292492331448171 0 -0.084026396481897636 0.15591050229906661 0 -0.10232974686675721 0.1695443936719975 0 -0.084026396481897636 0.15591050229906661 0 -0.088436373773960145 0.18292492331448171 0 -0.06782192743242299 0.1700437963265857 0 -0.073963275105227322 0.19475409899272109 0 -0.06782192743242299 0.1700437963265857 0 -0.073963275105227322 0.19475409899272109 0 -0.056557733609882477 0.1885492467843945 0 -0.065723046097038065 0.1422766109261358 0 -0.084026396481897636 0.15591050229906661 0 -0.065723046097038065 0.1422766109261358 0 -0.078128474623323146 0.13458445542579539 0 -0.084026396481897636 0.15591050229906661 0 -0.06782192743242299 0.1700437963265857 0 -0.065723046097038065 0.1422766109261358 0 -0.084026396481897636 0.15591050229906661 0 -0.078128474623323146 0.13458445542579539 0 -0.064212613735401311 0.1246656517006846 0 -0.077783884837755488 0.1169685852607581 0 -0.065723046097038065 0.1422766109261358 0 -0.078128474623323146 0.13458445542579539 0 -0.064212613735401311 0.1246656517006846 0 -0.078128474623323146 0.13458445542579539 0 -0.088973339360985587 0.12735164772417679 0 -0.077783884837755488 0.1169685852607581 0 -0.078128474623323146 0.13458445542579539 0 -0.088973339360985587 0.12735164772417679 0 -0.089534928169694106 0.1399596441835706 0 -0.098190038011924455 0.13382962886686409 0 -0.088973339360985587 0.12735164772417679 0 -0.089534928169694106 0.1399596441835706 0 -0.078128474623323146 0.13458445542579539 0 -0.089534928169694106 0.1399596441835706 0 -0.084026396481897636 0.15591050229906661 0 -0.098356392370339718 0.14812198660195031 0 -0.089534928169694106 0.1399596441835706 0 -0.084026396481897636 0.15591050229906661 0 -0.1007700511679166 0.24316900683142401 0 -0.1028094631901752 0.22740907496168311 0 -0.092419453455026793 0.23298952956688421 0 -0.1007700511679166 0.24316900683142401 0 -0.12312998757139799 0.247480172707678 0 -0.1007700511679166 0.24316900683142401 0 -0.12312998757139799 0.247480172707678 0 -0.12204749744513679 0.2278444913649661 0 -0.12204749744513679 0.2278444913649661 0 -0.1028094631901752 0.22740907496168311 0 -0.10967506991116539 0.21307735844592329 0 -0.1007700511679166 0.24316900683142401 0 -0.12204749744513679 0.2278444913649661 0 -0.1028094631901752 0.22740907496168311 0 -0.1028094631901752 0.22740907496168311 0 -0.10967506991116539 0.21307735844592329 0 -0.087402057777127007 0.22236618709313979 0 -0.1028094631901752 0.22740907496168311 0 -0.087402057777127007 0.22236618709313979 0 -0.092419453455026793 0.23298952956688421 0 -0.10967506991116539 0.21307735844592329 0 -0.10054125333360329 0.1982682735679879 0 -0.089475684049019247 0.2185630572615794 0 -0.10054125333360329 0.1982682735679879 0 -0.089475684049019247 0.2185630572615794 0 -0.10967506991116539 0.21307735844592329 0 -0.089475684049019247 0.2185630572615794 0 -0.087402057777127007 0.22236618709313979 0 -0.10967506991116539 0.21307735844592329 0 -0.087402057777127007 0.22236618709313979 0 -0.10967506991116539 0.21307735844592329 0 -0.1157532158367285 0.1980794784912594 0 -0.10054125333360329 0.1982682735679879 0 -0.1316619551247504 0.20363252137258789 0 -0.10967506991116539 0.21307735844592329 0 -0.1316619551247504 0.20363252137258789 0 -0.12204749744513679 0.2278444913649661 0 -0.10967506991116539 0.21307735844592329 0 -0.1316619551247504 0.20363252137258789 0 -0.10967506991116539 0.21307735844592329 0 -0.1157532158367285 0.1980794784912594 0 -0.1316619551247504 0.20363252137258789 0 -0.1206330972516169 0.18317828504492839 0 -0.1157532158367285 0.1980794784912594 0 -0.1206330972516169 0.18317828504492839 0 -0.10557484068831199 0.185762104800787 0 -0.1157532158367285 0.1980794784912594 0 -0.10557484068831199 0.185762104800787 0 -0.088436373773960145 0.18292492331448171 0 -0.10054125333360329 0.1982682735679879 0 -0.10557484068831199 0.185762104800787 0 -0.1157532158367285 0.1980794784912594 0 -0.10054125333360329 0.1982682735679879 0 -0.088436373773960145 0.18292492331448171 0 -0.073963275105227322 0.19475409899272109 0 -0.08926990701268922 0.205286760332208 0 -0.088436373773960145 0.18292492331448171 0 -0.10054125333360329 0.1982682735679879 0 -0.08926990701268922 0.205286760332208 0 -0.073963275105227322 0.19475409899272109 0 -0.077602244316411495 0.2091009209117968 0 -0.08926990701268922 0.205286760332208 0 -0.073963275105227322 0.19475409899272109 0 -0.061876185618725481 0.20616115650165409 0 -0.056557733609882477 0.1885492467843945 0 -0.077602244316411495 0.2091009209117968 0 -0.070619180993747699 0.2173901018931671 0 -0.061876185618725481 0.20616115650165409 0 -0.073963275105227322 0.19475409899272109 0 -0.077602244316411495 0.2091009209117968 0 -0.061876185618725481 0.20616115650165409 0 -0.070619180993747699 0.2173901018931671 0 -0.058251798071379521 0.22040170742551229 0 -0.061876185618725481 0.20616115650165409 0 -0.077602244316411495 0.2091009209117968 0 -0.070619180993747699 0.2173901018931671 0 -0.080424996058377676 0.21610411260653581 0 -0.10054125333360329 0.1982682735679879 0 -0.08926990701268922 0.205286760332208 0 -0.089475684049019247 0.2185630572615794 0 -0.080424996058377676 0.21610411260653581 0 -0.084193207859124403 0.21226371277802999 0 -0.089475684049019247 0.2185630572615794 0 -0.077602244316411495 0.2091009209117968 0 -0.080424996058377676 0.21610411260653581 0 -0.084193207859124403 0.21226371277802999 0 -0.077602244316411495 0.2091009209117968 0 -0.084193207859124403 0.21226371277802999 0 -0.08926990701268922 0.205286760332208 0 -0.084193207859124403 0.21226371277802999 0 -0.08926990701268922 0.205286760332208 0 -0.089475684049019247 0.2185630572615794 0 -0.087402057777127007 0.22236618709313979 0 -0.092419453455026793 0.23298952956688421 0 -0.078410114764434921 0.2388578409551709 0 -0.087402057777127007 0.22236618709313979 0 -0.078410114764434921 0.2388578409551709 0 -0.087402057777127007 0.22236618709313979 0 -0.076779393789408887 0.22937588468778849 0 -0.078410114764434921 0.2388578409551709 0 -0.089475684049019247 0.2185630572615794 0 -0.087402057777127007 0.22236618709313979 0 -0.080424996058377676 0.21610411260653581 0 -0.089475684049019247 0.2185630572615794 0 -0.077123308047050823 0.2228244839199835 0 -0.089475684049019247 0.2185630572615794 0 -0.087402057777127007 0.22236618709313979 0 -0.076779393789408887 0.22937588468778849 0 -0.089475684049019247 0.2185630572615794 0 -0.077123308047050823 0.2228244839199835 0 -0.076779393789408887 0.22937588468778849 0 -0.070619180993747699 0.2173901018931671 0 -0.077123308047050823 0.2228244839199835 0 -0.066997022471172729 0.22903316620120781 0 -0.070619180993747699 0.2173901018931671 0 -0.080424996058377676 0.21610411260653581 0 -0.077123308047050823 0.2228244839199835 0 -0.070619180993747699 0.2173901018931671 0 -0.066997022471172729 0.22903316620120781 0 -0.058251798071379521 0.22040170742551229 0 -0.077123308047050823 0.2228244839199835 0 -0.066997022471172729 0.22903316620120781 0 -0.076779393789408887 0.22937588468778849 0 -0.066997022471172729 0.22903316620120781 0 -0.076779393789408887 0.22937588468778849 0 -0.071890839615366423 0.2376008751010005 0 -0.068545824550532347 0.25694942133692961 0 -0.078410114764434921 0.2388578409551709 0 -0.076779393789408887 0.22937588468778849 0 -0.071890839615366423 0.2376008751010005 0 -0.078410114764434921 0.2388578409551709 0 -0.066997022471172729 0.22903316620120781 0 -0.071890839615366423 0.2376008751010005 0 -0.064322961266428391 0.24490656945370051 0 -0.068545824550532347 0.25694942133692961 0 -0.064322961266428391 0.24490656945370051 0 -0.078410114764434921 0.2388578409551709 0 -0.071890839615366423 0.2376008751010005 0 -0.064322961266428391 0.24490656945370051 0 -0.078410114764434921 0.2388578409551709 0 -0.071890839615366423 0.2376008751010005 0 -0.078410114764434921 0.2388578409551709 0 -0.1007700511679166 0.24316900683142401 0 -0.092419453455026793 0.23298952956688421 0 -0.078410114764434921 0.2388578409551709 0 -0.1007700511679166 0.24316900683142401 0 -0.078410114764434921 0.2388578409551709 0 -0.085644315488926481 0.25551381652575039 0 -0.1007700511679166 0.24316900683142401 0 -0.078410114764434921 0.2388578409551709 0 -0.052781921422815223 0.24246660685113591 0 -0.033053404596193818 0.22061804524623149 0 -0.025966110251752189 0.244800189374869 0 -0.066997022471172729 0.22903316620120781 0 -0.064322961266428391 0.24490656945370051 0 -0.052781921422815223 0.24246660685113591 0 -0.052781921422815223 0.24246660685113591 0 -0.058251798071379521 0.22040170742551229 0 -0.033053404596193818 0.22061804524623149 0 -0.052781921422815223 0.24246660685113591 0 -0.058251798071379521 0.22040170742551229 0 -0.066997022471172729 0.22903316620120781 0 -0.052781921422815223 0.24246660685113591 0 -0.058251798071379521 0.22040170742551229 0 -0.058251798071379521 0.22040170742551229 0 -0.033053404596193818 0.22061804524623149 0 -0.045574890853295157 0.21145838798279909 0 -0.033053404596193818 0.22061804524623149 0 -0.045574890853295157 0.21145838798279909 0 -0.040890525511778658 0.1966684028368457 0 -0.033053404596193818 0.22061804524623149 0 -0.040890525511778658 0.1966684028368457 0 -0.019871325807300371 0.20654406590104299 0 -0.058251798071379521 0.22040170742551229 0 -0.045574890853295157 0.21145838798279909 0 -0.061876185618725481 0.20616115650165409 0 -0.045574890853295157 0.21145838798279909 0 -0.061876185618725481 0.20616115650165409 0 -0.040890525511778658 0.1966684028368457 0 -0.061876185618725481 0.20616115650165409 0 -0.056557733609882477 0.1885492467843945 0 -0.040890525511778658 0.1966684028368457 0 -0.040890525511778658 0.1966684028368457 0 -0.019827996343026889 0.19079171827913299 0 -0.040206656175701162 0.17947263390243939 0 -0.056557733609882477 0.1885492467843945 0 -0.040890525511778658 0.1966684028368457 0 -0.040206656175701162 0.17947263390243939 0 -0.040890525511778658 0.1966684028368457 0 -0.019827996343026889 0.19079171827913299 0 -0.019871325807300371 0.20654406590104299 0 -0.019827996343026889 0.19079171827913299 0 -0.0009645268562457458 0.19957329067002691 0 -0.019871325807300371 0.20654406590104299 0 -0.019827996343026889 0.19079171827913299 0 -0.0009645268562457458 0.19957329067002691 0 -0.0020124373959203661 0.17839985613399431 0 -0.0009645268562457458 0.19957329067002691 0 -0.019871325807300371 0.20654406590104299 0 -0.0046201757292567477 0.22506887247297819 0 -0.033053404596193818 0.22061804524623149 0 -0.019871325807300371 0.20654406590104299 0 -0.0046201757292567477 0.22506887247297819 0 -0.033053404596193818 0.22061804524623149 0 -0.0046201757292567477 0.22506887247297819 0 -0.025966110251752189 0.244800189374869 0 -0.0046201757292567477 0.22506887247297819 0 -0.025966110251752189 0.244800189374869 0 -0.0046201757292567477 0.22506887247297819 0 -0.0043755340704045732 0.244462551133488 0 -0.025966110251752189 0.244800189374869 0 -0.012601642581572991 0.2569366073914971 0 -0.0043755340704045732 0.244462551133488 0 -0.025966110251752189 0.244800189374869 0 -0.034080576162193697 0.15170376027300431 0 -0.036751756369701197 0.1398405960150558 0 -0.048907802219992892 0.15250578935423961 0 -0.036751756369701197 0.1398405960150558 0 -0.047419695712178453 0.12864271955320489 0 -0.048907802219992892 0.15250578935423961 0 -0.036751756369701197 0.1398405960150558 0 -0.047419695712178453 0.12864271955320489 0 -0.028796115663273659 0.12790035980269041 0 -0.065723046097038065 0.1422766109261358 0 -0.047419695712178453 0.12864271955320489 0 -0.064212613735401311 0.1246656517006846 0 -0.065723046097038065 0.1422766109261358 0 -0.047419695712178453 0.12864271955320489 0 -0.065723046097038065 0.1422766109261358 0 -0.047419695712178453 0.12864271955320489 0 -0.048907802219992892 0.15250578935423961 0 -0.06782192743242299 0.1700437963265857 0 -0.065723046097038065 0.1422766109261358 0 -0.048907802219992892 0.15250578935423961 0 -0.06782192743242299 0.1700437963265857 0 -0.048907802219992892 0.15250578935423961 0 -0.052281737218402541 0.17173240721379579 0 -0.056557733609882477 0.1885492467843945 0 -0.052281737218402541 0.17173240721379579 0 -0.040206656175701162 0.17947263390243939 0 -0.06782192743242299 0.1700437963265857 0 -0.056557733609882477 0.1885492467843945 0 -0.052281737218402541 0.17173240721379579 0 -0.040206656175701162 0.17947263390243939 0 -0.036873654438105009 0.16488231080621649 0 -0.022024462685296842 0.17372325228189051 0 -0.052281737218402541 0.17173240721379579 0 -0.040206656175701162 0.17947263390243939 0 -0.036873654438105009 0.16488231080621649 0 -0.048907802219992892 0.15250578935423961 0 -0.052281737218402541 0.17173240721379579 0 -0.036873654438105009 0.16488231080621649 0 -0.034080576162193697 0.15170376027300431 0 -0.048907802219992892 0.15250578935423961 0 -0.036873654438105009 0.16488231080621649 0 -0.034080576162193697 0.15170376027300431 0 -0.036873654438105009 0.16488231080621649 0 -0.022723975584301181 0.15891869073020359 0 -0.036873654438105009 0.16488231080621649 0 -0.022723975584301181 0.15891869073020359 0 -0.022024462685296842 0.17372325228189051 0 -0.022723975584301181 0.15891869073020359 0 -0.022024462685296842 0.17372325228189051 0 -0.01000701235277646 0.1654021572420723 0 -0.019827996343026889 0.19079171827913299 0 -0.040206656175701162 0.17947263390243939 0 -0.022024462685296842 0.17372325228189051 0 -0.019827996343026889 0.19079171827913299 0 -0.022024462685296842 0.17372325228189051 0 -0.0020124373959203661 0.17839985613399431 0 -0.022024462685296842 0.17372325228189051 0 -0.0020124373959203661 0.17839985613399431 0 -0.01000701235277646 0.1654021572420723 0 -0.022723975584301181 0.15891869073020359 0 -0.01000701235277646 0.1654021572420723 0 -0.007726169365710734 0.15277462447414769 0 -0.0020124373959203661 0.17839985613399431 0 -0.01000701235277646 0.1654021572420723 0 0.0044519832673468162 0.1631943625901254 0 -0.01000701235277646 0.1654021572420723 0 -0.007726169365710734 0.15277462447414769 0 0.0044519832673468162 0.1631943625901254 0 -0.007726169365710734 0.15277462447414769 0 -0.00048726366279250359 0.14167917974636529 0 0.005583746424612122 0.15123205850768889 0 -0.007726169365710734 0.15277462447414769 0 -0.00048726366279250359 0.14167917974636529 0 -0.010392592788942889 0.14075086267192621 0 -0.007726169365710734 0.15277462447414769 0 -0.010392592788942889 0.14075086267192621 0 -0.02259741169000213 0.14264481159555481 0 -0.022723975584301181 0.15891869073020359 0 -0.007726169365710734 0.15277462447414769 0 -0.02259741169000213 0.14264481159555481 0 -0.034080576162193697 0.15170376027300431 0 -0.022723975584301181 0.15891869073020359 0 -0.02259741169000213 0.14264481159555481 0 -0.034080576162193697 0.15170376027300431 0 -0.036751756369701197 0.1398405960150558 0 -0.02259741169000213 0.14264481159555481 0 -0.036751756369701197 0.1398405960150558 0 -0.02259741169000213 0.14264481159555481 0 -0.028796115663273659 0.12790035980269041 0 -0.010392592788942889 0.14075086267192621 0 -0.02259741169000213 0.14264481159555481 0 -0.017893316168609171 0.12976176574791171 0 -0.02259741169000213 0.14264481159555481 0 -0.028796115663273659 0.12790035980269041 0 -0.017893316168609171 0.12976176574791171 0 -0.017893316168609171 0.12976176574791171 0 -0.0069497786981698936 0.13136640170252889 0 -0.01040299208029591 0.1216235279800781 0 -0.010392592788942889 0.14075086267192621 0 -0.017893316168609171 0.12976176574791171 0 -0.0069497786981698936 0.13136640170252889 0 -0.00048726366279250359 0.14167917974636529 0 -0.0069497786981698936 0.13136640170252889 0 0.0030207331985755881 0.13042772028312261 0 -0.00048726366279250359 0.14167917974636529 0 -0.010392592788942889 0.14075086267192621 0 -0.0069497786981698936 0.13136640170252889 0 -0.01040299208029591 0.1216235279800781 0 0.0030207331985755881 0.13042772028312261 0 -0.0069497786981698936 0.13136640170252889 0 0.0030207331985755881 0.13042772028312261 0 -0.0069497786981698936 0.13136640170252889 0 -0.01040299208029591 0.1216235279800781 0 0.0030207331985755881 0.13042772028312261 0 -0.01040299208029591 0.1216235279800781 0 0.00073919274506113004 0.11770919909287821 0 0.0030207331985755881 0.13042772028312261 0 -0.01040299208029591 0.1216235279800781 0 -0.012732330732955609 0.1120715507590226 0 0.00073919274506113004 0.11770919909287821 0 -0.012732330732955609 0.1120715507590226 0 -0.006272828410093783 0.1053412510084622 0 0.00073919274506113004 0.11770919909287821 0 -0.006272828410093783 0.1053412510084622 0 -0.0076135289647085479 0.091821168524714253 0 0.0086662749107039236 0.10693835184074631 0 -0.006272828410093783 0.1053412510084622 0 -0.017833407038348521 0.1009715748551737 0 -0.0076135289647085479 0.091821168524714253 0 -0.012732330732955609 0.1120715507590226 0 -0.006272828410093783 0.1053412510084622 0 -0.017833407038348521 0.1009715748551737 0 -0.017833407038348521 0.1009715748551737 0 -0.02307028133728703 0.083282822394420933 0 -0.031374318387360982 0.10066041381654101 0 -0.012732330732955609 0.1120715507590226 0 -0.017833407038348521 0.1009715748551737 0 -0.023826717359166801 0.1128193356770326 0 -0.017833407038348521 0.1009715748551737 0 -0.023826717359166801 0.1128193356770326 0 -0.031374318387360982 0.10066041381654101 0 -0.028796115663273659 0.12790035980269041 0 -0.023826717359166801 0.1128193356770326 0 -0.031374318387360982 0.10066041381654101 0 -0.017893316168609171 0.12976176574791171 0 -0.01040299208029591 0.1216235279800781 0 -0.023826717359166801 0.1128193356770326 0 -0.028796115663273659 0.12790035980269041 0 -0.031374318387360982 0.10066041381654101 0 -0.028796115663273659 0.12790035980269041 0 -0.017893316168609171 0.12976176574791171 0 -0.023826717359166801 0.1128193356770326 0 -0.01040299208029591 0.1216235279800781 0 -0.023826717359166801 0.1128193356770326 0 -0.01040299208029591 0.1216235279800781 0 -0.012732330732955609 0.1120715507590226 0 -0.023826717359166801 0.1128193356770326 0 -0.011840771648368069 0.070036276409794568 0 0.0046698397351421896 0.084356734639687847 0 0.0067128332214790448 0.066304310358282131 0 -0.011840771648368069 0.070036276409794568 0 -0.0087575758547522118 0.054061196402823801 0 0.0067128332214790448 0.066304310358282131 0 -0.011840771648368069 0.070036276409794568 0 -0.0076135289647085479 0.091821168524714253 0 0.0046698397351421896 0.084356734639687847 0 -0.011840771648368069 0.070036276409794568 0 -0.0076135289647085479 0.091821168524714253 0 -0.02307028133728703 0.083282822394420933 0 -0.02307028133728703 0.083282822394420933 0 -0.033433994531230207 0.073413929101007136 0 -0.031374318387360982 0.10066041381654101 0 -0.017833407038348521 0.1009715748551737 0 -0.0076135289647085479 0.091821168524714253 0 -0.02307028133728703 0.083282822394420933 0 -0.033433994531230207 0.073413929101007136 0 -0.024957510961105728 0.052554086559175192 0 -0.022126256647668052 0.066005960114057474 0 -0.033433994531230207 0.073413929101007136 0 -0.024957510961105728 0.052554086559175192 0 -0.011840771648368069 0.070036276409794568 0 -0.02307028133728703 0.083282822394420933 0 -0.02261782604113834 0.073184747004820028 0 -0.02261782604113834 0.073184747004820028 0 -0.022126256647668052 0.066005960114057474 0 -0.033433994531230207 0.073413929101007136 0 -0.02307028133728703 0.083282822394420933 0 -0.02261782604113834 0.073184747004820028 0 -0.033433994531230207 0.073413929101007136 0 -0.011840771648368069 0.070036276409794568 0 -0.022126256647668052 0.066005960114057474 0 -0.017111491781406619 0.059445348841143608 0 -0.011840771648368069 0.070036276409794568 0 -0.02261782604113834 0.073184747004820028 0 -0.022126256647668052 0.066005960114057474 0 -0.045088766875976363 0.068589362908175758 0 -0.048685917327770167 0.062976449455659819 0 -0.042150101728099743 0.06140274416018604 0 -0.045088766875976363 0.068589362908175758 0 -0.040414738060108181 0.068708835554056949 0 -0.041365161266192323 0.073205377192550714 0 -0.045088766875976363 0.068589362908175758 0 -0.040414738060108181 0.068708835554056949 0 -0.042150101728099743 0.06140274416018604 0 -0.040414738060108181 0.068708835554056949 0 -0.03791295026989655 0.064766833259344736 0 -0.042150101728099743 0.06140274416018604 0 -0.03791295026989655 0.064766833259344736 0 -0.037476623068205747 0.072663333565666649 0 -0.033433994531230207 0.073413929101007136 0 -0.040414738060108181 0.068708835554056949 0 -0.03791295026989655 0.064766833259344736 0 -0.037476623068205747 0.072663333565666649 0 -0.037476623068205747 0.072663333565666649 0 -0.033433994531230207 0.073413929101007136 0 -0.038378904221087431 0.077001327619629675 0 -0.037476623068205747 0.072663333565666649 0 -0.038378904221087431 0.077001327619629675 0 -0.041365161266192323 0.073205377192550714 0 -0.038378904221087431 0.077001327619629675 0 -0.041799419709355183 0.076749278025213877 0 -0.041365161266192323 0.073205377192550714 0 -0.040414738060108181 0.068708835554056949 0 -0.037476623068205747 0.072663333565666649 0 -0.041365161266192323 0.073205377192550714 0 -0.045088766875976363 0.068589362908175758 0 -0.041365161266192323 0.073205377192550714 0 -0.046553078700956471 0.075074525034256309 0 -0.041799419709355183 0.076749278025213877 0 -0.046553078700956471 0.075074525034256309 0 -0.043843932750518212 0.07976199353934324 0 -0.041799419709355183 0.076749278025213877 0 -0.041365161266192323 0.073205377192550714 0 -0.046553078700956471 0.075074525034256309 0 -0.033433994531230207 0.073413929101007136 0 -0.031374318387360982 0.10066041381654101 0 -0.033433994531230207 0.073413929101007136 0 -0.038070641279029441 0.086500792269476143 0 -0.031374318387360982 0.10066041381654101 0 -0.046553078700956471 0.075074525034256309 0 -0.043843932750518212 0.07976199353934324 0 -0.047467128467359079 0.082155223575858485 0 -0.042760853219731942 0.084177924880877789 0 -0.044618271601479742 0.088792937185616844 0 -0.047467128467359079 0.082155223575858485 0 -0.043843932750518212 0.07976199353934324 0 -0.042760853219731942 0.084177924880877789 0 -0.047467128467359079 0.082155223575858485 0 -0.042760853219731942 0.084177924880877789 0 -0.040639183655188357 0.080653016180509754 0 -0.038070641279029441 0.086500792269476143 0 -0.043843932750518212 0.07976199353934324 0 -0.042760853219731942 0.084177924880877789 0 -0.040639183655188357 0.080653016180509754 0 -0.041799419709355183 0.076749278025213877 0 -0.043843932750518212 0.07976199353934324 0 -0.040639183655188357 0.080653016180509754 0 -0.038378904221087431 0.077001327619629675 0 -0.041799419709355183 0.076749278025213877 0 -0.040639183655188357 0.080653016180509754 0 -0.038378904221087431 0.077001327619629675 0 -0.040639183655188357 0.080653016180509754 0 -0.038070641279029441 0.086500792269476143 0 -0.033433994531230207 0.073413929101007136 0 -0.038378904221087431 0.077001327619629675 0 -0.038070641279029441 0.086500792269476143 0 -0.038070641279029441 0.086500792269476143 0 -0.044618271601479742 0.088792937185616844 0 -0.04157937905232785 0.095144540362098295 0 -0.044618271601479742 0.088792937185616844 0 -0.04157937905232785 0.095144540362098295 0 -0.050370124245390738 0.095147753892104267 0 -0.042760853219731942 0.084177924880877789 0 -0.038070641279029441 0.086500792269476143 0 -0.044618271601479742 0.088792937185616844 0 -0.044618271601479742 0.088792937185616844 0 -0.051489410213499849 0.088680826071530661 0 -0.050370124245390738 0.095147753892104267 0 -0.044618271601479742 0.088792937185616844 0 -0.051489410213499849 0.088680826071530661 0 -0.047467128467359079 0.082155223575858485 0 -0.051489410213499849 0.088680826071530661 0 -0.0581330206996864 0.092451767798047049 0 -0.050370124245390738 0.095147753892104267 0 -0.0581330206996864 0.092451767798047049 0 -0.058387528945798593 0.085782252786122143 0 -0.065686144755577977 0.088179049878505222 0 -0.051489410213499849 0.088680826071530661 0 -0.0581330206996864 0.092451767798047049 0 -0.058387528945798593 0.085782252786122143 0 -0.058387528945798593 0.085782252786122143 0 -0.058422534543839152 0.079896641320102685 0 -0.053297257458587433 0.08307562203139876 0 -0.058387528945798593 0.085782252786122143 0 -0.058422534543839152 0.079896641320102685 0 -0.063492521453658426 0.082135151614612656 0 -0.058422534543839152 0.079896641320102685 0 -0.063492521453658426 0.082135151614612656 0 -0.06317355168302824 0.077213441623431023 0 -0.058422534543839152 0.079896641320102685 0 -0.053297257458587433 0.08307562203139876 0 -0.052851559649509813 0.077329431577246116 0 -0.053297257458587433 0.08307562203139876 0 -0.047467128467359079 0.082155223575858485 0 -0.052851559649509813 0.077329431577246116 0 -0.051489410213499849 0.088680826071530661 0 -0.058387528945798593 0.085782252786122143 0 -0.053297257458587433 0.08307562203139876 0 -0.051489410213499849 0.088680826071530661 0 -0.053297257458587433 0.08307562203139876 0 -0.047467128467359079 0.082155223575858485 0 -0.046553078700956471 0.075074525034256309 0 -0.047467128467359079 0.082155223575858485 0 -0.052851559649509813 0.077329431577246116 0 -0.046553078700956471 0.075074525034256309 0 -0.052851559649509813 0.077329431577246116 0 -0.052720106971499058 0.069580770931483224 0 -0.045088766875976363 0.068589362908175758 0 -0.046553078700956471 0.075074525034256309 0 -0.052720106971499058 0.069580770931483224 0 -0.058649251754817687 0.074193806570377357 0 -0.062352018119930512 0.067677702987684468 0 -0.052720106971499058 0.069580770931483224 0 -0.058422534543839152 0.079896641320102685 0 -0.052851559649509813 0.077329431577246116 0 -0.058649251754817687 0.074193806570377357 0 -0.058422534543839152 0.079896641320102685 0 -0.058649251754817687 0.074193806570377357 0 -0.06317355168302824 0.077213441623431023 0 -0.058649251754817687 0.074193806570377357 0 -0.064370285895549981 0.072578537163389426 0 -0.06317355168302824 0.077213441623431023 0 -0.058649251754817687 0.074193806570377357 0 -0.062352018119930512 0.067677702987684468 0 -0.064370285895549981 0.072578537163389426 0 -0.052851559649509813 0.077329431577246116 0 -0.058649251754817687 0.074193806570377357 0 -0.052720106971499058 0.069580770931483224 0 -0.062352018119930512 0.067677702987684468 0 -0.052720106971499058 0.069580770931483224 0 -0.054962991487983427 0.061089652044746513 0 -0.062352018119930512 0.067677702987684468 0 -0.054962991487983427 0.061089652044746513 0 -0.062181979903238163 0.060812796880851297 0 -0.052720106971499058 0.069580770931483224 0 -0.048685917327770167 0.062976449455659819 0 -0.054962991487983427 0.061089652044746513 0 -0.045088766875976363 0.068589362908175758 0 -0.052720106971499058 0.069580770931483224 0 -0.048685917327770167 0.062976449455659819 0 -0.047419695712178453 0.12864271955320489 0 -0.028796115663273659 0.12790035980269041 0 -0.040632536985239227 0.1151969786901279 0 -0.028796115663273659 0.12790035980269041 0 -0.040632536985239227 0.1151969786901279 0 -0.031374318387360982 0.10066041381654101 0 -0.040632536985239227 0.1151969786901279 0 -0.044476775209006093 0.10377929899040381 0 -0.053143198955808643 0.11436495758821071 0 -0.040632536985239227 0.1151969786901279 0 -0.031374318387360982 0.10066041381654101 0 -0.044476775209006093 0.10377929899040381 0 -0.038070641279029441 0.086500792269476143 0 -0.031374318387360982 0.10066041381654101 0 -0.04157937905232785 0.095144540362098295 0 -0.04157937905232785 0.095144540362098295 0 -0.044476775209006093 0.10377929899040381 0 -0.050370124245390738 0.095147753892104267 0 -0.031374318387360982 0.10066041381654101 0 -0.04157937905232785 0.095144540362098295 0 -0.044476775209006093 0.10377929899040381 0 -0.044476775209006093 0.10377929899040381 0 -0.057803305117852789 0.10171689654855599 0 -0.053143198955808643 0.11436495758821071 0 -0.044476775209006093 0.10377929899040381 0 -0.050370124245390738 0.095147753892104267 0 -0.057803305117852789 0.10171689654855599 0 -0.0581330206996864 0.092451767798047049 0 -0.057803305117852789 0.10171689654855599 0 -0.065020070319752515 0.095535311087652564 0 -0.0581330206996864 0.092451767798047049 0 -0.050370124245390738 0.095147753892104267 0 -0.057803305117852789 0.10171689654855599 0 -0.047419695712178453 0.12864271955320489 0 -0.053143198955808643 0.11436495758821071 0 -0.064212613735401311 0.1246656517006846 0 -0.057803305117852789 0.10171689654855599 0 -0.053143198955808643 0.11436495758821071 0 -0.064314266975173992 0.1121882000462873 0 -0.053143198955808643 0.11436495758821071 0 -0.064212613735401311 0.1246656517006846 0 -0.064314266975173992 0.1121882000462873 0 -0.047419695712178453 0.12864271955320489 0 -0.040632536985239227 0.1151969786901279 0 -0.053143198955808643 0.11436495758821071 0 -0.064212613735401311 0.1246656517006846 0 -0.064314266975173992 0.1121882000462873 0 -0.077783884837755488 0.1169685852607581 0 -0.064314266975173992 0.1121882000462873 0 -0.077783884837755488 0.1169685852607581 0 -0.070359446533259457 0.1033730641616592 0 -0.088973339360985587 0.12735164772417679 0 -0.077783884837755488 0.1169685852607581 0 -0.088932870564360722 0.117886917518154 0 -0.077783884837755488 0.1169685852607581 0 -0.087773942828528267 0.1099310153838676 0 -0.088932870564360722 0.117886917518154 0 -0.077783884837755488 0.1169685852607581 0 -0.087773942828528267 0.1099310153838676 0 -0.079576124081011501 0.10576773012544009 0 -0.087773942828528267 0.1099310153838676 0 -0.097849768269263573 0.1130869027582596 0 -0.095445822888057821 0.1060510468834588 0 -0.087773942828528267 0.1099310153838676 0 -0.088932870564360722 0.117886917518154 0 -0.097849768269263573 0.1130869027582596 0 -0.088973339360985587 0.12735164772417679 0 -0.088932870564360722 0.117886917518154 0 -0.094964632568524027 0.1207633551279803 0 -0.088083402990933271 0.1004013245441376 0 -0.082830745124202604 0.091558590605990503 0 -0.092654118272398278 0.092563282028138183 0 -0.088083402990933271 0.1004013245441376 0 -0.092654118272398278 0.092563282028138183 0 -0.097777983277490682 0.099823202100299671 0 -0.087773942828528267 0.1099310153838676 0 -0.088083402990933271 0.1004013245441376 0 -0.095445822888057821 0.1060510468834588 0 -0.087773942828528267 0.1099310153838676 0 -0.088083402990933271 0.1004013245441376 0 -0.079576124081011501 0.10576773012544009 0 -0.088083402990933271 0.1004013245441376 0 -0.079576124081011501 0.10576773012544009 0 -0.079308309841675903 0.098719805687763645 0 -0.079308309841675903 0.098719805687763645 0 -0.073605760788925501 0.093340800127444362 0 -0.082830745124202604 0.091558590605990503 0 -0.088083402990933271 0.1004013245441376 0 -0.079308309841675903 0.098719805687763645 0 -0.082830745124202604 0.091558590605990503 0 -0.079308309841675903 0.098719805687763645 0 -0.070359446533259457 0.1033730641616592 0 -0.073605760788925501 0.093340800127444362 0 -0.077783884837755488 0.1169685852607581 0 -0.079576124081011501 0.10576773012544009 0 -0.070359446533259457 0.1033730641616592 0 -0.079576124081011501 0.10576773012544009 0 -0.079308309841675903 0.098719805687763645 0 -0.070359446533259457 0.1033730641616592 0 -0.057803305117852789 0.10171689654855599 0 -0.064314266975173992 0.1121882000462873 0 -0.070359446533259457 0.1033730641616592 0 -0.070359446533259457 0.1033730641616592 0 -0.065020070319752515 0.095535311087652564 0 -0.073605760788925501 0.093340800127444362 0 -0.057803305117852789 0.10171689654855599 0 -0.070359446533259457 0.1033730641616592 0 -0.065020070319752515 0.095535311087652564 0 -0.065020070319752515 0.095535311087652564 0 -0.065686144755577977 0.088179049878505222 0 -0.073605760788925501 0.093340800127444362 0 -0.0581330206996864 0.092451767798047049 0 -0.065020070319752515 0.095535311087652564 0 -0.065686144755577977 0.088179049878505222 0 -0.058387528945798593 0.085782252786122143 0 -0.065686144755577977 0.088179049878505222 0 -0.063492521453658426 0.082135151614612656 0 -0.065686144755577977 0.088179049878505222 0 -0.063492521453658426 0.082135151614612656 0 -0.068158273054967841 0.083020185557971402 0 -0.063492521453658426 0.082135151614612656 0 -0.067302782942075562 0.07884748034932014 0 -0.068158273054967841 0.083020185557971402 0 -0.063492521453658426 0.082135151614612656 0 -0.067302782942075562 0.07884748034932014 0 -0.06317355168302824 0.077213441623431023 0 -0.067302782942075562 0.07884748034932014 0 -0.068158273054967841 0.083020185557971402 0 -0.071195349613958098 0.079705411444572355 0 -0.065686144755577977 0.088179049878505222 0 -0.068158273054967841 0.083020185557971402 0 -0.07301192073484937 0.085713341323638087 0 -0.068158273054967841 0.083020185557971402 0 -0.07301192073484937 0.085713341323638087 0 -0.071195349613958098 0.079705411444572355 0 -0.07301192073484937 0.085713341323638087 0 -0.071195349613958098 0.079705411444572355 0 -0.075770934847371754 0.0800666795378632 0 -0.071195349613958098 0.079705411444572355 0 -0.075770934847371754 0.0800666795378632 0 -0.074098140010994684 0.075669956375088637 0 -0.075770934847371754 0.0800666795378632 0 -0.079307668415497093 0.083177453583088451 0 -0.079265179789025392 0.079676506104400385 0 -0.075770934847371754 0.0800666795378632 0 -0.077888144753474414 0.076540276618142514 0 -0.079265179789025392 0.079676506104400385 0 -0.07301192073484937 0.085713341323638087 0 -0.075770934847371754 0.0800666795378632 0 -0.079307668415497093 0.083177453583088451 0 -0.07301192073484937 0.085713341323638087 0 -0.077632649722529201 0.088101996375162014 0 -0.079307668415497093 0.083177453583088451 0 -0.077632649722529201 0.088101996375162014 0 -0.073605760788925501 0.093340800127444362 0 -0.082830745124202604 0.091558590605990503 0 -0.07301192073484937 0.085713341323638087 0 -0.077632649722529201 0.088101996375162014 0 -0.073605760788925501 0.093340800127444362 0 -0.065686144755577977 0.088179049878505222 0 -0.07301192073484937 0.085713341323638087 0 -0.073605760788925501 0.093340800127444362 0 -0.062352018119930512 0.067677702987684468 0 -0.068329508596145297 0.062660012020854514 0 -0.062181979903238163 0.060812796880851297 0 -0.062352018119930512 0.067677702987684468 0 -0.068790042784106775 0.069110436598158048 0 -0.064370285895549981 0.072578537163389426 0 -0.062352018119930512 0.067677702987684468 0 -0.068329508596145297 0.062660012020854514 0 -0.068790042784106775 0.069110436598158048 0 -0.068790042784106775 0.069110436598158048 0 -0.064370285895549981 0.072578537163389426 0 -0.068886565135866704 0.074697298037296217 0 -0.064370285895549981 0.072578537163389426 0 -0.06317355168302824 0.077213441623431023 0 -0.068886565135866704 0.074697298037296217 0 -0.067302782942075562 0.07884748034932014 0 -0.071195349613958098 0.079705411444572355 0 -0.068886565135866704 0.074697298037296217 0 -0.067302782942075562 0.07884748034932014 0 -0.06317355168302824 0.077213441623431023 0 -0.068886565135866704 0.074697298037296217 0 -0.071195349613958098 0.079705411444572355 0 -0.068886565135866704 0.074697298037296217 0 -0.074098140010994684 0.075669956375088637 0 -0.074098140010994684 0.075669956375088637 0 -0.077888144753474414 0.076540276618142514 0 -0.077943995183908016 0.072197992848007417 0 -0.075770934847371754 0.0800666795378632 0 -0.074098140010994684 0.075669956375088637 0 -0.077888144753474414 0.076540276618142514 0 -0.074098140010994684 0.075669956375088637 0 -0.077943995183908016 0.072197992848007417 0 -0.073591819010420778 0.071273948375400936 0 -0.068790042784106775 0.069110436598158048 0 -0.068886565135866704 0.074697298037296217 0 -0.073591819010420778 0.071273948375400936 0 -0.068886565135866704 0.074697298037296217 0 -0.074098140010994684 0.075669956375088637 0 -0.073591819010420778 0.071273948375400936 0 -0.068329508596145297 0.062660012020854514 0 -0.075470513042479814 0.066711638880650653 0 -0.076355506708763551 0.060612851998245461 0 -0.068790042784106775 0.069110436598158048 0 -0.073591819010420778 0.071273948375400936 0 -0.075470513042479814 0.066711638880650653 0 -0.077943995183908016 0.072197992848007417 0 -0.075470513042479814 0.066711638880650653 0 -0.080689043877833044 0.068811488614803365 0 -0.077943995183908016 0.072197992848007417 0 -0.073591819010420778 0.071273948375400936 0 -0.075470513042479814 0.066711638880650653 0 -0.075470513042479814 0.066711638880650653 0 -0.07953954724113256 0.065122825244123342 0 -0.076355506708763551 0.060612851998245461 0 -0.068329508596145297 0.062660012020854514 0 -0.068790042784106775 0.069110436598158048 0 -0.075470513042479814 0.066711638880650653 0 -0.098339668757629006 0.081004110340360799 0 -0.088512651209730508 0.061775074958739157 0 -0.087540143596341005 0.072188716596220406 0 -0.098339668757629006 0.081004110340360799 0 -0.084866426143491672 0.061788953492769749 0 -0.098339668757629006 0.081004110340360799 0 -0.088512651209730508 0.061775074958739157 0 -0.084866426143491672 0.061788953492769749 0 -0.098339668757629006 0.081004110340360799 0 -0.084866426143491672 0.061788953492769749 0 -0.083134493794999653 0.066477158967679667 0 -0.087540143596341005 0.072188716596220406 0 -0.084866426143491672 0.061788953492769749 0 -0.080973993472096856 0.063500447425704556 0 -0.083134493794999653 0.066477158967679667 0 -0.084866426143491672 0.061788953492769749 0 -0.080973993472096856 0.063500447425704556 0 -0.07953954724113256 0.065122825244123342 0 -0.076355506708763551 0.060612851998245461 0 -0.080973993472096856 0.063500447425704556 0 -0.07953954724113256 0.065122825244123342 0 -0.083134493794999653 0.066477158967679667 0 -0.07953954724113256 0.065122825244123342 0 -0.080689043877833044 0.068811488614803365 0 -0.083134493794999653 0.066477158967679667 0 -0.075470513042479814 0.066711638880650653 0 -0.07953954724113256 0.065122825244123342 0 -0.080689043877833044 0.068811488614803365 0 -0.080689043877833044 0.068811488614803365 0 -0.083520651545722552 0.070066704140278449 0 -0.083134493794999653 0.066477158967679667 0 -0.083520651545722552 0.070066704140278449 0 -0.083134493794999653 0.066477158967679667 0 -0.087540143596341005 0.072188716596220406 0 -0.083520651545722552 0.070066704140278449 0 -0.082458156844591513 0.073509373887956142 0 -0.087540143596341005 0.072188716596220406 0 -0.080689043877833044 0.068811488614803365 0 -0.083520651545722552 0.070066704140278449 0 -0.082458156844591513 0.073509373887956142 0 -0.082458156844591513 0.073509373887956142 0 -0.085411241706369018 0.076353327937829896 0 -0.087540143596341005 0.072188716596220406 0 -0.077943995183908016 0.072197992848007417 0 -0.080689043877833044 0.068811488614803365 0 -0.082458156844591513 0.073509373887956142 0 -0.077888144753474414 0.076540276618142514 0 -0.077943995183908016 0.072197992848007417 0 -0.082458156844591513 0.073509373887956142 0 -0.077888144753474414 0.076540276618142514 0 -0.082458156844591513 0.073509373887956142 0 -0.081934702179710633 0.077807201963773984 0 -0.077888144753474414 0.076540276618142514 0 -0.081934702179710633 0.077807201963773984 0 -0.079265179789025392 0.079676506104400385 0 -0.082458156844591513 0.073509373887956142 0 -0.081934702179710633 0.077807201963773984 0 -0.085411241706369018 0.076353327937829896 0 -0.081934702179710633 0.077807201963773984 0 -0.085411241706369018 0.076353327937829896 0 -0.085339303366446392 0.080065132052536361 0 -0.087540143596341005 0.072188716596220406 0 -0.089852067703229954 0.078235131748296577 0 -0.098339668757629006 0.081004110340360799 0 -0.085411241706369018 0.076353327937829896 0 -0.087540143596341005 0.072188716596220406 0 -0.089852067703229954 0.078235131748296577 0 -0.082830745124202604 0.091558590605990503 0 -0.083925934408088793 0.084726815299361879 0 -0.089303017378105587 0.08687732990267219 0 -0.077632649722529201 0.088101996375162014 0 -0.082830745124202604 0.091558590605990503 0 -0.083925934408088793 0.084726815299361879 0 -0.077632649722529201 0.088101996375162014 0 -0.079307668415497093 0.083177453583088451 0 -0.083925934408088793 0.084726815299361879 0 -0.079307668415497093 0.083177453583088451 0 -0.082100261070202116 0.081188686283539979 0 -0.083925934408088793 0.084726815299361879 0 -0.079307668415497093 0.083177453583088451 0 -0.079265179789025392 0.079676506104400385 0 -0.082100261070202116 0.081188686283539979 0 -0.081934702179710633 0.077807201963773984 0 -0.079265179789025392 0.079676506104400385 0 -0.082100261070202116 0.081188686283539979 0 -0.082100261070202116 0.081188686283539979 0 -0.085339303366446392 0.080065132052536361 0 -0.083925934408088793 0.084726815299361879 0 -0.081934702179710633 0.077807201963773984 0 -0.082100261070202116 0.081188686283539979 0 -0.085339303366446392 0.080065132052536361 0 -0.083925934408088793 0.084726815299361879 0 -0.08900252767269351 0.082210938421058866 0 -0.089303017378105587 0.08687732990267219 0 -0.085339303366446392 0.080065132052536361 0 -0.083925934408088793 0.084726815299361879 0 -0.08900252767269351 0.082210938421058866 0 -0.085339303366446392 0.080065132052536361 0 -0.08900252767269351 0.082210938421058866 0 -0.089852067703229954 0.078235131748296577 0 -0.085411241706369018 0.076353327937829896 0 -0.085339303366446392 0.080065132052536361 0 -0.089852067703229954 0.078235131748296577 0 -0.08900252767269351 0.082210938421058866 0 -0.089852067703229954 0.078235131748296577 0 -0.093480866825941367 0.08135327604451055 0 -0.08900252767269351 0.082210938421058866 0 -0.093480866825941367 0.08135327604451055 0 -0.091879612364940633 0.084338258833803678 0 -0.08900252767269351 0.082210938421058866 0 -0.091879612364940633 0.084338258833803678 0 -0.089303017378105587 0.08687732990267219 0 -0.093480866825941367 0.08135327604451055 0 -0.091879612364940633 0.084338258833803678 0 -0.095732037583022081 0.086911490966973093 0 -0.091879612364940633 0.084338258833803678 0 -0.089303017378105587 0.08687732990267219 0 -0.095732037583022081 0.086911490966973093 0 -0.082830745124202604 0.091558590605990503 0 -0.089303017378105587 0.08687732990267219 0 -0.092654118272398278 0.092563282028138183 0 -0.089303017378105587 0.08687732990267219 0 -0.092654118272398278 0.092563282028138183 0 -0.095732037583022081 0.086911490966973093 0 -0.092654118272398278 0.092563282028138183 0 -0.095732037583022081 0.086911490966973093 0 -0.1033124890500281 0.090734685958334699 0 -0.095732037583022081 0.086911490966973093 0 -0.098339668757629006 0.081004110340360799 0 -0.1033124890500281 0.090734685958334699 0 -0.089852067703229954 0.078235131748296577 0 -0.093480866825941367 0.08135327604451055 0 -0.098339668757629006 0.081004110340360799 0 -0.093480866825941367 0.08135327604451055 0 -0.095732037583022081 0.086911490966973093 0 -0.098339668757629006 0.081004110340360799 0 -0.098339668757629006 0.081004110340360799 0 -0.1033124890500281 0.090734685958334699 0 -0.093480866825941367 0.08135327604451055 0 -0.098339668757629006 0.081004110340360799 0 -0.098339668757629006 0.081004110340360799 0 -0.1033124890500281 0.090734685958334699 0 -0.1122071280233978 0.088609733266333923 0 -0.098339668757629006 0.081004110340360799 0 -0.1000783098585961 0.071615381060907965 0 -0.088512651209730508 0.061775074958739157 0 -0.098339668757629006 0.081004110340360799 0 -0.1000783098585961 0.071615381060907965 0 -0.1220977176037092 0.079296797309044209 0 -0.097418716352107637 0.063249181466969048 0 -0.1000783098585961 0.071615381060907965 0 -0.1066879075446879 0.065891723769493302 0 -0.097418716352107637 0.063249181466969048 0 -0.1000783098585961 0.071615381060907965 0 -0.088512651209730508 0.061775074958739157 0 -0.1066879075446879 0.065891723769493302 0 -0.1220977176037092 0.079296797309044209 0 -0.11807988910961301 0.057388915499099732 0 -0.1000783098585961 0.071615381060907965 0 -0.1066879075446879 0.065891723769493302 0 -0.1220977176037092 0.079296797309044209 0 -0.098339668757629006 0.081004110340360799 0 -0.1220977176037092 0.079296797309044209 0 -0.1122071280233978 0.088609733266333923 0 -0.098339668757629006 0.081004110340360799 0 -0.1220977176037092 0.079296797309044209 0 -0.1220977176037092 0.079296797309044209 0 -0.1122071280233978 0.088609733266333923 0 -0.1233385787441182 0.095052943995671366 0 -0.1033124890500281 0.090734685958334699 0 -0.1122071280233978 0.088609733266333923 0 -0.11394718596150449 0.096960128728258529 0 -0.1122071280233978 0.088609733266333923 0 -0.1233385787441182 0.095052943995671366 0 -0.11394718596150449 0.096960128728258529 0 -0.1233385787441182 0.095052943995671366 0 -0.1187657539566133 0.1030102265700619 0 -0.1240747090480155 0.1058960799589593 0 -0.1233385787441182 0.095052943995671366 0 -0.11394718596150449 0.096960128728258529 0 -0.1187657539566133 0.1030102265700619 0 -0.1033124890500281 0.090734685958334699 0 -0.11394718596150449 0.096960128728258529 0 -0.1150983111450038 0.1092291069616925 0 -0.1033124890500281 0.090734685958334699 0 -0.1150983111450038 0.1092291069616925 0 -0.11351123651985059 0.11069110457563711 0 -0.11394718596150449 0.096960128728258529 0 -0.1150983111450038 0.1092291069616925 0 -0.1187657539566133 0.1030102265700619 0 -0.1150983111450038 0.1092291069616925 0 -0.1201834214685796 0.1073682124868087 0 -0.1227949117246859 0.111337436456521 0 -0.1150983111450038 0.1092291069616925 0 -0.1201834214685796 0.1073682124868087 0 -0.1187657539566133 0.1030102265700619 0 -0.1201834214685796 0.1073682124868087 0 -0.1187657539566133 0.1030102265700619 0 -0.1240747090480155 0.1058960799589593 0 -0.1201834214685796 0.1073682124868087 0 -0.1240747090480155 0.1058960799589593 0 -0.1227949117246859 0.111337436456521 0 -0.12547712541990549 0.1168704235612987 0 -0.12688413323997941 0.1277235279650504 0 -0.1150983111450038 0.1092291069616925 0 -0.12688413323997941 0.1277235279650504 0 -0.1150983111450038 0.1092291069616925 0 -0.12688413323997941 0.1277235279650504 0 -0.1150983111450038 0.1092291069616925 0 -0.11351123651985059 0.11069110457563711 0 -0.12547712541990549 0.1168704235612987 0 -0.1150983111450038 0.1092291069616925 0 -0.1227949117246859 0.111337436456521 0 -0.12688413323997941 0.1277235279650504 0 -0.1237099839896731 0.1306475231929396 0 -0.11351123651985059 0.11069110457563711 0 -0.1237099839896731 0.1306475231929396 0 -0.1166769103878514 0.12346009443389359 0 -0.11351123651985059 0.11069110457563711 0 -0.1237099839896731 0.1306475231929396 0 -0.11351123651985059 0.11069110457563711 0 -0.1166769103878514 0.12346009443389359 0 -0.11223456592370069 0.11874705176729231 0 -0.11351123651985059 0.11069110457563711 0 -0.11519728670512031 0.12739422686189769 0 -0.1166769103878514 0.12346009443389359 0 -0.11388243882729419 0.12392624376176251 0 -0.1166769103878514 0.12346009443389359 0 -0.11388243882729419 0.12392624376176251 0 -0.11223456592370069 0.11874705176729231 0 -0.11223456592370069 0.11874705176729231 0 -0.1096619424095597 0.1170521005455513 0 -0.1083303094454002 0.12283836377898701 0 -0.11388243882729419 0.12392624376176251 0 -0.11223456592370069 0.11874705176729231 0 -0.1083303094454002 0.12283836377898701 0 -0.1114798624555096 0.12746559923364431 0 -0.11388243882729419 0.12392624376176251 0 -0.1083303094454002 0.12283836377898701 0 -0.11223456592370069 0.11874705176729231 0 -0.11351123651985059 0.11069110457563711 0 -0.111344557952248 0.1145144035079227 0 -0.1096619424095597 0.1170521005455513 0 -0.111344557952248 0.1145144035079227 0 -0.10837342738926201 0.1118170601891887 0 -0.11223456592370069 0.11874705176729231 0 -0.1096619424095597 0.1170521005455513 0 -0.111344557952248 0.1145144035079227 0 -0.11351123651985059 0.11069110457563711 0 -0.111344557952248 0.1145144035079227 0 -0.10837342738926201 0.1118170601891887 0 -0.10837342738926201 0.1118170601891887 0 -0.1051716542356378 0.1148410880666942 0 -0.1043027773927488 0.1100935018152077 0 -0.1096619424095597 0.1170521005455513 0 -0.10837342738926201 0.1118170601891887 0 -0.1051716542356378 0.1148410880666942 0 -0.1096619424095597 0.1170521005455513 0 -0.1051716542356378 0.1148410880666942 0 -0.1027413435705844 0.11919867034403341 0 -0.1051716542356378 0.1148410880666942 0 -0.1027413435705844 0.11919867034403341 0 -0.097849768269263573 0.1130869027582596 0 -0.1051716542356378 0.1148410880666942 0 -0.1043027773927488 0.1100935018152077 0 -0.097849768269263573 0.1130869027582596 0 -0.099840978436991301 0.12566498740148779 0 -0.1083303094454002 0.12283836377898701 0 -0.1027413435705844 0.11919867034403341 0 -0.1096619424095597 0.1170521005455513 0 -0.1083303094454002 0.12283836377898701 0 -0.1027413435705844 0.11919867034403341 0 -0.099840978436991301 0.12566498740148779 0 -0.088973339360985587 0.12735164772417679 0 -0.094964632568524027 0.1207633551279803 0 -0.088932870564360722 0.117886917518154 0 -0.094964632568524027 0.1207633551279803 0 -0.097849768269263573 0.1130869027582596 0 -0.099840978436991301 0.12566498740148779 0 -0.1027413435705844 0.11919867034403341 0 -0.094964632568524027 0.1207633551279803 0 -0.1027413435705844 0.11919867034403341 0 -0.094964632568524027 0.1207633551279803 0 -0.097849768269263573 0.1130869027582596 0 -0.1043027773927488 0.1100935018152077 0 -0.097849768269263573 0.1130869027582596 0 -0.1006886555374302 0.1062692670946036 0 -0.1033124890500281 0.090734685958334699 0 -0.1150983111450038 0.1092291069616925 0 -0.1033124890500281 0.090734685958334699 0 -0.11351123651985059 0.11069110457563711 0 -0.1033124890500281 0.090734685958334699 0 -0.11351123651985059 0.11069110457563711 0 -0.1048998959926034 0.10354753027045829 0 -0.088083402990933271 0.1004013245441376 0 -0.095445822888057821 0.1060510468834588 0 -0.097777983277490682 0.099823202100299671 0 -0.097849768269263573 0.1130869027582596 0 -0.095445822888057821 0.1060510468834588 0 -0.1006886555374302 0.1062692670946036 0 -0.095445822888057821 0.1060510468834588 0 -0.1006886555374302 0.1062692670946036 0 -0.097777983277490682 0.099823202100299671 0 -0.1006886555374302 0.1062692670946036 0 -0.097777983277490682 0.099823202100299671 0 -0.1048998959926034 0.10354753027045829 0 -0.092654118272398278 0.092563282028138183 0 -0.1033124890500281 0.090734685958334699 0 -0.097777983277490682 0.099823202100299671 0 -0.1033124890500281 0.090734685958334699 0 -0.097777983277490682 0.099823202100299671 0 -0.1048998959926034 0.10354753027045829 0 -0.10837342738926201 0.1118170601891887 0 -0.1043027773927488 0.1100935018152077 0 -0.1048998959926034 0.10354753027045829 0 -0.11351123651985059 0.11069110457563711 0 -0.10837342738926201 0.1118170601891887 0 -0.1048998959926034 0.10354753027045829 0 -0.1043027773927488 0.1100935018152077 0 -0.1006886555374302 0.1062692670946036 0 -0.1048998959926034 0.10354753027045829 0 -0.097293161727567842 0.01131020831363817 0 -0.11441225685918641 0.029434972527870688 0 -0.086791806445713479 0.030596854354583768 0 -0.12705603436313739 0.011468810593014351 0 -0.097293161727567842 0.01131020831363817 0 -0.11487335580186619 -0.01739582132962459 0 -0.12705603436313739 0.011468810593014351 0 -0.097293161727567842 0.01131020831363817 0 -0.12705603436313739 0.011468810593014351 0 -0.097293161727567842 0.01131020831363817 0 -0.11441225685918641 0.029434972527870688 0 -0.1313644189270744 0.042240778430714887 0 -0.11441225685918641 0.029434972527870688 0 -0.11807988910961301 0.057388915499099732 0 -0.11441225685918641 0.029434972527870688 0 -0.11807988910961301 0.057388915499099732 0 -0.10118405261095891 0.045343470767195498 0 -0.11807988910961301 0.057388915499099732 0 -0.099735974292342822 0.056978017638138909 0 -0.10118405261095891 0.045343470767195498 0 -0.1066879075446879 0.065891723769493302 0 -0.11807988910961301 0.057388915499099732 0 -0.099735974292342822 0.056978017638138909 0 -0.099735974292342822 0.056978017638138909 0 -0.10118405261095891 0.045343470767195498 0 -0.090667201509784273 0.054100504879871142 0 -0.099735974292342822 0.056978017638138909 0 -0.093531159976153758 0.059199010657573541 0 -0.090667201509784273 0.054100504879871142 0 -0.097418716352107637 0.063249181466969048 0 -0.1066879075446879 0.065891723769493302 0 -0.099735974292342822 0.056978017638138909 0 -0.097418716352107637 0.063249181466969048 0 -0.099735974292342822 0.056978017638138909 0 -0.093531159976153758 0.059199010657573541 0 -0.11441225685918641 0.029434972527870688 0 -0.10118405261095891 0.045343470767195498 0 -0.086791806445713479 0.030596854354583768 0 -0.10118405261095891 0.045343470767195498 0 -0.086634129885570926 0.047224790650434077 0 -0.086791806445713479 0.030596854354583768 0 -0.086634129885570926 0.047224790650434077 0 -0.072567525863174193 0.042489405457043383 0 -0.086791806445713479 0.030596854354583768 0 -0.084866426143491672 0.061788953492769749 0 -0.072567525863174193 0.042489405457043383 0 -0.086634129885570926 0.047224790650434077 0 -0.084866426143491672 0.061788953492769749 0 -0.072567525863174193 0.042489405457043383 0 -0.097418716352107637 0.063249181466969048 0 -0.088512651209730508 0.061775074958739157 0 -0.093531159976153758 0.059199010657573541 0 -0.088512651209730508 0.061775074958739157 0 -0.090667201509784273 0.054100504879871142 0 -0.084866426143491672 0.061788953492769749 0 -0.088512651209730508 0.061775074958739157 0 -0.093531159976153758 0.059199010657573541 0 -0.090667201509784273 0.054100504879871142 0 -0.086634129885570926 0.047224790650434077 0 -0.090667201509784273 0.054100504879871142 0 -0.084866426143491672 0.061788953492769749 0 -0.10118405261095891 0.045343470767195498 0 -0.086634129885570926 0.047224790650434077 0 -0.090667201509784273 0.054100504879871142 0 -0.080973993472096856 0.063500447425704556 0 -0.084866426143491672 0.061788953492769749 0 -0.076355506708763551 0.060612851998245461 0 -0.084866426143491672 0.061788953492769749 0 -0.076355506708763551 0.060612851998245461 0 -0.072567525863174193 0.042489405457043383 0 -0.076355506708763551 0.060612851998245461 0 -0.063083401408893416 0.051823820470119727 0 -0.072567525863174193 0.042489405457043383 0 -0.068329508596145297 0.062660012020854514 0 -0.076355506708763551 0.060612851998245461 0 -0.063083401408893416 0.051823820470119727 0 -0.068329508596145297 0.062660012020854514 0 -0.063083401408893416 0.051823820470119727 0 -0.062181979903238163 0.060812796880851297 0 -0.063083401408893416 0.051823820470119727 0 -0.072567525863174193 0.042489405457043383 0 -0.05708655167968537 0.034545439332702307 0 -0.072567525863174193 0.042489405457043383 0 -0.067580013884195739 0.0276595351730149 0 -0.086791806445713479 0.030596854354583768 0 -0.072567525863174193 0.042489405457043383 0 -0.067580013884195739 0.0276595351730149 0 -0.05708655167968537 0.034545439332702307 0 -0.067580013884195739 0.0276595351730149 0 -0.086791806445713479 0.030596854354583768 0 -0.06753028909199818 0.01115160603426198 0 -0.067580013884195739 0.0276595351730149 0 -0.06753028909199818 0.01115160603426198 0 -0.053923896340407451 0.019514370686483061 0 -0.097293161727567842 0.01131020831363817 0 -0.086791806445713479 0.030596854354583768 0 -0.06753028909199818 0.01115160603426198 0 -0.091151956463994502 -0.009207837001269004 0 -0.097293161727567842 0.01131020831363817 0 -0.06753028909199818 0.01115160603426198 0 -0.097293161727567842 0.01131020831363817 0 -0.06753028909199818 0.01115160603426198 0 -0.06753028909199818 0.01115160603426198 0 -0.053923896340407451 0.019514370686483061 0 -0.037767416456428567 0.01099300375488579 0 -0.06753028909199818 0.01115160603426198 0 -0.037767416456428567 0.01099300375488579 0 -0.05961480921768518 -0.0056805072271022342 0 -0.04603068534762423 -3.0850515358807798e-05 0 -0.06753028909199818 0.01115160603426198 0 -0.04603068534762423 -3.0850515358807798e-05 0 -0.06753028909199818 0.01115160603426198 0 -0.037767416456428567 0.01099300375488579 0 -0.067580013884195739 0.0276595351730149 0 -0.053923896340407451 0.019514370686483061 0 -0.05708655167968537 0.034545439332702307 0 -0.053923896340407451 0.019514370686483061 0 -0.05708655167968537 0.034545439332702307 0 -0.047182748588737458 0.032321103951699189 0 -0.053923896340407451 0.019514370686483061 0 -0.039108926559622961 0.018940575858092491 0 -0.037767416456428567 0.01099300375488579 0 -0.053923896340407451 0.019514370686483061 0 -0.039108926559622961 0.018940575858092491 0 -0.047182748588737458 0.032321103951699189 0 -0.039108926559622961 0.018940575858092491 0 -0.032140655722258479 0.022278987088832879 0 -0.031542528520333991 0.031966416124127088 0 -0.039108926559622961 0.018940575858092491 0 -0.03329376588805498 0.017872015780778329 0 -0.037767416456428567 0.01099300375488579 0 -0.039108926559622961 0.018940575858092491 0 -0.032140655722258479 0.022278987088832879 0 -0.03329376588805498 0.017872015780778329 0 -0.03329376588805498 0.017872015780778329 0 -0.037767416456428567 0.01099300375488579 0 -0.023392502968723129 0.017506422802916401 0 -0.037767416456428567 0.01099300375488579 0 -0.035209522367389952 0.002657769990137076 0 -0.02552884126160343 0.0034602984309436138 0 -0.04603068534762423 -3.0850515358807798e-05 0 -0.037767416456428567 0.01099300375488579 0 -0.035209522367389952 0.002657769990137076 0 -0.048685917327770167 0.062976449455659819 0 -0.054962991487983427 0.061089652044746513 0 -0.048507619575292232 0.054219717233707512 0 -0.063083401408893416 0.051823820470119727 0 -0.054962991487983427 0.061089652044746513 0 -0.062181979903238163 0.060812796880851297 0 -0.063083401408893416 0.051823820470119727 0 -0.054962991487983427 0.061089652044746513 0 -0.048507619575292232 0.054219717233707512 0 -0.063083401408893416 0.051823820470119727 0 -0.048507619575292232 0.054219717233707512 0 -0.04926364452843586 0.042424612036976027 0 -0.063083401408893416 0.051823820470119727 0 -0.04926364452843586 0.042424612036976027 0 -0.05708655167968537 0.034545439332702307 0 -0.04926364452843586 0.042424612036976027 0 -0.05708655167968537 0.034545439332702307 0 -0.047182748588737458 0.032321103951699189 0 -0.039108926559622961 0.018940575858092491 0 -0.036530723835535628 0.046180521844242053 0 -0.039108926559622961 0.018940575858092491 0 -0.031542528520333991 0.031966416124127088 0 -0.036530723835535628 0.046180521844242053 0 -0.039108926559622961 0.018940575858092491 0 -0.047182748588737458 0.032321103951699189 0 -0.036530723835535628 0.046180521844242053 0 -0.04926364452843586 0.042424612036976027 0 -0.047182748588737458 0.032321103951699189 0 -0.036530723835535628 0.046180521844242053 0 -0.03791295026989655 0.064766833259344736 0 -0.036530723835535628 0.046180521844242053 0 -0.042150101728099743 0.06140274416018604 0 -0.033433994531230207 0.073413929101007136 0 -0.036530723835535628 0.046180521844242053 0 -0.033433994531230207 0.073413929101007136 0 -0.036530723835535628 0.046180521844242053 0 -0.024957510961105728 0.052554086559175192 0 -0.03791295026989655 0.064766833259344736 0 -0.033433994531230207 0.073413929101007136 0 -0.036530723835535628 0.046180521844242053 0 -0.048507619575292232 0.054219717233707512 0 -0.04926364452843586 0.042424612036976027 0 -0.036530723835535628 0.046180521844242053 0 -0.048507619575292232 0.054219717233707512 0 -0.036530723835535628 0.046180521844242053 0 -0.042150101728099743 0.06140274416018604 0 -0.048685917327770167 0.062976449455659819 0 -0.048507619575292232 0.054219717233707512 0 -0.042150101728099743 0.06140274416018604 0 -0.017111491781406619 0.059445348841143608 0 -0.024957510961105728 0.052554086559175192 0 -0.0087575758547522118 0.054061196402823801 0 -0.022126256647668052 0.066005960114057474 0 -0.017111491781406619 0.059445348841143608 0 -0.024957510961105728 0.052554086559175192 0 -0.031542528520333991 0.031966416124127088 0 -0.036530723835535628 0.046180521844242053 0 -0.024957510961105728 0.052554086559175192 0 -0.031542528520333991 0.031966416124127088 0 -0.024957510961105728 0.052554086559175192 0 -0.01648102739098127 0.031694244017343283 0 -0.024957510961105728 0.052554086559175192 0 -0.01648102739098127 0.031694244017343283 0 -0.0087575758547522118 0.054061196402823801 0 -0.024957510961105728 0.052554086559175192 0 -0.01648102739098127 0.031694244017343283 0 -0.01648102739098127 0.031694244017343283 0 -0.0035958029166766451 0.02847279380552431 0 0.0015668271987305719 0.040585630786372548 0 -0.01648102739098127 0.031694244017343283 0 -0.0087575758547522118 0.054061196402823801 0 0.0015668271987305719 0.040585630786372548 0 -0.011840771648368069 0.070036276409794568 0 -0.017111491781406619 0.059445348841143608 0 -0.0087575758547522118 0.054061196402823801 0 -0.016223407507011348 -0.0014783717257068789 0 -0.02552884126160343 0.0034602984309436138 0 -0.0080045438208588993 0.01083440147551047 0 -0.037767416456428567 0.01099300375488579 0 -0.023392502968723129 0.017506422802916401 0 -0.0080045438208588993 0.01083440147551047 0 -0.037767416456428567 0.01099300375488579 0 -0.02552884126160343 0.0034602984309436138 0 -0.0080045438208588993 0.01083440147551047 0 -0.037767416456428567 0.01099300375488579 0 -0.0080045438208588993 0.01083440147551047 0 -0.030439316156328361 -0.0057053113401083922 0 -0.035209522367389952 0.002657769990137076 0 -0.02552884126160343 0.0034602984309436138 0 -0.032140655722258479 0.022278987088832879 0 -0.03329376588805498 0.017872015780778329 0 -0.023392502968723129 0.017506422802916401 0 -0.01648102739098127 0.031694244017343283 0 -0.023392502968723129 0.017506422802916401 0 -0.0080045438208588993 0.01083440147551047 0 -0.031542528520333991 0.031966416124127088 0 -0.01648102739098127 0.031694244017343283 0 -0.023392502968723129 0.017506422802916401 0 -0.032140655722258479 0.022278987088832879 0 -0.031542528520333991 0.031966416124127088 0 -0.023392502968723129 0.017506422802916401 0 -0.01648102739098127 0.031694244017343283 0 -0.0035958029166766451 0.02847279380552431 0 -0.0080045438208588993 0.01083440147551047 0 -0.01648102739098127 0.031694244017343283 0 -0.0080045438208588993 0.01083440147551047 0 -0.0035958029166766451 0.02847279380552431 0 -0.0080045438208588993 0.01083440147551047 0 0.0046712416030229636 0.02153649570399865 0 -0.001512727700102235 -0.0051413579262706288 0 -0.0080045438208588993 0.01083440147551047 0 -0.001512727700102235 -0.0051413579262706288 0 -0.0080045438208588993 0.01083440147551047 0 0.0077282339362128027 0.0083883445724478138 0 -0.016223407507011348 -0.0014783717257068789 0 -0.001512727700102235 -0.0051413579262706288 0 -0.0080045438208588993 0.01083440147551047 0 -0.0080045438208588993 0.01083440147551047 0 0.018746447069914889 0.01069184910219249 0 -0.0080045438208588993 0.01083440147551047 0 0.01203044478382055 0.01566706854042043 0 0.018746447069914889 0.01069184910219249 0 -0.0080045438208588993 0.01083440147551047 0 0.0077282339362128027 0.0083883445724478138 0 0.018746447069914889 0.01069184910219249 0 -0.001512727700102235 -0.0051413579262706288 0 0.0077282339362128027 0.0083883445724478138 0 0.0079713312968560067 -0.00176500883185253 0 0.0077282339362128027 0.0083883445724478138 0 0.01961088504268934 0.0036363503081079051 0 0.01710407201838782 0.0069884730364961761 0 0.0077282339362128027 0.0083883445724478138 0 0.01961088504268934 0.0036363503081079051 0 0.0077282339362128027 0.0083883445724478138 0 0.013660132337261601 -0.00098361484742467715 0 0.0079713312968560067 -0.00176500883185253 0 0.0077282339362128027 0.0083883445724478138 0 0.01961088504268934 0.0036363503081079051 0 0.013660132337261601 -0.00098361484742467715 0 0.0077282339362128027 0.0083883445724478138 0 0.01710407201838782 0.0069884730364961761 0 0.018746447069914889 0.01069184910219249 0 -0.0080045438208588993 0.01083440147551047 0 0.0046712416030229636 0.02153649570399865 0 0.01203044478382055 0.01566706854042043 0 -0.0035958029166766451 0.02847279380552431 0 0.0046712416030229636 0.02153649570399865 0 0.010073145229865179 0.029736384760214469 0 0.0046712416030229636 0.02153649570399865 0 0.010073145229865179 0.029736384760214469 0 0.01215823420233866 0.02160396783473913 0 0.010073145229865179 0.029736384760214469 0 0.01215823420233866 0.02160396783473913 0 0.017886029824855831 0.023320379898905421 0 0.0046712416030229636 0.02153649570399865 0 0.01215823420233866 0.02160396783473913 0 0.01203044478382055 0.01566706854042043 0 0.01215823420233866 0.02160396783473913 0 0.01613030957012878 0.017759510270156671 0 0.017886029824855831 0.023320379898905421 0 0.01203044478382055 0.01566706854042043 0 0.01613030957012878 0.017759510270156671 0 0.01725735140157246 0.01475900717014096 0 0.01215823420233866 0.02160396783473913 0 0.01203044478382055 0.01566706854042043 0 0.01613030957012878 0.017759510270156671 0 0.020309417164811959 0.014216175677563709 0 0.030065237914130859 0.036214484182456069 0 0.032492882337866277 0.020570703666131 0 0.020309417164811959 0.014216175677563709 0 0.02148537105230398 0.032026933949258762 0 0.030065237914130859 0.036214484182456069 0 0.017886029824855831 0.023320379898905421 0 0.020309417164811959 0.014216175677563709 0 0.02148537105230398 0.032026933949258762 0 0.01613030957012878 0.017759510270156671 0 0.017886029824855831 0.023320379898905421 0 0.020309417164811959 0.014216175677563709 0 0.020309417164811959 0.014216175677563709 0 0.02148537105230398 0.032026933949258762 0 0.020309417164811959 0.014216175677563709 0 0.030065237914130859 0.036214484182456069 0 0.010073145229865179 0.029736384760214469 0 0.017886029824855831 0.023320379898905421 0 0.02148537105230398 0.032026933949258762 0 0.01961088504268934 0.0036363503081079051 0 0.018746447069914889 0.01069184910219249 0 0.042861558030298653 0.01056334297267768 0 0.018746447069914889 0.01069184910219249 0 0.020309417164811959 0.014216175677563709 0 0.032492882337866277 0.020570703666131 0 0.018746447069914889 0.01069184910219249 0 0.042861558030298653 0.01056334297267768 0 0.01961088504268934 0.0036363503081079051 0 0.01710407201838782 0.0069884730364961761 0 0.018746447069914889 0.01069184910219249 0 0.01961088504268934 0.0036363503081079051 0 0.018746447069914889 0.01069184910219249 0 0.01710407201838782 0.0069884730364961761 0 0.018746447069914889 0.01069184910219249 0 0.01613030957012878 0.017759510270156671 0 0.01725735140157246 0.01475900717014096 0 0.020309417164811959 0.014216175677563709 0 0.01203044478382055 0.01566706854042043 0 0.018746447069914889 0.01069184910219249 0 0.01725735140157246 0.01475900717014096 0 0.018746447069914889 0.01069184910219249 0 0.01725735140157246 0.01475900717014096 0 0.020309417164811959 0.014216175677563709 0 0.018746447069914889 0.01069184910219249 0 0.020309417164811959 0.014216175677563709 0 -0.0087575758547522118 0.054061196402823801 0 0.01167095775674408 0.051954974205026892 0 0.0067128332214790448 0.066304310358282131 0 -0.0087575758547522118 0.054061196402823801 0 0.01167095775674408 0.051954974205026892 0 0.0015668271987305719 0.040585630786372548 0 0.01167095775674408 0.051954974205026892 0 0.01970169280553543 0.062653079480411544 0 0.0067128332214790448 0.066304310358282131 0 0.01167095775674408 0.051954974205026892 0 0.01349152523548753 0.040828323184365328 0 0.0015668271987305719 0.040585630786372548 0 -0.0035958029166766451 0.02847279380552431 0 0.010073145229865179 0.029736384760214469 0 0.0015668271987305719 0.040585630786372548 0 0.010073145229865179 0.029736384760214469 0 0.01349152523548753 0.040828323184365328 0 0.02148537105230398 0.032026933949258762 0 0.010073145229865179 0.029736384760214469 0 0.01349152523548753 0.040828323184365328 0 0.0015668271987305719 0.040585630786372548 0 0.01349152523548753 0.040828323184365328 0 0.02148537105230398 0.032026933949258762 0 0.022661324939793861 0.049837692220953973 0 0.02148537105230398 0.032026933949258762 0 0.022661324939793861 0.049837692220953973 0 0.02148537105230398 0.032026933949258762 0 0.030065237914130859 0.036214484182456069 0 0.022661324939793861 0.049837692220953973 0 0.030065237914130859 0.036214484182456069 0 0.022661324939793861 0.049837692220953973 0 0.039821058663451578 0.058212792687347623 0 0.022661324939793861 0.049837692220953973 0 0.039821058663451578 0.058212792687347623 0 0.01970169280553543 0.062653079480411544 0 0.01167095775674408 0.051954974205026892 0 0.01349152523548753 0.040828323184365328 0 0.022661324939793861 0.049837692220953973 0 0.01167095775674408 0.051954974205026892 0 0.022661324939793861 0.049837692220953973 0 0.01970169280553543 0.062653079480411544 0 0.039821058663451578 0.058212792687347623 0 0.044450691965604097 0.044369381512905787 0 0.053756892572386937 0.062577256687666935 0 0.030065237914130859 0.036214484182456069 0 0.039821058663451578 0.058212792687347623 0 0.030065237914130859 0.036214484182456069 0 0.039821058663451578 0.058212792687347623 0 0.044450691965604097 0.044369381512905787 0 0.030065237914130859 0.036214484182456069 0 0.044450691965604097 0.044369381512905787 0 0.039001916054672292 0.030613612068665651 0 0.044450691965604097 0.044369381512905787 0 0.048549867380766248 0.031836067528231128 0 0.039001916054672292 0.030613612068665651 0 0.048549867380766248 0.031836067528231128 0 0.059382249778519462 0.038782129514267391 0 0.065505418799260237 0.027205066826468689 0 0.044450691965604097 0.044369381512905787 0 0.059382249778519462 0.038782129514267391 0 0.063365640338121504 0.052114159645117328 0 0.044450691965604097 0.044369381512905787 0 0.048549867380766248 0.031836067528231128 0 0.059382249778519462 0.038782129514267391 0 0.044450691965604097 0.044369381512905787 0 0.063365640338121504 0.052114159645117328 0 0.053756892572386937 0.062577256687666935 0 0.063365640338121504 0.052114159645117328 0 0.067603240007215515 0.071821317850237792 0 0.053756892572386937 0.062577256687666935 0 0.01961088504268934 0.0036363503081079051 0 0.042861558030298653 0.01056334297267768 0 0.044873334150910438 -0.0064663626462446496 0 0.018746447069914889 0.01069184910219249 0 0.042861558030298653 0.01056334297267768 0 0.032492882337866277 0.020570703666131 0 0.030065237914130859 0.036214484182456069 0 0.032492882337866277 0.020570703666131 0 0.039001916054672292 0.030613612068665651 0 0.032492882337866277 0.020570703666131 0 0.039001916054672292 0.030613612068665651 0 0.043223109380596668 0.022774974210716111 0 0.048549867380766248 0.031836067528231128 0 0.039001916054672292 0.030613612068665651 0 0.043223109380596668 0.022774974210716111 0 0.042861558030298653 0.01056334297267768 0 0.043223109380596668 0.022774974210716111 0 0.053209323099379882 0.02029114481787507 0 0.042861558030298653 0.01056334297267768 0 0.032492882337866277 0.020570703666131 0 0.043223109380596668 0.022774974210716111 0 0.053209323099379882 0.02029114481787507 0 0.065646860152450193 0.01044192321265998 0 0.065505418799260237 0.027205066826468689 0 0.048549867380766248 0.031836067528231128 0 0.053209323099379882 0.02029114481787507 0 0.065505418799260237 0.027205066826468689 0 0.048549867380766248 0.031836067528231128 0 0.043223109380596668 0.022774974210716111 0 0.053209323099379882 0.02029114481787507 0 0.042861558030298653 0.01056334297267768 0 0.057745946190224183 0.001898109140009354 0 0.065646860152450193 0.01044192321265998 0 0.042861558030298653 0.01056334297267768 0 0.057745946190224183 0.001898109140009354 0 0.044873334150910438 -0.0064663626462446496 0 0.042861558030298653 0.01056334297267768 0 0.053209323099379882 0.02029114481787507 0 0.065646860152450193 0.01044192321265998 0 0.042861558030298653 0.01056334297267768 0 0.065646860152450193 0.01044192321265998 0 0.065646860152450193 0.01044192321265998 0 0.088432162274601628 0.010320503452636409 0 0.057745946190224183 0.001898109140009354 0 0.06785690118007047 0.001541904395658605 0 0.065646860152450193 0.01044192321265998 0 0.065646860152450193 0.01044192321265998 0 0.077943423036168427 0.00064813052460827719 0 0.088432162274601628 0.010320503452636409 0 0.06785690118007047 0.001541904395658605 0 0.065646860152450193 0.01044192321265998 0 0.077943423036168427 0.00064813052460827719 0 0.077943423036168427 0.00064813052460827719 0 0.084129674216321226 0.0019910490799615529 0 0.084129674216321226 0.0019910490799615529 0 0.092423116342254114 0.01029923620402419 0 0.1001060251130647 0.0054739366344950186 0 0.084129674216321226 0.0019910490799615529 0 0.1001060251130647 0.0054739366344950186 0 0.065646860152450193 0.01044192321265998 0 0.088432162274601628 0.010320503452636409 0 0.089401451962503903 0.01219701167759228 0 0.077943423036168427 0.00064813052460827719 0 0.084129674216321226 0.0019910490799615529 0 0.088432162274601628 0.010320503452636409 0 0.084129674216321226 0.0019910490799615529 0 0.1001060251130647 0.0054739366344950186 0 0.089359132644354328 -0.001804303285622382 0 0.088432162274601628 0.010320503452636409 0 0.089401451962503903 0.01219701167759228 0 0.088432162274601628 0.010320503452636409 0 0.089401451962503903 0.01219701167759228 0 0.092423116342254114 0.01029923620402419 0 0.088432162274601628 0.010320503452636409 0 0.092423116342254114 0.01029923620402419 0 0.089401451962503903 0.01219701167759228 0 0.092423116342254114 0.01029923620402419 0 0.084129674216321226 0.0019910490799615529 0 0.088432162274601628 0.010320503452636409 0 0.092423116342254114 0.01029923620402419 0 0.084129674216321226 0.0019910490799615529 0 0.088432162274601628 0.010320503452636409 0 0.089401451962503903 0.01219701167759228 0 0.084402030383063625 0.030764688403300499 0 0.1024373520270894 0.037434021826958007 0 0.089401451962503903 0.01219701167759228 0 0.084402030383063625 0.030764688403300499 0 0.065505418799260237 0.027205066826468689 0 0.065646860152450193 0.01044192321265998 0 0.089401451962503903 0.01219701167759228 0 0.065505418799260237 0.027205066826468689 0 0.089401451962503903 0.01219701167759228 0 0.065505418799260237 0.027205066826468689 0 0.059382249778519462 0.038782129514267391 0 0.065505418799260237 0.027205066826468689 0 0.072441031033830566 0.040789650066275017 0 0.084402030383063625 0.030764688403300499 0 0.065505418799260237 0.027205066826468689 0 0.072441031033830566 0.040789650066275017 0 0.059382249778519462 0.038782129514267391 0 0.072441031033830566 0.040789650066275017 0 0.063365640338121504 0.052114159645117328 0 0.063365640338121504 0.052114159645117328 0 0.087567594433565529 0.058241273651199091 0 0.067603240007215515 0.071821317850237792 0 0.072441031033830566 0.040789650066275017 0 0.063365640338121504 0.052114159645117328 0 0.087567594433565529 0.058241273651199091 0 0.084402030383063625 0.030764688403300499 0 0.087567594433565529 0.058241273651199091 0 0.1024373520270894 0.037434021826958007 0 0.084402030383063625 0.030764688403300499 0 0.072441031033830566 0.040789650066275017 0 0.087567594433565529 0.058241273651199091 0 0.087567594433565529 0.058241273651199091 0 0.1024373520270894 0.037434021826958007 0 0.1154732520916749 0.062671031976323774 0 0.1024373520270894 0.037434021826958007 0 0.1154732520916749 0.062671031976323774 0 0.1024373520270894 0.037434021826958007 0 0.1196089951785259 0.044102697575023567 0 0.1154732520916749 0.062671031976323774 0 0.1196089951785259 0.044102697575023567 0 0.1154732520916749 0.062671031976323774 0 0.1315261100014129 0.05413030454013297 0 0.1196089951785259 0.044102697575023567 0 0.1187201190948507 0.0275828540440872 0 0.12988814267760149 0.038695275487615872 0 0.1024373520270894 0.037434021826958007 0 0.1196089951785259 0.044102697575023567 0 0.1187201190948507 0.0275828540440872 0 0.1187201190948507 0.0275828540440872 0 0.1247167304705508 0.010832806133241181 0 0.10370581916997711 0.010239112223116889 0 0.1247167304705508 0.010832806133241181 0 0.1001060251130647 0.0054739366344950186 0 0.12099230233569511 -0.0076438222115242128 0 0.1247167304705508 0.010832806133241181 0 0.10370581916997711 0.010239112223116889 0 0.1001060251130647 0.0054739366344950186 0 0.1247167304705508 0.010832806133241181 0 0.1001060251130647 0.0054739366344950186 0 0.092423116342254114 0.01029923620402419 0 0.10370581916997711 0.010239112223116889 0 0.092423116342254114 0.01029923620402419 0 0.10370581916997711 0.010239112223116889 0 0.1001060251130647 0.0054739366344950186 0 0.089401451962503903 0.01219701167759228 0 0.092423116342254114 0.01029923620402419 0 0.10370581916997711 0.010239112223116889 0 0.092423116342254114 0.01029923620402419 0 0.1001060251130647 0.0054739366344950186 0 0.089401451962503903 0.01219701167759228 0 0.1024373520270894 0.037434021826958007 0 0.089401451962503903 0.01219701167759228 0 0.1024373520270894 0.037434021826958007 0 0.10370581916997711 0.010239112223116889 0 0.1024373520270894 0.037434021826958007 0 0.1187201190948507 0.0275828540440872 0 0.10370581916997711 0.010239112223116889 0 0.1024262909877429 0.10215825850823371 0 0.1022702256108373 0.1093120705075899 0 0.1084190496342211 0.10573547313780809 0 0.1022702256108373 0.1093120705075899 0 0.1084190496342211 0.10573547313780809 0 0.1068694187972892 0.11103034538361641 0 0.1024262909877429 0.10215825850823371 0 0.1084190496342211 0.10573547313780809 0 0.1081447628216063 0.09917213681193067 0 0.1024262909877429 0.10215825850823371 0 0.1081447628216063 0.09917213681193067 0 0.1019129826551948 0.091946798273217181 0 0.1081447628216063 0.09917213681193067 0 0.1128686308833565 0.094063958505912676 0 0.1019129826551948 0.091946798273217181 0 0.095714831108542342 0.097840073808485362 0 0.1019129826551948 0.091946798273217181 0 0.088903522239811877 0.091903551894324989 0 0.1024262909877429 0.10215825850823371 0 0.095714831108542342 0.097840073808485362 0 0.094853126076581834 0.1043630167763776 0 0.1024262909877429 0.10215825850823371 0 0.095714831108542342 0.097840073808485362 0 0.1019129826551948 0.091946798273217181 0 0.1024262909877429 0.10215825850823371 0 0.094853126076581834 0.1043630167763776 0 0.09910994117511035 0.10647350563912331 0 0.1024262909877429 0.10215825850823371 0 0.1022702256108373 0.1093120705075899 0 0.09910994117511035 0.10647350563912331 0 0.1022702256108373 0.1093120705075899 0 0.09910994117511035 0.10647350563912331 0 0.096356440282670847 0.11015832077642761 0 0.094853126076581834 0.1043630167763776 0 0.09910994117511035 0.10647350563912331 0 0.096356440282670847 0.11015832077642761 0 0.096356440282670847 0.11015832077642761 0 0.098272354678557744 0.11523540636143401 0 0.092345613288074876 0.1151629980966497 0 0.098272354678557744 0.11523540636143401 0 0.1005697159863144 0.1199296783231345 0 0.1039546982042303 0.1149655569049547 0 0.1022702256108373 0.1093120705075899 0 0.096356440282670847 0.11015832077642761 0 0.098272354678557744 0.11523540636143401 0 0.1022702256108373 0.1093120705075899 0 0.098272354678557744 0.11523540636143401 0 0.1039546982042303 0.1149655569049547 0 0.098272354678557744 0.11523540636143401 0 0.094137434699218772 0.1218838135598474 0 0.092345613288074876 0.1151629980966497 0 0.098272354678557744 0.11523540636143401 0 0.094137434699218772 0.1218838135598474 0 0.1005697159863144 0.1199296783231345 0 0.094137434699218772 0.1218838135598474 0 0.1005697159863144 0.1199296783231345 0 0.1010724179257948 0.127406395960832 0 0.1005697159863144 0.1199296783231345 0 0.10578279026053949 0.1206298778022898 0 0.1010724179257948 0.127406395960832 0 0.10578279026053949 0.1206298778022898 0 0.1010724179257948 0.127406395960832 0 0.1083680107861353 0.1262331417866126 0 0.1005697159863144 0.1199296783231345 0 0.10578279026053949 0.1206298778022898 0 0.1039546982042303 0.1149655569049547 0 0.10578279026053949 0.1206298778022898 0 0.1093764086603695 0.114992428938696 0 0.1113554900003929 0.1202520648995092 0 0.10578279026053949 0.1206298778022898 0 0.1113554900003929 0.1202520648995092 0 0.1083680107861353 0.1262331417866126 0 0.1022702256108373 0.1093120705075899 0 0.1039546982042303 0.1149655569049547 0 0.1068694187972892 0.11103034538361641 0 0.10578279026053949 0.1206298778022898 0 0.1039546982042303 0.1149655569049547 0 0.1093764086603695 0.114992428938696 0 0.1039546982042303 0.1149655569049547 0 0.1068694187972892 0.11103034538361641 0 0.1093764086603695 0.114992428938696 0 0.1068694187972892 0.11103034538361641 0 0.1093764086603695 0.114992428938696 0 0.1135430381832282 0.1096419349029706 0 0.1093764086603695 0.114992428938696 0 0.11509062910994081 0.1152480720139986 0 0.1113554900003929 0.1202520648995092 0 0.1093764086603695 0.114992428938696 0 0.11509062910994081 0.1152480720139986 0 0.1135430381832282 0.1096419349029706 0 0.11509062910994081 0.1152480720139986 0 0.1135430381832282 0.1096419349029706 0 0.11971608826293489 0.11137169325810831 0 0.1113554900003929 0.1202520648995092 0 0.1083680107861353 0.1262331417866126 0 0.1152888301509653 0.1271164741720863 0 0.11509062910994081 0.1152480720139986 0 0.1113554900003929 0.1202520648995092 0 0.1170594398954853 0.12014840374026339 0 0.1113554900003929 0.1202520648995092 0 0.1170594398954853 0.12014840374026339 0 0.1152888301509653 0.1271164741720863 0 0.1170594398954853 0.12014840374026339 0 0.1220698967109084 0.1236756188201347 0 0.1152888301509653 0.1271164741720863 0 0.11509062910994081 0.1152480720139986 0 0.1170594398954853 0.12014840374026339 0 0.1209457257272817 0.11690873181984179 0 0.1170594398954853 0.12014840374026339 0 0.1220698967109084 0.1236756188201347 0 0.1209457257272817 0.11690873181984179 0 0.1220698967109084 0.1236756188201347 0 0.1209457257272817 0.11690873181984179 0 0.12763197277894081 0.11781167857102071 0 0.11509062910994081 0.1152480720139986 0 0.11971608826293489 0.11137169325810831 0 0.1209457257272817 0.11690873181984179 0 0.1209457257272817 0.11690873181984179 0 0.124140281621065 0.113039143236951 0 0.12763197277894081 0.11781167857102071 0 0.11971608826293489 0.11137169325810831 0 0.1209457257272817 0.11690873181984179 0 0.124140281621065 0.113039143236951 0 0.124140281621065 0.113039143236951 0 0.1231602269960374 0.1087310721569951 0 0.12652054665688381 0.10933001811694849 0 0.11971608826293489 0.11137169325810831 0 0.124140281621065 0.113039143236951 0 0.1231602269960374 0.1087310721569951 0 0.1231602269960374 0.1087310721569951 0 0.12443498868786131 0.10435092231849399 0 0.12652054665688381 0.10933001811694849 0 0.1231602269960374 0.1087310721569951 0 0.12443498868786131 0.10435092231849399 0 0.12004492787001041 0.10566452550734839 0 0.12443498868786131 0.10435092231849399 0 0.12004492787001041 0.10566452550734839 0 0.1203902098396646 0.1000284160169206 0 0.12004492787001041 0.10566452550734839 0 0.11509685994751601 0.1019561956344817 0 0.1203902098396646 0.1000284160169206 0 0.11971608826293489 0.11137169325810831 0 0.1231602269960374 0.1087310721569951 0 0.12004492787001041 0.10566452550734839 0 0.1135430381832282 0.1096419349029706 0 0.11971608826293489 0.11137169325810831 0 0.12004492787001041 0.10566452550734839 0 0.1135430381832282 0.1096419349029706 0 0.12004492787001041 0.10566452550734839 0 0.11509685994751601 0.1019561956344817 0 0.1084190496342211 0.10573547313780809 0 0.1081447628216063 0.09917213681193067 0 0.11509685994751601 0.1019561956344817 0 0.1084190496342211 0.10573547313780809 0 0.1135430381832282 0.1096419349029706 0 0.11509685994751601 0.1019561956344817 0 0.1084190496342211 0.10573547313780809 0 0.1068694187972892 0.11103034538361641 0 0.1135430381832282 0.1096419349029706 0 0.11509685994751601 0.1019561956344817 0 0.1128686308833565 0.094063958505912676 0 0.1203902098396646 0.1000284160169206 0 0.1081447628216063 0.09917213681193067 0 0.11509685994751601 0.1019561956344817 0 0.1128686308833565 0.094063958505912676 0 0.12443498868786131 0.10435092231849399 0 0.1235525662917519 0.094843792733770374 0 0.1203902098396646 0.1000284160169206 0 0.1128686308833565 0.094063958505912676 0 0.1235525662917519 0.094843792733770374 0 0.1203902098396646 0.1000284160169206 0 0.1128686308833565 0.094063958505912676 0 0.1235525662917519 0.094843792733770374 0 0.1055600803626587 0.076542533192484732 0 0.1235525662917519 0.094843792733770374 0 0.1055600803626587 0.076542533192484732 0 0.12850915215626041 0.087908042125689534 0 0.1235525662917519 0.094843792733770374 0 0.1055600803626587 0.076542533192484732 0 0.1154732520916749 0.062671031976323774 0 0.12850915215626041 0.087908042125689534 0 0.1154732520916749 0.062671031976323774 0 0.1055600803626587 0.076542533192484732 0 0.12850915215626041 0.087908042125689534 0 0.1154732520916749 0.062671031976323774 0 0.13036760658061899 0.070962797443137562 0 0.12850915215626041 0.087908042125689534 0 0.087567594433565529 0.058241273651199091 0 0.1154732520916749 0.062671031976323774 0 0.1055600803626587 0.076542533192484732 0 0.087567594433565529 0.058241273651199091 0 0.1055600803626587 0.076542533192484732 0 0.087567594433565529 0.058241273651199091 0 0.1055600803626587 0.076542533192484732 0 0.09283418636288375 0.080417502216354256 0 0.1128686308833565 0.094063958505912676 0 0.1055600803626587 0.076542533192484732 0 0.1019129826551948 0.091946798273217181 0 0.1055600803626587 0.076542533192484732 0 0.1019129826551948 0.091946798273217181 0 0.09283418636288375 0.080417502216354256 0 0.1019129826551948 0.091946798273217181 0 0.088903522239811877 0.091903551894324989 0 0.09283418636288375 0.080417502216354256 0 0.088903522239811877 0.091903551894324989 0 0.080226752123187736 0.083453354070545313 0 0.071820553030870302 0.093924520617785834 0 0.088903522239811877 0.091903551894324989 0 0.09283418636288375 0.080417502216354256 0 0.080226752123187736 0.083453354070545313 0 0.087567594433565529 0.058241273651199091 0 0.09283418636288375 0.080417502216354256 0 0.080226752123187736 0.083453354070545313 0 0.087567594433565529 0.058241273651199091 0 0.080226752123187736 0.083453354070545313 0 0.067603240007215515 0.071821317850237792 0 0.080226752123187736 0.083453354070545313 0 0.067603240007215515 0.071821317850237792 0 0.071820553030870302 0.093924520617785834 0 0.067603240007215515 0.071821317850237792 0 0.071820553030870302 0.093924520617785834 0 0.049576879412772307 0.080211101192239162 0 0.071820553030870302 0.093924520617785834 0 0.078352374751876078 0.10747996026455769 0 0.069724388657071257 0.1102743656096663 0 0.071820553030870302 0.093924520617785834 0 0.069724388657071257 0.1102743656096663 0 0.059332700162092973 0.1022094096971306 0 0.071820553030870302 0.093924520617785834 0 0.078352374751876078 0.10747996026455769 0 0.086181182836188266 0.1009231716643994 0 0.088903522239811877 0.091903551894324989 0 0.071820553030870302 0.093924520617785834 0 0.086181182836188266 0.1009231716643994 0 0.078352374751876078 0.10747996026455769 0 0.086181182836188266 0.1009231716643994 0 0.087835122857577039 0.10976907727383969 0 0.094853126076581834 0.1043630167763776 0 0.086181182836188266 0.1009231716643994 0 0.087835122857577039 0.10976907727383969 0 0.094853126076581834 0.1043630167763776 0 0.096356440282670847 0.11015832077642761 0 0.087835122857577039 0.10976907727383969 0 0.095714831108542342 0.097840073808485362 0 0.088903522239811877 0.091903551894324989 0 0.086181182836188266 0.1009231716643994 0 0.095714831108542342 0.097840073808485362 0 0.094853126076581834 0.1043630167763776 0 0.086181182836188266 0.1009231716643994 0 0.094137434699218772 0.1218838135598474 0 0.08594609811187337 0.1192823280413618 0 0.092345613288074876 0.1151629980966497 0 0.094137434699218772 0.1218838135598474 0 0.08594609811187337 0.1192823280413618 0 0.087533648770002262 0.1266419169017525 0 0.08594609811187337 0.1192823280413618 0 0.087835122857577039 0.10976907727383969 0 0.092345613288074876 0.1151629980966497 0 0.096356440282670847 0.11015832077642761 0 0.087835122857577039 0.10976907727383969 0 0.092345613288074876 0.1151629980966497 0 0.078352374751876078 0.10747996026455769 0 0.087835122857577039 0.10976907727383969 0 0.080875975963962565 0.1141574102995422 0 0.08594609811187337 0.1192823280413618 0 0.087835122857577039 0.10976907727383969 0 0.080875975963962565 0.1141574102995422 0 0.08594609811187337 0.1192823280413618 0 0.080875975963962565 0.1141574102995422 0 0.07826181861975362 0.1201811701572508 0 0.08594609811187337 0.1192823280413618 0 0.081976770408076452 0.12461715884680979 0 0.087533648770002262 0.1266419169017525 0 0.08594609811187337 0.1192823280413618 0 0.07826181861975362 0.1201811701572508 0 0.081976770408076452 0.12461715884680979 0 0.07826181861975362 0.1201811701572508 0 0.081976770408076452 0.12461715884680979 0 0.076073305937806049 0.12650505023221409 0 0.069724388657071257 0.1102743656096663 0 0.069088520911413626 0.124207718202022 0 0.059332700162092973 0.1022094096971306 0 0.07826181861975362 0.1201811701572508 0 0.073746111680012688 0.1217684279514032 0 0.076073305937806049 0.12650505023221409 0 0.069088520911413626 0.124207718202022 0 0.059332700162092973 0.1022094096971306 0 0.073746111680012688 0.1217684279514032 0 0.074030560149632801 0.1155572179893101 0 0.069088520911413626 0.124207718202022 0 0.07826181861975362 0.1201811701572508 0 0.073746111680012688 0.1217684279514032 0 0.074030560149632801 0.1155572179893101 0 0.073746111680012688 0.1217684279514032 0 0.069088520911413626 0.124207718202022 0 0.076073305937806049 0.12650505023221409 0 0.078352374751876078 0.10747996026455769 0 0.080875975963962565 0.1141574102995422 0 0.074030560149632801 0.1155572179893101 0 0.074030560149632801 0.1155572179893101 0 0.069724388657071257 0.1102743656096663 0 0.069088520911413626 0.124207718202022 0 0.078352374751876078 0.10747996026455769 0 0.074030560149632801 0.1155572179893101 0 0.069724388657071257 0.1102743656096663 0 0.080875975963962565 0.1141574102995422 0 0.07826181861975362 0.1201811701572508 0 0.074030560149632801 0.1155572179893101 0 0.069088520911413626 0.124207718202022 0 0.059332700162092973 0.1022094096971306 0 0.052535454369213357 0.1257661192308045 0 0.069088520911413626 0.124207718202022 0 0.052535454369213357 0.1257661192308045 0 0.059332700162092973 0.1022094096971306 0 0.042511846878514482 0.1126882127972354 0 0.052535454369213357 0.1257661192308045 0 0.059332700162092973 0.1022094096971306 0 0.037557698139118682 0.095941411260585363 0 0.042511846878514482 0.1126882127972354 0 0.037557698139118682 0.095941411260585363 0 0.042511846878514482 0.1126882127972354 0 0.027337510816360121 0.1107529378744334 0 0.042511846878514482 0.1126882127972354 0 0.052535454369213357 0.1257661192308045 0 0.035982387827013122 0.1273245202595874 0 0.027337510816360121 0.1107529378744334 0 0.035982387827013122 0.1273245202595874 0 0.042511846878514482 0.1126882127972354 0 0.027337510816360121 0.1107529378744334 0 0.035982387827013122 0.1273245202595874 0 0.039821058663451578 0.058212792687347623 0 0.053756892572386937 0.062577256687666935 0 0.049576879412772307 0.080211101192239162 0 0.067603240007215515 0.071821317850237792 0 0.053756892572386937 0.062577256687666935 0 0.049576879412772307 0.080211101192239162 0 0.059332700162092973 0.1022094096971306 0 0.049576879412772307 0.080211101192239162 0 0.071820553030870302 0.093924520617785834 0 0.059332700162092973 0.1022094096971306 0 0.049576879412772307 0.080211101192239162 0 0.059332700162092973 0.1022094096971306 0 0.037557698139118682 0.095941411260585363 0 0.049576879412772307 0.080211101192239162 0 0.037557698139118682 0.095941411260585363 0 0.049576879412772307 0.080211101192239162 0 0.02536784582574534 0.076689905936862757 0 0.039821058663451578 0.058212792687347623 0 0.049576879412772307 0.080211101192239162 0 0.039821058663451578 0.058212792687347623 0 0.049576879412772307 0.080211101192239162 0 0.02536784582574534 0.076689905936862757 0 0.02536784582574534 0.076689905936862757 0 0.01970169280553543 0.062653079480411544 0 0.0067128332214790448 0.066304310358282131 0 0.039821058663451578 0.058212792687347623 0 0.02536784582574534 0.076689905936862757 0 0.01970169280553543 0.062653079480411544 0 0.037557698139118682 0.095941411260585363 0 0.02536784582574534 0.076689905936862757 0 0.021219405739226881 0.093096900065610846 0 0.02536784582574534 0.076689905936862757 0 0.021219405739226881 0.093096900065610846 0 0.0046698397351421896 0.084356734639687847 0 0.02536784582574534 0.076689905936862757 0 0.0046698397351421896 0.084356734639687847 0 0.0067128332214790448 0.066304310358282131 0 0.027337510816360121 0.1107529378744334 0 0.0086662749107039236 0.10693835184074631 0 0.01266271008626558 0.12951996904180471 0 0.027337510816360121 0.1107529378744334 0 0.01266271008626558 0.12951996904180471 0 0.035982387827013122 0.1273245202595874 0 0.037557698139118682 0.095941411260585363 0 0.021219405739226881 0.093096900065610846 0 0.027337510816360121 0.1107529378744334 0 0.021219405739226881 0.093096900065610846 0 0.027337510816360121 0.1107529378744334 0 0.0086662749107039236 0.10693835184074631 0 -0.0076135289647085479 0.091821168524714253 0 0.0046698397351421896 0.084356734639687847 0 0.0086662749107039236 0.10693835184074631 0 0.0046698397351421896 0.084356734639687847 0 0.0086662749107039236 0.10693835184074631 0 0.021219405739226881 0.093096900065610846 0 0.0046698397351421896 0.084356734639687847 0 0.0086662749107039236 0.10693835184074631 0 -0.006272828410093783 0.1053412510084622 0 0.0086662749107039236 0.10693835184074631 0 0.00073919274506113004 0.11770919909287821 0 0.0086662749107039236 0.10693835184074631 0 0.01266271008626558 0.12951996904180471 0 0.0086662749107039236 0.10693835184074631 0 0.00073919274506113004 0.11770919909287821 0 0.01266271008626558 0.12951996904180471 0 0.00073919274506113004 0.11770919909287821 0 0.0030207331985755881 0.13042772028312261 0 0.01266271008626558 0.12951996904180471 0 -0.00048726366279250359 0.14167917974636529 0 0.0030207331985755881 0.13042772028312261 0 0.01411060506144233 0.13770121273536359 0 0.01411060506144233 0.13770121273536359 0 0.01266271008626558 0.12951996904180471 0 0.0030207331985755881 0.13042772028312261 0 0.01411060506144233 0.13770121273536359 0 0.0030207331985755881 0.13042772028312261 0 0.01266271008626558 0.12951996904180471 0 0.0030207331985755881 0.13042772028312261 0 0.01411060506144233 0.13770121273536359 0 0.01266271008626558 0.12951996904180471 0 0.01411060506144233 0.13770121273536359 0 0.01266271008626558 0.12951996904180471 0 0.028316269144991479 0.13875826002553079 0 0.01266271008626558 0.12951996904180471 0 0.035982387827013122 0.1273245202595874 0 0.01266271008626558 0.12951996904180471 0 0.028316269144991479 0.13875826002553079 0 0.035982387827013122 0.1273245202595874 0 0.01411060506144233 0.13770121273536359 0 0.028316269144991479 0.13875826002553079 0 0.034848469249748201 0.15130251494285701 0 0.01411060506144233 0.13770121273536359 0 0.034848469249748201 0.15130251494285701 0 0.01411060506144233 0.13770121273536359 0 0.016945361965308679 0.15371883655486279 0 0.034848469249748201 0.15130251494285701 0 0.01411060506144233 0.13770121273536359 0 0.016945361965308679 0.15371883655486279 0 0.005583746424612122 0.15123205850768889 0 0.01411060506144233 0.13770121273536359 0 0.016945361965308679 0.15371883655486279 0 0.016945361965308679 0.15371883655486279 0 0.005583746424612122 0.15123205850768889 0 0.0044519832673468162 0.1631943625901254 0 -0.00048726366279250359 0.14167917974636529 0 0.01411060506144233 0.13770121273536359 0 0.005583746424612122 0.15123205850768889 0 -0.007726169365710734 0.15277462447414769 0 0.005583746424612122 0.15123205850768889 0 0.0044519832673468162 0.1631943625901254 0 -0.0020124373959203661 0.17839985613399431 0 0.0044519832673468162 0.1631943625901254 0 0.01978011886917479 0.1697364603743621 0 0.016945361965308679 0.15371883655486279 0 0.0044519832673468162 0.1631943625901254 0 0.01978011886917479 0.1697364603743621 0 -0.0020124373959203661 0.17839985613399431 0 0.02108441136853402 0.18585883277676679 0 0.01978011886917479 0.1697364603743621 0 0.02108441136853402 0.18585883277676679 0 0.01978011886917479 0.1697364603743621 0 0.036279343251774232 0.1678477345014133 0 0.016945361965308679 0.15371883655486279 0 0.01978011886917479 0.1697364603743621 0 0.01978011886917479 0.1697364603743621 0 0.036279343251774232 0.1678477345014133 0 0.034848469249748201 0.15130251494285701 0 0.016945361965308679 0.15371883655486279 0 0.01978011886917479 0.1697364603743621 0 0.034848469249748201 0.15130251494285701 0 0.036279343251774232 0.1678477345014133 0 0.041200333864603457 0.1819420511032992 0 0.055586333438054233 0.16490381715034991 0 0.036279343251774232 0.1678477345014133 0 0.055586333438054233 0.16490381715034991 0 0.034848469249748201 0.15130251494285701 0 0.055586333438054233 0.16490381715034991 0 0.034848469249748201 0.15130251494285701 0 0.02108441136853402 0.18585883277676679 0 0.036279343251774232 0.1678477345014133 0 0.041200333864603457 0.1819420511032992 0 0.055586333438054233 0.16490381715034991 0 0.064591857396445171 0.18216673274927109 0 0.055586333438054233 0.16490381715034991 0 0.053055179051929448 0.18807061955945731 0 0.064591857396445171 0.18216673274927109 0 0.041200333864603457 0.1819420511032992 0 0.055586333438054233 0.16490381715034991 0 0.053055179051929448 0.18807061955945731 0 0.062004194513285961 0.13807505947128909 0 0.045784360632533591 0.14611416870496871 0 0.067418741826146558 0.15499383126278199 0 0.055586333438054233 0.16490381715034991 0 0.045784360632533591 0.14611416870496871 0 0.055586333438054233 0.16490381715034991 0 0.045784360632533591 0.14611416870496871 0 0.067418741826146558 0.15499383126278199 0 0.052535454369213357 0.1257661192308045 0 0.062004194513285961 0.13807505947128909 0 0.045784360632533591 0.14611416870496871 0 0.069088520911413626 0.124207718202022 0 0.052535454369213357 0.1257661192308045 0 0.062004194513285961 0.13807505947128909 0 0.052535454369213357 0.1257661192308045 0 0.035982387827013122 0.1273245202595874 0 0.028316269144991479 0.13875826002553079 0 0.035982387827013122 0.1273245202595874 0 0.045784360632533591 0.14611416870496871 0 0.035982387827013122 0.1273245202595874 0 0.045784360632533591 0.14611416870496871 0 0.052535454369213357 0.1257661192308045 0 0.035982387827013122 0.1273245202595874 0 0.045784360632533591 0.14611416870496871 0 0.055586333438054233 0.16490381715034991 0 0.045784360632533591 0.14611416870496871 0 0.034848469249748201 0.15130251494285701 0 0.028316269144991479 0.13875826002553079 0 0.045784360632533591 0.14611416870496871 0 0.034848469249748201 0.15130251494285701 0 0.016525624760070318 0.23904321543069551 0 0.033383659090949709 0.2448895276436911 0 0.021202503518625019 0.2561860795987454 0 0.016525624760070318 0.23904321543069551 0 0.03187138454662939 0.2313507310700027 0 0.033383659090949709 0.2448895276436911 0 -0.0046201757292567477 0.22506887247297819 0 -0.0043755340704045732 0.244462551133488 0 0.016525624760070318 0.23904321543069551 0 -0.0043755340704045732 0.244462551133488 0 0.016525624760070318 0.23904321543069551 0 0.0047846334504887383 0.25646387099740009 0 -0.0046201757292567477 0.22506887247297819 0 0.016525624760070318 0.23904321543069551 0 0.017898128353906161 0.22229828454753231 0 0.016525624760070318 0.23904321543069551 0 0.017898128353906161 0.22229828454753231 0 0.03187138454662939 0.2313507310700027 0 0.017898128353906161 0.22229828454753231 0 0.01672575879323868 0.20533755557108749 0 0.035622886695181537 0.20075851725969679 0 -0.0009645268562457458 0.19957329067002691 0 -0.0046201757292567477 0.22506887247297819 0 0.01672575879323868 0.20533755557108749 0 -0.0046201757292567477 0.22506887247297819 0 0.01672575879323868 0.20533755557108749 0 -0.0046201757292567477 0.22506887247297819 0 0.017898128353906161 0.22229828454753231 0 0.01672575879323868 0.20533755557108749 0 -0.0009645268562457458 0.19957329067002691 0 0.02108441136853402 0.18585883277676679 0 0.01672575879323868 0.20533755557108749 0 -0.0009645268562457458 0.19957329067002691 0 -0.0020124373959203661 0.17839985613399431 0 0.02108441136853402 0.18585883277676679 0 0.02108441136853402 0.18585883277676679 0 0.01672575879323868 0.20533755557108749 0 0.035622886695181537 0.20075851725969679 0 0.02108441136853402 0.18585883277676679 0 0.041200333864603457 0.1819420511032992 0 0.035622886695181537 0.20075851725969679 0 0.041200333864603457 0.1819420511032992 0 0.035622886695181537 0.20075851725969679 0 0.053055179051929448 0.18807061955945731 0 0.035622886695181537 0.20075851725969679 0 0.053055179051929448 0.18807061955945731 0 0.054001083264592457 0.2025883055672513 0 0.053055179051929448 0.18807061955945731 0 0.06832763562521886 0.19624742680943461 0 0.064591857396445171 0.18216673274927109 0 0.053055179051929448 0.18807061955945731 0 0.054001083264592457 0.2025883055672513 0 0.06832763562521886 0.19624742680943461 0 0.054001083264592457 0.2025883055672513 0 0.062912539825618577 0.21034470245719911 0 0.06832763562521886 0.19624742680943461 0 0.054001083264592457 0.2025883055672513 0 0.044824311151762462 0.21728447649197771 0 0.062912539825618577 0.21034470245719911 0 0.044824311151762462 0.21728447649197771 0 0.061661813949312173 0.22184798656547611 0 0.062912539825618577 0.21034470245719911 0 0.035622886695181537 0.20075851725969679 0 0.054001083264592457 0.2025883055672513 0 0.044824311151762462 0.21728447649197771 0 0.017898128353906161 0.22229828454753231 0 0.035622886695181537 0.20075851725969679 0 0.044824311151762462 0.21728447649197771 0 0.044824311151762462 0.21728447649197771 0 0.03187138454662939 0.2313507310700027 0 0.045497479145355242 0.23553395568595339 0 0.017898128353906161 0.22229828454753231 0 0.044824311151762462 0.21728447649197771 0 0.03187138454662939 0.2313507310700027 0 0.044824311151762462 0.21728447649197771 0 0.057466853328857669 0.23224558852773991 0 0.045497479145355242 0.23553395568595339 0 0.044824311151762462 0.21728447649197771 0 0.061661813949312173 0.22184798656547611 0 0.057466853328857669 0.23224558852773991 0 0.057466853328857669 0.23224558852773991 0 0.056475972365277273 0.2426881828991492 0 0.045497479145355242 0.23553395568595339 0 0.057466853328857669 0.23224558852773991 0 0.056475972365277273 0.2426881828991492 0 0.067007510192884479 0.2387405646943844 0 0.056475972365277273 0.2426881828991492 0 0.06445137664951725 0.2468719654481247 0 0.058491208820946473 0.25346375136892008 0 0.056475972365277273 0.2426881828991492 0 0.047355968946164992 0.24935670449388039 0 0.058491208820946473 0.25346375136892008 0 0.056475972365277273 0.2426881828991492 0 0.047355968946164992 0.24935670449388039 0 0.045497479145355242 0.23553395568595339 0 0.047355968946164992 0.24935670449388039 0 0.045497479145355242 0.23553395568595339 0 0.033383659090949709 0.2448895276436911 0 0.03187138454662939 0.2313507310700027 0 0.045497479145355242 0.23553395568595339 0 0.033383659090949709 0.2448895276436911 0 0.091477808116451093 0.24133346750622919 0 0.081470834279527754 0.25097810745609922 0 0.095906770860124141 0.25462474490522952 0 0.091477808116451093 0.24133346750622919 0 0.079205485348239138 0.23874370402801129 0 0.086354554130019967 0.2285405210767896 0 0.091477808116451093 0.24133346750622919 0 0.079205485348239138 0.23874370402801129 0 0.081470834279527754 0.25097810745609922 0 0.079205485348239138 0.23874370402801129 0 0.072538072969772924 0.24560548427405449 0 0.081470834279527754 0.25097810745609922 0 0.072538072969772924 0.24560548427405449 0 0.06445137664951725 0.2468719654481247 0 0.067007510192884479 0.2387405646943844 0 0.056475972365277273 0.2426881828991492 0 0.06445137664951725 0.2468719654481247 0 0.067007510192884479 0.2387405646943844 0 0.072538072969772924 0.24560548427405449 0 0.06445137664951725 0.2468719654481247 0 0.069887144546224828 0.25409848515668099 0 0.079205485348239138 0.23874370402801129 0 0.067007510192884479 0.2387405646943844 0 0.072378903274367953 0.2270529177183353 0 0.079205485348239138 0.23874370402801129 0 0.072538072969772924 0.24560548427405449 0 0.067007510192884479 0.2387405646943844 0 0.061661813949312173 0.22184798656547611 0 0.072378903274367953 0.2270529177183353 0 0.074478883743500812 0.21001372078599881 0 0.072378903274367953 0.2270529177183353 0 0.08103249360564091 0.21973052270155771 0 0.074478883743500812 0.21001372078599881 0 0.057466853328857669 0.23224558852773991 0 0.067007510192884479 0.2387405646943844 0 0.072378903274367953 0.2270529177183353 0 0.061661813949312173 0.22184798656547611 0 0.057466853328857669 0.23224558852773991 0 0.072378903274367953 0.2270529177183353 0 0.072378903274367953 0.2270529177183353 0 0.08103249360564091 0.21973052270155771 0 0.086354554130019967 0.2285405210767896 0 0.086354554130019967 0.2285405210767896 0 0.091806067479281883 0.21410242618768391 0 0.100434752024396 0.23047971775104761 0 0.079205485348239138 0.23874370402801129 0 0.072378903274367953 0.2270529177183353 0 0.086354554130019967 0.2285405210767896 0 0.091477808116451093 0.24133346750622919 0 0.086354554130019967 0.2285405210767896 0 0.100434752024396 0.23047971775104761 0 0.08103249360564091 0.21973052270155771 0 0.086354554130019967 0.2285405210767896 0 0.091806067479281883 0.21410242618768391 0 0.091806067479281883 0.21410242618768391 0 0.074478883743500812 0.21001372078599881 0 0.084268722871719076 0.19969351126432919 0 0.091806067479281883 0.21410242618768391 0 0.084268722871719076 0.19969351126432919 0 0.10470749199751481 0.1971208148258459 0 0.08103249360564091 0.21973052270155771 0 0.091806067479281883 0.21410242618768391 0 0.074478883743500812 0.21001372078599881 0 0.061661813949312173 0.22184798656547611 0 0.062912539825618577 0.21034470245719911 0 0.074478883743500812 0.21001372078599881 0 0.062912539825618577 0.21034470245719911 0 0.074478883743500812 0.21001372078599881 0 0.06832763562521886 0.19624742680943461 0 0.074478883743500812 0.21001372078599881 0 0.06832763562521886 0.19624742680943461 0 0.084268722871719076 0.19969351126432919 0 0.06832763562521886 0.19624742680943461 0 0.084268722871719076 0.19969351126432919 0 0.080146912717784471 0.18101231598809789 0 0.10470749199751481 0.1971208148258459 0 0.080146912717784471 0.18101231598809789 0 0.084268722871719076 0.19969351126432919 0 0.10470749199751481 0.1971208148258459 0 0.080146912717784471 0.18101231598809789 0 0.10470749199751481 0.1971208148258459 0 0.1184575417679171 0.1820144287228383 0 0.13347011402183551 0.20527255101928829 0 0.10470749199751481 0.1971208148258459 0 0.11229948489374809 0.2176677802337347 0 0.13347011402183551 0.20527255101928829 0 0.11229948489374809 0.2176677802337347 0 0.12833088196767689 0.22867142634747459 0 0.13347011402183551 0.20527255101928829 0 0.091806067479281883 0.21410242618768391 0 0.10470749199751481 0.1971208148258459 0 0.11229948489374809 0.2176677802337347 0 0.11229948489374809 0.2176677802337347 0 0.100434752024396 0.23047971775104761 0 0.11414634434653979 0.23376814119140371 0 0.091806067479281883 0.21410242618768391 0 0.11229948489374809 0.2176677802337347 0 0.100434752024396 0.23047971775104761 0 0.11229948489374809 0.2176677802337347 0 0.11414634434653979 0.23376814119140371 0 0.12833088196767689 0.22867142634747459 0 0.11414634434653979 0.23376814119140371 0 0.1234336310216875 0.24610106375436591 0 0.12833088196767689 0.22867142634747459 0 0.1234336310216875 0.24610106375436591 0 0.1062329718251907 0.24592071787039579 0 0.11127954231523141 0.257715348709744 0 0.11414634434653979 0.23376814119140371 0 0.1234336310216875 0.24610106375436591 0 0.1062329718251907 0.24592071787039579 0 0.100434752024396 0.23047971775104761 0 0.11414634434653979 0.23376814119140371 0 0.1062329718251907 0.24592071787039579 0 0.091477808116451093 0.24133346750622919 0 0.100434752024396 0.23047971775104761 0 0.1062329718251907 0.24592071787039579 0 0.091477808116451093 0.24133346750622919 0 0.1062329718251907 0.24592071787039579 0 0.095906770860124141 0.25462474490522952 0 0.088217004107324998 0.14852802920457811 0 0.088432397260080203 0.13549818412993811 0 0.1034449695139987 0.15875630642638819 0 0.088217004107324998 0.14852802920457811 0 0.076693056855544922 0.14135511482133609 0 0.084297592799676191 0.1585025114406502 0 0.076693056855544922 0.14135511482133609 0 0.084297592799676191 0.1585025114406502 0 0.088217004107324998 0.14852802920457811 0 0.084297592799676191 0.1585025114406502 0 0.1034449695139987 0.15875630642638819 0 0.088217004107324998 0.14852802920457811 0 0.088432397260080203 0.13549818412993811 0 0.076693056855544922 0.14135511482133609 0 0.088432397260080203 0.13549818412993811 0 0.087533648770002262 0.1266419169017525 0 0.094141251783466995 0.1294848743529671 0 0.088432397260080203 0.13549818412993811 0 0.087533648770002262 0.1266419169017525 0 0.082068980600946945 0.13047532890147001 0 0.094137434699218772 0.1218838135598474 0 0.087533648770002262 0.1266419169017525 0 0.094141251783466995 0.1294848743529671 0 0.082068980600946945 0.13047532890147001 0 0.076073305937806049 0.12650505023221409 0 0.076693056855544922 0.14135511482133609 0 0.081976770408076452 0.12461715884680979 0 0.087533648770002262 0.1266419169017525 0 0.082068980600946945 0.13047532890147001 0 0.081976770408076452 0.12461715884680979 0 0.082068980600946945 0.13047532890147001 0 0.076073305937806049 0.12650505023221409 0 0.088432397260080203 0.13549818412993811 0 0.082068980600946945 0.13047532890147001 0 0.076693056855544922 0.14135511482133609 0 0.069088520911413626 0.124207718202022 0 0.076073305937806049 0.12650505023221409 0 0.076693056855544922 0.14135511482133609 0 0.069088520911413626 0.124207718202022 0 0.062004194513285961 0.13807505947128909 0 0.076693056855544922 0.14135511482133609 0 0.069088520911413626 0.124207718202022 0 0.076693056855544922 0.14135511482133609 0 0.067418741826146558 0.15499383126278199 0 0.076693056855544922 0.14135511482133609 0 0.084297592799676191 0.1585025114406502 0 0.062004194513285961 0.13807505947128909 0 0.067418741826146558 0.15499383126278199 0 0.076693056855544922 0.14135511482133609 0 0.055586333438054233 0.16490381715034991 0 0.067418741826146558 0.15499383126278199 0 0.080146912717784471 0.18101231598809789 0 0.067418741826146558 0.15499383126278199 0 0.080146912717784471 0.18101231598809789 0 0.084297592799676191 0.1585025114406502 0 0.055586333438054233 0.16490381715034991 0 0.064591857396445171 0.18216673274927109 0 0.080146912717784471 0.18101231598809789 0 0.055586333438054233 0.16490381715034991 0 0.080146912717784471 0.18101231598809789 0 0.06832763562521886 0.19624742680943461 0 0.064591857396445171 0.18216673274927109 0 0.080146912717784471 0.18101231598809789 0 0.080146912717784471 0.18101231598809789 0 0.084297592799676191 0.1585025114406502 0 0.099398246652465813 0.17784256381682151 0 0.084297592799676191 0.1585025114406502 0 0.1034449695139987 0.15875630642638819 0 0.099398246652465813 0.17784256381682151 0 0.10470749199751481 0.1971208148258459 0 0.099398246652465813 0.17784256381682151 0 0.1184575417679171 0.1820144287228383 0 0.1034449695139987 0.15875630642638819 0 0.099398246652465813 0.17784256381682151 0 0.1184575417679171 0.1820144287228383 0 0.10470749199751481 0.1971208148258459 0 0.080146912717784471 0.18101231598809789 0 0.099398246652465813 0.17784256381682151 0 0.1034449695139987 0.15875630642638819 0 0.1184575417679171 0.1820144287228383 0 0.1034449695139987 0.15875630642638819 0 0.1232257367928056 0.16368964001201899 0 0.11568010710941309 0.14829727720815561 0 0.1034449695139987 0.15875630642638819 0 0.1184575417679171 0.1820144287228383 0 0.1232257367928056 0.16368964001201899 0 0.1232257367928056 0.16368964001201899 0 0.11568010710941309 0.14829727720815561 0 0.12676557509286829 0.1454626372996026 0 0.11568010710941309 0.14829727720815561 0 0.1207078786880028 0.1341295180069102 0 0.12676557509286829 0.1454626372996026 0 0.088432397260080203 0.13549818412993811 0 0.1034449695139987 0.15875630642638819 0 0.1034449695139987 0.15875630642638819 0 0.11568010710941309 0.14829727720815561 0 0.1086891389802646 0.1366240662150375 0 0.088432397260080203 0.13549818412993811 0 0.1034449695139987 0.15875630642638819 0 0.099530360262238965 0.1359940612124656 0 0.1034449695139987 0.15875630642638819 0 0.099530360262238965 0.1359940612124656 0 0.1086891389802646 0.1366240662150375 0 0.1010724179257948 0.127406395960832 0 0.094141251783466995 0.1294848743529671 0 0.099530360262238965 0.1359940612124656 0 0.094137434699218772 0.1218838135598474 0 0.1010724179257948 0.127406395960832 0 0.094141251783466995 0.1294848743529671 0 0.088432397260080203 0.13549818412993811 0 0.094141251783466995 0.1294848743529671 0 0.099530360262238965 0.1359940612124656 0 0.1010724179257948 0.127406395960832 0 0.099530360262238965 0.1359940612124656 0 0.1086891389802646 0.1366240662150375 0 0.1010724179257948 0.127406395960832 0 0.1086891389802646 0.1366240662150375 0 0.1083680107861353 0.1262331417866126 0 0.1086891389802646 0.1366240662150375 0 0.1083680107861353 0.1262331417866126 0 0.1152888301509653 0.1271164741720863 0 0.1086891389802646 0.1366240662150375 0 0.1152888301509653 0.1271164741720863 0 0.1207078786880028 0.1341295180069102 0 0.11568010710941309 0.14829727720815561 0 0.1086891389802646 0.1366240662150375 0 0.1207078786880028 0.1341295180069102 0 0.1220698967109084 0.1236756188201347 0 0.1152888301509653 0.1271164741720863 0 0.1207078786880028 0.1341295180069102 0 0.1220698967109084 0.1236756188201347 0 0.1207078786880028 0.1341295180069102 0 0.1307855330247745 0.1259389066106861 0 0.1207078786880028 0.1341295180069102 0 0.1307855330247745 0.1259389066106861 0 0.13055713026306021 0.1352035678998251 0 0.1207078786880028 0.1341295180069102 0 0.13055713026306021 0.1352035678998251 0 0.12676557509286829 0.1454626372996026 0 0.13055713026306021 0.1352035678998251 0 0.13846535559192041 0.12870578789646839 0 0.14112776091054829 0.13959575819808009 0 0.13055713026306021 0.1352035678998251 0 0.14112776091054829 0.13959575819808009 0 0.12676557509286829 0.1454626372996026 0 0.1307855330247745 0.1259389066106861 0 0.13055713026306021 0.1352035678998251 0 0.13846535559192041 0.12870578789646839 0 0.1307855330247745 0.1259389066106861 0 0.13846535559192041 0.12870578789646839 0 0.1366893450621581 0.12344344043333361 0 0.13846535559192041 0.12870578789646839 0 0.14773787989578299 0.12513413274601151 0 0.14112776091054829 0.13959575819808009 0 0.14773787989578299 0.12513413274601151 0 0.14112776091054829 0.13959575819808009 0 0.15615972118727281 0.13674626153771871 0 0.14773787989578299 0.12513413274601151 0 0.15615972118727281 0.13674626153771871 0 0.1582443246947543 0.1238645948038431 0 0.14112776091054829 0.13959575819808009 0 0.153512916127722 0.14981501955182699 0 0.14097798318852439 0.15754922350465611 0 0.14112776091054829 0.13959575819808009 0 0.15615972118727281 0.13674626153771871 0 0.153512916127722 0.14981501955182699 0 0.14112776091054829 0.13959575819808009 0 0.12676557509286829 0.1454626372996026 0 0.14097798318852439 0.15754922350465611 0 0.1232257367928056 0.16368964001201899 0 0.12676557509286829 0.1454626372996026 0 0.14097798318852439 0.15754922350465611 0 0.1232257367928056 0.16368964001201899 0 0.1416054171698341 0.1800995596240102 0 0.14097798318852439 0.15754922350465611 0 0.1184575417679171 0.1820144287228383 0 0.1232257367928056 0.16368964001201899 0 0.1416054171698341 0.1800995596240102 0 0.1416054171698341 0.1800995596240102 0 0.1599053163372966 0.16427322830400529 0 0.16403867614919801 0.18364434643882249 0 0.1416054171698341 0.1800995596240102 0 0.14097798318852439 0.15754922350465611 0 0.1599053163372966 0.16427322830400529 0 0.153512916127722 0.14981501955182699 0 0.14097798318852439 0.15754922350465611 0 0.1599053163372966 0.16427322830400529 0 0.1599053163372966 0.16427322830400529 0 0.16403867614919801 0.18364434643882249 0 0.1801992612362201 0.1632707349017227 0 0.1599053163372966 0.16427322830400529 0 0.1801992612362201 0.1632707349017227 0 0.16893008543900401 0.14680342696665991 0 0.18240017206001111 0.18550136146682111 0 0.1801992612362201 0.1632707349017227 0 0.19739970128467049 0.17474928446116289 0 0.16403867614919801 0.18364434643882249 0 0.18240017206001111 0.18550136146682111 0 0.1801992612362201 0.1632707349017227 0 0.1801992612362201 0.1632707349017227 0 0.18628665431016589 0.14327659845199381 0 0.16893008543900401 0.14680342696665991 0 0.18628665431016589 0.14327659845199381 0 0.18013480578677299 0.12967936467858621 0 0.16893008543900401 0.14680342696665991 0 0.18013480578677299 0.12967936467858621 0 0.166512383501948 0.13092693987361251 0 0.16909298040193599 0.1175410513812547 0 0.18013480578677299 0.12967936467858621 0 0.166512383501948 0.13092693987361251 0 0.16893008543900401 0.14680342696665991 0 0.15615972118727281 0.13674626153771871 0 0.166512383501948 0.13092693987361251 0 0.16893008543900401 0.14680342696665991 0 0.15615972118727281 0.13674626153771871 0 0.166512383501948 0.13092693987361251 0 0.1582443246947543 0.1238645948038431 0 0.15615972118727281 0.13674626153771871 0 0.153512916127722 0.14981501955182699 0 0.16893008543900401 0.14680342696665991 0 0.153512916127722 0.14981501955182699 0 0.1599053163372966 0.16427322830400529 0 0.16893008543900401 0.14680342696665991 0 0.1533826123531235 0.23813042117922001 0 0.13996902885439511 0.24243648692897191 0 0.15162992084977289 0.25377275111886888 0 0.1533826123531235 0.23813042117922001 0 0.13996902885439511 0.24243648692897191 0 0.1455383479528555 0.22446193433709191 0 0.1234336310216875 0.24610106375436591 0 0.13996902885439511 0.24243648692897191 0 0.13743083978796841 0.25666978508515631 0 0.1234336310216875 0.24610106375436591 0 0.13996902885439511 0.24243648692897191 0 0.12833088196767689 0.22867142634747459 0 0.12833088196767689 0.22867142634747459 0 0.1455383479528555 0.22446193433709191 0 0.13347011402183551 0.20527255101928829 0 0.13996902885439511 0.24243648692897191 0 0.12833088196767689 0.22867142634747459 0 0.1455383479528555 0.22446193433709191 0 0.1533826123531235 0.23813042117922001 0 0.1455383479528555 0.22446193433709191 0 0.16427643222526789 0.22576392093594591 0 0.1455383479528555 0.22446193433709191 0 0.15345760437656289 0.20279440492678399 0 0.16427643222526789 0.22576392093594591 0 0.1455383479528555 0.22446193433709191 0 0.13347011402183551 0.20527255101928829 0 0.15345760437656289 0.20279440492678399 0 0.1184575417679171 0.1820144287228383 0 0.1416054171698341 0.1800995596240102 0 0.13347011402183551 0.20527255101928829 0 0.1184575417679171 0.1820144287228383 0 0.13347011402183551 0.20527255101928829 0 0.1416054171698341 0.1800995596240102 0 0.16403867614919801 0.18364434643882249 0 0.15345760437656289 0.20279440492678399 0 0.1416054171698341 0.1800995596240102 0 0.13347011402183551 0.20527255101928829 0 0.15345760437656289 0.20279440492678399 0 0.16403867614919801 0.18364434643882249 0 0.15345760437656289 0.20279440492678399 0 0.1728157951847574 0.202988934447386 0 0.16403867614919801 0.18364434643882249 0 0.18240017206001111 0.18550136146682111 0 0.1728157951847574 0.202988934447386 0 0.18240017206001111 0.18550136146682111 0 0.1728157951847574 0.202988934447386 0 0.1949431291115066 0.19903898553093799 0 0.1728157951847574 0.202988934447386 0 0.1785504534503525 0.21854724686701599 0 0.1949431291115066 0.19903898553093799 0 0.1728157951847574 0.202988934447386 0 0.1785504534503525 0.21854724686701599 0 0.16427643222526789 0.22576392093594591 0 0.15345760437656289 0.20279440492678399 0 0.1728157951847574 0.202988934447386 0 0.16427643222526789 0.22576392093594591 0 0.1785504534503525 0.21854724686701599 0 0.16427643222526789 0.22576392093594591 0 0.17725511739191641 0.23322373319211009 0 0.17725511739191641 0.23322373319211009 0 0.18578941216523781 0.24505624012428251 0 0.19248655693834271 0.22332868660071331 0 0.1785504534503525 0.21854724686701599 0 0.17725511739191641 0.23322373319211009 0 0.19248655693834271 0.22332868660071331 0 0.17725511739191641 0.23322373319211009 0 0.17722554607520699 0.24670684421638411 0 0.165499331883326 0.2442170125752211 0 0.17725511739191641 0.23322373319211009 0 0.18578941216523781 0.24505624012428251 0 0.17722554607520699 0.24670684421638411 0 0.18578941216523781 0.24505624012428251 0 0.17722554607520699 0.24670684421638411 0 0.1884301885271753 0.24874302742368101 0 0.18578941216523781 0.24505624012428251 0 0.1884301885271753 0.24874302742368101 0 0.1533826123531235 0.23813042117922001 0 0.16427643222526789 0.22576392093594591 0 0.165499331883326 0.2442170125752211 0 0.16427643222526789 0.22576392093594591 0 0.17725511739191641 0.23322373319211009 0 0.165499331883326 0.2442170125752211 0 0.1533826123531235 0.23813042117922001 0 0.165499331883326 0.2442170125752211 0 0.15162992084977289 0.25377275111886888 0 0.21535830080797749 0.24093287941673089 0 0.19572378806554719 0.25892562013863091 0 0.21535830080797749 0.24093287941673089 0 0.19979143392529661 0.24856023388575951 0 0.21246532702218129 0.23184658049946369 0 0.21535830080797749 0.24093287941673089 0 0.19979143392529661 0.24856023388575951 0 0.19572378806554719 0.25892562013863091 0 0.18578941216523781 0.24505624012428251 0 0.19002998476517849 0.24761838767048841 0 0.19248655693834271 0.22332868660071331 0 0.19979143392529661 0.24856023388575951 0 0.19002998476517849 0.24761838767048841 0 0.21246532702218129 0.23184658049946369 0 0.19002998476517849 0.24761838767048841 0 0.21246532702218129 0.23184658049946369 0 0.19002998476517849 0.24761838767048841 0 0.19248655693834271 0.22332868660071331 0 0.19979143392529661 0.24856023388575951 0 0.19002998476517849 0.24761838767048841 0 0.1897323782073298 0.25056101415036502 0 0.18578941216523781 0.24505624012428251 0 0.1884301885271753 0.24874302742368101 0 0.19002998476517849 0.24761838767048841 0 0.1884301885271753 0.24874302742368101 0 0.19002998476517849 0.24761838767048841 0 0.1897323782073298 0.25056101415036502 0 0.1884301885271753 0.24874302742368101 0 0.1897323782073298 0.25056101415036502 0 0.1884301885271753 0.24874302742368101 0 0.19002998476517849 0.24761838767048841 0 0.19002998476517849 0.24761838767048841 0 0.1897323782073298 0.25056101415036502 0 0.19002998476517849 0.24761838767048841 0 0.19248655693834271 0.22332868660071331 0 0.21246532702218129 0.23184658049946369 0 0.19248655693834271 0.22332868660071331 0 0.21246532702218129 0.23184658049946369 0 0.21544395846263259 0.20927859546974689 0 0.1785504534503525 0.21854724686701599 0 0.19248655693834271 0.22332868660071331 0 0.1949431291115066 0.19903898553093799 0 0.19248655693834271 0.22332868660071331 0 0.1949431291115066 0.19903898553093799 0 0.19248655693834271 0.22332868660071331 0 0.21544395846263259 0.20927859546974689 0 0.1949431291115066 0.19903898553093799 0 0.1949431291115066 0.19903898553093799 0 0.22042403340045491 0.18829508007747861 0 0.20912467781481761 0.17999820005271891 0 0.21544395846263259 0.20927859546974689 0 0.1949431291115066 0.19903898553093799 0 0.22042403340045491 0.18829508007747861 0 0.21544395846263259 0.20927859546974689 0 0.22042403340045491 0.18829508007747861 0 0.2346141467756124 0.19500598301579161 0 0.2346141467756124 0.19500598301579161 0 0.24576080505334111 0.17983006675991989 0 0.25733601153618713 0.20030296615741469 0 0.2346141467756124 0.19500598301579161 0 0.23490066927918421 0.21607477332843919 0 0.25733601153618713 0.20030296615741469 0 0.23490066927918421 0.21607477332843919 0 0.24983742741469361 0.21995574559805861 0 0.25733601153618713 0.20030296615741469 0 0.23490066927918421 0.21607477332843919 0 0.25733601153618713 0.20030296615741469 0 0.21544395846263259 0.20927859546974689 0 0.2346141467756124 0.19500598301579161 0 0.23490066927918421 0.21607477332843919 0 0.21535830080797749 0.24093287941673089 0 0.21246532702218129 0.23184658049946369 0 0.23499281355040769 0.22294013869483101 0 0.21246532702218129 0.23184658049946369 0 0.23490066927918421 0.21607477332843919 0 0.21535830080797749 0.24093287941673089 0 0.23200827029147 0.23260813423530899 0 0.23499281355040769 0.22294013869483101 0 0.21246532702218129 0.23184658049946369 0 0.23490066927918421 0.21607477332843919 0 0.23499281355040769 0.22294013869483101 0 0.21535830080797749 0.24093287941673089 0 0.23499281355040769 0.22294013869483101 0 0.21246532702218129 0.23184658049946369 0 0.21544395846263259 0.20927859546974689 0 0.23490066927918421 0.21607477332843919 0 0.23490066927918421 0.21607477332843919 0 0.24168330768690791 0.22477346886400079 0 0.23499281355040769 0.22294013869483101 0 0.23490066927918421 0.21607477332843919 0 0.24168330768690791 0.22477346886400079 0 0.24983742741469361 0.21995574559805861 0 0.24168330768690791 0.22477346886400079 0 0.24983742741469361 0.21995574559805861 0 0.24860647170749631 0.23267263154699949 0 0.24168330768690791 0.22477346886400079 0 0.24860647170749631 0.23267263154699949 0 0.24007915648275771 0.23222405515167621 0 0.24168330768690791 0.22477346886400079 0 0.23499281355040769 0.22294013869483101 0 0.24007915648275771 0.23222405515167621 0 0.23200827029147 0.23260813423530899 0 0.23499281355040769 0.22294013869483101 0 0.24007915648275771 0.23222405515167621 0 0.23200827029147 0.23260813423530899 0 0.24007915648275771 0.23222405515167621 0 0.23742259821764591 0.23982424557162199 0 0.24007915648275771 0.23222405515167621 0 0.23742259821764591 0.23982424557162199 0 0.24503194863157721 0.24044642300288771 0 0.24860647170749631 0.23267263154699949 0 0.24007915648275771 0.23222405515167621 0 0.24503194863157721 0.24044642300288771 0 0.24860647170749631 0.23267263154699949 0 0.24503194863157721 0.24044642300288771 0 0.25330967369459462 0.24464425994429659 0 0.24503194863157721 0.24044642300288771 0 0.24047871785483721 0.2486360273742817 0 0.25330967369459462 0.24464425994429659 0 0.23742259821764591 0.23982424557162199 0 0.24047871785483721 0.2486360273742817 0 0.22861223412391279 0.25018045460690019 0 0.23742259821764591 0.23982424557162199 0 0.24503194863157721 0.24044642300288771 0 0.24047871785483721 0.2486360273742817 0 0.22899713646881881 0.23868435289855799 0 0.22291880817397419 0.24521899926633139 0 0.22861223412391279 0.25018045460690019 0 0.21535830080797749 0.24093287941673089 0 0.23200827029147 0.23260813423530899 0 0.22899713646881881 0.23868435289855799 0 0.23742259821764591 0.23982424557162199 0 0.22899713646881881 0.23868435289855799 0 0.22861223412391279 0.25018045460690019 0 0.23200827029147 0.23260813423530899 0 0.23742259821764591 0.23982424557162199 0 0.22899713646881881 0.23868435289855799 0 0.21535830080797749 0.24093287941673089 0 0.22899713646881881 0.23868435289855799 0 0.22291880817397419 0.24521899926633139 0 0.22291880817397419 0.24521899926633139 0 0.2187075612951879 0.25107831014313642 0 0.22861223412391279 0.25018045460690019 0 0.21535830080797749 0.24093287941673089 0 0.22291880817397419 0.24521899926633139 0 0.2187075612951879 0.25107831014313642 0 0.2173053546805801 0.14468630545148331 0 0.19985627345783441 0.15045958339138771 0 0.21131791809706749 0.16378968352197409 0 0.2173053546805801 0.14468630545148331 0 0.20231284563099819 0.1261698823216125 0 0.22997587592000049 0.1231172687524535 0 0.2173053546805801 0.14468630545148331 0 0.20231284563099819 0.1261698823216125 0 0.19985627345783441 0.15045958339138771 0 0.2173053546805801 0.14468630545148331 0 0.20231284563099819 0.1261698823216125 0 0.18628665431016589 0.14327659845199381 0 0.20231284563099819 0.1261698823216125 0 0.19985627345783441 0.15045958339138771 0 0.18628665431016589 0.14327659845199381 0 0.18013480578677299 0.12967936467858621 0 0.20231284563099819 0.1261698823216125 0 0.20231284563099819 0.1261698823216125 0 0.19985627345783441 0.15045958339138771 0 0.1801992612362201 0.1632707349017227 0 0.18628665431016589 0.14327659845199381 0 0.19985627345783441 0.15045958339138771 0 0.19985627345783441 0.15045958339138771 0 0.19739970128467049 0.17474928446116289 0 0.21131791809706749 0.16378968352197409 0 0.1801992612362201 0.1632707349017227 0 0.19985627345783441 0.15045958339138771 0 0.19739970128467049 0.17474928446116289 0 0.19985627345783441 0.15045958339138771 0 0.19739970128467049 0.17474928446116289 0 0.1949431291115066 0.19903898553093799 0 0.19739970128467049 0.17474928446116289 0 0.20912467781481761 0.17999820005271891 0 0.1949431291115066 0.19903898553093799 0 0.19739970128467049 0.17474928446116289 0 0.18240017206001111 0.18550136146682111 0 0.1949431291115066 0.19903898553093799 0 0.19739970128467049 0.17474928446116289 0 0.20912467781481761 0.17999820005271891 0 0.21131791809706749 0.16378968352197409 0 0.2215386071803884 0.17411796667204071 0 0.19739970128467049 0.17474928446116289 0 0.20912467781481761 0.17999820005271891 0 0.21131791809706749 0.16378968352197409 0 0.22042403340045491 0.18829508007747861 0 0.20912467781481761 0.17999820005271891 0 0.2215386071803884 0.17411796667204071 0 0.2173053546805801 0.14468630545148331 0 0.21131791809706749 0.16378968352197409 0 0.2235830131275702 0.16330257818838639 0 0.2173053546805801 0.14468630545148331 0 0.2235830131275702 0.16330257818838639 0 0.2322978637301624 0.16320272858135379 0 0.21131791809706749 0.16378968352197409 0 0.2235830131275702 0.16330257818838639 0 0.2215386071803884 0.17411796667204071 0 0.2235830131275702 0.16330257818838639 0 0.22750597094518471 0.17001801355487939 0 0.2215386071803884 0.17411796667204071 0 0.22750597094518471 0.17001801355487939 0 0.2322978637301624 0.16320272858135379 0 0.2338194029218747 0.17625441630175029 0 0.2235830131275702 0.16330257818838639 0 0.22750597094518471 0.17001801355487939 0 0.2322978637301624 0.16320272858135379 0 0.22042403340045491 0.18829508007747861 0 0.2346141467756124 0.19500598301579161 0 0.2338194029218747 0.17625441630175029 0 0.22042403340045491 0.18829508007747861 0 0.2215386071803884 0.17411796667204071 0 0.2338194029218747 0.17625441630175029 0 0.22750597094518471 0.17001801355487939 0 0.2215386071803884 0.17411796667204071 0 0.2338194029218747 0.17625441630175029 0 0.2322978637301624 0.16320272858135379 0 0.2338194029218747 0.17625441630175029 0 0.24576080505334111 0.17983006675991989 0 0.2346141467756124 0.19500598301579161 0 0.2338194029218747 0.17625441630175029 0 0.24576080505334111 0.17983006675991989 0 0.2322978637301624 0.16320272858135379 0 0.24576080505334111 0.17983006675991989 0 0.2322978637301624 0.16320272858135379 0 0.24576080505334111 0.17983006675991989 0 0.25141269034433628 0.16569928600416739 0 0.2322978637301624 0.16320272858135379 0 0.24587194258807171 0.14905158404663629 0 0.25141269034433628 0.16569928600416739 0 0.2322978637301624 0.16320272858135379 0 0.24587194258807171 0.14905158404663629 0 0.23353878359290969 0.1428468022709791 0 0.24587194258807171 0.14905158404663629 0 0.23353878359290969 0.1428468022709791 0 0.2448645016826331 0.1344993804399636 0 0.2322978637301624 0.16320272858135379 0 0.24587194258807171 0.14905158404663629 0 0.2173053546805801 0.14468630545148331 0 0.2322978637301624 0.16320272858135379 0 0.23353878359290969 0.1428468022709791 0 0.2173053546805801 0.14468630545148331 0 0.2322978637301624 0.16320272858135379 0 0.2173053546805801 0.14468630545148331 0 0.23353878359290969 0.1428468022709791 0 0.22997587592000049 0.1231172687524535 0 0.23353878359290969 0.1428468022709791 0 0.2448645016826331 0.1344993804399636 0 0.22997587592000049 0.1231172687524535 0 0.2448645016826331 0.1344993804399636 0 0.24384986109766579 0.12340425468974919 0 0.22997587592000049 0.1231172687524535 0 0.2448645016826331 0.1344993804399636 0 0.24384986109766579 0.12340425468974919 0 0.25497610093800638 0.12398571659301 0 0.24384986109766579 0.12340425468974919 0 0.24450628680137701 0.11228218580733181 0 0.25497610093800638 0.12398571659301 0 0.24384986109766579 0.12340425468974919 0 0.24450628680137701 0.11228218580733181 0 0.22997587592000049 0.1231172687524535 0 0.2365855257838935 0.09775344644770867 0 0.2491404277873363 0.088082738886410702 0 0.25691915416968902 0.1022140844603284 0 0.24450628680137701 0.11228218580733181 0 0.2365855257838935 0.09775344644770867 0 0.25691915416968902 0.1022140844603284 0 0.24450628680137701 0.11228218580733181 0 0.2365855257838935 0.09775344644770867 0 0.2208236635557605 0.10781105139094629 0 0.2365855257838935 0.09775344644770867 0 0.2208236635557605 0.10781105139094629 0 0.2199068732008255 0.09088455235002621 0 0.24450628680137701 0.11228218580733181 0 0.2208236635557605 0.10781105139094629 0 0.22997587592000049 0.1231172687524535 0 0.20231284563099819 0.1261698823216125 0 0.2208236635557605 0.10781105139094629 0 0.22997587592000049 0.1231172687524535 0 0.20231284563099819 0.1261698823216125 0 0.2208236635557605 0.10781105139094629 0 0.20500181799904471 0.099582291809011236 0 0.20231284563099819 0.1261698823216125 0 0.20500181799904471 0.099582291809011236 0 0.2208236635557605 0.10781105139094629 0 0.20500181799904471 0.099582291809011236 0 0.2199068732008255 0.09088455235002621 0 0.20500181799904471 0.099582291809011236 0 0.18920796000401879 0.08093069910273383 0 0.1849251928100332 0.10469534888604599 0 0.20231284563099819 0.1261698823216125 0 0.1849251928100332 0.10469534888604599 0 0.20231284563099819 0.1261698823216125 0 0.20500181799904471 0.099582291809011236 0 0.1849251928100332 0.10469534888604599 0 0.18013480578677299 0.12967936467858621 0 0.20231284563099819 0.1261698823216125 0 0.1849251928100332 0.10469534888604599 0 0.18920796000401879 0.08093069910273383 0 0.20769079036709109 0.072994701296410142 0 0.19263882345811989 0.058518199452870817 0 0.20500181799904471 0.099582291809011236 0 0.18920796000401879 0.08093069910273383 0 0.20769079036709109 0.072994701296410142 0 0.20500181799904471 0.099582291809011236 0 0.20769079036709109 0.072994701296410142 0 0.20500181799904471 0.099582291809011236 0 0.20769079036709109 0.072994701296410142 0 0.2199068732008255 0.09088455235002621 0 0.20769079036709109 0.072994701296410142 0 0.2105515451092814 0.056850031286236287 0 0.19263882345811989 0.058518199452870817 0 0.20769079036709109 0.072994701296410142 0 0.2294325682983375 0.076281270806054749 0 0.2105515451092814 0.056850031286236287 0 0.2294325682983375 0.076281270806054749 0 0.23136888024303409 0.055938518081384683 0 0.2105515451092814 0.056850031286236287 0 0.2365855257838935 0.09775344644770867 0 0.2294325682983375 0.076281270806054749 0 0.2199068732008255 0.09088455235002621 0 0.20769079036709109 0.072994701296410142 0 0.2294325682983375 0.076281270806054749 0 0.2199068732008255 0.09088455235002621 0 0.2294325682983375 0.076281270806054749 0 0.2491404277873363 0.088082738886410702 0 0.25115327748806898 0.071390602486790619 0 0.2365855257838935 0.09775344644770867 0 0.2294325682983375 0.076281270806054749 0 0.2491404277873363 0.088082738886410702 0 0.23136888024303409 0.055938518081384683 0 0.25115327748806898 0.071390602486790619 0 0.2294325682983375 0.076281270806054749 0 0.23136888024303409 0.055938518081384683 0 0.25115327748806898 0.071390602486790619 0 0.23136888024303409 0.055938518081384683 0 0.25920043295498391 0.051756052689076529 0 0.25115327748806898 0.071390602486790619 0 0.23136888024303409 0.055938518081384683 0 0.24624575751259009 0.030279239029664898 0 0.22629079762424939 0.029905207598820111 0 0.23136888024303409 0.055938518081384683 0 0.24624575751259009 0.030279239029664898 0 0.25920043295498391 0.051756052689076529 0 0.23136888024303409 0.055938518081384683 0 0.22629079762424939 0.029905207598820111 0 0.2115844829979992 0.04048643367597874 0 0.23136888024303409 0.055938518081384683 0 0.2115844829979992 0.04048643367597874 0 0.24651066935859009 0.0095266504650106734 0 0.23522116933004819 0.013523227379538229 0 0.23812321768071351 -0.0016894971423481739 0 0.24717639833345989 6.4481204013932397e-05 0 0.24651066935859009 0.0095266504650106734 0 0.25582356345651869 0.0037151648870848682 0 0.24717639833345989 6.4481204013932397e-05 0 0.24651066935859009 0.0095266504650106734 0 0.23812321768071351 -0.0016894971423481739 0 0.24651066935859009 0.0095266504650106734 0 0.23522116933004819 0.013523227379538229 0 0.24624575751259009 0.030279239029664898 0 0.23522116933004819 0.013523227379538229 0 0.24624575751259009 0.030279239029664898 0 0.22629079762424939 0.029905207598820111 0 0.24651066935859009 0.0095266504650106734 0 0.24624575751259009 0.030279239029664898 0 0.25586098751065722 0.018130948215961711 0 0.23522116933004819 0.013523227379538229 0 0.22629079762424939 0.029905207598820111 0 0.22094068594518759 0.01337949960948078 0 0.22629079762424939 0.029905207598820111 0 0.22094068594518759 0.01337949960948078 0 0.21102288790083151 0.022873264395221089 0 0.23522116933004819 0.013523227379538229 0 0.22094068594518759 0.01337949960948078 0 0.22731638315620431 0.0017916248146374911 0 0.22094068594518759 0.01337949960948078 0 0.22731638315620431 0.0017916248146374911 0 0.21641397312626279 0.0016274957474366101 0 0.23522116933004819 0.013523227379538229 0 0.22731638315620431 0.0017916248146374911 0 0.23812321768071351 -0.0016894971423481739 0 0.2093789045335295 0.01055617772123112 0 0.1976782857206405 0.0079763831757880127 0 0.20607483203477139 -3.5438949451973201e-05 0 0.21641397312626279 0.0016274957474366101 0 0.2093789045335295 0.01055617772123112 0 0.20607483203477139 -3.5438949451973201e-05 0 0.22094068594518759 0.01337949960948078 0 0.21641397312626279 0.0016274957474366101 0 0.2093789045335295 0.01055617772123112 0 0.22094068594518759 0.01337949960948078 0 0.2093789045335295 0.01055617772123112 0 0.21102288790083151 0.022873264395221089 0 0.21102288790083151 0.022873264395221089 0 0.19180008575296451 0.025034349270572499 0 0.2115844829979992 0.04048643367597874 0 0.22629079762424939 0.029905207598820111 0 0.21102288790083151 0.022873264395221089 0 0.2115844829979992 0.04048643367597874 0 0.2093789045335295 0.01055617772123112 0 0.21102288790083151 0.022873264395221089 0 0.20223669285084339 0.016663881847415001 0 0.21102288790083151 0.022873264395221089 0 0.19180008575296451 0.025034349270572499 0 0.20223669285084339 0.016663881847415001 0 0.19180008575296451 0.025034349270572499 0 0.20223669285084339 0.016663881847415001 0 0.1976782857206405 0.0079763831757880127 0 0.19180008575296451 0.025034349270572499 0 0.19445701356335421 0.033307410287202327 0 0.18721135563283331 0.031318198370768199 0 0.19180008575296451 0.025034349270572499 0 0.19445701356335421 0.033307410287202327 0 0.19180008575296451 0.025034349270572499 0 0.1976782857206405 0.0079763831757880127 0 0.18277397462901801 -0.003070881055707454 0 0.2093789045335295 0.01055617772123112 0 0.20223669285084339 0.016663881847415001 0 0.1976782857206405 0.0079763831757880127 0 0.1976782857206405 0.0079763831757880127 0 0.18277397462901801 -0.003070881055707454 0 0.1968784915338824 -0.0032127247611820108 0 0.1976782857206405 0.0079763831757880127 0 0.20607483203477139 -3.5438949451973201e-05 0 0.1968784915338824 -0.0032127247611820108 0 0.2105515451092814 0.056850031286236287 0 0.2115844829979992 0.04048643367597874 0 0.1994058071374086 0.046109608559044162 0 0.23136888024303409 0.055938518081384683 0 0.2105515451092814 0.056850031286236287 0 0.2115844829979992 0.04048643367597874 0 0.19180008575296451 0.025034349270572499 0 0.2115844829979992 0.04048643367597874 0 0.19180008575296451 0.025034349270572499 0 0.2115844829979992 0.04048643367597874 0 0.19445701356335421 0.033307410287202327 0 0.2115844829979992 0.04048643367597874 0 0.1994058071374086 0.046109608559044162 0 0.19445701356335421 0.033307410287202327 0 0.19445701356335421 0.033307410287202327 0 0.1877971705582884 0.041385968092932629 0 0.18721135563283331 0.031318198370768199 0 0.1994058071374086 0.046109608559044162 0 0.19445701356335421 0.033307410287202327 0 0.1877971705582884 0.041385968092932629 0 0.1994058071374086 0.046109608559044162 0 0.1877971705582884 0.041385968092932629 0 0.19263882345811989 0.058518199452870817 0 0.2105515451092814 0.056850031286236287 0 0.1994058071374086 0.046109608559044162 0 0.19263882345811989 0.058518199452870817 0 0.19263882345811989 0.058518199452870817 0 0.17250342420014469 0.04783840091462372 0 0.17745359540075581 0.066572837721585509 0 0.1877971705582884 0.041385968092932629 0 0.19263882345811989 0.058518199452870817 0 0.17250342420014469 0.04783840091462372 0 0.1877971705582884 0.041385968092932629 0 0.17250342420014469 0.04783840091462372 0 0.17956406531888969 0.033343996895854038 0 0.1877971705582884 0.041385968092932629 0 0.18721135563283331 0.031318198370768199 0 0.17956406531888969 0.033343996895854038 0 0.17250342420014469 0.04783840091462372 0 0.17956406531888969 0.033343996895854038 0 0.17033227899651171 0.032958868923906252 0 0.17250342420014469 0.04783840091462372 0 0.15808735592875969 0.032445545883588757 0 0.1466613540876627 0.044376904506821663 0 0.17250342420014469 0.04783840091462372 0 0.17033227899651171 0.032958868923906252 0 0.15808735592875969 0.032445545883588757 0 0.17250342420014469 0.04783840091462372 0 0.1501498871681031 0.061746282014912883 0 0.17745359540075581 0.066572837721585509 0 0.17250342420014469 0.04783840091462372 0 0.1501498871681031 0.061746282014912883 0 0.1466613540876627 0.044376904506821663 0 0.19180008575296451 0.025034349270572499 0 0.18277397462901801 -0.003070881055707454 0 0.19180008575296451 0.025034349270572499 0 0.17378020093490079 0.01096039100255999 0 0.18277397462901801 -0.003070881055707454 0 0.17378020093490079 0.01096039100255999 0 0.18277397462901801 -0.003070881055707454 0 0.1692383706313218 -0.0029367958741170052 0 0.19180008575296451 0.025034349270572499 0 0.17378020093490079 0.01096039100255999 0 0.18136601278371739 0.024357657149841821 0 0.19180008575296451 0.025034349270572499 0 0.17378020093490079 0.01096039100255999 0 0.17378020093490079 0.01096039100255999 0 0.17393814118552231 0.021550545130735559 0 0.18136601278371739 0.024357657149841821 0 0.19180008575296451 0.025034349270572499 0 0.18721135563283331 0.031318198370768199 0 0.18136601278371739 0.024357657149841821 0 0.18721135563283331 0.031318198370768199 0 0.17956406531888969 0.033343996895854038 0 0.18136601278371739 0.024357657149841821 0 0.17956406531888969 0.033343996895854038 0 0.17033227899651171 0.032958868923906252 0 0.17393814118552231 0.021550545130735559 0 0.17956406531888969 0.033343996895854038 0 0.17393814118552231 0.021550545130735559 0 0.18136601278371739 0.024357657149841821 0 0.17033227899651171 0.032958868923906252 0 0.15808735592875969 0.032445545883588757 0 0.17393814118552231 0.021550545130735559 0 0.17393814118552231 0.021550545130735559 0 0.1606244042689107 0.0092316424857115161 0 0.14932743582803651 0.01619167563198836 0 0.17393814118552231 0.021550545130735559 0 0.14932743582803651 0.01619167563198836 0 0.15808735592875969 0.032445545883588757 0 0.17393814118552231 0.021550545130735559 0 0.14932743582803651 0.01619167563198836 0 0.17378020093490079 0.01096039100255999 0 0.15576031611683741 -0.0031135672654528379 0 0.17378020093490079 0.01096039100255999 0 0.1606244042689107 0.0092316424857115161 0 0.15576031611683741 -0.0031135672654528379 0 0.17378020093490079 0.01096039100255999 0 0.15576031611683741 -0.0031135672654528379 0 0.1692383706313218 -0.0029367958741170052 0 0.17378020093490079 0.01096039100255999 0 0.17393814118552231 0.021550545130735559 0 0.1606244042689107 0.0092316424857115161 0 0.1606244042689107 0.0092316424857115161 0 0.14932743582803651 0.01619167563198836 0 0.15576031611683741 -0.0031135672654528379 0 0.14932743582803651 0.01619167563198836 0 0.15576031611683741 -0.0031135672654528379 0 0.1383395857447301 -0.0021895860680983272 0 0.15808735592875969 0.032445545883588757 0 0.14932743582803651 0.01619167563198836 0 0.13789454129609499 0.028552322483745389 0 0.1247167304705508 0.010832806133241181 0 0.14932743582803651 0.01619167563198836 0 0.13789454129609499 0.028552322483745389 0 0.1187201190948507 0.0275828540440872 0 0.1247167304705508 0.010832806133241181 0 0.13789454129609499 0.028552322483745389 0 0.1247167304705508 0.010832806133241181 0 0.12099230233569511 -0.0076438222115242128 0 0.1383395857447301 -0.0021895860680983272 0 0.1247167304705508 0.010832806133241181 0 0.14932743582803651 0.01619167563198836 0 0.1383395857447301 -0.0021895860680983272 0 0.1247167304705508 0.010832806133241181 0 0.14932743582803651 0.01619167563198836 0 0.1501498871681031 0.061746282014912883 0 0.1466613540876627 0.044376904506821663 0 0.1315261100014129 0.05413030454013297 0 0.15808735592875969 0.032445545883588757 0 0.13789454129609499 0.028552322483745389 0 0.1466613540876627 0.044376904506821663 0 0.1466613540876627 0.044376904506821663 0 0.12988814267760149 0.038695275487615872 0 0.1315261100014129 0.05413030454013297 0 0.1187201190948507 0.0275828540440872 0 0.13789454129609499 0.028552322483745389 0 0.12988814267760149 0.038695275487615872 0 0.13789454129609499 0.028552322483745389 0 0.1466613540876627 0.044376904506821663 0 0.12988814267760149 0.038695275487615872 0 0.1196089951785259 0.044102697575023567 0 0.12988814267760149 0.038695275487615872 0 0.1315261100014129 0.05413030454013297 0 0.1501498871681031 0.061746282014912883 0 0.1315261100014129 0.05413030454013297 0 0.13036760658061899 0.070962797443137562 0 0.1154732520916749 0.062671031976323774 0 0.1315261100014129 0.05413030454013297 0 0.13036760658061899 0.070962797443137562 0 0.13036760658061899 0.070962797443137562 0 0.14492722514615969 0.079006530696623542 0 0.13579713795649981 0.08122161625230967 0 0.1501498871681031 0.061746282014912883 0 0.13036760658061899 0.070962797443137562 0 0.14492722514615969 0.079006530696623542 0 0.1501498871681031 0.061746282014912883 0 0.14492722514615969 0.079006530696623542 0 0.16753753998906809 0.083220815450479407 0 0.14969613598196499 0.090667067458415296 0 0.14492722514615969 0.079006530696623542 0 0.16753753998906809 0.083220815450479407 0 0.14969613598196499 0.090667067458415296 0 0.14492722514615969 0.079006530696623542 0 0.13938456794295981 0.087009094743788054 0 0.14969613598196499 0.090667067458415296 0 0.13938456794295981 0.087009094743788054 0 0.14069688539782349 0.097597883033481492 0 0.13036760658061899 0.070962797443137562 0 0.13579713795649981 0.08122161625230967 0 0.12850915215626041 0.087908042125689534 0 0.13938456794295981 0.087009094743788054 0 0.12850915215626041 0.087908042125689534 0 0.14069688539782349 0.097597883033481492 0 0.14492722514615969 0.079006530696623542 0 0.13938456794295981 0.087009094743788054 0 0.13579713795649981 0.08122161625230967 0 0.13938456794295981 0.087009094743788054 0 0.13579713795649981 0.08122161625230967 0 0.12850915215626041 0.087908042125689534 0 0.12850915215626041 0.087908042125689534 0 0.14154505222084551 0.1131450522750556 0 0.14069688539782349 0.097597883033481492 0 0.1235525662917519 0.094843792733770374 0 0.13193622004765179 0.1073430053038969 0 0.14154505222084551 0.1131450522750556 0 0.1235525662917519 0.094843792733770374 0 0.12850915215626041 0.087908042125689534 0 0.14154505222084551 0.1131450522750556 0 0.1235525662917519 0.094843792733770374 0 0.14154505222084551 0.1131450522750556 0 0.12850915215626041 0.087908042125689534 0 0.14154505222084551 0.1131450522750556 0 0.12443498868786131 0.10435092231849399 0 0.1235525662917519 0.094843792733770374 0 0.12787800311279149 0.1055586581322166 0 0.1235525662917519 0.094843792733770374 0 0.12787800311279149 0.1055586581322166 0 0.13193622004765179 0.1073430053038969 0 0.12443498868786131 0.10435092231849399 0 0.12652054665688381 0.10933001811694849 0 0.12787800311279149 0.1055586581322166 0 0.12652054665688381 0.10933001811694849 0 0.12787800311279149 0.1055586581322166 0 0.1311632874966473 0.1110315949634785 0 0.12787800311279149 0.1055586581322166 0 0.13193622004765179 0.1073430053038969 0 0.1311632874966473 0.1110315949634785 0 0.1307855330247745 0.1259389066106861 0 0.12763197277894081 0.11781167857102071 0 0.13492317614367141 0.11835973132643821 0 0.1220698967109084 0.1236756188201347 0 0.1307855330247745 0.1259389066106861 0 0.12763197277894081 0.11781167857102071 0 0.12763197277894081 0.11781167857102071 0 0.13134254399124071 0.1148012774798695 0 0.13492317614367141 0.11835973132643821 0 0.12763197277894081 0.11781167857102071 0 0.13134254399124071 0.1148012774798695 0 0.12834649202690029 0.1132687178935559 0 0.13134254399124071 0.1148012774798695 0 0.1311632874966473 0.1110315949634785 0 0.1340829431517869 0.1142366747789149 0 0.124140281621065 0.113039143236951 0 0.12763197277894081 0.11781167857102071 0 0.12834649202690029 0.1132687178935559 0 0.12652054665688381 0.10933001811694849 0 0.12834649202690029 0.1132687178935559 0 0.1311632874966473 0.1110315949634785 0 0.124140281621065 0.113039143236951 0 0.12652054665688381 0.10933001811694849 0 0.12834649202690029 0.1132687178935559 0 0.13134254399124071 0.1148012774798695 0 0.12834649202690029 0.1132687178935559 0 0.1311632874966473 0.1110315949634785 0 0.13193622004765179 0.1073430053038969 0 0.1355421911162229 0.1121359284149635 0 0.14154505222084551 0.1131450522750556 0 0.1311632874966473 0.1110315949634785 0 0.1355421911162229 0.1121359284149635 0 0.1340829431517869 0.1142366747789149 0 0.13193622004765179 0.1073430053038969 0 0.1311632874966473 0.1110315949634785 0 0.1355421911162229 0.1121359284149635 0 0.13891409209252259 0.1167488875625763 0 0.13744351701115201 0.1148548417098247 0 0.13492317614367141 0.11835973132643821 0 0.1355421911162229 0.1121359284149635 0 0.13744351701115201 0.1148548417098247 0 0.14154505222084551 0.1131450522750556 0 0.13891409209252259 0.1167488875625763 0 0.13744351701115201 0.1148548417098247 0 0.14154505222084551 0.1131450522750556 0 0.13134254399124071 0.1148012774798695 0 0.1340829431517869 0.1142366747789149 0 0.13492317614367141 0.11835973132643821 0 0.13744351701115201 0.1148548417098247 0 0.1340829431517869 0.1142366747789149 0 0.13492317614367141 0.11835973132643821 0 0.1355421911162229 0.1121359284149635 0 0.13744351701115201 0.1148548417098247 0 0.1340829431517869 0.1142366747789149 0 0.13846535559192041 0.12870578789646839 0 0.1366893450621581 0.12344344043333361 0 0.14174462299442139 0.1206359249389867 0 0.13492317614367141 0.11835973132643821 0 0.1366893450621581 0.12344344043333361 0 0.14174462299442139 0.1206359249389867 0 0.13891409209252259 0.1167488875625763 0 0.13492317614367141 0.11835973132643821 0 0.14174462299442139 0.1206359249389867 0 0.1307855330247745 0.1259389066106861 0 0.13492317614367141 0.11835973132643821 0 0.1366893450621581 0.12344344043333361 0 0.14773787989578299 0.12513413274601151 0 0.14174462299442139 0.1206359249389867 0 0.14154505222084551 0.1131450522750556 0 0.13846535559192041 0.12870578789646839 0 0.14773787989578299 0.12513413274601151 0 0.14174462299442139 0.1206359249389867 0 0.14773787989578299 0.12513413274601151 0 0.14154505222084551 0.1131450522750556 0 0.14773787989578299 0.12513413274601151 0 0.14154505222084551 0.1131450522750556 0 0.15013252750136649 0.1170678415205629 0 0.14154505222084551 0.1131450522750556 0 0.14547202388252439 0.110062193991074 0 0.15013252750136649 0.1170678415205629 0 0.14154505222084551 0.1131450522750556 0 0.14547202388252439 0.110062193991074 0 0.14532691530757669 0.10496855068090059 0 0.13891409209252259 0.1167488875625763 0 0.14174462299442139 0.1206359249389867 0 0.14154505222084551 0.1131450522750556 0 0.1509023363852352 0.1111666383775296 0 0.15013252750136649 0.1170678415205629 0 0.15802197320198361 0.1110448726881772 0 0.14547202388252439 0.110062193991074 0 0.1509023363852352 0.1111666383775296 0 0.15013252750136649 0.1170678415205629 0 0.15013252750136649 0.1170678415205629 0 0.1582443246947543 0.1238645948038431 0 0.15802197320198361 0.1110448726881772 0 0.14773787989578299 0.12513413274601151 0 0.15013252750136649 0.1170678415205629 0 0.1582443246947543 0.1238645948038431 0 0.14969613598196499 0.090667067458415296 0 0.14069688539782349 0.097597883033481492 0 0.148561843625474 0.098979471336786307 0 0.14069688539782349 0.097597883033481492 0 0.14532691530757669 0.10496855068090059 0 0.148561843625474 0.098979471336786307 0 0.14154505222084551 0.1131450522750556 0 0.14069688539782349 0.097597883033481492 0 0.14532691530757669 0.10496855068090059 0 0.14547202388252439 0.110062193991074 0 0.14532691530757669 0.10496855068090059 0 0.1504795727546151 0.1056234766060712 0 0.14532691530757669 0.10496855068090059 0 0.1504795727546151 0.1056234766060712 0 0.148561843625474 0.098979471336786307 0 0.1504795727546151 0.1056234766060712 0 0.15718955513370389 0.098753933327298829 0 0.15802197320198361 0.1110448726881772 0 0.14547202388252439 0.110062193991074 0 0.1509023363852352 0.1111666383775296 0 0.1504795727546151 0.1056234766060712 0 0.1509023363852352 0.1111666383775296 0 0.1504795727546151 0.1056234766060712 0 0.15802197320198361 0.1110448726881772 0 0.1504795727546151 0.1056234766060712 0 0.148561843625474 0.098979471336786307 0 0.15718955513370389 0.098753933327298829 0 0.14969613598196499 0.090667067458415296 0 0.148561843625474 0.098979471336786307 0 0.15718955513370389 0.098753933327298829 0 0.15718955513370389 0.098753933327298829 0 0.16823045891010119 0.102966279493475 0 0.16753753998906809 0.083220815450479407 0 0.15718955513370389 0.098753933327298829 0 0.16823045891010119 0.102966279493475 0 0.15802197320198361 0.1110448726881772 0 0.1582443246947543 0.1238645948038431 0 0.15802197320198361 0.1110448726881772 0 0.16909298040193599 0.1175410513812547 0 0.16823045891010119 0.102966279493475 0 0.15802197320198361 0.1110448726881772 0 0.16909298040193599 0.1175410513812547 0 0.166512383501948 0.13092693987361251 0 0.1582443246947543 0.1238645948038431 0 0.16909298040193599 0.1175410513812547 0 0.18013480578677299 0.12967936467858621 0 0.16909298040193599 0.1175410513812547 0 0.1849251928100332 0.10469534888604599 0 0.1849251928100332 0.10469534888604599 0 0.16753753998906809 0.083220815450479407 0 0.16823045891010119 0.102966279493475 0 0.16909298040193599 0.1175410513812547 0 0.1849251928100332 0.10469534888604599 0 0.16823045891010119 0.102966279493475 0 0.1849251928100332 0.10469534888604599 0 0.16753753998906809 0.083220815450479407 0 0.18920796000401879 0.08093069910273383 0 0.1849251928100332 0.10469534888604599 0 0.16753753998906809 0.083220815450479407 0 0.18920796000401879 0.08093069910273383 0 0.17745359540075581 0.066572837721585509 0 0.16753753998906809 0.083220815450479407 0 0.18920796000401879 0.08093069910273383 0 0.19263882345811989 0.058518199452870817 0 0.17745359540075581 0.066572837721585509 0 0.1501498871681031 0.061746282014912883 0 0.16753753998906809 0.083220815450479407 0 0.1501498871681031 0.061746282014912883 0 0.17745359540075581 0.066572837721585509 0 0.16753753998906809 0.083220815450479407 0 0.14969613598196499 0.090667067458415296 0 0.15718955513370389 0.098753933327298829 0 0.16753753998906809 0.083220815450479407 0 0.1106263555985673 0.48027709636209709 0 0.121408580388725 0.47105972041901129 0 0.095351808149899964 0.46802874341333162 0 0.121408580388725 0.47105972041901129 0 0.095351808149899964 0.46802874341333162 0 0.098523745474359326 0.48206654397267112 0 0.1106263555985673 0.48027709636209709 0 0.095351808149899964 0.46802874341333162 0 0.098523745474359326 0.48206654397267112 0 0.095351808149899964 0.46802874341333162 0 0.088518693936962212 0.48246493721424122 0 0.104201395826134 0.49352886709883897 0 0.1230923811484 0.499999999999999 0 0.093533975098162969 0.5 0 0.098523745474359326 0.48206654397267112 0 0.094535020997787197 0.48877302449748578 0 0.088518693936962212 0.48246493721424122 0 0.098523745474359326 0.48206654397267112 0 0.094535020997787197 0.48877302449748578 0 0.10290852793567121 0.49115018624989121 0 0.104201395826134 0.49352886709883897 0 0.10290852793567121 0.49115018624989121 0 0.1188004819222136 0.48908362133956462 0 0.094535020997787197 0.48877302449748578 0 0.104201395826134 0.49352886709883897 0 0.10290852793567121 0.49115018624989121 0 0.098523745474359326 0.48206654397267112 0 0.10290852793567121 0.49115018624989121 0 0.1106263555985673 0.48027709636209709 0 0.104201395826134 0.49352886709883897 0 0.1188004819222136 0.48908362133956462 0 0.12988004983645901 0.49240314624589182 0 0.10290852793567121 0.49115018624989121 0 0.1188004819222136 0.48908362133956462 0 0.1106263555985673 0.48027709636209709 0 0.104201395826134 0.49352886709883897 0 0.1230923811484 0.499999999999999 0 0.12988004983645901 0.49240314624589182 0 0.104201395826134 0.49352886709883897 0 0.12988004983645901 0.49240314624589182 0 0.10290852793567121 0.49115018624989121 0 0.1188004819222136 0.48908362133956462 0 0.1188004819222136 0.48908362133956462 0 0.1106263555985673 0.48027709636209709 0 0.12534223969395061 0.480529939251091 0 0.1106263555985673 0.48027709636209709 0 0.121408580388725 0.47105972041901129 0 0.12534223969395061 0.480529939251091 0 0.121408580388725 0.47105972041901129 0 0.1174448072519568 0.45262005047452919 0 0.1286450609868573 0.45754986806268189 0 0.121408580388725 0.47105972041901129 0 0.1174448072519568 0.45262005047452919 0 0.1019192561361569 0.45310256589492581 0 0.1174448072519568 0.45262005047452919 0 0.12785470135571081 0.43950284955902769 0 0.1286450609868573 0.45754986806268189 0 0.1174448072519568 0.45262005047452919 0 0.1065277323740773 0.43893506330372489 0 0.12785470135571081 0.43950284955902769 0 0.1065277323740773 0.43893506330372489 0 0.12785470135571081 0.43950284955902769 0 0.1065277323740773 0.43893506330372489 0 0.1019192561361569 0.45310256589492581 0 0.089056278147924564 0.44631225863580393 0 0.1174448072519568 0.45262005047452919 0 0.1065277323740773 0.43893506330372489 0 0.1019192561361569 0.45310256589492581 0 0.121408580388725 0.47105972041901129 0 0.1019192561361569 0.45310256589492581 0 0.095351808149899964 0.46802874341333162 0 0.1019192561361569 0.45310256589492581 0 0.095351808149899964 0.46802874341333162 0 0.089056278147924564 0.44631225863580393 0 0.095351808149899964 0.46802874341333162 0 0.075298107559037111 0.45153425208744402 0 0.069295035911074818 0.46499776640765178 0 0.095351808149899964 0.46802874341333162 0 0.069295035911074818 0.46499776640765178 0 0.095351808149899964 0.46802874341333162 0 0.089056278147924564 0.44631225863580393 0 0.075298107559037111 0.45153425208744402 0 0.089056278147924564 0.44631225863580393 0 0.068178190026198238 0.44082736920399812 0 0.087062574642177995 0.42544555791139921 0 0.089056278147924564 0.44631225863580393 0 0.075298107559037111 0.45153425208744402 0 0.068178190026198238 0.44082736920399812 0 0.075298107559037111 0.45153425208744402 0 0.068178190026198238 0.44082736920399812 0 0.065516284726632165 0.45339214204892281 0 0.075298107559037111 0.45153425208744402 0 0.065516284726632165 0.45339214204892281 0 0.069295035911074818 0.46499776640765178 0 0.069295035911074818 0.46499776640765178 0 0.074033247621453926 0.47978748301136692 0 0.0536069163600928 0.48098339470097212 0 0.095351808149899964 0.46802874341333162 0 0.069295035911074818 0.46499776640765178 0 0.074033247621453926 0.47978748301136692 0 0.095351808149899964 0.46802874341333162 0 0.074033247621453926 0.47978748301136692 0 0.088518693936962212 0.48246493721424122 0 0.104201395826134 0.49352886709883897 0 0.093533975098162969 0.5 0 0.078522741815809149 0.49465458795178641 0 0.093533975098162969 0.5 0 0.078522741815809149 0.49465458795178641 0 0.063975569047925882 0.49999999999998052 0 0.094535020997787197 0.48877302449748578 0 0.104201395826134 0.49352886709883897 0 0.078522741815809149 0.49465458795178641 0 0.094535020997787197 0.48877302449748578 0 0.088518693936962212 0.48246493721424122 0 0.078522741815809149 0.49465458795178641 0 0.104201395826134 0.49352886709883897 0 0.078522741815809149 0.49465458795178641 0 0.074033247621453926 0.47978748301136692 0 0.088518693936962212 0.48246493721424122 0 0.078522741815809149 0.49465458795178641 0 0.074033247621453926 0.47978748301136692 0 0.078522741815809149 0.49465458795178641 0 0.063975569047925882 0.49999999999998052 0 0.074033247621453926 0.47978748301136692 0 0.063975569047925882 0.49999999999998052 0 0.0536069163600928 0.48098339470097212 0 0.063975569047925882 0.49999999999998052 0 0.0536069163600928 0.48098339470097212 0 0.044098344783773717 0.50000000000000189 0 0.063975569047925882 0.49999999999998052 0 0.0536069163600928 0.48098339470097212 0 0.069295035911074818 0.46499776640765178 0 0.0536069163600928 0.48098339470097212 0 0.043238263672249998 0.46196678940196911 0 0.0536069163600928 0.48098339470097212 0 0.043238263672249998 0.46196678940196911 0 0.0536069163600928 0.48098339470097212 0 0.035086589247885457 0.47290118506672901 0 0.043238263672249998 0.46196678940196911 0 0.0536069163600928 0.48098339470097212 0 0.035086589247885457 0.47290118506672901 0 0.03952746598726304 0.48446186161704208 0 0.035086589247885457 0.47290118506672901 0 0.03952746598726304 0.48446186161704208 0 0.025057459087337839 0.48348741038518223 0 0.0536069163600928 0.48098339470097212 0 0.044098344783773717 0.50000000000000189 0 0.03952746598726304 0.48446186161704208 0 0.044098344783773717 0.50000000000000189 0 0.03952746598726304 0.48446186161704208 0 0.025057459087337839 0.48348741038518223 0 0.044098344783773717 0.50000000000000189 0 0.025057459087337839 0.48348741038518223 0 0.01936784101939781 0.5 0 0.025057459087337839 0.48348741038518223 0 0.0067487602434605949 0.48597569081655001 0 0.044098344783773717 0.50000000000000189 0 0.01936784101939781 0.5 0 0.025057459087337839 0.48348741038518223 0 0.035086589247885457 0.47290118506672901 0 0.025057459087337839 0.48348741038518223 0 0.024889253931178471 0.45983239508434759 0 0.025057459087337839 0.48348741038518223 0 0.0060165733909027727 0.46697482077036129 0 0.024889253931178471 0.45983239508434759 0 -0.0093840284783354815 0.48249154585877091 0 0.0067487602434605949 0.48597569081655001 0 0.0060165733909027727 0.46697482077036129 0 0.025057459087337839 0.48348741038518223 0 0.0067487602434605949 0.48597569081655001 0 0.0060165733909027727 0.46697482077036129 0 0.025057459087337839 0.48348741038518223 0 0.0060165733909027727 0.46697482077036129 0 -0.0053626627449780973 0.5 0 0.01936784101939781 0.5 0 0.0067487602434605949 0.48597569081655001 0 0.0097611487264646687 0.44997406433166343 0 0.0060165733909027727 0.46697482077036129 0 0.024889253931178471 0.45983239508434759 0 -0.01301859844821714 0.44978255970770742 0 0.0097611487264646687 0.44997406433166343 0 0.0060165733909027727 0.46697482077036129 0 0.0097611487264646687 0.44997406433166343 0 0.024889253931178471 0.45983239508434759 0 0.036823371892781627 0.45020157084573492 0 0.0097611487264646687 0.44997406433166343 0 0.036823371892781627 0.45020157084573492 0 0.0097611487264646687 0.44997406433166343 0 0.036823371892781627 0.45020157084573492 0 0.02274075449034723 0.42437337650059198 0 0.036823371892781627 0.45020157084573492 0 0.053755326848026017 0.45034391428973358 0 0.036823371892781627 0.45020157084573492 0 0.045834774244473221 0.44195129507917202 0 0.053755326848026017 0.45034391428973358 0 0.036823371892781627 0.45020157084573492 0 0.049293805410218487 0.45620918049659698 0 0.053755326848026017 0.45034391428973358 0 0.036606974779265618 0.43759239662503768 0 0.036823371892781627 0.45020157084573492 0 0.045834774244473221 0.44195129507917202 0 0.024889253931178471 0.45983239508434759 0 0.036823371892781627 0.45020157084573492 0 0.043238263672249998 0.46196678940196911 0 0.035086589247885457 0.47290118506672901 0 0.024889253931178471 0.45983239508434759 0 0.043238263672249998 0.46196678940196911 0 0.024889253931178471 0.45983239508434759 0 0.043238263672249998 0.46196678940196911 0 0.036823371892781627 0.45020157084573492 0 0.043238263672249998 0.46196678940196911 0 0.049293805410218487 0.45620918049659698 0 0.036823371892781627 0.45020157084573492 0 0.043238263672249998 0.46196678940196911 0 0.069295035911074818 0.46499776640765178 0 0.043238263672249998 0.46196678940196911 0 0.065516284726632165 0.45339214204892281 0 0.069295035911074818 0.46499776640765178 0 0.049293805410218487 0.45620918049659698 0 0.069295035911074818 0.46499776640765178 0 0.043238263672249998 0.46196678940196911 0 0.049293805410218487 0.45620918049659698 0 0.068178190026198238 0.44082736920399812 0 0.049293805410218487 0.45620918049659698 0 0.068178190026198238 0.44082736920399812 0 0.049293805410218487 0.45620918049659698 0 0.053755326848026017 0.45034391428973358 0 0.068178190026198238 0.44082736920399812 0 0.065516284726632165 0.45339214204892281 0 0.049293805410218487 0.45620918049659698 0 0.045834774244473221 0.44195129507917202 0 0.053755326848026017 0.45034391428973358 0 0.055465242072494578 0.44153699345798142 0 0.045834774244473221 0.44195129507917202 0 0.055465242072494578 0.44153699345798142 0 0.054092677171280863 0.43302539525902201 0 0.068178190026198238 0.44082736920399812 0 0.055465242072494578 0.44153699345798142 0 0.054092677171280863 0.43302539525902201 0 0.068178190026198238 0.44082736920399812 0 0.053755326848026017 0.45034391428973358 0 0.055465242072494578 0.44153699345798142 0 0.054092677171280863 0.43302539525902201 0 0.053220162473008557 0.41819357125587131 0 0.066385186137223842 0.42514219597371489 0 0.054092677171280863 0.43302539525902201 0 0.053220162473008557 0.41819357125587131 0 0.044808541621617112 0.42818267912551439 0 0.045834774244473221 0.44195129507917202 0 0.054092677171280863 0.43302539525902201 0 0.044808541621617112 0.42818267912551439 0 0.053220162473008557 0.41819357125587131 0 0.051689953603909343 0.40265153965670047 0 0.0698920956144225 0.40990361895942468 0 0.053220162473008557 0.41819357125587131 0 0.034288119440057253 0.41015073740846869 0 0.051689953603909343 0.40265153965670047 0 0.053220162473008557 0.41819357125587131 0 0.034288119440057253 0.41015073740846869 0 0.044808541621617112 0.42818267912551439 0 0.036606974779265618 0.43759239662503768 0 0.036823371892781627 0.45020157084573492 0 0.02274075449034723 0.42437337650059198 0 0.036606974779265618 0.43759239662503768 0 0.034288119440057253 0.41015073740846869 0 0.044808541621617112 0.42818267912551439 0 0.036606974779265618 0.43759239662503768 0 0.034288119440057253 0.41015073740846869 0 0.036606974779265618 0.43759239662503768 0 0.045834774244473221 0.44195129507917202 0 0.044808541621617112 0.42818267912551439 0 0.036823371892781627 0.45020157084573492 0 0.02274075449034723 0.42437337650059198 0 0.036606974779265618 0.43759239662503768 0 0.034288119440057253 0.41015073740846869 0 0.02274075449034723 0.42437337650059198 0 0.034288119440057253 0.41015073740846869 0 0.02274075449034723 0.42437337650059198 0 0.024737438738249028 0.39713897942529341 0 0.02274075449034723 0.42437337650059198 0 0.0086581370879179401 0.39854518215544638 0 0.024737438738249028 0.39713897942529341 0 0.02274075449034723 0.42437337650059198 0 0.0086581370879179401 0.39854518215544638 0 -0.00074221871097843097 0.41583171984994571 0 0.02274075449034723 0.42437337650059198 0 0.0086581370879179401 0.39854518215544638 0 -0.0052094923632051964 0.43526164348507312 0 0.0097611487264646687 0.44997406433166343 0 0.02274075449034723 0.42437337650059198 0 -0.0052094923632051964 0.43526164348507312 0 -0.00074221871097843097 0.41583171984994571 0 0.02274075449034723 0.42437337650059198 0 -0.0054244803145113568 0.37271698781030083 0 0.0086581370879179401 0.39854518215544638 0 -0.0054244803145113568 0.37271698781030083 0 0.012023545338913691 0.38019721452175748 0 0.0086581370879179401 0.39854518215544638 0 0.012023545338913691 0.38019721452175748 0 0.0086581370879179401 0.39854518215544638 0 0.024737438738249028 0.39713897942529341 0 0.034288119440057253 0.41015073740846869 0 0.024737438738249028 0.39713897942529341 0 0.031969264100848903 0.38270907819189981 0 0.012023545338913691 0.38019721452175748 0 0.031969264100848903 0.38270907819189981 0 0.02198397614293052 0.36800230443547283 0 0.012023545338913691 0.38019721452175748 0 0.024737438738249028 0.39713897942529341 0 0.031969264100848903 0.38270907819189981 0 0.031969264100848903 0.38270907819189981 0 0.041750593661710841 0.39522047037648361 0 0.049055037502027901 0.38537052624886542 0 0.031969264100848903 0.38270907819189981 0 0.049055037502027901 0.38537052624886542 0 0.046226931726559457 0.36877712164041049 0 0.034288119440057253 0.41015073740846869 0 0.041750593661710841 0.39522047037648361 0 0.051689953603909343 0.40265153965670047 0 0.034288119440057253 0.41015073740846869 0 0.031969264100848903 0.38270907819189981 0 0.034288119440057253 0.41015073740846869 0 0.031969264100848903 0.38270907819189981 0 0.041750593661710841 0.39522047037648361 0 0.051689953603909343 0.40265153965670047 0 0.068211354738785951 0.38920909274699739 0 0.041750593661710841 0.39522047037648361 0 0.051689953603909343 0.40265153965670047 0 0.049055037502027901 0.38537052624886542 0 0.051689953603909343 0.40265153965670047 0 0.049055037502027901 0.38537052624886542 0 0.068211354738785951 0.38920909274699739 0 0.049055037502027901 0.38537052624886542 0 0.068211354738785951 0.38920909274699739 0 0.055961316346105967 0.37465514013013779 0 0.049055037502027901 0.38537052624886542 0 0.055961316346105967 0.37465514013013779 0 0.046226931726559457 0.36877712164041049 0 0.068211354738785951 0.38920909274699739 0 0.084732755873662524 0.37576664583729441 0 0.068211354738785951 0.38920909274699739 0 0.084732755873662524 0.37576664583729441 0 0.067336427426070239 0.37387815969201321 0 0.068211354738785951 0.38920909274699739 0 0.067336427426070239 0.37387815969201321 0 0.055961316346105967 0.37465514013013779 0 0.084732755873662524 0.37576664583729441 0 0.088118701797666843 0.3968021470314424 0 0.1049862825198123 0.38378517115871441 0 0.068211354738785951 0.38920909274699739 0 0.084732755873662524 0.37576664583729441 0 0.088118701797666843 0.3968021470314424 0 0.051689953603909343 0.40265153965670047 0 0.068211354738785951 0.38920909274699739 0 0.0698920956144225 0.40990361895942468 0 0.068211354738785951 0.38920909274699739 0 0.088118701797666843 0.3968021470314424 0 0.0698920956144225 0.40990361895942468 0 0.053220162473008557 0.41819357125587131 0 0.0698920956144225 0.40990361895942468 0 0.066385186137223842 0.42514219597371489 0 0.0698920956144225 0.40990361895942468 0 0.066385186137223842 0.42514219597371489 0 0.087062574642177995 0.42544555791139921 0 0.068178190026198238 0.44082736920399812 0 0.087062574642177995 0.42544555791139921 0 0.068178190026198238 0.44082736920399812 0 0.054092677171280863 0.43302539525902201 0 0.066385186137223842 0.42514219597371489 0 0.068178190026198238 0.44082736920399812 0 0.066385186137223842 0.42514219597371489 0 0.087062574642177995 0.42544555791139921 0 0.088118701797666843 0.3968021470314424 0 0.0698920956144225 0.40990361895942468 0 0.087062574642177995 0.42544555791139921 0 0.088118701797666843 0.3968021470314424 0 0.087062574642177995 0.42544555791139921 0 0.10594695925815779 0.41006374661880018 0 0.087062574642177995 0.42544555791139921 0 0.10594695925815779 0.41006374661880018 0 0.1065277323740773 0.43893506330372489 0 0.087062574642177995 0.42544555791139921 0 0.10594695925815779 0.41006374661880018 0 0.1065277323740773 0.43893506330372489 0 0.089056278147924564 0.44631225863580393 0 0.087062574642177995 0.42544555791139921 0 0.1065277323740773 0.43893506330372489 0 0.1198842365433561 0.42615372480141478 0 0.12785470135571081 0.43950284955902769 0 0.1065277323740773 0.43893506330372489 0 0.10594695925815779 0.41006374661880018 0 0.1198842365433561 0.42615372480141478 0 0.10594695925815779 0.41006374661880018 0 0.1198842365433561 0.42615372480141478 0 0.12566592962473269 0.41323834399045301 0 0.10594695925815779 0.41006374661880018 0 0.12483134387413761 0.39468193532620122 0 0.10594695925815779 0.41006374661880018 0 0.12483134387413761 0.39468193532620122 0 0.12566592962473269 0.41323834399045301 0 0.10594695925815779 0.41006374661880018 0 0.12483134387413761 0.39468193532620122 0 0.1049862825198123 0.38378517115871441 0 0.12483134387413761 0.39468193532620122 0 0.1049862825198123 0.38378517115871441 0 0.1224849427493289 0.37081216148059848 0 0.088118701797666843 0.3968021470314424 0 0.10594695925815779 0.41006374661880018 0 0.1049862825198123 0.38378517115871441 0 0.1005716041280957 0.34944191854620987 0 0.1130458794170939 0.35273000039945679 0 0.11053727192000209 0.33619479761962151 0 0.1005716041280957 0.34944191854620987 0 0.1012541570085435 0.36232419892759682 0 0.1130458794170939 0.35273000039945679 0 0.1012541570085435 0.36232419892759682 0 0.1130458794170939 0.35273000039945679 0 0.1005716041280957 0.34944191854620987 0 0.1012541570085435 0.36232419892759682 0 0.086089913084714517 0.35626160962254588 0 0.084732755873662524 0.37576664583729441 0 0.1049862825198123 0.38378517115871441 0 0.1012541570085435 0.36232419892759682 0 0.1049862825198123 0.38378517115871441 0 0.1012541570085435 0.36232419892759682 0 0.1224849427493289 0.37081216148059848 0 0.1224849427493289 0.37081216148059848 0 0.1130458794170939 0.35273000039945679 0 0.13267239446805329 0.357739981926182 0 0.1012541570085435 0.36232419892759682 0 0.1224849427493289 0.37081216148059848 0 0.1130458794170939 0.35273000039945679 0 0.1012541570085435 0.36232419892759682 0 0.1224849427493289 0.37081216148059848 0 0.1130458794170939 0.35273000039945679 0 0.12483760182564869 0.3431358018713222 0 0.11053727192000209 0.33619479761962151 0 0.1130458794170939 0.35273000039945679 0 0.12483760182564869 0.3431358018713222 0 0.13267239446805329 0.357739981926182 0 0.1130458794170939 0.35273000039945679 0 0.12483760182564869 0.3431358018713222 0 0.12483760182564869 0.3431358018713222 0 0.11053727192000209 0.33619479761962151 0 0.12594456387046801 0.32871601221006369 0 0.11053727192000209 0.33619479761962151 0 0.113377029288476 0.31966008769082088 0 0.12594456387046801 0.32871601221006369 0 0.113377029288476 0.31966008769082088 0 0.11429823728694689 0.30857996765705747 0 0.1283478099377989 0.31480697348830078 0 0.113377029288476 0.31966008769082088 0 0.1283478099377989 0.31480697348830078 0 0.12594456387046801 0.32871601221006369 0 0.113377029288476 0.31966008769082088 0 0.1033869034526123 0.31171834480114929 0 0.11429823728694689 0.30857996765705747 0 0.11053727192000209 0.33619479761962151 0 0.113377029288476 0.31966008769082088 0 0.098712360066495072 0.3227090407646287 0 0.113377029288476 0.31966008769082088 0 0.098712360066495072 0.3227090407646287 0 0.1033869034526123 0.31171834480114929 0 0.098712360066495072 0.3227090407646287 0 0.089771796771754814 0.31150471561856652 0 0.1033869034526123 0.31171834480114929 0 0.1005716041280957 0.34944191854620987 0 0.097271864843737565 0.33697072185484889 0 0.083873531347713082 0.34206157462953302 0 0.1005716041280957 0.34944191854620987 0 0.11053727192000209 0.33619479761962151 0 0.097271864843737565 0.33697072185484889 0 0.11053727192000209 0.33619479761962151 0 0.098712360066495072 0.3227090407646287 0 0.097271864843737565 0.33697072185484889 0 0.097271864843737565 0.33697072185484889 0 0.083873531347713082 0.34206157462953302 0 0.075030178486150498 0.32312052977334083 0 0.098712360066495072 0.3227090407646287 0 0.097271864843737565 0.33697072185484889 0 0.075030178486150498 0.32312052977334083 0 0.098712360066495072 0.3227090407646287 0 0.075030178486150498 0.32312052977334083 0 0.089771796771754814 0.31150471561856652 0 0.075030178486150498 0.32312052977334083 0 0.060307942838175081 0.329506238564375 0 0.061181446230676478 0.31270973072184077 0 0.075030178486150498 0.32312052977334083 0 0.061181446230676478 0.31270973072184077 0 0.068658214101036508 0.3067595436508086 0 0.075030178486150498 0.32312052977334083 0 0.070925669160887411 0.35019902031749051 0 0.083873531347713082 0.34206157462953302 0 0.075030178486150498 0.32312052977334083 0 0.070925669160887411 0.35019902031749051 0 0.075030178486150498 0.32312052977334083 0 0.070925669160887411 0.35019902031749051 0 0.060307942838175081 0.329506238564375 0 0.070925669160887411 0.35019902031749051 0 0.086089913084714517 0.35626160962254588 0 0.077271191386333524 0.36402635886733642 0 0.1005716041280957 0.34944191854620987 0 0.083873531347713082 0.34206157462953302 0 0.086089913084714517 0.35626160962254588 0 0.083873531347713082 0.34206157462953302 0 0.070925669160887411 0.35019902031749051 0 0.086089913084714517 0.35626160962254588 0 0.070925669160887411 0.35019902031749051 0 0.086089913084714517 0.35626160962254588 0 0.1012541570085435 0.36232419892759682 0 0.086089913084714517 0.35626160962254588 0 0.084732755873662524 0.37576664583729441 0 0.086089913084714517 0.35626160962254588 0 0.077271191386333524 0.36402635886733642 0 0.084732755873662524 0.37576664583729441 0 0.1012541570085435 0.36232419892759682 0 0.084732755873662524 0.37576664583729441 0 0.1012541570085435 0.36232419892759682 0 0.086089913084714517 0.35626160962254588 0 0.070925669160887411 0.35019902031749051 0 0.067336427426070239 0.37387815969201321 0 0.070925669160887411 0.35019902031749051 0 0.077271191386333524 0.36402635886733642 0 0.067336427426070239 0.37387815969201321 0 0.070925669160887411 0.35019902031749051 0 0.067336427426070239 0.37387815969201321 0 0.059001023716009932 0.36257748339256701 0 0.084732755873662524 0.37576664583729441 0 0.077271191386333524 0.36402635886733642 0 0.067336427426070239 0.37387815969201321 0 0.067336427426070239 0.37387815969201321 0 0.055961316346105967 0.37465514013013779 0 0.059001023716009932 0.36257748339256701 0 0.059001023716009932 0.36257748339256701 0 0.049366880890428518 0.35484887681394922 0 0.046226931726559457 0.36877712164041049 0 0.055961316346105967 0.37465514013013779 0 0.059001023716009932 0.36257748339256701 0 0.046226931726559457 0.36877712164041049 0 0.070925669160887411 0.35019902031749051 0 0.049366880890428518 0.35484887681394922 0 0.048259122247028378 0.34113704758790953 0 0.070925669160887411 0.35019902031749051 0 0.059001023716009932 0.36257748339256701 0 0.049366880890428518 0.35484887681394922 0 0.070925669160887411 0.35019902031749051 0 0.048259122247028378 0.34113704758790953 0 0.049366880890428518 0.35484887681394922 0 0.029650408761640532 0.35526741897533082 0 0.048259122247028378 0.34113704758790953 0 0.049366880890428518 0.35484887681394922 0 0.046226931726559457 0.36877712164041049 0 0.029650408761640532 0.35526741897533082 0 0.031969264100848903 0.38270907819189981 0 0.046226931726559457 0.36877712164041049 0 0.029650408761640532 0.35526741897533082 0 0.031969264100848903 0.38270907819189981 0 0.029650408761640532 0.35526741897533082 0 0.031969264100848903 0.38270907819189981 0 0.02198397614293052 0.36800230443547283 0 0.029650408761640532 0.35526741897533082 0 0.02198397614293052 0.36800230443547283 0 0.029650408761640532 0.35526741897533082 0 0.01687970255078915 0.3566641925632259 0 0.029650408761640532 0.35526741897533082 0 0.01464598608559054 0.34594149789178602 0 0.025592575333169911 0.3320750748583271 0 0.029650408761640532 0.35526741897533082 0 0.01687970255078915 0.3566641925632259 0 0.01464598608559054 0.34594149789178602 0 0.01687970255078915 0.3566641925632259 0 0.0012384392129950129 0.35744554895031388 0 0.01464598608559054 0.34594149789178602 0 -0.0029822272574283049 0.3407341138868607 0 0.0012384392129950129 0.35744554895031388 0 0.01464598608559054 0.34594149789178602 0 0.02198397614293052 0.36800230443547283 0 0.0012384392129950129 0.35744554895031388 0 -0.0054244803145113568 0.37271698781030083 0 0.012023545338913691 0.38019721452175748 0 0.0012384392129950129 0.35744554895031388 0 0.02198397614293052 0.36800230443547283 0 0.01687970255078915 0.3566641925632259 0 0.0012384392129950129 0.35744554895031388 0 0.012023545338913691 0.38019721452175748 0 0.02198397614293052 0.36800230443547283 0 0.0012384392129950129 0.35744554895031388 0 0.0029260284193114439 0.32301310212874462 0 0.025592575333169911 0.3320750748583271 0 0.01214286868407846 0.30662205769258599 0 0.0029260284193114439 0.32301310212874462 0 0.025592575333169911 0.3320750748583271 0 -0.0029822272574283049 0.3407341138868607 0 0.01464598608559054 0.34594149789178602 0 0.0029260284193114439 0.32301310212874462 0 0.01464598608559054 0.34594149789178602 0 0.0029260284193114439 0.32301310212874462 0 0.025592575333169911 0.3320750748583271 0 0.025592575333169911 0.3320750748583271 0 0.032421591075293792 0.30758544945139732 0 0.01214286868407846 0.30662205769258599 0 0.025592575333169911 0.3320750748583271 0 0.046143298066133237 0.32036486442129192 0 0.032421591075293792 0.30758544945139732 0 0.029650408761640532 0.35526741897533082 0 0.025592575333169911 0.3320750748583271 0 0.048259122247028378 0.34113704758790953 0 0.025592575333169911 0.3320750748583271 0 0.046143298066133237 0.32036486442129192 0 0.048259122247028378 0.34113704758790953 0 0.025592575333169911 0.3320750748583271 0 0.048259122247028378 0.34113704758790953 0 0.070925669160887411 0.35019902031749051 0 0.048259122247028378 0.34113704758790953 0 0.060307942838175081 0.329506238564375 0 0.046143298066133237 0.32036486442129192 0 0.048259122247028378 0.34113704758790953 0 0.060307942838175081 0.329506238564375 0 0.046143298066133237 0.32036486442129192 0 0.060307942838175081 0.329506238564375 0 0.061181446230676478 0.31270973072184077 0 0.046143298066133237 0.32036486442129192 0 0.061181446230676478 0.31270973072184077 0 0.050093943488512087 0.30501656486927597 0 0.061181446230676478 0.31270973072184077 0 0.061033705674560228 0.30206815130888581 0 0.050093943488512087 0.30501656486927597 0 0.050093943488512087 0.30501656486927597 0 0.058532429535521929 0.29526015882056661 0 0.042554786748106387 0.29275793535640943 0 0.061033705674560228 0.30206815130888581 0 0.050093943488512087 0.30501656486927597 0 0.058532429535521929 0.29526015882056661 0 0.061033705674560228 0.30206815130888581 0 0.058532429535521929 0.29526015882056661 0 0.062719597227730878 0.29456831018698731 0 0.058532429535521929 0.29526015882056661 0 0.042554786748106387 0.29275793535640943 0 0.062719597227730878 0.29456831018698731 0 0.042554786748106387 0.29275793535640943 0 0.062719597227730878 0.29456831018698731 0 0.050010894828764502 0.28514810749940722 0 0.042554786748106387 0.29275793535640943 0 0.062719597227730878 0.29456831018698731 0 0.059001547649727641 0.28536442376053212 0 0.050010894828764502 0.28514810749940722 0 0.062719597227730878 0.29456831018698731 0 0.059001547649727641 0.28536442376053212 0 0.064582137849161309 0.28515122837781298 0 0.062719597227730878 0.29456831018698731 0 0.059001547649727641 0.28536442376053212 0 0.061464282368668251 0.27901664021744638 0 0.064582137849161309 0.28515122837781298 0 0.058532429535521929 0.29526015882056661 0 0.062719597227730878 0.29456831018698731 0 0.059001547649727641 0.28536442376053212 0 0.050010894828764502 0.28514810749940722 0 0.054160252484990332 0.27669855512874042 0 0.050010894828764502 0.28514810749940722 0 0.042554786748106387 0.29275793535640943 0 0.036192946101549682 0.27593739907474518 0 0.042554786748106387 0.29275793535640943 0 0.02238997626848202 0.29094756052583132 0 0.042554786748106387 0.29275793535640943 0 0.02238997626848202 0.29094756052583132 0 0.036192946101549682 0.27593739907474518 0 0.046143298066133237 0.32036486442129192 0 0.050093943488512087 0.30501656486927597 0 0.032421591075293792 0.30758544945139732 0 0.050093943488512087 0.30501656486927597 0 0.042554786748106387 0.29275793535640943 0 0.032421591075293792 0.30758544945139732 0 0.042554786748106387 0.29275793535640943 0 0.032421591075293792 0.30758544945139732 0 0.02238997626848202 0.29094756052583132 0 0.032421591075293792 0.30758544945139732 0 0.02238997626848202 0.29094756052583132 0 0.01214286868407846 0.30662205769258599 0 0.02238997626848202 0.29094756052583132 0 0.0022251657888577091 0.2891371856952531 0 0.02238997626848202 0.29094756052583132 0 0.0022251657888577091 0.2891371856952531 0 0.013160311409066341 0.27340555258610938 0 0.02238997626848202 0.29094756052583132 0 0.0022251657888577091 0.2891371856952531 0 0.01214286868407846 0.30662205769258599 0 -0.009675874912022089 0.2986990909518954 0 0.0029260284193114439 0.32301310212874462 0 0.01214286868407846 0.30662205769258599 0 -0.009675874912022089 0.2986990909518954 0 0.0022251657888577091 0.2891371856952531 0 0.01214286868407846 0.30662205769258599 0 0.016525624760070318 0.23904321543069551 0 0.0047846334504887383 0.25646387099740009 0 0.021202503518625019 0.2561860795987454 0 0.0047846334504887383 0.25646387099740009 0 0.013160311409066341 0.27340555258610938 0 0.021202503518625019 0.2561860795987454 0 -0.0078333566736051106 0.27176121962468153 0 0.0047846334504887383 0.25646387099740009 0 0.013160311409066341 0.27340555258610938 0 -0.0078333566736051106 0.27176121962468153 0 0.0022251657888577091 0.2891371856952531 0 0.013160311409066341 0.27340555258610938 0 0.013160311409066341 0.27340555258610938 0 0.021202503518625019 0.2561860795987454 0 0.036192946101549682 0.27593739907474518 0 0.02238997626848202 0.29094756052583132 0 0.013160311409066341 0.27340555258610938 0 0.036192946101549682 0.27593739907474518 0 0.033383659090949709 0.2448895276436911 0 0.021202503518625019 0.2561860795987454 0 0.037848993628853328 0.25786647958286962 0 0.021202503518625019 0.2561860795987454 0 0.037848993628853328 0.25786647958286962 0 0.036192946101549682 0.27593739907474518 0 0.047355968946164992 0.24935670449388039 0 0.033383659090949709 0.2448895276436911 0 0.037848993628853328 0.25786647958286962 0 0.047355968946164992 0.24935670449388039 0 0.037848993628853328 0.25786647958286962 0 0.051210780394504912 0.26399413423253582 0 0.037848993628853328 0.25786647958286962 0 0.036192946101549682 0.27593739907474518 0 0.051210780394504912 0.26399413423253582 0 0.050010894828764502 0.28514810749940722 0 0.036192946101549682 0.27593739907474518 0 0.054160252484990332 0.27669855512874042 0 0.036192946101549682 0.27593739907474518 0 0.054160252484990332 0.27669855512874042 0 0.051210780394504912 0.26399413423253582 0 0.054160252484990332 0.27669855512874042 0 0.051210780394504912 0.26399413423253582 0 0.063157464888591364 0.2722700374536598 0 0.051210780394504912 0.26399413423253582 0 0.062683190782500786 0.26244944534904258 0 0.063157464888591364 0.2722700374536598 0 0.054160252484990332 0.27669855512874042 0 0.061464282368668251 0.27901664021744638 0 0.063157464888591364 0.2722700374536598 0 0.059001547649727641 0.28536442376053212 0 0.054160252484990332 0.27669855512874042 0 0.061464282368668251 0.27901664021744638 0 0.047355968946164992 0.24935670449388039 0 0.051210780394504912 0.26399413423253582 0 0.058491208820946473 0.25346375136892008 0 0.051210780394504912 0.26399413423253582 0 0.058491208820946473 0.25346375136892008 0 0.062683190782500786 0.26244944534904258 0 0.06445137664951725 0.2468719654481247 0 0.058491208820946473 0.25346375136892008 0 0.069887144546224828 0.25409848515668099 0 0.058491208820946473 0.25346375136892008 0 0.069887144546224828 0.25409848515668099 0 0.062683190782500786 0.26244944534904258 0 0.069887144546224828 0.25409848515668099 0 0.062683190782500786 0.26244944534904258 0 0.070700894021180155 0.26542695115396792 0 0.069887144546224828 0.25409848515668099 0 0.070700894021180155 0.26542695115396792 0 0.076395162341978878 0.25967313120861979 0 0.070700894021180155 0.26542695115396792 0 0.076395162341978878 0.25967313120861979 0 0.077792338090431332 0.26884719337919621 0 0.072538072969772924 0.24560548427405449 0 0.069887144546224828 0.25409848515668099 0 0.081470834279527754 0.25097810745609922 0 0.069887144546224828 0.25409848515668099 0 0.076395162341978878 0.25967313120861979 0 0.081470834279527754 0.25097810745609922 0 0.076395162341978878 0.25967313120861979 0 0.081470834279527754 0.25097810745609922 0 0.084211786739576439 0.26407744010763368 0 0.076395162341978878 0.25967313120861979 0 0.084211786739576439 0.26407744010763368 0 0.077792338090431332 0.26884719337919621 0 0.084211786739576439 0.26407744010763368 0 0.095906770860124141 0.25462474490522952 0 0.095612792620404993 0.26826557992121219 0 0.081470834279527754 0.25097810745609922 0 0.084211786739576439 0.26407744010763368 0 0.095906770860124141 0.25462474490522952 0 0.090448623767677996 0.27993753451422498 0 0.083098203230887749 0.27495241282650268 0 0.095612792620404993 0.26826557992121219 0 0.084211786739576439 0.26407744010763368 0 0.083098203230887749 0.27495241282650268 0 0.095612792620404993 0.26826557992121219 0 0.083098203230887749 0.27495241282650268 0 0.073534684176370158 0.27455780036322519 0 0.077792338090431332 0.26884719337919621 0 0.084211786739576439 0.26407744010763368 0 0.083098203230887749 0.27495241282650268 0 0.077792338090431332 0.26884719337919621 0 0.090448623767677996 0.27993753451422498 0 0.083098203230887749 0.27495241282650268 0 0.082970455023814393 0.28277887594404832 0 0.083098203230887749 0.27495241282650268 0 0.075900281132485883 0.28131281272487951 0 0.082970455023814393 0.28277887594404832 0 0.083098203230887749 0.27495241282650268 0 0.073534684176370158 0.27455780036322519 0 0.075900281132485883 0.28131281272487951 0 0.073534684176370158 0.27455780036322519 0 0.068200077870087916 0.28079380678112548 0 0.075900281132485883 0.28131281272487951 0 0.070700894021180155 0.26542695115396792 0 0.073534684176370158 0.27455780036322519 0 0.077792338090431332 0.26884719337919621 0 0.062683190782500786 0.26244944534904258 0 0.070700894021180155 0.26542695115396792 0 0.063157464888591364 0.2722700374536598 0 0.070700894021180155 0.26542695115396792 0 0.073534684176370158 0.27455780036322519 0 0.063157464888591364 0.2722700374536598 0 0.061464282368668251 0.27901664021744638 0 0.063157464888591364 0.2722700374536598 0 0.068200077870087916 0.28079380678112548 0 0.073534684176370158 0.27455780036322519 0 0.063157464888591364 0.2722700374536598 0 0.068200077870087916 0.28079380678112548 0 0.062719597227730878 0.29456831018698731 0 0.07913468781141321 0.29604203922919131 0 0.062719597227730878 0.29456831018698731 0 0.067886551203685197 0.29985951109396819 0 0.07913468781141321 0.29604203922919131 0 0.062719597227730878 0.29456831018698731 0 0.088588537313653765 0.29029396720237272 0 0.062719597227730878 0.29456831018698731 0 0.079520105116023393 0.29349934337655842 0 0.088588537313653765 0.29029396720237272 0 0.062719597227730878 0.29456831018698731 0 0.076816629674366588 0.28739765245226168 0 0.088588537313653765 0.29029396720237272 0 0.064582137849161309 0.28515122837781298 0 0.069664934755633109 0.28583746326135828 0 0.062719597227730878 0.29456831018698731 0 0.061464282368668251 0.27901664021744638 0 0.068200077870087916 0.28079380678112548 0 0.064582137849161309 0.28515122837781298 0 0.062719597227730878 0.29456831018698731 0 0.07913468781141321 0.29604203922919131 0 0.079520105116023393 0.29349934337655842 0 0.068200077870087916 0.28079380678112548 0 0.064582137849161309 0.28515122837781298 0 0.069664934755633109 0.28583746326135828 0 0.069664934755633109 0.28583746326135828 0 0.062719597227730878 0.29456831018698731 0 0.076816629674366588 0.28739765245226168 0 0.069664934755633109 0.28583746326135828 0 0.076816629674366588 0.28739765245226168 0 0.075900281132485883 0.28131281272487951 0 0.068200077870087916 0.28079380678112548 0 0.069664934755633109 0.28583746326135828 0 0.075900281132485883 0.28131281272487951 0 0.075030178486150498 0.32312052977334083 0 0.07913468781141321 0.29604203922919131 0 0.075030178486150498 0.32312052977334083 0 0.068658214101036508 0.3067595436508086 0 0.07913468781141321 0.29604203922919131 0 0.061181446230676478 0.31270973072184077 0 0.061033705674560228 0.30206815130888581 0 0.068658214101036508 0.3067595436508086 0 0.061033705674560228 0.30206815130888581 0 0.068658214101036508 0.3067595436508086 0 0.067886551203685197 0.29985951109396819 0 0.061033705674560228 0.30206815130888581 0 0.062719597227730878 0.29456831018698731 0 0.067886551203685197 0.29985951109396819 0 0.068658214101036508 0.3067595436508086 0 0.067886551203685197 0.29985951109396819 0 0.07913468781141321 0.29604203922919131 0 0.075030178486150498 0.32312052977334083 0 0.089771796771754814 0.31150471561856652 0 0.07913468781141321 0.29604203922919131 0 0.089771796771754814 0.31150471561856652 0 0.07913468781141321 0.29604203922919131 0 0.1029930459662854 0.29818401676704848 0 0.07913468781141321 0.29604203922919131 0 0.1029930459662854 0.29818401676704848 0 0.07913468781141321 0.29604203922919131 0 0.088588537313653765 0.29029396720237272 0 0.1029930459662854 0.29818401676704848 0 0.076816629674366588 0.28739765245226168 0 0.082970455023814393 0.28277887594404832 0 0.088588537313653765 0.29029396720237272 0 0.076816629674366588 0.28739765245226168 0 0.075900281132485883 0.28131281272487951 0 0.082970455023814393 0.28277887594404832 0 0.07913468781141321 0.29604203922919131 0 0.079520105116023393 0.29349934337655842 0 0.088588537313653765 0.29029396720237272 0 0.07913468781141321 0.29604203922919131 0 0.079520105116023393 0.29349934337655842 0 0.090448623767677996 0.27993753451422498 0 0.088588537313653765 0.29029396720237272 0 0.100065944397847 0.27972004258537508 0 0.090448623767677996 0.27993753451422498 0 0.082970455023814393 0.28277887594404832 0 0.088588537313653765 0.29029396720237272 0 0.088588537313653765 0.29029396720237272 0 0.11445747739957669 0.28601962421775817 0 0.100065944397847 0.27972004258537508 0 0.088588537313653765 0.29029396720237272 0 0.1029930459662854 0.29818401676704848 0 0.11445747739957669 0.28601962421775817 0 0.088588537313653765 0.29029396720237272 0 0.11445747739957669 0.28601962421775817 0 0.089771796771754814 0.31150471561856652 0 0.1029930459662854 0.29818401676704848 0 0.1033869034526123 0.31171834480114929 0 0.1029930459662854 0.29818401676704848 0 0.1033869034526123 0.31171834480114929 0 0.11429823728694689 0.30857996765705747 0 0.1029930459662854 0.29818401676704848 0 0.11429823728694689 0.30857996765705747 0 0.1268514041211577 0.30032599430490547 0 0.1029930459662854 0.29818401676704848 0 0.1268514041211577 0.30032599430490547 0 0.11429823728694689 0.30857996765705747 0 0.1268514041211577 0.30032599430490547 0 0.1283478099377989 0.31480697348830078 0 0.1029930459662854 0.29818401676704848 0 0.11445747739957669 0.28601962421775817 0 0.1268514041211577 0.30032599430490547 0 0.11445747739957669 0.28601962421775817 0 0.13047567598255999 0.29084609242470821 0 0.1268514041211577 0.30032599430490547 0 0.11445747739957669 0.28601962421775817 0 0.11258164398843271 0.27159387433354398 0 0.125845760244718 0.27413383887670612 0 0.11258164398843271 0.27159387433354398 0 0.1244615361834111 0.26186713739988859 0 0.125845760244718 0.27413383887670612 0 0.1234336310216875 0.24610106375436591 0 0.1244615361834111 0.26186713739988859 0 0.11127954231523141 0.257715348709744 0 0.11258164398843271 0.27159387433354398 0 0.1244615361834111 0.26186713739988859 0 0.11127954231523141 0.257715348709744 0 0.11127954231523141 0.257715348709744 0 0.095906770860124141 0.25462474490522952 0 0.095612792620404993 0.26826557992121219 0 0.1062329718251907 0.24592071787039579 0 0.11127954231523141 0.257715348709744 0 0.095906770860124141 0.25462474490522952 0 0.11258164398843271 0.27159387433354398 0 0.11127954231523141 0.257715348709744 0 0.095612792620404993 0.26826557992121219 0 0.11258164398843271 0.27159387433354398 0 0.095612792620404993 0.26826557992121219 0 0.100065944397847 0.27972004258537508 0 0.090448623767677996 0.27993753451422498 0 0.095612792620404993 0.26826557992121219 0 0.100065944397847 0.27972004258537508 0 0.11445747739957669 0.28601962421775817 0 0.11258164398843271 0.27159387433354398 0 0.100065944397847 0.27972004258537508 0 0.1498771722895843 0.2758453881095701 0 0.14909866790047499 0.26360508185588338 0 0.1691536804083798 0.2622942077666256 0 0.1403264174854997 0.2817452812331438 0 0.1661953575714227 0.27747093824852942 0 0.1498771722895843 0.2758453881095701 0 0.1403264174854997 0.2817452812331438 0 0.1661953575714227 0.27747093824852942 0 0.1498771722895843 0.2758453881095701 0 0.14909866790047499 0.26360508185588338 0 0.13740172616666979 0.26944327719919597 0 0.1498771722895843 0.2758453881095701 0 0.13740172616666979 0.26944327719919597 0 0.1403264174854997 0.2817452812331438 0 0.13996902885439511 0.24243648692897191 0 0.15162992084977289 0.25377275111886888 0 0.13743083978796841 0.25666978508515631 0 0.14909866790047499 0.26360508185588338 0 0.13743083978796841 0.25666978508515631 0 0.13740172616666979 0.26944327719919597 0 0.14909866790047499 0.26360508185588338 0 0.15162992084977289 0.25377275111886888 0 0.13743083978796841 0.25666978508515631 0 0.1244615361834111 0.26186713739988859 0 0.13743083978796841 0.25666978508515631 0 0.13740172616666979 0.26944327719919597 0 0.1234336310216875 0.24610106375436591 0 0.1244615361834111 0.26186713739988859 0 0.13743083978796841 0.25666978508515631 0 0.1244615361834111 0.26186713739988859 0 0.13740172616666979 0.26944327719919597 0 0.125845760244718 0.27413383887670612 0 0.11445747739957669 0.28601962421775817 0 0.125845760244718 0.27413383887670612 0 0.1403264174854997 0.2817452812331438 0 0.13740172616666979 0.26944327719919597 0 0.125845760244718 0.27413383887670612 0 0.1403264174854997 0.2817452812331438 0 0.11445747739957669 0.28601962421775817 0 0.13047567598255999 0.29084609242470821 0 0.1403264174854997 0.2817452812331438 0 0.11445747739957669 0.28601962421775817 0 0.1403264174854997 0.2817452812331438 0 0.13047567598255999 0.29084609242470821 0 0.140267404924006 0.29529346994302519 0 0.1268514041211577 0.30032599430490547 0 0.13047567598255999 0.29084609242470821 0 0.140267404924006 0.29529346994302519 0 0.1403264174854997 0.2817452812331438 0 0.140267404924006 0.29529346994302519 0 0.1268514041211577 0.30032599430490547 0 0.1437698935243982 0.30794708802386411 0 0.1268514041211577 0.30032599430490547 0 0.1437698935243982 0.30794708802386411 0 0.1283478099377989 0.31480697348830078 0 0.1437698935243982 0.30794708802386411 0 0.1551650288365333 0.29609299212197471 0 0.1603482149927741 0.31596057423968149 0 0.140267404924006 0.29529346994302519 0 0.1437698935243982 0.30794708802386411 0 0.1551650288365333 0.29609299212197471 0 0.1403264174854997 0.2817452812331438 0 0.1551650288365333 0.29609299212197471 0 0.1661953575714227 0.27747093824852942 0 0.140267404924006 0.29529346994302519 0 0.1403264174854997 0.2817452812331438 0 0.1551650288365333 0.29609299212197471 0 0.1551650288365333 0.29609299212197471 0 0.171676513239093 0.28096214259766 0 0.1551650288365333 0.29609299212197471 0 0.171676513239093 0.28096214259766 0 0.1661953575714227 0.27747093824852942 0 0.1551650288365333 0.29609299212197471 0 0.1710104267288648 0.30177157824904222 0 0.171676513239093 0.28096214259766 0 0.1551650288365333 0.29609299212197471 0 0.1710104267288648 0.30177157824904222 0 0.1603482149927741 0.31596057423968149 0 0.1710104267288648 0.30177157824904222 0 0.18535012473918819 0.29389115845307778 0 0.1825122518367355 0.32195102383281698 0 0.18535012473918819 0.29389115845307778 0 0.1900008577178576 0.2997472807464035 0 0.1825122518367355 0.32195102383281698 0 0.18535012473918819 0.29389115845307778 0 0.1825122518367355 0.32195102383281698 0 0.1710104267288648 0.30177157824904222 0 0.18535012473918819 0.29389115845307778 0 0.171676513239093 0.28096214259766 0 0.171676513239093 0.28096214259766 0 0.18818799764164709 0.2658312930733393 0 0.18535012473918819 0.29389115845307778 0 0.171676513239093 0.28096214259766 0 0.18818799764164709 0.2658312930733393 0 0.17408524104227011 0.27113218243244791 0 0.171676513239093 0.28096214259766 0 0.18818799764164709 0.2658312930733393 0 0.17408524104227011 0.27113218243244791 0 0.1691536804083798 0.2622942077666256 0 0.18818799764164709 0.2658312930733393 0 0.18535012473918819 0.29389115845307778 0 0.18818799764164709 0.2658312930733393 0 0.1498771722895843 0.2758453881095701 0 0.1661953575714227 0.27747093824852942 0 0.1691536804083798 0.2622942077666256 0 0.17408524104227011 0.27113218243244791 0 0.171676513239093 0.28096214259766 0 0.1661953575714227 0.27747093824852942 0 0.1498771722895843 0.2758453881095701 0 0.1691536804083798 0.2622942077666256 0 0.17408524104227011 0.27113218243244791 0 0.1661953575714227 0.27747093824852942 0 0.1691536804083798 0.2622942077666256 0 0.165499331883326 0.2442170125752211 0 0.15162992084977289 0.25377275111886888 0 0.1691536804083798 0.2622942077666256 0 0.14909866790047499 0.26360508185588338 0 0.15162992084977289 0.25377275111886888 0 0.1691536804083798 0.2622942077666256 0 0.17722554607520699 0.24670684421638411 0 0.165499331883326 0.2442170125752211 0 0.1691536804083798 0.2622942077666256 0 0.1691536804083798 0.2622942077666256 0 0.1897323782073298 0.25056101415036502 0 0.18818799764164709 0.2658312930733393 0 0.17722554607520699 0.24670684421638411 0 0.1884301885271753 0.24874302742368101 0 0.1691536804083798 0.2622942077666256 0 0.1884301885271753 0.24874302742368101 0 0.1691536804083798 0.2622942077666256 0 0.1884301885271753 0.24874302742368101 0 0.1691536804083798 0.2622942077666256 0 0.1897323782073298 0.25056101415036502 0 0.1897323782073298 0.25056101415036502 0 0.19572378806554719 0.25892562013863091 0 0.19979143392529661 0.24856023388575951 0 0.1897323782073298 0.25056101415036502 0 0.19572378806554719 0.25892562013863091 0 0.1897323782073298 0.25056101415036502 0 0.18818799764164709 0.2658312930733393 0 0.1897323782073298 0.25056101415036502 0 0.19572378806554719 0.25892562013863091 0 0.18818799764164709 0.2658312930733393 0 0.19572378806554719 0.25892562013863091 0 0.18818799764164709 0.2658312930733393 0 0.19572378806554719 0.25892562013863091 0 0.18818799764164709 0.2658312930733393 0 0.19716075873573011 0.27919501221080578 0 0.19572378806554719 0.25892562013863091 0 0.19716075873573011 0.27919501221080578 0 0.21322516926200449 0.28335929458636377 0 0.18535012473918819 0.29389115845307778 0 0.18818799764164709 0.2658312930733393 0 0.19716075873573011 0.27919501221080578 0 0.20958914780121959 0.25909503166047487 0 0.2193688095065176 0.26280095909255091 0 0.21322516926200449 0.28335929458636377 0 0.19572378806554719 0.25892562013863091 0 0.21322516926200449 0.28335929458636377 0 0.19572378806554719 0.25892562013863091 0 0.20958914780121959 0.25909503166047487 0 0.21322516926200449 0.28335929458636377 0 0.21535830080797749 0.24093287941673089 0 0.20958914780121959 0.25909503166047487 0 0.2187075612951879 0.25107831014313642 0 0.21535830080797749 0.24093287941673089 0 0.19572378806554719 0.25892562013863091 0 0.20958914780121959 0.25909503166047487 0 0.20958914780121959 0.25909503166047487 0 0.2187075612951879 0.25107831014313642 0 0.2193688095065176 0.26280095909255091 0 0.22861223412391279 0.25018045460690019 0 0.2193688095065176 0.26280095909255091 0 0.23557262393058459 0.26690398953837208 0 0.2187075612951879 0.25107831014313642 0 0.22861223412391279 0.25018045460690019 0 0.2193688095065176 0.26280095909255091 0 0.23557262393058459 0.26690398953837208 0 0.2417236004856452 0.28815133642157881 0 0.21322516926200449 0.28335929458636377 0 0.2193688095065176 0.26280095909255091 0 0.23557262393058459 0.26690398953837208 0 0.21322516926200449 0.28335929458636377 0 0.23557262393058459 0.26690398953837208 0 0.2417236004856452 0.28815133642157881 0 0.25700292827476068 0.26946639172479941 0 0.24047871785483721 0.2486360273742817 0 0.22861223412391279 0.25018045460690019 0 0.23557262393058459 0.26690398953837208 0 0.23557262393058459 0.26690398953837208 0 0.2498169077616185 0.2567610006248765 0 0.25700292827476068 0.26946639172479941 0 0.24047871785483721 0.2486360273742817 0 0.23557262393058459 0.26690398953837208 0 0.2498169077616185 0.2567610006248765 0 0.24047871785483721 0.2486360273742817 0 0.2498169077616185 0.2567610006248765 0 0.25330967369459462 0.24464425994429659 0 0.2417236004856452 0.28815133642157881 0 0.23072655045846049 0.30779296903409759 0 0.25208636049982069 0.30943209974716263 0 0.23072655045846049 0.30779296903409759 0 0.21322516926200449 0.28335929458636377 0 0.2417236004856452 0.28815133642157881 0 0.23072655045846049 0.30779296903409759 0 0.21322516926200449 0.28335929458636377 0 0.23072655045846049 0.30779296903409759 0 0.20972729061022499 0.30699152482914183 0 0.21501518793148139 0.31868925975841822 0 0.23072655045846049 0.30779296903409759 0 0.20972729061022499 0.30699152482914183 0 0.21322516926200449 0.28335929458636377 0 0.20972729061022499 0.30699152482914183 0 0.21322516926200449 0.28335929458636377 0 0.19919243887419771 0.29450441821248752 0 0.19716075873573011 0.27919501221080578 0 0.21322516926200449 0.28335929458636377 0 0.19919243887419771 0.29450441821248752 0 0.18535012473918819 0.29389115845307778 0 0.19716075873573011 0.27919501221080578 0 0.19919243887419771 0.29450441821248752 0 0.18535012473918819 0.29389115845307778 0 0.19919243887419771 0.29450441821248752 0 0.1900008577178576 0.2997472807464035 0 0.20972729061022499 0.30699152482914183 0 0.19969043218018079 0.30384223844913261 0 0.19945198728808469 0.3253226286863945 0 0.19969043218018079 0.30384223844913261 0 0.1900008577178576 0.2997472807464035 0 0.19945198728808469 0.3253226286863945 0 0.20972729061022499 0.30699152482914183 0 0.19919243887419771 0.29450441821248752 0 0.19969043218018079 0.30384223844913261 0 0.19919243887419771 0.29450441821248752 0 0.19969043218018079 0.30384223844913261 0 0.1900008577178576 0.2997472807464035 0 0.1900008577178576 0.2997472807464035 0 0.19945198728808469 0.3253226286863945 0 0.1825122518367355 0.32195102383281698 0 0.1900008577178576 0.2997472807464035 0 0.19945198728808469 0.3253226286863945 0 0.19945198728808469 0.3253226286863945 0 0.19326088895221541 0.3389443314469246 0 0.1825122518367355 0.32195102383281698 0 0.19945198728808469 0.3253226286863945 0 0.19326088895221541 0.3389443314469246 0 0.20890311685831181 0.35089797662638539 0 0.19945198728808469 0.3253226286863945 0 0.2232244372643494 0.3310717051650407 0 0.20890311685831181 0.35089797662638539 0 0.19945198728808469 0.3253226286863945 0 0.20890311685831181 0.35089797662638539 0 0.19945198728808469 0.3253226286863945 0 0.21501518793148139 0.31868925975841822 0 0.2232244372643494 0.3310717051650407 0 0.20972729061022499 0.30699152482914183 0 0.19945198728808469 0.3253226286863945 0 0.21501518793148139 0.31868925975841822 0 0.23072655045846049 0.30779296903409759 0 0.2232244372643494 0.3310717051650407 0 0.2426406438223194 0.32734299413788043 0 0.23072655045846049 0.30779296903409759 0 0.21501518793148139 0.31868925975841822 0 0.2232244372643494 0.3310717051650407 0 0.2232244372643494 0.3310717051650407 0 0.23593117578154471 0.34137156735201218 0 0.2426406438223194 0.32734299413788043 0 0.2232244372643494 0.3310717051650407 0 0.23593117578154471 0.34137156735201218 0 0.20890311685831181 0.35089797662638539 0 0.23593117578154471 0.34137156735201218 0 0.2426406438223194 0.32734299413788043 0 0.25064727239517642 0.34654954873073862 0 0.23072655045846049 0.30779296903409759 0 0.2426406438223194 0.32734299413788043 0 0.25208636049982069 0.30943209974716263 0 0.23635872528734991 0.37364806397779932 0 0.24760467270676731 0.36223298937037912 0 0.25156559034844328 0.37889076564355278 0 0.23635872528734991 0.37364806397779932 0 0.24760467270676731 0.36223298937037912 0 0.23282536623502631 0.35830517982533172 0 0.23593117578154471 0.34137156735201218 0 0.23282536623502631 0.35830517982533172 0 0.25064727239517642 0.34654954873073862 0 0.24760467270676731 0.36223298937037912 0 0.23282536623502631 0.35830517982533172 0 0.25064727239517642 0.34654954873073862 0 0.23593117578154471 0.34137156735201218 0 0.23282536623502631 0.35830517982533172 0 0.20890311685831181 0.35089797662638539 0 0.23282536623502631 0.35830517982533172 0 0.20890311685831181 0.35089797662638539 0 0.21835424642853879 0.37647332456637622 0 0.23635872528734991 0.37364806397779932 0 0.23282536623502631 0.35830517982533172 0 0.21835424642853879 0.37647332456637622 0 0.20890311685831181 0.35089797662638539 0 0.19391117682186629 0.36289506256903148 0 0.21835424642853879 0.37647332456637622 0 0.20890311685831181 0.35089797662638539 0 0.21835424642853879 0.37647332456637622 0 0.19326088895221541 0.3389443314469246 0 0.20890311685831181 0.35089797662638539 0 0.19391117682186629 0.36289506256903148 0 0.19326088895221541 0.3389443314469246 0 0.19391117682186629 0.36289506256903148 0 0.1796743789342771 0.35001088921255541 0 0.19391117682186629 0.36289506256903148 0 0.19452054584054401 0.38480076256466039 0 0.21835424642853879 0.37647332456637622 0 0.19391117682186629 0.36289506256903148 0 0.17738294403045629 0.37266777242682297 0 0.19452054584054401 0.38480076256466039 0 0.19391117682186629 0.36289506256903148 0 0.17738294403045629 0.37266777242682297 0 0.1796743789342771 0.35001088921255541 0 0.17738294403045629 0.37266777242682297 0 0.1603813124241936 0.36572558229619467 0 0.1796743789342771 0.35001088921255541 0 0.17738294403045629 0.37266777242682297 0 0.1796743789342771 0.35001088921255541 0 0.17738294403045629 0.37266777242682297 0 0.1603813124241936 0.36572558229619467 0 0.1644254281015971 0.37608140546815738 0 0.1603813124241936 0.36572558229619467 0 0.1647415984374648 0.33592299012684118 0 0.1488039969793907 0.34871891712317621 0 0.1603813124241936 0.36572558229619467 0 0.1796743789342771 0.35001088921255541 0 0.1603813124241936 0.36572558229619467 0 0.1796743789342771 0.35001088921255541 0 0.1647415984374648 0.33592299012684118 0 0.1603813124241936 0.36572558229619467 0 0.1647415984374648 0.33592299012684118 0 0.19326088895221541 0.3389443314469246 0 0.1796743789342771 0.35001088921255541 0 0.1796743789342771 0.35001088921255541 0 0.1825122518367355 0.32195102383281698 0 0.1796743789342771 0.35001088921255541 0 0.1825122518367355 0.32195102383281698 0 0.1647415984374648 0.33592299012684118 0 0.19326088895221541 0.3389443314469246 0 0.1796743789342771 0.35001088921255541 0 0.1825122518367355 0.32195102383281698 0 0.1710104267288648 0.30177157824904222 0 0.1825122518367355 0.32195102383281698 0 0.1603482149927741 0.31596057423968149 0 0.1825122518367355 0.32195102383281698 0 0.1603482149927741 0.31596057423968149 0 0.1647415984374648 0.33592299012684118 0 0.1603482149927741 0.31596057423968149 0 0.1647415984374648 0.33592299012684118 0 0.15096575735756149 0.33274299030789978 0 0.15096575735756149 0.33274299030789978 0 0.13750877014640819 0.33894166789980562 0 0.1488039969793907 0.34871891712317621 0 0.15096575735756149 0.33274299030789978 0 0.1417073266790802 0.32247709604151931 0 0.13750877014640819 0.33894166789980562 0 0.1647415984374648 0.33592299012684118 0 0.15096575735756149 0.33274299030789978 0 0.1488039969793907 0.34871891712317621 0 0.1603482149927741 0.31596057423968149 0 0.15096575735756149 0.33274299030789978 0 0.1417073266790802 0.32247709604151931 0 0.1437698935243982 0.30794708802386411 0 0.1603482149927741 0.31596057423968149 0 0.1417073266790802 0.32247709604151931 0 0.1417073266790802 0.32247709604151931 0 0.1283478099377989 0.31480697348830078 0 0.12594456387046801 0.32871601221006369 0 0.1437698935243982 0.30794708802386411 0 0.1417073266790802 0.32247709604151931 0 0.1283478099377989 0.31480697348830078 0 0.1417073266790802 0.32247709604151931 0 0.13750877014640819 0.33894166789980562 0 0.12594456387046801 0.32871601221006369 0 0.12483760182564869 0.3431358018713222 0 0.13750877014640819 0.33894166789980562 0 0.12594456387046801 0.32871601221006369 0 0.13750877014640819 0.33894166789980562 0 0.13267239446805329 0.357739981926182 0 0.1488039969793907 0.34871891712317621 0 0.12483760182564869 0.3431358018713222 0 0.13750877014640819 0.33894166789980562 0 0.13267239446805329 0.357739981926182 0 0.1224849427493289 0.37081216148059848 0 0.13267239446805329 0.357739981926182 0 0.14371572849011471 0.37930012403359897 0 0.13267239446805329 0.357739981926182 0 0.14639335809043791 0.36287115134478698 0 0.14371572849011471 0.37930012403359897 0 0.1603813124241936 0.36572558229619467 0 0.14639335809043791 0.36287115134478698 0 0.14371572849011471 0.37930012403359897 0 0.1603813124241936 0.36572558229619467 0 0.14371572849011471 0.37930012403359897 0 0.13267239446805329 0.357739981926182 0 0.14639335809043791 0.36287115134478698 0 0.1488039969793907 0.34871891712317621 0 0.1603813124241936 0.36572558229619467 0 0.14639335809043791 0.36287115134478698 0 0.1488039969793907 0.34871891712317621 0 0.144292628464921 0.39346389449857588 0 0.15499793333414591 0.40252102439001858 0 0.15758408937523449 0.38484462574453632 0 0.144292628464921 0.39346389449857588 0 0.15499793333414591 0.40252102439001858 0 0.1403173665407238 0.4087389636935439 0 0.144292628464921 0.39346389449857588 0 0.14371572849011471 0.37930012403359897 0 0.15758408937523449 0.38484462574453632 0 0.1603813124241936 0.36572558229619467 0 0.14371572849011471 0.37930012403359897 0 0.15758408937523449 0.38484462574453632 0 0.14371572849011471 0.37930012403359897 0 0.15758408937523449 0.38484462574453632 0 0.12483134387413761 0.39468193532620122 0 0.14371572849011471 0.37930012403359897 0 0.1224849427493289 0.37081216148059848 0 0.14371572849011471 0.37930012403359897 0 0.12483134387413761 0.39468193532620122 0 0.1224849427493289 0.37081216148059848 0 0.14371572849011471 0.37930012403359897 0 0.12483134387413761 0.39468193532620122 0 0.144292628464921 0.39346389449857588 0 0.14371572849011471 0.37930012403359897 0 0.12483134387413761 0.39468193532620122 0 0.144292628464921 0.39346389449857588 0 0.1403173665407238 0.4087389636935439 0 0.12483134387413761 0.39468193532620122 0 0.12566592962473269 0.41323834399045301 0 0.1403173665407238 0.4087389636935439 0 0.12566592962473269 0.41323834399045301 0 0.1403173665407238 0.4087389636935439 0 0.1381689110167186 0.4270498419614514 0 0.1198842365433561 0.42615372480141478 0 0.1381689110167186 0.4270498419614514 0 0.12785470135571081 0.43950284955902769 0 0.1198842365433561 0.42615372480141478 0 0.12566592962473269 0.41323834399045301 0 0.1381689110167186 0.4270498419614514 0 0.1381689110167186 0.4270498419614514 0 0.1491816703373442 0.44007063581433059 0 0.12785470135571081 0.43950284955902769 0 0.1524117772930573 0.42019742303550101 0 0.16122554029304551 0.42972200494370311 0 0.1491816703373442 0.44007063581433059 0 0.1381689110167186 0.4270498419614514 0 0.1524117772930573 0.42019742303550101 0 0.1491816703373442 0.44007063581433059 0 0.15499793333414591 0.40252102439001858 0 0.1524117772930573 0.42019742303550101 0 0.15499793333414591 0.40252102439001858 0 0.1403173665407238 0.4087389636935439 0 0.1524117772930573 0.42019742303550101 0 0.1403173665407238 0.4087389636935439 0 0.1381689110167186 0.4270498419614514 0 0.1524117772930573 0.42019742303550101 0 0.15499793333414591 0.40252102439001858 0 0.1524117772930573 0.42019742303550101 0 0.17280007422280361 0.41798153885535699 0 0.16122554029304551 0.42972200494370311 0 0.17050863931897781 0.440638422069624 0 0.1491816703373442 0.44007063581433059 0 0.16122554029304551 0.42972200494370311 0 0.17280007422280361 0.41798153885535699 0 0.17050863931897781 0.440638422069624 0 0.1524117772930573 0.42019742303550101 0 0.16122554029304551 0.42972200494370311 0 0.17280007422280361 0.41798153885535699 0 0.17280007422280361 0.41798153885535699 0 0.17050863931897781 0.440638422069624 0 0.18230108899373379 0.42945390847427939 0 0.1893913848893729 0.44114113595300369 0 0.17050863931897781 0.440638422069624 0 0.18230108899373379 0.42945390847427939 0 0.17280007422280361 0.41798153885535699 0 0.17050863931897781 0.440638422069624 0 0.18230108899373379 0.42945390847427939 0 0.17280007422280361 0.41798153885535699 0 0.18799489598193619 0.42028832155918561 0 0.17280007422280361 0.41798153885535699 0 0.17509150912662999 0.39532465564108998 0 0.1926042375235065 0.40722997452935639 0 0.17280007422280361 0.41798153885535699 0 0.17509150912662999 0.39532465564108998 0 0.17280007422280361 0.41798153885535699 0 0.18799489598193619 0.42028832155918561 0 0.1926042375235065 0.40722997452935639 0 0.17509150912662999 0.39532465564108998 0 0.19452054584054401 0.38480076256466039 0 0.1926042375235065 0.40722997452935639 0 0.15499793333414591 0.40252102439001858 0 0.17280007422280361 0.41798153885535699 0 0.16476268344140499 0.39756351586313721 0 0.15499793333414591 0.40252102439001858 0 0.15758408937523449 0.38484462574453632 0 0.15499793333414591 0.40252102439001858 0 0.16476268344140499 0.39756351586313721 0 0.15758408937523449 0.38484462574453632 0 0.17280007422280361 0.41798153885535699 0 0.17509150912662999 0.39532465564108998 0 0.16476268344140499 0.39756351586313721 0 0.17509150912662999 0.39532465564108998 0 0.16476268344140499 0.39756351586313721 0 0.16333981114821089 0.38714573468468422 0 0.1603813124241936 0.36572558229619467 0 0.15758408937523449 0.38484462574453632 0 0.1644254281015971 0.37608140546815738 0 0.1603813124241936 0.36572558229619467 0 0.15758408937523449 0.38484462574453632 0 0.15758408937523449 0.38484462574453632 0 0.16333981114821089 0.38714573468468422 0 0.1644254281015971 0.37608140546815738 0 0.16476268344140499 0.39756351586313721 0 0.15758408937523449 0.38484462574453632 0 0.16333981114821089 0.38714573468468422 0 0.15758408937523449 0.38484462574453632 0 0.16333981114821089 0.38714573468468422 0 0.17738294403045629 0.37266777242682297 0 0.16333981114821089 0.38714573468468422 0 0.1644254281015971 0.37608140546815738 0 0.17738294403045629 0.37266777242682297 0 0.17509150912662999 0.39532465564108998 0 0.17738294403045629 0.37266777242682297 0 0.17509150912662999 0.39532465564108998 0 0.16333981114821089 0.38714573468468422 0 0.17738294403045629 0.37266777242682297 0 0.17509150912662999 0.39532465564108998 0 0.19452054584054401 0.38480076256466039 0 0.19452054584054401 0.38480076256466039 0 0.2099421981406181 0.39431416778192552 0 0.1926042375235065 0.40722997452935639 0 0.2099421981406181 0.39431416778192552 0 0.2151046402913529 0.41215494602117569 0 0.1926042375235065 0.40722997452935639 0 0.19452054584054401 0.38480076256466039 0 0.2099421981406181 0.39431416778192552 0 0.21835424642853879 0.37647332456637622 0 0.23635872528734991 0.37364806397779932 0 0.21835424642853879 0.37647332456637622 0 0.23144375071797371 0.3923380604833564 0 0.2099421981406181 0.39431416778192552 0 0.21835424642853879 0.37647332456637622 0 0.23144375071797371 0.3923380604833564 0 0.23144375071797371 0.3923380604833564 0 0.23939564868543589 0.41283054435903138 0 0.2151046402913529 0.41215494602117569 0 0.2099421981406181 0.39431416778192552 0 0.23144375071797371 0.3923380604833564 0 0.2151046402913529 0.41215494602117569 0 0.23144375071797371 0.3923380604833564 0 0.23939564868543589 0.41283054435903138 0 0.25039525491995968 0.39949738483197411 0 0.23635872528734991 0.37364806397779932 0 0.23144375071797371 0.3923380604833564 0 0.25156559034844328 0.37889076564355278 0 0.23144375071797371 0.3923380604833564 0 0.25156559034844328 0.37889076564355278 0 0.25039525491995968 0.39949738483197411 0 0.24948432561859479 0.4321399477906937 0 0.23227077540446009 0.4348032676911478 0 0.24076038289528101 0.44045302106870587 0 0.2376427418663529 0.42580538506012761 0 0.24948432561859479 0.4321399477906937 0 0.23939564868543589 0.41283054435903138 0 0.24948432561859479 0.4321399477906937 0 0.23227077540446009 0.4348032676911478 0 0.24948432561859479 0.4321399477906937 0 0.23939564868543589 0.41283054435903138 0 0.2376427418663529 0.42580538506012761 0 0.24948432561859479 0.4321399477906937 0 0.23227077540446009 0.4348032676911478 0 0.24948432561859479 0.4321399477906937 0 0.24076038289528101 0.44045302106870587 0 0.25292049232757879 0.43871666044408197 0 0.23939564868543589 0.41283054435903138 0 0.25197626658944411 0.41745737260860238 0 0.25039525491995968 0.39949738483197411 0 0.24948432561859479 0.4321399477906937 0 0.23939564868543589 0.41283054435903138 0 0.25197626658944411 0.41745737260860238 0 0.2376427418663529 0.42580538506012761 0 0.23939564868543589 0.41283054435903138 0 0.2294202177569214 0.4234477803996371 0 0.23939564868543589 0.41283054435903138 0 0.2294202177569214 0.4234477803996371 0 0.2151046402913529 0.41215494602117569 0 0.22016743368724401 0.42859945924413367 0 0.2294202177569214 0.4234477803996371 0 0.2151046402913529 0.41215494602117569 0 0.22016743368724401 0.42859945924413367 0 0.2294202177569214 0.4234477803996371 0 0.23227077540446009 0.4348032676911478 0 0.2376427418663529 0.42580538506012761 0 0.2294202177569214 0.4234477803996371 0 0.23227077540446009 0.4348032676911478 0 0.22016743368724401 0.42859945924413367 0 0.23227077540446009 0.4348032676911478 0 0.22344313961596121 0.4405991771254873 0 0.22016743368724401 0.42859945924413367 0 0.21176808633267241 0.43561955896615723 0 0.20691649026199299 0.42506973477099952 0 0.22016743368724401 0.42859945924413367 0 0.21176808633267241 0.43561955896615723 0 0.22344313961596121 0.4405991771254873 0 0.22016743368724401 0.42859945924413367 0 0.20691649026199299 0.42506973477099952 0 0.2151046402913529 0.41215494602117569 0 0.21176808633267241 0.43561955896615723 0 0.20691649026199299 0.42506973477099952 0 0.20343638971804409 0.43348363265178602 0 0.21176808633267241 0.43561955896615723 0 0.20343638971804409 0.43348363265178602 0 0.2024162903917478 0.44136640132458071 0 0.20691649026199299 0.42506973477099952 0 0.2151046402913529 0.41215494602117569 0 0.19868614292287351 0.41839262016298878 0 0.2151046402913529 0.41215494602117569 0 0.19868614292287351 0.41839262016298878 0 0.1926042375235065 0.40722997452935639 0 0.19868614292287351 0.41839262016298878 0 0.18799489598193619 0.42028832155918561 0 0.1926042375235065 0.40722997452935639 0 0.20343638971804409 0.43348363265178602 0 0.19673519466073591 0.43632175308257592 0 0.2024162903917478 0.44136640132458071 0 0.20343638971804409 0.43348363265178602 0 0.19673519466073591 0.43632175308257592 0 0.19358293624676359 0.42838356577394632 0 0.20691649026199299 0.42506973477099952 0 0.19868614292287351 0.41839262016298878 0 0.19358293624676359 0.42838356577394632 0 0.20691649026199299 0.42506973477099952 0 0.20343638971804409 0.43348363265178602 0 0.19358293624676359 0.42838356577394632 0 0.19868614292287351 0.41839262016298878 0 0.18799489598193619 0.42028832155918561 0 0.19358293624676359 0.42838356577394632 0 0.18230108899373379 0.42945390847427939 0 0.18799489598193619 0.42028832155918561 0 0.19358293624676359 0.42838356577394632 0 0.19673519466073591 0.43632175308257592 0 0.19358293624676359 0.42838356577394632 0 0.1893913848893729 0.44114113595300369 0 0.18230108899373379 0.42945390847427939 0 0.19358293624676359 0.42838356577394632 0 0.1893913848893729 0.44114113595300369 0 0.19358293624676359 0.42838356577394632 0 0.1893913848893729 0.44114113595300369 0 0.1893913848893729 0.44114113595300369 0 0.19443223867241741 0.44844292415745057 0 0.18273931462377219 0.46138763802670463 0 0.1893913848893729 0.44114113595300369 0 0.19180695686342961 0.44120544553992741 0 0.19673519466073591 0.43632175308257592 0 0.1893913848893729 0.44114113595300369 0 0.19180695686342961 0.44120544553992741 0 0.19673519466073591 0.43632175308257592 0 0.19180695686342961 0.44120544553992741 0 0.19634767014708271 0.44183413102613361 0 0.1893913848893729 0.44114113595300369 0 0.19180695686342961 0.44120544553992741 0 0.19443223867241741 0.44844292415745057 0 0.19180695686342961 0.44120544553992741 0 0.19443223867241741 0.44844292415745057 0 0.19634767014708271 0.44183413102613361 0 0.19443223867241741 0.44844292415745057 0 0.20287054077927741 0.45246684191715192 0 0.2024162903917478 0.44136640132458071 0 0.19443223867241741 0.44844292415745057 0 0.2024162903917478 0.44136640132458071 0 0.19634767014708271 0.44183413102613361 0 0.19673519466073591 0.43632175308257592 0 0.2024162903917478 0.44136640132458071 0 0.19634767014708271 0.44183413102613361 0 0.19535604040943641 0.4596406599054218 0 0.20651847479057051 0.46675320203588871 0 0.1902196331811446 0.46915269338991311 0 0.19535604040943641 0.4596406599054218 0 0.1902196331811446 0.46915269338991311 0 0.18273931462377219 0.46138763802670463 0 0.19443223867241741 0.44844292415745057 0 0.19535604040943641 0.4596406599054218 0 0.18273931462377219 0.46138763802670463 0 0.20287054077927741 0.45246684191715192 0 0.19535604040943641 0.4596406599054218 0 0.20651847479057051 0.46675320203588871 0 0.19443223867241741 0.44844292415745057 0 0.20287054077927741 0.45246684191715192 0 0.19535604040943641 0.4596406599054218 0 0.20651847479057051 0.46675320203588871 0 0.2236394288429257 0.45360311155229732 0 0.20651847479057051 0.46675320203588871 0 0.2236394288429257 0.45360311155229732 0 0.21126039392615201 0.47856422712832042 0 0.20651847479057051 0.46675320203588871 0 0.21314934765597979 0.4479579508936703 0 0.2236394288429257 0.45360311155229732 0 0.20287054077927741 0.45246684191715192 0 0.20651847479057051 0.46675320203588871 0 0.21314934765597979 0.4479579508936703 0 0.21176808633267241 0.43561955896615723 0 0.2024162903917478 0.44136640132458071 0 0.21314934765597979 0.4479579508936703 0 0.20287054077927741 0.45246684191715192 0 0.2024162903917478 0.44136640132458071 0 0.21314934765597979 0.4479579508936703 0 0.21176808633267241 0.43561955896615723 0 0.21314934765597979 0.4479579508936703 0 0.22344313961596121 0.4405991771254873 0 0.2236394288429257 0.45360311155229732 0 0.24076038289528101 0.44045302106870587 0 0.2236394288429257 0.45360311155229732 0 0.2360514898594237 0.45473354405727162 0 0.24076038289528101 0.44045302106870587 0 0.23227077540446009 0.4348032676911478 0 0.22344313961596121 0.4405991771254873 0 0.24076038289528101 0.44045302106870587 0 0.22344313961596121 0.4405991771254873 0 0.2236394288429257 0.45360311155229732 0 0.24076038289528101 0.44045302106870587 0 0.21314934765597979 0.4479579508936703 0 0.22344313961596121 0.4405991771254873 0 0.2236394288429257 0.45360311155229732 0 0.2236394288429257 0.45360311155229732 0 0.23633178511494091 0.46719382378508312 0 0.21126039392615201 0.47856422712832042 0 0.2236394288429257 0.45360311155229732 0 0.2360514898594237 0.45473354405727162 0 0.23633178511494091 0.46719382378508312 0 0.23633178511494091 0.46719382378508312 0 0.26176073672697819 0.45563660412683099 0 0.2360514898594237 0.45473354405727162 0 0.23633178511494091 0.46719382378508312 0 0.247657921545612 0.45019175147730811 0 0.23633178511494091 0.46719382378508312 0 0.247657921545612 0.45019175147730811 0 0.26176073672697819 0.45563660412683099 0 0.247657921545612 0.45019175147730811 0 0.24076038289528101 0.44045302106870587 0 0.25292049232757879 0.43871666044408197 0 0.2360514898594237 0.45473354405727162 0 0.247657921545612 0.45019175147730811 0 0.24076038289528101 0.44045302106870587 0 0.23401917144045989 0.48783781424873518 0 0.2579342557920084 0.48678940613732452 0 0.22749628017716059 0.5 0 0.23401917144045989 0.48783781424873518 0 0.25621788691749497 0.5 0 0.23401917144045989 0.48783781424873518 0 0.25621788691749497 0.5 0 0.2579342557920084 0.48678940613732452 0 0.2426392417506788 0.47788479099749259 0 0.23401917144045989 0.48783781424873518 0 0.2579342557920084 0.48678940613732452 0 0.23633178511494091 0.46719382378508312 0 0.2426392417506788 0.47788479099749259 0 0.25405323707721028 0.47057077812456438 0 0.23633178511494091 0.46719382378508312 0 0.2426392417506788 0.47788479099749259 0 0.22801002828267039 0.47920444912904142 0 0.2426392417506788 0.47788479099749259 0 0.22801002828267039 0.47920444912904142 0 0.23401917144045989 0.48783781424873518 0 0.23633178511494091 0.46719382378508312 0 0.22801002828267039 0.47920444912904142 0 0.21126039392615201 0.47856422712832042 0 0.23633178511494091 0.46719382378508312 0 0.21126039392615201 0.47856422712832042 0 0.22749628017716059 0.5 0 0.23401917144045989 0.48783781424873518 0 0.21010408708891129 0.48888622236014589 0 0.23401917144045989 0.48783781424873518 0 0.21010408708891129 0.48888622236014589 0 0.22801002828267039 0.47920444912904142 0 0.23401917144045989 0.48783781424873518 0 0.21010408708891129 0.48888622236014589 0 0.22749628017716059 0.5 0 0.21010408708891129 0.48888622236014589 0 0.1987746734368262 0.5 0 0.22801002828267039 0.47920444912904142 0 0.21010408708891129 0.48888622236014589 0 0.21126039392615201 0.47856422712832042 0 0.20651847479057051 0.46675320203588871 0 0.21126039392615201 0.47856422712832042 0 0.20037718507754601 0.47607623316627901 0 0.20651847479057051 0.46675320203588871 0 0.18939752073821539 0.47990329251948022 0 0.1902196331811446 0.46915269338991311 0 0.20651847479057051 0.46675320203588871 0 0.18939752073821539 0.47990329251948022 0 0.21126039392615201 0.47856422712832042 0 0.20037718507754601 0.47607623316627901 0 0.18618900273736291 0.48993463047155722 0 0.21126039392615201 0.47856422712832042 0 0.18618900273736291 0.48993463047155722 0 0.20651847479057051 0.46675320203588871 0 0.20037718507754601 0.47607623316627901 0 0.18939752073821539 0.47990329251948022 0 0.20037718507754601 0.47607623316627901 0 0.18939752073821539 0.47990329251948022 0 0.18618900273736291 0.48993463047155722 0 0.21010408708891129 0.48888622236014589 0 0.1987746734368262 0.5 0 0.18618900273736291 0.48993463047155722 0 0.21010408708891129 0.48888622236014589 0 0.21126039392615201 0.47856422712832042 0 0.18618900273736291 0.48993463047155722 0 0.21010408708891129 0.48888622236014589 0 0.18618900273736291 0.48993463047155722 0 0.1987746734368262 0.5 0 0.18618900273736291 0.48993463047155722 0 0.17005306669649181 0.49999999999999861 0 0.18618900273736291 0.48993463047155722 0 0.17005306669649181 0.49999999999999861 0 0.17111378395405991 0.49677155933453782 0 0.18618900273736291 0.48993463047155722 0 0.17574072065223059 0.49039267040682549 0 0.18939752073821539 0.47990329251948022 0 0.18618900273736291 0.48993463047155722 0 0.17574072065223059 0.49039267040682549 0 0.18939752073821539 0.47990329251948022 0 0.17574072065223059 0.49039267040682549 0 0.17317260411742619 0.49050525350152002 0 0.17608724435817041 0.48163414010040517 0 0.17574072065223059 0.49039267040682549 0 0.17317260411742619 0.49050525350152002 0 0.17608724435817041 0.48163414010040517 0 0.17574072065223059 0.49039267040682549 0 0.1723552657549168 0.49299293661229859 0 0.17574072065223059 0.49039267040682549 0 0.17317260411742619 0.49050525350152002 0 0.17574072065223059 0.49039267040682549 0 0.17317260411742619 0.49050525350152002 0 0.1723552657549168 0.49299293661229859 0 0.17317260411742619 0.49050525350152002 0 0.1723552657549168 0.49299293661229859 0 0.18618900273736291 0.48993463047155722 0 0.17574072065223059 0.49039267040682549 0 0.17111378395405991 0.49677155933453782 0 0.18618900273736291 0.48993463047155722 0 0.17111378395405991 0.49677155933453782 0 0.17574072065223059 0.49039267040682549 0 0.1723552657549168 0.49299293661229859 0 0.17111378395405991 0.49677155933453782 0 0.17317260411742619 0.49050525350152002 0 0.1723552657549168 0.49299293661229859 0 0.17093193856210101 0.49408615147147228 0 0.17317260411742619 0.49050525350152002 0 0.17608724435817041 0.48163414010040517 0 0.15538984013346299 0.4843255982648208 0 0.17005306669649181 0.49999999999999861 0 0.17111378395405991 0.49677155933453782 0 0.17005306669649181 0.49999999999999861 0 0.17111378395405991 0.49677155933453782 0 0.16399517114761969 0.49999999999999928 0 0.17317260411742619 0.49050525350152002 0 0.1515263269769426 0.49145419987370548 0 0.15538984013346299 0.4843255982648208 0 0.17317260411742619 0.49050525350152002 0 0.1663567496667693 0.49574482635956479 0 0.1515263269769426 0.49145419987370548 0 0.17317260411742619 0.49050525350152002 0 0.1515263269769426 0.49145419987370548 0 0.17111378395405991 0.49677155933453782 0 0.16399517114761969 0.49999999999999928 0 0.17111378395405991 0.49677155933453782 0 0.1663567496667693 0.49574482635956479 0 0.16399517114761969 0.49999999999999928 0 0.17111378395405991 0.49677155933453782 0 0.1663567496667693 0.49574482635956479 0 0.17093193856210101 0.49408615147147228 0 0.17317260411742619 0.49050525350152002 0 0.1663567496667693 0.49574482635956479 0 0.17093193856210101 0.49408615147147228 0 0.1723552657549168 0.49299293661229859 0 0.17111378395405991 0.49677155933453782 0 0.1723552657549168 0.49299293661229859 0 0.17111378395405991 0.49677155933453782 0 0.17093193856210101 0.49408615147147228 0 0.1723552657549168 0.49299293661229859 0 0.17093193856210101 0.49408615147147228 0 0.1663567496667693 0.49574482635956479 0 0.16399517114761969 0.49999999999999928 0 0.1515263269769426 0.49145419987370548 0 0.16709495972131519 0.47109129573524677 0 0.17608724435817041 0.48163414010040517 0 0.15538984013346299 0.4843255982648208 0 0.17608724435817041 0.48163414010040517 0 0.15538984013346299 0.4843255982648208 0 0.16709495972131519 0.47109129573524677 0 0.15374559180276859 0.46569249780197453 0 0.15538984013346299 0.4843255982648208 0 0.17608724435817041 0.48163414010040517 0 0.18273931462377219 0.46138763802670463 0 0.1902196331811446 0.46915269338991311 0 0.17608724435817041 0.48163414010040517 0 0.18273931462377219 0.46138763802670463 0 0.16709495972131519 0.47109129573524677 0 0.17608724435817041 0.48163414010040517 0 0.18273931462377219 0.46138763802670463 0 0.18939752073821539 0.47990329251948022 0 0.17574072065223059 0.49039267040682549 0 0.17608724435817041 0.48163414010040517 0 0.18939752073821539 0.47990329251948022 0 0.1902196331811446 0.46915269338991311 0 0.17608724435817041 0.48163414010040517 0 0.18939752073821539 0.47990329251948022 0 0.17608724435817041 0.48163414010040517 0 0.16709495972131519 0.47109129573524677 0 0.18273931462377219 0.46138763802670463 0 0.1702426062407463 0.45955314052439028 0 0.18273931462377219 0.46138763802670463 0 0.176199316635269 0.45379459990434878 0 0.1702426062407463 0.45955314052439028 0 0.1893913848893729 0.44114113595300369 0 0.17279874769677911 0.44436793917470752 0 0.17050863931897781 0.440638422069624 0 0.1893913848893729 0.44114113595300369 0 0.18273931462377219 0.46138763802670463 0 0.176199316635269 0.45379459990434878 0 0.1893913848893729 0.44114113595300369 0 0.17050863931897781 0.440638422069624 0 0.1893913848893729 0.44114113595300369 0 0.18273931462377219 0.46138763802670463 0 0.1893913848893729 0.44114113595300369 0 0.176199316635269 0.45379459990434878 0 0.17279874769677911 0.44436793917470752 0 0.176199316635269 0.45379459990434878 0 0.17279874769677911 0.44436793917470752 0 0.1702426062407463 0.45955314052439028 0 0.17050863931897781 0.440638422069624 0 0.157682723121331 0.45177378441037241 0 0.1491816703373442 0.44007063581433059 0 0.17050863931897781 0.440638422069624 0 0.1491816703373442 0.44007063581433059 0 0.17050863931897781 0.440638422069624 0 0.17012802431844351 0.44440180614057823 0 0.17279874769677911 0.44436793917470752 0 0.17050863931897781 0.440638422069624 0 0.17012802431844351 0.44440180614057823 0 0.17050863931897781 0.440638422069624 0 0.17012802431844351 0.44440180614057823 0 0.157682723121331 0.45177378441037241 0 0.17279874769677911 0.44436793917470752 0 0.17012802431844351 0.44440180614057823 0 0.157682723121331 0.45177378441037241 0 0.17279874769677911 0.44436793917470752 0 0.157682723121331 0.45177378441037241 0 0.15374559180276859 0.46569249780197453 0 0.17279874769677911 0.44436793917470752 0 0.15374559180276859 0.46569249780197453 0 0.17279874769677911 0.44436793917470752 0 0.1702426062407463 0.45955314052439028 0 0.15374559180276859 0.46569249780197453 0 0.16709495972131519 0.47109129573524677 0 0.1702426062407463 0.45955314052439028 0 0.15374559180276859 0.46569249780197453 0 0.15374559180276859 0.46569249780197453 0 0.14207080979430889 0.45458664866321452 0 0.134446406143585 0.46998007119762641 0 0.157682723121331 0.45177378441037241 0 0.15374559180276859 0.46569249780197453 0 0.14207080979430889 0.45458664866321452 0 0.157682723121331 0.45177378441037241 0 0.14207080979430889 0.45458664866321452 0 0.1491816703373442 0.44007063581433059 0 0.1491816703373442 0.44007063581433059 0 0.12785470135571081 0.43950284955902769 0 0.14207080979430889 0.45458664866321452 0 0.1491816703373442 0.44007063581433059 0 0.12785470135571081 0.43950284955902769 0 0.14207080979430889 0.45458664866321452 0 0.12785470135571081 0.43950284955902769 0 0.1286450609868573 0.45754986806268189 0 0.14207080979430889 0.45458664866321452 0 0.1286450609868573 0.45754986806268189 0 0.134446406143585 0.46998007119762641 0 0.121408580388725 0.47105972041901129 0 0.1286450609868573 0.45754986806268189 0 0.134446406143585 0.46998007119762641 0 0.121408580388725 0.47105972041901129 0 0.134446406143585 0.46998007119762641 0 0.12534223969395061 0.480529939251091 0 0.134446406143585 0.46998007119762641 0 0.12534223969395061 0.480529939251091 0 0.13469243590875621 0.48701705642923993 0 0.1230923811484 0.499999999999999 0 0.12988004983645901 0.49240314624589182 0 0.14354377614800981 0.5 0 0.1188004819222136 0.48908362133956462 0 0.13469243590875621 0.48701705642923993 0 0.1188004819222136 0.48908362133956462 0 0.12534223969395061 0.480529939251091 0 0.13469243590875621 0.48701705642923993 0 0.12988004983645901 0.49240314624589182 0 0.13469243590875621 0.48701705642923993 0 0.1515263269769426 0.49145419987370548 0 0.1188004819222136 0.48908362133956462 0 0.12988004983645901 0.49240314624589182 0 0.13469243590875621 0.48701705642923993 0 0.12988004983645901 0.49240314624589182 0 0.13469243590875621 0.48701705642923993 0 0.1230923811484 0.499999999999999 0 0.12988004983645901 0.49240314624589182 0 0.12988004983645901 0.49240314624589182 0 0.1515263269769426 0.49145419987370548 0 0.13469243590875621 0.48701705642923993 0 0.15538984013346299 0.4843255982648208 0 0.13469243590875621 0.48701705642923993 0 0.1515263269769426 0.49145419987370548 0 0.15538984013346299 0.4843255982648208 0 0.16399517114761969 0.49999999999999928 0 0.14354377614800981 0.5 0 0.1515263269769426 0.49145419987370548 0 0.12988004983645901 0.49240314624589182 0 0.14354377614800981 0.5 0 0.1515263269769426 0.49145419987370548 0 0.15374559180276859 0.46569249780197453 0 0.134446406143585 0.46998007119762641 0 0.13469243590875621 0.48701705642923993 0 0.15374559180276859 0.46569249780197453 0 0.13469243590875621 0.48701705642923993 0 0.15374559180276859 0.46569249780197453 0 0.13469243590875621 0.48701705642923993 0 0.15538984013346299 0.4843255982648208 0 0.34935550477757588 0.47062277059001317 0 0.34428803819210407 0.5 0 0.36855302384870531 0.47568942338680931 0 0.34428803819210407 0.5 0 0.37396231045924128 0.499999999999997 0 0.36855302384870531 0.47568942338680931 0 0.36855302384870531 0.47568942338680931 0 0.35652303172677458 0.45242587724443267 0 0.37731054342266529 0.45523599042389329 0 0.35652303172677458 0.45242587724443267 0 0.37502514857406283 0.4397897122098714 0 0.37731054342266529 0.45523599042389329 0 0.35652303172677458 0.45242587724443267 0 0.35993648973407061 0.43547358975796618 0 0.37502514857406283 0.4397897122098714 0 0.35652303172677458 0.45242587724443267 0 0.33513547984576159 0.45400007804266562 0 0.34126384280917582 0.43326244675215742 0 0.35652303172677458 0.45242587724443267 0 0.34126384280917582 0.43326244675215742 0 0.35993648973407061 0.43547358975796618 0 0.34935550477757588 0.47062277059001317 0 0.35652303172677458 0.45242587724443267 0 0.33513547984576159 0.45400007804266562 0 0.34935550477757588 0.47062277059001317 0 0.36855302384870531 0.47568942338680931 0 0.35652303172677458 0.45242587724443267 0 0.34935550477757588 0.47062277059001317 0 0.33513547984576159 0.45400007804266562 0 0.33277392716014059 0.47393124538307391 0 0.33513547984576159 0.45400007804266562 0 0.31828576151462762 0.44049288289104549 0 0.34126384280917582 0.43326244675215742 0 0.33513547984576159 0.45400007804266562 0 0.31828576151462762 0.44049288289104549 0 0.31059146437458579 0.46227164554514211 0 0.33513547984576159 0.45400007804266562 0 0.33277392716014059 0.47393124538307391 0 0.31059146437458579 0.46227164554514211 0 0.31388513677108332 0.47938383150278879 0 0.33277392716014059 0.47393124538307391 0 0.31059146437458579 0.46227164554514211 0 0.34935550477757588 0.47062277059001317 0 0.34428803819210407 0.5 0 0.33277392716014059 0.47393124538307391 0 0.34428803819210407 0.5 0 0.33277392716014059 0.47393124538307391 0 0.31461376592496682 0.5 0 0.31388513677108332 0.47938383150278879 0 0.33277392716014059 0.47393124538307391 0 0.31461376592496682 0.5 0 0.31388513677108332 0.47938383150278879 0 0.31461376592496682 0.5 0 0.29756138962464002 0.48133243508293938 0 0.31461376592496682 0.5 0 0.29756138962464002 0.48133243508293938 0 0.28493949365782961 0.50000000000000233 0 0.31388513677108332 0.47938383150278879 0 0.29756138962464002 0.48133243508293938 0 0.31059146437458579 0.46227164554514211 0 0.29756138962464002 0.48133243508293938 0 0.2861558367139026 0.46799755528583781 0 0.31059146437458579 0.46227164554514211 0 0.29756138962464002 0.48133243508293938 0 0.27426649321441221 0.47957222014802903 0 0.2861558367139026 0.46799755528583781 0 0.29756138962464002 0.48133243508293938 0 0.28493949365782961 0.50000000000000233 0 0.27426649321441221 0.47957222014802903 0 0.28493949365782961 0.50000000000000233 0 0.27426649321441221 0.47957222014802903 0 0.28493949365782961 0.50000000000000233 0 0.25621788691749497 0.5 0 0.2579342557920084 0.48678940613732452 0 0.28493949365782961 0.50000000000000233 0 0.27426649321441221 0.47957222014802903 0 0.2579342557920084 0.48678940613732452 0 0.27426649321441221 0.47957222014802903 0 0.26359349277099581 0.45914444029605539 0 0.27426649321441221 0.47957222014802903 0 0.26359349277099581 0.45914444029605539 0 0.2861558367139026 0.46799755528583781 0 0.27426649321441221 0.47957222014802903 0 0.26246186971365659 0.47401921117649332 0 0.26359349277099581 0.45914444029605539 0 0.27426649321441221 0.47957222014802903 0 0.26246186971365659 0.47401921117649332 0 0.2579342557920084 0.48678940613732452 0 0.2426392417506788 0.47788479099749259 0 0.25405323707721028 0.47057077812456438 0 0.2579342557920084 0.48678940613732452 0 0.26246186971365659 0.47401921117649332 0 0.25405323707721028 0.47057077812456438 0 0.2579342557920084 0.48678940613732452 0 0.26359349277099581 0.45914444029605539 0 0.26176073672697819 0.45563660412683099 0 0.26851180791150431 0.43914123261514609 0 0.247657921545612 0.45019175147730811 0 0.25292049232757879 0.43871666044408197 0 0.26176073672697819 0.45563660412683099 0 0.25292049232757879 0.43871666044408197 0 0.26176073672697819 0.45563660412683099 0 0.25292049232757879 0.43871666044408197 0 0.26176073672697819 0.45563660412683099 0 0.26851180791150431 0.43914123261514609 0 0.247657921545612 0.45019175147730811 0 0.25292049232757879 0.43871666044408197 0 0.23633178511494091 0.46719382378508312 0 0.25405323707721028 0.47057077812456438 0 0.26176073672697819 0.45563660412683099 0 0.26246186971365659 0.47401921117649332 0 0.25405323707721028 0.47057077812456438 0 0.26359349277099581 0.45914444029605539 0 0.25405323707721028 0.47057077812456438 0 0.26359349277099581 0.45914444029605539 0 0.26176073672697819 0.45563660412683099 0 0.26359349277099581 0.45914444029605539 0 0.26176073672697819 0.45563660412683099 0 0.26359349277099581 0.45914444029605539 0 0.28072814750923603 0.45227863284880537 0 0.2861558367139026 0.46799755528583781 0 0.28072814750923603 0.45227863284880537 0 0.27609359854813742 0.44479658879008288 0 0.28502647422856092 0.44232485302237939 0 0.26359349277099581 0.45914444029605539 0 0.28072814750923603 0.45227863284880537 0 0.27609359854813742 0.44479658879008288 0 0.26359349277099581 0.45914444029605539 0 0.26851180791150431 0.43914123261514609 0 0.27609359854813742 0.44479658879008288 0 0.26851180791150431 0.43914123261514609 0 0.27609359854813742 0.44479658879008288 0 0.28025388563795522 0.43501799701347599 0 0.27609359854813742 0.44479658879008288 0 0.28502647422856092 0.44232485302237939 0 0.28025388563795522 0.43501799701347599 0 0.28072814750923603 0.45227863284880537 0 0.28502647422856092 0.44232485302237939 0 0.29721393931886519 0.44541276723023798 0 0.28502647422856092 0.44232485302237939 0 0.29721393931886519 0.44541276723023798 0 0.29084280012861058 0.43411827922929458 0 0.28072814750923603 0.45227863284880537 0 0.2861558367139026 0.46799755528583781 0 0.29721393931886519 0.44541276723023798 0 0.2861558367139026 0.46799755528583781 0 0.31059146437458579 0.46227164554514211 0 0.29721393931886519 0.44541276723023798 0 0.31828576151462762 0.44049288289104549 0 0.31059146437458579 0.46227164554514211 0 0.29721393931886519 0.44541276723023798 0 0.31828576151462762 0.44049288289104549 0 0.29721393931886519 0.44541276723023798 0 0.301021691047478 0.42416596861403572 0 0.301021691047478 0.42416596861403572 0 0.32035561237766691 0.42117458003980268 0 0.301021691047478 0.42416596861403572 0 0.30796425128865468 0.40653982824131868 0 0.32035561237766691 0.42117458003980268 0 0.301021691047478 0.42416596861403572 0 0.30796425128865468 0.40653982824131868 0 0.28666771435401828 0.39985699748491182 0 0.28168776971728932 0.42715735718826919 0 0.28666771435401828 0.39985699748491182 0 0.301021691047478 0.42416596861403572 0 0.28168776971728932 0.42715735718826919 0 0.28666771435401828 0.39985699748491182 0 0.301021691047478 0.42416596861403572 0 0.28168776971728932 0.42715735718826919 0 0.29721393931886519 0.44541276723023798 0 0.301021691047478 0.42416596861403572 0 0.29084280012861058 0.43411827922929458 0 0.301021691047478 0.42416596861403572 0 0.29084280012861058 0.43411827922929458 0 0.28168776971728932 0.42715735718826919 0 0.28502647422856092 0.44232485302237939 0 0.29084280012861058 0.43411827922929458 0 0.28025388563795522 0.43501799701347599 0 0.29084280012861058 0.43411827922929458 0 0.28168776971728932 0.42715735718826919 0 0.28025388563795522 0.43501799701347599 0 0.26851180791150431 0.43914123261514609 0 0.28168776971728932 0.42715735718826919 0 0.25642942977380528 0.43106538537461703 0 0.28168776971728932 0.42715735718826919 0 0.25642942977380528 0.43106538537461703 0 0.28168776971728932 0.42715735718826919 0 0.28025388563795522 0.43501799701347599 0 0.26851180791150431 0.43914123261514609 0 0.28168776971728932 0.42715735718826919 0 0.28025388563795522 0.43501799701347599 0 0.28168776971728932 0.42715735718826919 0 0.26879210652995639 0.40410843846240813 0 0.28666771435401828 0.39985699748491182 0 0.28168776971728932 0.42715735718826919 0 0.25642942977380528 0.43106538537461703 0 0.26879210652995639 0.40410843846240813 0 0.25642942977380528 0.43106538537461703 0 0.26879210652995639 0.40410843846240813 0 0.25197626658944411 0.41745737260860238 0 0.25642942977380528 0.43106538537461703 0 0.26879210652995639 0.40410843846240813 0 0.25197626658944411 0.41745737260860238 0 0.25039525491995968 0.39949738483197411 0 0.26879210652995639 0.40410843846240813 0 0.24948432561859479 0.4321399477906937 0 0.25197626658944411 0.41745737260860238 0 0.25642942977380528 0.43106538537461703 0 0.24948432561859479 0.4321399477906937 0 0.25642942977380528 0.43106538537461703 0 0.24948432561859479 0.4321399477906937 0 0.25292049232757879 0.43871666044408197 0 0.24948432561859479 0.4321399477906937 0 0.25292049232757879 0.43871666044408197 0 0.25642942977380528 0.43106538537461703 0 0.25292049232757879 0.43871666044408197 0 0.25642942977380528 0.43106538537461703 0 0.25292049232757879 0.43871666044408197 0 0.26851180791150431 0.43914123261514609 0 0.25642942977380528 0.43106538537461703 0 0.2643164579933277 0.3865335059999998 0 0.25156559034844328 0.37889076564355278 0 0.26855685770354909 0.3741682996939919 0 0.2643164579933277 0.3865335059999998 0 0.25156559034844328 0.37889076564355278 0 0.25039525491995968 0.39949738483197411 0 0.2643164579933277 0.3865335059999998 0 0.25039525491995968 0.39949738483197411 0 0.26879210652995639 0.40410843846240813 0 0.26879210652995639 0.40410843846240813 0 0.28115478328610821 0.3771514915501995 0 0.28666771435401828 0.39985699748491182 0 0.26879210652995639 0.40410843846240813 0 0.28115478328610821 0.3771514915501995 0 0.2643164579933277 0.3865335059999998 0 0.26879210652995639 0.40410843846240813 0 0.28115478328610821 0.3771514915501995 0 0.2643164579933277 0.3865335059999998 0 0.28115478328610821 0.3771514915501995 0 0.26855685770354909 0.3741682996939919 0 0.28115478328610821 0.3771514915501995 0 0.28666771435401828 0.39985699748491182 0 0.29164765899074568 0.37255663778155401 0 0.28666771435401828 0.39985699748491182 0 0.30445079766162281 0.38982948478026042 0 0.29164765899074568 0.37255663778155401 0 0.28666771435401828 0.39985699748491182 0 0.29164765899074568 0.37255663778155401 0 0.30796425128865468 0.40653982824131868 0 0.28666771435401828 0.39985699748491182 0 0.30445079766162281 0.38982948478026042 0 0.30796425128865468 0.40653982824131868 0 0.30445079766162281 0.38982948478026042 0 0.32342263878487898 0.39623643552248228 0 0.30445079766162281 0.38982948478026042 0 0.31255172488981631 0.37395752487103517 0 0.29164765899074568 0.37255663778155401 0 0.33842019921257599 0.37643213739866949 0 0.32342263878487898 0.39623643552248228 0 0.31255172488981631 0.37395752487103517 0 0.33842019921257599 0.37643213739866949 0 0.31255172488981631 0.37395752487103517 0 0.30445079766162281 0.38982948478026042 0 0.32342263878487898 0.39623643552248228 0 0.31255172488981631 0.37395752487103517 0 0.33842019921257599 0.37643213739866949 0 0.3401123653711467 0.39421042832760222 0 0.32342263878487898 0.39623643552248228 0 0.3401123653711467 0.39421042832760222 0 0.32342263878487898 0.39623643552248228 0 0.33609712110277379 0.41144089476721041 0 0.30796425128865468 0.40653982824131868 0 0.32342263878487898 0.39623643552248228 0 0.32035561237766691 0.42117458003980268 0 0.32342263878487898 0.39623643552248228 0 0.32035561237766691 0.42117458003980268 0 0.33609712110277379 0.41144089476721041 0 0.31828576151462762 0.44049288289104549 0 0.32035561237766691 0.42117458003980268 0 0.34126384280917582 0.43326244675215742 0 0.31828576151462762 0.44049288289104549 0 0.301021691047478 0.42416596861403572 0 0.32035561237766691 0.42117458003980268 0 0.32035561237766691 0.42117458003980268 0 0.34126384280917582 0.43326244675215742 0 0.33609712110277379 0.41144089476721041 0 0.3401123653711467 0.39421042832760222 0 0.33609712110277379 0.41144089476721041 0 0.35449789816016342 0.41396104791469152 0 0.34126384280917582 0.43326244675215742 0 0.33609712110277379 0.41144089476721041 0 0.35449789816016342 0.41396104791469152 0 0.34126384280917582 0.43326244675215742 0 0.35449789816016342 0.41396104791469152 0 0.35993648973407061 0.43547358975796618 0 0.35993648973407061 0.43547358975796618 0 0.3761068813621975 0.42207822940548428 0 0.37502514857406283 0.4397897122098714 0 0.35449789816016342 0.41396104791469152 0 0.35993648973407061 0.43547358975796618 0 0.3761068813621975 0.42207822940548428 0 0.35449789816016342 0.41396104791469152 0 0.37026059137101719 0.40424103822755808 0 0.3761068813621975 0.42207822940548428 0 0.35449789816016342 0.41396104791469152 0 0.37026059137101719 0.40424103822755808 0 0.35679076164928869 0.39489463181457768 0 0.37026059137101719 0.40424103822755808 0 0.37141634134416712 0.39198704342809532 0 0.35679076164928869 0.39489463181457768 0 0.37026059137101719 0.40424103822755808 0 0.37141634134416712 0.39198704342809532 0 0.37758746502571572 0.39709640299692173 0 0.37141634134416712 0.39198704342809532 0 0.36428867353533573 0.3789067499263038 0 0.35679076164928869 0.39489463181457768 0 0.37141634134416712 0.39198704342809532 0 0.36428867353533573 0.3789067499263038 0 0.3849560004162208 0.3861100408530761 0 0.36428867353533573 0.3789067499263038 0 0.37007180766908038 0.37005079458721563 0 0.39015714785809519 0.38138136245393928 0 0.33842019921257599 0.37643213739866949 0 0.3401123653711467 0.39421042832760222 0 0.35679076164928869 0.39489463181457768 0 0.33842019921257599 0.37643213739866949 0 0.36428867353533573 0.3789067499263038 0 0.33842019921257599 0.37643213739866949 0 0.36428867353533573 0.3789067499263038 0 0.35679076164928869 0.39489463181457768 0 0.3401123653711467 0.39421042832760222 0 0.35449789816016342 0.41396104791469152 0 0.35679076164928869 0.39489463181457768 0 0.35527494708807938 0.35009082086139681 0 0.34459536571489607 0.35057979472299539 0 0.3583704141452046 0.36103381410175922 0 0.35527494708807938 0.35009082086139681 0 0.36664567010696042 0.34957578258582261 0 0.3514883383852565 0.33917389203501069 0 0.36664567010696042 0.34957578258582261 0 0.3514883383852565 0.33917389203501069 0 0.35527494708807938 0.35009082086139681 0 0.34459536571489607 0.35057979472299539 0 0.3514883383852565 0.33917389203501069 0 0.34459536571489607 0.35057979472299539 0 0.34622082159567108 0.36459641121726538 0 0.3583704141452046 0.36103381410175922 0 0.34459536571489607 0.35057979472299539 0 0.3583704141452046 0.36103381410175922 0 0.36428867353533573 0.3789067499263038 0 0.34622082159567108 0.36459641121726538 0 0.3583704141452046 0.36103381410175922 0 0.33842019921257599 0.37643213739866949 0 0.36428867353533573 0.3789067499263038 0 0.34622082159567108 0.36459641121726538 0 0.3583704141452046 0.36103381410175922 0 0.37007180766908038 0.37005079458721563 0 0.36821270889931251 0.36156791865280452 0 0.36428867353533573 0.3789067499263038 0 0.3583704141452046 0.36103381410175922 0 0.37007180766908038 0.37005079458721563 0 0.37007180766908038 0.37005079458721563 0 0.36821270889931251 0.36156791865280452 0 0.37840140898252689 0.36547857251988158 0 0.36664567010696042 0.34957578258582261 0 0.37840140898252689 0.36547857251988158 0 0.37911528252024168 0.36215060550131117 0 0.36821270889931251 0.36156791865280452 0 0.36664567010696042 0.34957578258582261 0 0.37840140898252689 0.36547857251988158 0 0.36664567010696042 0.34957578258582261 0 0.37840140898252689 0.36547857251988158 0 0.3583704141452046 0.36103381410175922 0 0.36821270889931251 0.36156791865280452 0 0.36664567010696042 0.34957578258582261 0 0.35527494708807938 0.35009082086139681 0 0.3583704141452046 0.36103381410175922 0 0.36664567010696042 0.34957578258582261 0 0.36664567010696042 0.34957578258582261 0 0.36816863689598978 0.3345045726215875 0 0.38523408214048699 0.33291454303906481 0 0.36664567010696042 0.34957578258582261 0 0.36816863689598978 0.3345045726215875 0 0.35444825932224538 0.33307551293013199 0 0.36816863689598978 0.3345045726215875 0 0.36545813465675081 0.32121006836212762 0 0.38523408214048699 0.33291454303906481 0 0.36664567010696042 0.34957578258582261 0 0.35444825932224538 0.33307551293013199 0 0.36816863689598978 0.3345045726215875 0 0.36545813465675081 0.32121006836212762 0 0.35444825932224538 0.33307551293013199 0 0.36545813465675081 0.32121006836212762 0 0.37037531897166531 0.31069891070043321 0 0.38162766334343901 0.31154091328445122 0 0.36545813465675081 0.32121006836212762 0 0.36305718467691528 0.30666110055069562 0 0.37037531897166531 0.31069891070043321 0 0.36545813465675081 0.32121006836212762 0 0.35733458493141962 0.30984126580807309 0 0.36305718467691528 0.30666110055069562 0 0.35444825932224538 0.33307551293013199 0 0.34225084853753102 0.31657524327444098 0 0.36545813465675081 0.32121006836212762 0 0.34568218717301558 0.30950559368518898 0 0.3526740015490844 0.32057509411200602 0 0.35444825932224538 0.33307551293013199 0 0.34225084853753102 0.31657524327444098 0 0.36545813465675081 0.32121006836212762 0 0.3526740015490844 0.32057509411200602 0 0.34568218717301558 0.30950559368518898 0 0.36545813465675081 0.32121006836212762 0 0.34568218717301558 0.30950559368518898 0 0.35733458493141962 0.30984126580807309 0 0.35444825932224538 0.33307551293013199 0 0.33633100666355259 0.32877200148419861 0 0.34225084853753102 0.31657524327444098 0 0.36545813465675081 0.32121006836212762 0 0.3526740015490844 0.32057509411200602 0 0.35444825932224538 0.33307551293013199 0 0.3526740015490844 0.32057509411200602 0 0.34225084853753102 0.31657524327444098 0 0.34568218717301558 0.30950559368518898 0 0.34225084853753102 0.31657524327444098 0 0.34568218717301558 0.30950559368518898 0 0.36664567010696042 0.34957578258582261 0 0.35444825932224538 0.33307551293013199 0 0.3514883383852565 0.33917389203501069 0 0.35444825932224538 0.33307551293013199 0 0.3514883383852565 0.33917389203501069 0 0.33633100666355259 0.32877200148419861 0 0.3514883383852565 0.33917389203501069 0 0.33633100666355259 0.32877200148419861 0 0.34459536571489607 0.35057979472299539 0 0.3514883383852565 0.33917389203501069 0 0.34120476482720652 0.340744960382863 0 0.34120476482720652 0.340744960382863 0 0.33633100666355259 0.32877200148419861 0 0.33082031728458899 0.34012577534422977 0 0.3514883383852565 0.33917389203501069 0 0.34120476482720652 0.340744960382863 0 0.33633100666355259 0.32877200148419861 0 0.33633100666355259 0.32877200148419861 0 0.33082031728458899 0.34012577534422977 0 0.33633100666355259 0.32877200148419861 0 0.33060552978222379 0.31841359404764352 0 0.31901208891036997 0.31688669803932279 0 0.33909857960402162 0.31430861314578479 0 0.33696087055371698 0.31700999751504672 0 0.33683462619180371 0.31239263961056868 0 0.33909857960402162 0.31430861314578479 0 0.34225084853753102 0.31657524327444098 0 0.33696087055371698 0.31700999751504672 0 0.33909857960402162 0.31430861314578479 0 0.34017347423440392 0.31190268403712951 0 0.33683462619180371 0.31239263961056868 0 0.34225084853753102 0.31657524327444098 0 0.34017347423440392 0.31190268403712951 0 0.34568218717301558 0.30950559368518898 0 0.33909857960402162 0.31430861314578479 0 0.34225084853753102 0.31657524327444098 0 0.34017347423440392 0.31190268403712951 0 0.33633100666355259 0.32877200148419861 0 0.34225084853753102 0.31657524327444098 0 0.33633100666355259 0.32877200148419861 0 0.34225084853753102 0.31657524327444098 0 0.33696087055371698 0.31700999751504672 0 0.33633100666355259 0.32877200148419861 0 0.33696087055371698 0.31700999751504672 0 0.33060552978222379 0.31841359404764352 0 0.33696087055371698 0.31700999751504672 0 0.33060552978222379 0.31841359404764352 0 0.33081419997152089 0.3125663133332845 0 0.33696087055371698 0.31700999751504672 0 0.33081419997152089 0.3125663133332845 0 0.33683462619180371 0.31239263961056868 0 0.33633100666355259 0.32877200148419861 0 0.31901208891036997 0.31688669803932279 0 0.31621393277439591 0.32904084685953372 0 0.33633100666355259 0.32877200148419861 0 0.31901208891036997 0.31688669803932279 0 0.33060552978222379 0.31841359404764352 0 0.33081419997152089 0.3125663133332845 0 0.31901208891036997 0.31688669803932279 0 0.33081419997152089 0.3125663133332845 0 0.31901208891036997 0.31688669803932279 0 0.32560324832700088 0.30928723785036633 0 0.31901208891036997 0.31688669803932279 0 0.31621393277439591 0.32904084685953372 0 0.3088184588804489 0.31623795607664212 0 0.33633100666355259 0.32877200148419861 0 0.33082031728458899 0.34012577534422977 0 0.31621393277439591 0.32904084685953372 0 0.33082031728458899 0.34012577534422977 0 0.31621393277439591 0.32904084685953372 0 0.31396210154674398 0.34673139593193281 0 0.33082031728458899 0.34012577534422977 0 0.31621393277439591 0.32904084685953372 0 0.33082031728458899 0.34012577534422977 0 0.31396210154674398 0.34673139593193281 0 0.32127993168054891 0.3597820058513021 0 0.33082031728458899 0.34012577534422977 0 0.32127993168054891 0.3597820058513021 0 0.31396210154674398 0.34673139593193281 0 0.32127993168054891 0.3597820058513021 0 0.30721380414706562 0.35965676850280409 0 0.34459536571489607 0.35057979472299539 0 0.33082031728458899 0.34012577534422977 0 0.33602432548942063 0.35825224587168408 0 0.33082031728458899 0.34012577534422977 0 0.33602432548942063 0.35825224587168408 0 0.32127993168054891 0.3597820058513021 0 0.34459536571489607 0.35057979472299539 0 0.34622082159567108 0.36459641121726538 0 0.33602432548942063 0.35825224587168408 0 0.34459536571489607 0.35057979472299539 0 0.34120476482720652 0.340744960382863 0 0.33082031728458899 0.34012577534422977 0 0.34459536571489607 0.35057979472299539 0 0.33082031728458899 0.34012577534422977 0 0.33842019921257599 0.37643213739866949 0 0.34622082159567108 0.36459641121726538 0 0.33602432548942063 0.35825224587168408 0 0.33842019921257599 0.37643213739866949 0 0.33602432548942063 0.35825224587168408 0 0.32127993168054891 0.3597820058513021 0 0.33842019921257599 0.37643213739866949 0 0.32127993168054891 0.3597820058513021 0 0.31255172488981631 0.37395752487103517 0 0.32127993168054891 0.3597820058513021 0 0.31255172488981631 0.37395752487103517 0 0.30721380414706562 0.35965676850280409 0 0.31255172488981631 0.37395752487103517 0 0.30721380414706562 0.35965676850280409 0 0.29164765899074568 0.37255663778155401 0 0.31396210154674398 0.34673139593193281 0 0.30721380414706562 0.35965676850280409 0 0.29662760362747309 0.34525627807819631 0 0.30721380414706562 0.35965676850280409 0 0.29662760362747309 0.34525627807819631 0 0.29164765899074568 0.37255663778155401 0 0.29662760362747309 0.34525627807819631 0 0.27856833600623998 0.3628125607906616 0 0.27042473508260229 0.34539937640461987 0 0.29662760362747309 0.34525627807819631 0 0.29164765899074568 0.37255663778155401 0 0.29662760362747309 0.34525627807819631 0 0.29164765899074568 0.37255663778155401 0 0.27856833600623998 0.3628125607906616 0 0.28115478328610821 0.3771514915501995 0 0.29164765899074568 0.37255663778155401 0 0.27856833600623998 0.3628125607906616 0 0.28115478328610821 0.3771514915501995 0 0.26855685770354909 0.3741682996939919 0 0.27856833600623998 0.3628125607906616 0 0.26855685770354909 0.3741682996939919 0 0.27856833600623998 0.3628125607906616 0 0.26245683025672029 0.36194044532217751 0 0.27856833600623998 0.3628125607906616 0 0.27042473508260229 0.34539937640461987 0 0.26245683025672029 0.36194044532217751 0 0.27042473508260229 0.34539937640461987 0 0.25064727239517642 0.34654954873073862 0 0.26245683025672029 0.36194044532217751 0 0.24760467270676731 0.36223298937037912 0 0.25064727239517642 0.34654954873073862 0 0.26245683025672029 0.36194044532217751 0 0.24760467270676731 0.36223298937037912 0 0.25156559034844328 0.37889076564355278 0 0.26245683025672029 0.36194044532217751 0 0.25156559034844328 0.37889076564355278 0 0.26855685770354909 0.3741682996939919 0 0.26245683025672029 0.36194044532217751 0 0.2426406438223194 0.32734299413788043 0 0.26132218697085702 0.32885214107208532 0 0.25208636049982069 0.30943209974716263 0 0.26132218697085702 0.32885214107208532 0 0.27109694513823202 0.31262013557690649 0 0.25208636049982069 0.30943209974716263 0 0.27042473508260229 0.34539937640461987 0 0.25064727239517642 0.34654954873073862 0 0.26132218697085702 0.32885214107208532 0 0.2426406438223194 0.32734299413788043 0 0.25064727239517642 0.34654954873073862 0 0.26132218697085702 0.32885214107208532 0 0.27042473508260229 0.34539937640461987 0 0.26132218697085702 0.32885214107208532 0 0.28172891695550778 0.32826774690462329 0 0.26132218697085702 0.32885214107208532 0 0.27109694513823202 0.31262013557690649 0 0.28172891695550778 0.32826774690462329 0 0.27109694513823202 0.31262013557690649 0 0.28732274696696802 0.31642626220001169 0 0.28172891695550778 0.32826774690462329 0 0.28732274696696802 0.31642626220001169 0 0.28172891695550778 0.32826774690462329 0 0.30160754826420211 0.31795591837483872 0 0.29662760362747309 0.34525627807819631 0 0.27042473508260229 0.34539937640461987 0 0.28172891695550778 0.32826774690462329 0 0.29662760362747309 0.34525627807819631 0 0.28172891695550778 0.32826774690462329 0 0.30160754826420211 0.31795591837483872 0 0.31621393277439591 0.32904084685953372 0 0.31396210154674398 0.34673139593193281 0 0.29662760362747309 0.34525627807819631 0 0.29662760362747309 0.34525627807819631 0 0.30160754826420211 0.31795591837483872 0 0.31621393277439591 0.32904084685953372 0 0.29662760362747309 0.34525627807819631 0 0.30160754826420211 0.31795591837483872 0 0.31901208891036997 0.31688669803932279 0 0.3088184588804489 0.31623795607664212 0 0.3016931711571878 0.30500139459444631 0 0.30160754826420211 0.31795591837483872 0 0.3088184588804489 0.31623795607664212 0 0.30270558864714842 0.31193639414113322 0 0.30160754826420211 0.31795591837483872 0 0.30270558864714842 0.31193639414113322 0 0.31621393277439591 0.32904084685953372 0 0.30160754826420211 0.31795591837483872 0 0.31621393277439591 0.32904084685953372 0 0.30160754826420211 0.31795591837483872 0 0.3088184588804489 0.31623795607664212 0 0.31901208891036997 0.31688669803932279 0 0.3016931711571878 0.30500139459444631 0 0.31901208891036997 0.31688669803932279 0 0.3016931711571878 0.30500139459444631 0 0.31301830810002212 0.30491822586835299 0 0.30698082218778699 0.2983079323345636 0 0.3016931711571878 0.30500139459444631 0 0.31301830810002212 0.30491822586835299 0 0.30698082218778699 0.2983079323345636 0 0.31301830810002212 0.30491822586835299 0 0.31406041336605323 0.29886567628377692 0 0.30698082218778699 0.2983079323345636 0 0.3016931711571878 0.30500139459444631 0 0.29716398917646691 0.29386220611013369 0 0.3088184588804489 0.31623795607664212 0 0.3016931711571878 0.30500139459444631 0 0.30270558864714842 0.31193639414113322 0 0.30698082218778699 0.2983079323345636 0 0.3073942969167856 0.28771566729309678 0 0.31406041336605323 0.29886567628377692 0 0.3073942969167856 0.28771566729309678 0 0.29716398917646691 0.29386220611013369 0 0.29191393389411407 0.28614345739746883 0 0.30698082218778699 0.2983079323345636 0 0.3073942969167856 0.28771566729309678 0 0.29716398917646691 0.29386220611013369 0 0.3073942969167856 0.28771566729309678 0 0.29191393389411407 0.28614345739746883 0 0.29474532487731392 0.27658974380899082 0 0.29191393389411407 0.28614345739746883 0 0.28437425340400552 0.29311609114956982 0 0.27802500032839988 0.27725325221147279 0 0.29716398917646691 0.29386220611013369 0 0.29191393389411407 0.28614345739746883 0 0.28437425340400552 0.29311609114956982 0 0.3016931711571878 0.30500139459444631 0 0.28437425340400552 0.29311609114956982 0 0.28200574590966387 0.30307991828599451 0 0.3016931711571878 0.30500139459444631 0 0.28437425340400552 0.29311609114956982 0 0.30160754826420211 0.31795591837483872 0 0.30270558864714842 0.31193639414113322 0 0.28200574590966387 0.30307991828599451 0 0.3016931711571878 0.30500139459444631 0 0.30270558864714842 0.31193639414113322 0 0.28200574590966387 0.30307991828599451 0 0.28732274696696802 0.31642626220001169 0 0.30160754826420211 0.31795591837483872 0 0.28200574590966387 0.30307991828599451 0 0.3016931711571878 0.30500139459444631 0 0.29716398917646691 0.29386220611013369 0 0.28437425340400552 0.29311609114956982 0 0.30160754826420211 0.31795591837483872 0 0.28200574590966387 0.30307991828599451 0 0.27109694513823202 0.31262013557690649 0 0.28732274696696802 0.31642626220001169 0 0.28200574590966387 0.30307991828599451 0 0.27109694513823202 0.31262013557690649 0 0.28200574590966387 0.30307991828599451 0 0.26240394355512342 0.28820391819715308 0 0.28437425340400552 0.29311609114956982 0 0.26240394355512342 0.28820391819715308 0 0.27802500032839988 0.27725325221147279 0 0.28437425340400552 0.29311609114956982 0 0.28200574590966387 0.30307991828599451 0 0.26240394355512342 0.28820391819715308 0 0.28200574590966387 0.30307991828599451 0 0.26240394355512342 0.28820391819715308 0 0.2417236004856452 0.28815133642157881 0 0.26240394355512342 0.28820391819715308 0 0.25208636049982069 0.30943209974716263 0 0.2417236004856452 0.28815133642157881 0 0.26240394355512342 0.28820391819715308 0 0.25700292827476068 0.26946639172479941 0 0.27109694513823202 0.31262013557690649 0 0.26240394355512342 0.28820391819715308 0 0.25208636049982069 0.30943209974716263 0 0.26272059505331552 0.25415433454263281 0 0.25700292827476068 0.26946639172479941 0 0.27193607706702699 0.26241741391323758 0 0.2498169077616185 0.2567610006248765 0 0.26272059505331552 0.25415433454263281 0 0.25330967369459462 0.24464425994429659 0 0.2498169077616185 0.2567610006248765 0 0.26272059505331552 0.25415433454263281 0 0.25700292827476068 0.26946639172479941 0 0.26240394355512342 0.28820391819715308 0 0.25700292827476068 0.26946639172479941 0 0.27802500032839988 0.27725325221147279 0 0.25700292827476068 0.26946639172479941 0 0.27802500032839988 0.27725325221147279 0 0.27193607706702699 0.26241741391323758 0 0.27802500032839988 0.27725325221147279 0 0.27193607706702699 0.26241741391323758 0 0.28556821896690709 0.26452230970922269 0 0.27193607706702699 0.26241741391323758 0 0.28556821896690709 0.26452230970922269 0 0.27889214637354459 0.24811480575974629 0 0.26272059505331552 0.25415433454263281 0 0.27193607706702699 0.26241741391323758 0 0.27889214637354459 0.24811480575974629 0 0.28556821896690709 0.26452230970922269 0 0.29230539062393113 0.25211069622483201 0 0.27889214637354459 0.24811480575974629 0 0.28556821896690709 0.26452230970922269 0 0.29230539062393113 0.25211069622483201 0 0.29827750353641852 0.26261388119880408 0 0.27802500032839988 0.27725325221147279 0 0.28556821896690709 0.26452230970922269 0 0.29474532487731392 0.27658974380899082 0 0.29191393389411407 0.28614345739746883 0 0.27802500032839988 0.27725325221147279 0 0.29474532487731392 0.27658974380899082 0 0.28556821896690709 0.26452230970922269 0 0.29474532487731392 0.27658974380899082 0 0.29827750353641852 0.26261388119880408 0 0.3073942969167856 0.28771566729309678 0 0.29474532487731392 0.27658974380899082 0 0.31287738932824932 0.2703595473099118 0 0.29474532487731392 0.27658974380899082 0 0.29827750353641852 0.26261388119880408 0 0.31287738932824932 0.2703595473099118 0 0.31287738932824932 0.2703595473099118 0 0.30359849104984371 0.24235528973672671 0 0.31841864486346638 0.24792162156080891 0 0.29230539062393113 0.25211069622483201 0 0.29827750353641852 0.26261388119880408 0 0.30359849104984371 0.24235528973672671 0 0.29827750353641852 0.26261388119880408 0 0.31287738932824932 0.2703595473099118 0 0.30359849104984371 0.24235528973672671 0 0.31287738932824932 0.2703595473099118 0 0.30359849104984371 0.24235528973672671 0 0.33338070527004737 0.26646184033987502 0 0.31287738932824932 0.2703595473099118 0 0.31841864486346638 0.24792162156080891 0 0.34382687823700492 0.25366359617077439 0 0.31841864486346638 0.24792162156080891 0 0.33338070527004737 0.26646184033987502 0 0.34382687823700492 0.25366359617077439 0 0.31841864486346638 0.24792162156080891 0 0.33338070527004737 0.26646184033987502 0 0.34382687823700492 0.25366359617077439 0 0.34863723543240033 0.26915327591184118 0 0.34332197672421472 0.27801246655867667 0 0.33338070527004737 0.26646184033987502 0 0.33350778201950609 0.28083208387246239 0 0.34332197672421472 0.27801246655867667 0 0.33338070527004737 0.26646184033987502 0 0.34863723543240033 0.26915327591184118 0 0.33350778201950609 0.28083208387246239 0 0.31287738932824932 0.2703595473099118 0 0.32856748906528571 0.28968934725970907 0 0.33338070527004737 0.26646184033987502 0 0.33350778201950609 0.28083208387246239 0 0.31287738932824932 0.2703595473099118 0 0.3073942969167856 0.28771566729309678 0 0.31287738932824932 0.2703595473099118 0 0.32215628760665488 0.29836380488309688 0 0.31287738932824932 0.2703595473099118 0 0.32215628760665488 0.29836380488309688 0 0.31287738932824932 0.2703595473099118 0 0.32215628760665488 0.29836380488309688 0 0.32856748906528571 0.28968934725970907 0 0.3073942969167856 0.28771566729309678 0 0.31406041336605323 0.29886567628377692 0 0.32215628760665488 0.29836380488309688 0 0.32215628760665488 0.29836380488309688 0 0.33016202930519323 0.30031992534260538 0 0.32856748906528571 0.28968934725970907 0 0.31901208891036997 0.31688669803932279 0 0.31301830810002212 0.30491822586835299 0 0.32075235201901647 0.30502275103977378 0 0.31406041336605323 0.29886567628377692 0 0.32215628760665488 0.29836380488309688 0 0.32075235201901647 0.30502275103977378 0 0.31301830810002212 0.30491822586835299 0 0.31406041336605323 0.29886567628377692 0 0.32075235201901647 0.30502275103977378 0 0.32215628760665488 0.29836380488309688 0 0.32075235201901647 0.30502275103977378 0 0.33016202930519323 0.30031992534260538 0 0.32075235201901647 0.30502275103977378 0 0.33047197770824338 0.30611994353629751 0 0.33016202930519323 0.30031992534260538 0 0.31901208891036997 0.31688669803932279 0 0.32075235201901647 0.30502275103977378 0 0.32560324832700088 0.30928723785036633 0 0.32075235201901647 0.30502275103977378 0 0.32560324832700088 0.30928723785036633 0 0.33047197770824338 0.30611994353629751 0 0.33579181368901168 0.30860514466836131 0 0.33047197770824338 0.30611994353629751 0 0.33016202930519323 0.30031992534260538 0 0.33081419997152089 0.3125663133332845 0 0.33579181368901168 0.30860514466836131 0 0.33047197770824338 0.30611994353629751 0 0.33081419997152089 0.3125663133332845 0 0.33579181368901168 0.30860514466836131 0 0.33683462619180371 0.31239263961056868 0 0.33081419997152089 0.3125663133332845 0 0.32560324832700088 0.30928723785036633 0 0.33047197770824338 0.30611994353629751 0 0.33016202930519323 0.30031992534260538 0 0.33696978968083219 0.29725524985876589 0 0.34568218717301558 0.30950559368518898 0 0.33696978968083219 0.29725524985876589 0 0.34343713935598719 0.29603825528447519 0 0.34568218717301558 0.30950559368518898 0 0.33579181368901168 0.30860514466836131 0 0.34017347423440392 0.31190268403712951 0 0.34568218717301558 0.30950559368518898 0 0.33579181368901168 0.30860514466836131 0 0.33016202930519323 0.30031992534260538 0 0.34568218717301558 0.30950559368518898 0 0.33016202930519323 0.30031992534260538 0 0.34568218717301558 0.30950559368518898 0 0.33579181368901168 0.30860514466836131 0 0.34017347423440392 0.31190268403712951 0 0.33683462619180371 0.31239263961056868 0 0.33350778201950609 0.28083208387246239 0 0.32856748906528571 0.28968934725970907 0 0.33700010350467929 0.29072312772185049 0 0.33696978968083219 0.29725524985876589 0 0.32856748906528571 0.28968934725970907 0 0.33700010350467929 0.29072312772185049 0 0.33016202930519323 0.30031992534260538 0 0.33696978968083219 0.29725524985876589 0 0.32856748906528571 0.28968934725970907 0 0.33700010350467929 0.29072312772185049 0 0.34343713935598719 0.29603825528447519 0 0.34430552381965612 0.28744014176740468 0 0.33696978968083219 0.29725524985876589 0 0.33700010350467929 0.29072312772185049 0 0.34343713935598719 0.29603825528447519 0 0.34332197672421472 0.27801246655867667 0 0.33350778201950609 0.28083208387246239 0 0.34430552381965612 0.28744014176740468 0 0.33350778201950609 0.28083208387246239 0 0.33700010350467929 0.29072312772185049 0 0.34430552381965612 0.28744014176740468 0 0.35352022326879029 0.29335674492628327 0 0.36135825936456473 0.27720789616737751 0 0.35352022326879029 0.29335674492628327 0 0.35344759262779352 0.28464295565290881 0 0.36135825936456473 0.27720789616737751 0 0.34430552381965612 0.28744014176740468 0 0.35352022326879029 0.29335674492628327 0 0.35344759262779352 0.28464295565290881 0 0.34332197672421472 0.27801246655867667 0 0.34430552381965612 0.28744014176740468 0 0.35344759262779352 0.28464295565290881 0 0.34343713935598719 0.29603825528447519 0 0.34430552381965612 0.28744014176740468 0 0.35352022326879029 0.29335674492628327 0 0.35352022326879029 0.29335674492628327 0 0.34568218717301558 0.30950559368518898 0 0.35352022326879029 0.29335674492628327 0 0.34568218717301558 0.30950559368518898 0 0.35514083321899681 0.30198830063428012 0 0.34343713935598719 0.29603825528447519 0 0.35352022326879029 0.29335674492628327 0 0.34568218717301558 0.30950559368518898 0 0.35352022326879029 0.29335674492628327 0 0.35514083321899681 0.30198830063428012 0 0.36195317253204018 0.29780163432255141 0 0.34568218717301558 0.30950559368518898 0 0.35514083321899681 0.30198830063428012 0 0.35733458493141962 0.30984126580807309 0 0.35514083321899681 0.30198830063428012 0 0.35733458493141962 0.30984126580807309 0 0.36305718467691528 0.30666110055069562 0 0.36305718467691528 0.30666110055069562 0 0.36195317253204018 0.29780163432255141 0 0.37371371942476278 0.30118678036688318 0 0.35514083321899681 0.30198830063428012 0 0.36305718467691528 0.30666110055069562 0 0.36195317253204018 0.29780163432255141 0 0.36305718467691528 0.30666110055069562 0 0.37371371942476278 0.30118678036688318 0 0.37037531897166531 0.31069891070043321 0 0.35352022326879029 0.29335674492628327 0 0.36678832337421391 0.2896910772473662 0 0.36135825936456473 0.27720789616737751 0 0.35352022326879029 0.29335674492628327 0 0.36195317253204018 0.29780163432255141 0 0.36678832337421391 0.2896910772473662 0 0.36195317253204018 0.29780163432255141 0 0.37371371942476278 0.30118678036688318 0 0.36678832337421391 0.2896910772473662 0 0.37371371942476278 0.30118678036688318 0 0.36678832337421391 0.2896910772473662 0 0.37823952315864767 0.28991388237668109 0 0.36678832337421391 0.2896910772473662 0 0.36135825936456473 0.27720789616737751 0 0.37593253452791597 0.27847926729816458 0 0.36678832337421391 0.2896910772473662 0 0.37593253452791597 0.27847926729816458 0 0.37823952315864767 0.28991388237668109 0 0.36135825936456473 0.27720789616737751 0 0.37116635397794578 0.26917948567102928 0 0.37593253452791597 0.27847926729816458 0 0.36135825936456473 0.27720789616737751 0 0.37116635397794578 0.26917948567102928 0 0.36466296129523779 0.25837231629832791 0 0.37116635397794578 0.26917948567102928 0 0.36466296129523779 0.25837231629832791 0 0.38549904435347071 0.26308103642588132 0 0.36466296129523779 0.25837231629832791 0 0.34382687823700492 0.25366359617077439 0 0.36466296129523779 0.25837231629832791 0 0.34382687823700492 0.25366359617077439 0 0.35805444133798131 0.23916082611570549 0 0.36466296129523779 0.25837231629832791 0 0.34382687823700492 0.25366359617077439 0 0.34863723543240033 0.26915327591184118 0 0.34382687823700492 0.25366359617077439 0 0.34863723543240033 0.26915327591184118 0 0.36135825936456473 0.27720789616737751 0 0.36466296129523779 0.25837231629832791 0 0.34863723543240033 0.26915327591184118 0 0.35344759262779352 0.28464295565290881 0 0.34863723543240033 0.26915327591184118 0 0.34332197672421472 0.27801246655867667 0 0.35344759262779352 0.28464295565290881 0 0.34863723543240033 0.26915327591184118 0 0.35344759262779352 0.28464295565290881 0 0.36135825936456473 0.27720789616737751 0 0.34863723543240033 0.26915327591184118 0 0.39826526426375142 0.27531139250368131 0 0.40519193428938372 0.26753140778175122 0 0.38549904435347071 0.26308103642588132 0 0.39826526426375142 0.27531139250368131 0 0.38549904435347071 0.26308103642588132 0 0.39036319390396118 0.28088383608733108 0 0.39826526426375142 0.27531139250368131 0 0.39036319390396118 0.28088383608733108 0 0.40147097097432438 0.28569848077632432 0 0.39826526426375142 0.27531139250368131 0 0.40519193428938372 0.26753140778175122 0 0.40880117779761688 0.27936220144711837 0 0.39826526426375142 0.27531139250368131 0 0.40147097097432438 0.28569848077632432 0 0.40880117779761688 0.27936220144711837 0 0.39961422368721461 0.25504884523086307 0 0.38549904435347071 0.26308103642588132 0 0.39116481085226162 0.24486815483127761 0 0.40519193428938372 0.26753140778175122 0 0.38549904435347071 0.26308103642588132 0 0.40519193428938372 0.26753140778175122 0 0.39961422368721461 0.25504884523086307 0 0.38549904435347071 0.26308103642588132 0 0.39961422368721461 0.25504884523086307 0 0.41397834584231102 0.25681423376881951 0 0.40307186745932611 0.24164668840001571 0 0.36466296129523779 0.25837231629832791 0 0.38549904435347071 0.26308103642588132 0 0.36466296129523779 0.25837231629832791 0 0.38549904435347071 0.26308103642588132 0 0.37815314678861961 0.2361950327528887 0 0.38549904435347071 0.26308103642588132 0 0.39036319390396118 0.28088383608733108 0 0.37116635397794578 0.26917948567102928 0 0.38549904435347071 0.26308103642588132 0 0.37593253452791597 0.27847926729816458 0 0.38549904435347071 0.26308103642588132 0 0.39036319390396118 0.28088383608733108 0 0.37593253452791597 0.27847926729816458 0 0.39036319390396118 0.28088383608733108 0 0.37823952315864767 0.28991388237668109 0 0.38425262571988889 0.29857719065072758 0 0.39036319390396118 0.28088383608733108 0 0.37593253452791597 0.27847926729816458 0 0.37823952315864767 0.28991388237668109 0 0.39036319390396118 0.28088383608733108 0 0.38425262571988889 0.29857719065072758 0 0.39522734345445382 0.29868663574878029 0 0.37371371942476278 0.30118678036688318 0 0.37823952315864767 0.28991388237668109 0 0.38425262571988889 0.29857719065072758 0 0.37371371942476278 0.30118678036688318 0 0.37037531897166531 0.31069891070043321 0 0.38162766334343901 0.31154091328445122 0 0.37371371942476278 0.30118678036688318 0 0.38162766334343901 0.31154091328445122 0 0.38425262571988889 0.29857719065072758 0 0.38162766334343901 0.31154091328445122 0 0.38425262571988889 0.29857719065072758 0 0.39522734345445382 0.29868663574878029 0 0.38162766334343901 0.31154091328445122 0 0.39522734345445382 0.29868663574878029 0 0.39512059533734428 0.31549681214274089 0 0.39522734345445382 0.29868663574878029 0 0.40435819158071779 0.30684858181294988 0 0.39512059533734428 0.31549681214274089 0 0.39522734345445382 0.29868663574878029 0 0.40575382751835581 0.29315731625591912 0 0.4069376581743549 0.29961231736441057 0 0.39522734345445382 0.29868663574878029 0 0.40435819158071779 0.30684858181294988 0 0.4069376581743549 0.29961231736441057 0 0.39036319390396118 0.28088383608733108 0 0.39522734345445382 0.29868663574878029 0 0.40147097097432438 0.28569848077632432 0 0.39036319390396118 0.28088383608733108 0 0.39522734345445382 0.29868663574878029 0 0.39522734345445382 0.29868663574878029 0 0.40575382751835581 0.29315731625591912 0 0.40147097097432438 0.28569848077632432 0 0.40575382751835581 0.29315731625591912 0 0.40147097097432438 0.28569848077632432 0 0.41022674122736741 0.28714255580328468 0 0.41022674122736741 0.28714255580328468 0 0.41846517594878002 0.28758139729751608 0 0.40880117779761688 0.27936220144711837 0 0.40147097097432438 0.28569848077632432 0 0.41022674122736741 0.28714255580328468 0 0.40880117779761688 0.27936220144711837 0 0.40575382751835581 0.29315731625591912 0 0.41022674122736741 0.28714255580328468 0 0.41214123447383899 0.29304788372113361 0 0.40575382751835581 0.29315731625591912 0 0.41214123447383899 0.29304788372113361 0 0.4069376581743549 0.29961231736441057 0 0.41022674122736741 0.28714255580328468 0 0.41214123447383899 0.29304788372113361 0 0.41452285689095653 0.28918343420339282 0 0.41214123447383899 0.29304788372113361 0 0.41846517594878002 0.28758139729751608 0 0.41387163546797517 0.29915131761412828 0 0.41214123447383899 0.29304788372113361 0 0.41452285689095653 0.28918343420339282 0 0.41846517594878002 0.28758139729751608 0 0.41022674122736741 0.28714255580328468 0 0.41452285689095653 0.28918343420339282 0 0.41846517594878002 0.28758139729751608 0 0.40435819158071779 0.30684858181294988 0 0.42066466591091017 0.30755569824776863 0 0.41387163546797517 0.29915131761412828 0 0.41846517594878002 0.28758139729751608 0 0.42066466591091017 0.30755569824776863 0 0.41387163546797517 0.29915131761412828 0 0.41846517594878002 0.28758139729751608 0 0.42066466591091017 0.30755569824776863 0 0.40435819158071779 0.30684858181294988 0 0.4069376581743549 0.29961231736441057 0 0.41387163546797517 0.29915131761412828 0 0.41214123447383899 0.29304788372113361 0 0.4069376581743549 0.29961231736441057 0 0.41387163546797517 0.29915131761412828 0 0.41846517594878002 0.28758139729751608 0 0.42066466591091017 0.30755569824776863 0 0.42959106245679052 0.29878591055785397 0 0.42066466591091017 0.30755569824776863 0 0.42959106245679052 0.29878591055785397 0 0.43684692280088178 0.31432230815606849 0 0.42959106245679052 0.29878591055785397 0 0.44355740545584932 0.2979495767182736 0 0.43684692280088178 0.31432230815606849 0 0.42993902303643139 0.29020725334454472 0 0.42814244828430559 0.27651212880453457 0 0.44355740545584932 0.2979495767182736 0 0.42814244828430559 0.27651212880453457 0 0.44355740545584932 0.2979495767182736 0 0.41846517594878002 0.28758139729751608 0 0.42814244828430559 0.27651212880453457 0 0.41846517594878002 0.28758139729751608 0 0.42993902303643139 0.29020725334454472 0 0.42814244828430559 0.27651212880453457 0 0.41846517594878002 0.28758139729751608 0 0.42959106245679052 0.29878591055785397 0 0.42993902303643139 0.29020725334454472 0 0.42959106245679052 0.29878591055785397 0 0.42993902303643139 0.29020725334454472 0 0.44355740545584932 0.2979495767182736 0 0.4309122531914491 0.27334391020664139 0 0.42814244828430559 0.27651212880453457 0 0.44237588972945951 0.28309317948643842 0 0.4309122531914491 0.27334391020664139 0 0.42488482422529639 0.27198177913762278 0 0.4308863835490086 0.25944163347710658 0 0.4309122531914491 0.27334391020664139 0 0.42488482422529639 0.27198177913762278 0 0.42488482422529639 0.27198177913762278 0 0.42814244828430559 0.27651212880453457 0 0.41677054875167269 0.27219192327567121 0 0.42488482422529639 0.27198177913762278 0 0.42814244828430559 0.27651212880453457 0 0.4309122531914491 0.27334391020664139 0 0.42488482422529639 0.27198177913762278 0 0.42814244828430559 0.27651212880453457 0 0.4309122531914491 0.27334391020664139 0 0.42814244828430559 0.27651212880453457 0 0.41846517594878002 0.28758139729751608 0 0.41677054875167269 0.27219192327567121 0 0.40880117779761688 0.27936220144711837 0 0.40519193428938372 0.26753140778175122 0 0.42488482422529639 0.27198177913762278 0 0.41846517594878002 0.28758139729751608 0 0.41677054875167269 0.27219192327567121 0 0.40519193428938372 0.26753140778175122 0 0.42488482422529639 0.27198177913762278 0 0.41677054875167269 0.27219192327567121 0 0.41846517594878002 0.28758139729751608 0 0.42814244828430559 0.27651212880453457 0 0.41677054875167269 0.27219192327567121 0 0.40519193428938372 0.26753140778175122 0 0.41677054875167269 0.27219192327567121 0 0.40880117779761688 0.27936220144711837 0 0.40519193428938372 0.26753140778175122 0 0.42488482422529639 0.27198177913762278 0 0.41397834584231102 0.25681423376881951 0 0.40519193428938372 0.26753140778175122 0 0.39961422368721461 0.25504884523086307 0 0.41397834584231102 0.25681423376881951 0 0.42488482422529639 0.27198177913762278 0 0.41397834584231102 0.25681423376881951 0 0.4309122531914491 0.27334391020664139 0 0.4308863835490086 0.25944163347710658 0 0.44495931258128413 0.25727629667548702 0 0.41397834584231102 0.25681423376881951 0 0.4308863835490086 0.25944163347710658 0 0.42496870083025928 0.24686168917106019 0 0.42488482422529639 0.27198177913762278 0 0.41397834584231102 0.25681423376881951 0 0.4308863835490086 0.25944163347710658 0 0.4308863835490086 0.25944163347710658 0 0.42496870083025928 0.24686168917106019 0 0.43837580178273289 0.24680007367012541 0 0.4309122531914491 0.27334391020664139 0 0.44495931258128413 0.25727629667548702 0 0.4308863835490086 0.25944163347710658 0 0.44495931258128413 0.25727629667548702 0 0.43837580178273289 0.24680007367012541 0 0.44495931258128413 0.25727629667548702 0 0.44737338517546887 0.26898295358922358 0 0.45686443189494502 0.26612695281798732 0 0.4309122531914491 0.27334391020664139 0 0.45675754303419958 0.27918465465678072 0 0.4309122531914491 0.27334391020664139 0 0.44495931258128413 0.25727629667548702 0 0.44737338517546887 0.26898295358922358 0 0.4309122531914491 0.27334391020664139 0 0.44737338517546887 0.26898295358922358 0 0.45675754303419958 0.27918465465678072 0 0.4309122531914491 0.27334391020664139 0 0.45675754303419958 0.27918465465678072 0 0.44237588972945951 0.28309317948643842 0 0.45686443189494502 0.26612695281798732 0 0.46819191412942962 0.25963055775866262 0 0.4741215185531451 0.28177671001353882 0 0.45675754303419958 0.27918465465678072 0 0.45686443189494502 0.26612695281798732 0 0.4741215185531451 0.28177671001353882 0 0.44737338517546887 0.26898295358922358 0 0.45675754303419958 0.27918465465678072 0 0.45686443189494502 0.26612695281798732 0 0.44495931258128413 0.25727629667548702 0 0.45852910184224138 0.25462015848999148 0 0.4590063719711216 0.24120868314433469 0 0.44495931258128413 0.25727629667548702 0 0.45686443189494502 0.26612695281798732 0 0.45852910184224138 0.25462015848999148 0 0.45686443189494502 0.26612695281798732 0 0.45852910184224138 0.25462015848999148 0 0.46819191412942962 0.25963055775866262 0 0.45852910184224138 0.25462015848999148 0 0.46819191412942962 0.25963055775866262 0 0.4636234786344271 0.248858302053486 0 0.46819191412942962 0.25963055775866262 0 0.48480915465651769 0.26160644518178522 0 0.48173234060001391 0.24202447164634611 0 0.46819191412942962 0.25963055775866262 0 0.48480915465651769 0.26160644518178522 0 0.4741215185531451 0.28177671001353882 0 0.46819191412942962 0.25963055775866262 0 0.4741215185531451 0.28177671001353882 0 0.50000000000000044 0.27445278127299061 0 0.48480915465651769 0.26160644518178522 0 0.4741215185531451 0.28177671001353882 0 0.50000000000000044 0.27445278127299061 0 0.4741215185531451 0.28177671001353882 0 0.50000000000000044 0.27445278127299061 0 0.5 0.25014770521738799 0 0.48480915465651769 0.26160644518178522 0 0.5 0.25014770521738799 0 0.48480915465651769 0.26160644518178522 0 0.48173234060001391 0.24202447164634611 0 0.5 0.30044679143159381 0 0.48839006755769132 0.28957800830580088 0 0.47943875167761951 0.30163575050508018 0 0.5 0.30044679143159381 0 0.47943875167761951 0.30163575050508018 0 0.48475598480209642 0.32149479099662093 0 0.50000000000000044 0.27445278127299061 0 0.5 0.30044679143159381 0 0.48839006755769132 0.28957800830580088 0 0.50000000000000044 0.27445278127299061 0 0.48839006755769132 0.28957800830580088 0 0.4741215185531451 0.28177671001353882 0 0.4741215185531451 0.28177671001353882 0 0.47943875167761951 0.30163575050508018 0 0.46743458931244858 0.29268242657516769 0 0.4741215185531451 0.28177671001353882 0 0.47943875167761951 0.30163575050508018 0 0.48839006755769132 0.28957800830580088 0 0.4741215185531451 0.28177671001353882 0 0.47943875167761951 0.30163575050508018 0 0.47943875167761951 0.30163575050508018 0 0.48475598480209642 0.32149479099662093 0 0.47943875167761951 0.30163575050508018 0 0.4593335680805401 0.30065093224644912 0 0.46743458931244858 0.29268242657516769 0 0.4593335680805401 0.30065093224644912 0 0.44355740545584932 0.2979495767182736 0 0.45897236262739333 0.31938702463201241 0 0.47943875167761951 0.30163575050508018 0 0.4593335680805401 0.30065093224644912 0 0.45897236262739333 0.31938702463201241 0 0.4741215185531451 0.28177671001353882 0 0.45684451893849209 0.28666631353560218 0 0.45675754303419958 0.27918465465678072 0 0.4741215185531451 0.28177671001353882 0 0.45684451893849209 0.28666631353560218 0 0.4741215185531451 0.28177671001353882 0 0.46743458931244858 0.29268242657516769 0 0.45684451893849209 0.28666631353560218 0 0.4593335680805401 0.30065093224644912 0 0.46743458931244858 0.29268242657516769 0 0.45684451893849209 0.28666631353560218 0 0.4593335680805401 0.30065093224644912 0 0.45684451893849209 0.28666631353560218 0 0.44997838065772189 0.29147373628050538 0 0.45675754303419958 0.27918465465678072 0 0.45684451893849209 0.28666631353560218 0 0.45142495662009519 0.28517198047291947 0 0.4593335680805401 0.30065093224644912 0 0.44997838065772189 0.29147373628050538 0 0.44355740545584932 0.2979495767182736 0 0.42814244828430559 0.27651212880453457 0 0.44237588972945951 0.28309317948643842 0 0.44355740545584932 0.2979495767182736 0 0.45142495662009519 0.28517198047291947 0 0.44997838065772189 0.29147373628050538 0 0.44237588972945951 0.28309317948643842 0 0.45675754303419958 0.27918465465678072 0 0.45142495662009519 0.28517198047291947 0 0.44237588972945951 0.28309317948643842 0 0.45684451893849209 0.28666631353560218 0 0.45142495662009519 0.28517198047291947 0 0.44997838065772189 0.29147373628050538 0 0.44997838065772189 0.29147373628050538 0 0.44237588972945951 0.28309317948643842 0 0.44355740545584932 0.2979495767182736 0 0.44355740545584932 0.2979495767182736 0 0.45897236262739333 0.31938702463201241 0 0.43684692280088178 0.31432230815606849 0 0.44355740545584932 0.2979495767182736 0 0.45897236262739333 0.31938702463201241 0 0.441287273824293 0.32851947151086691 0 0.45897236262739333 0.31938702463201241 0 0.43684692280088178 0.31432230815606849 0 0.441287273824293 0.32851947151086691 0 0.45270995462532421 0.33640894693137302 0 0.45897236262739333 0.31938702463201241 0 0.45270995462532421 0.33640894693137302 0 0.44311022260466421 0.35015607530347381 0 0.43298718923885232 0.33884303725074721 0 0.441287273824293 0.32851947151086691 0 0.45270995462532421 0.33640894693137302 0 0.43298718923885232 0.33884303725074721 0 0.45897236262739333 0.31938702463201241 0 0.474387319798937 0.34082447254575121 0 0.45270995462532421 0.33640894693137302 0 0.45897236262739333 0.31938702463201241 0 0.474387319798937 0.34082447254575121 0 0.45270995462532421 0.33640894693137302 0 0.474387319798937 0.34082447254575121 0 0.46659172026561968 0.34575495339581802 0 0.45897236262739333 0.31938702463201241 0 0.474387319798937 0.34082447254575121 0 0.48475598480209642 0.32149479099662093 0 0.47943875167761951 0.30163575050508018 0 0.45897236262739333 0.31938702463201241 0 0.48475598480209642 0.32149479099662093 0 0.474387319798937 0.34082447254575121 0 0.49007321792657499 0.34135383148816112 0 0.46659172026561968 0.34575495339581802 0 0.49007321792657499 0.34135383148816112 0 0.46659172026561968 0.34575495339581802 0 0.474387319798937 0.34082447254575121 0 0.49007321792657499 0.34135383148816112 0 0.48475598480209642 0.32149479099662093 0 0.49007321792657499 0.34135383148816112 0 0.48475598480209642 0.32149479099662093 0 0.49579975121510639 0.34028051106052098 0 0.5 0.32644080159019689 0 0.5 0.3524348117488002 0 0.49007321792657499 0.34135383148816112 0 0.48475598480209642 0.32149479099662093 0 0.5 0.32644080159019689 0 0.49007321792657499 0.34135383148816112 0 0.49579975121510639 0.34028051106052098 0 0.5 0.32644080159019689 0 0.49007321792657499 0.34135383148816112 0 0.49579975121510639 0.34028051106052098 0 0.5 0.30044679143159381 0 0.48475598480209642 0.32149479099662093 0 0.5 0.32644080159019689 0 0.49774736403160069 0.37001557617191011 0 0.5 0.3524348117488002 0 0.49999999999999922 0.37842882190740351 0 0.49007321792657499 0.34135383148816112 0 0.49774736403160069 0.37001557617191011 0 0.4790754544806643 0.370213071766955 0 0.49774736403160069 0.37001557617191011 0 0.49999999999999922 0.37842882190740351 0 0.49007321792657499 0.34135383148816112 0 0.49774736403160069 0.37001557617191011 0 0.5 0.3524348117488002 0 0.49007321792657499 0.34135383148816112 0 0.49774736403160069 0.37001557617191011 0 0.49007321792657499 0.34135383148816112 0 0.49579975121510639 0.34028051106052098 0 0.5 0.3524348117488002 0 0.49007321792657499 0.34135383148816112 0 0.4790754544806643 0.370213071766955 0 0.46659172026561968 0.34575495339581802 0 0.4790754544806643 0.370213071766955 0 0.46041625459185392 0.36949650334887602 0 0.46659172026561968 0.34575495339581802 0 0.46041625459185392 0.36949650334887602 0 0.46659172026561968 0.34575495339581802 0 0.44311022260466421 0.35015607530347381 0 0.46659172026561968 0.34575495339581802 0 0.44311022260466421 0.35015607530347381 0 0.45270995462532421 0.33640894693137302 0 0.46659172026561968 0.34575495339581802 0 0.44311022260466421 0.35015607530347381 0 0.44311022260466421 0.35015607530347381 0 0.44553079787280547 0.36660560671099041 0 0.43539985895938049 0.36089406365331539 0 0.44311022260466421 0.35015607530347381 0 0.43298718923885232 0.33884303725074721 0 0.46041625459185392 0.36949650334887602 0 0.44311022260466421 0.35015607530347381 0 0.46041625459185392 0.36949650334887602 0 0.44311022260466421 0.35015607530347381 0 0.44553079787280547 0.36660560671099041 0 0.46041625459185392 0.36949650334887602 0 0.44553079787280547 0.36660560671099041 0 0.45320419620829677 0.38206702179637309 0 0.44553079787280547 0.36660560671099041 0 0.43806043229102692 0.37086454850370121 0 0.45320419620829677 0.38206702179637309 0 0.44553079787280547 0.36660560671099041 0 0.43806043229102692 0.37086454850370121 0 0.43539985895938049 0.36089406365331539 0 0.42748120257709848 0.36945893815936259 0 0.41815281613889721 0.36481048072180122 0 0.42571467485899278 0.35341651155778048 0 0.43806043229102692 0.37086454850370121 0 0.42748120257709848 0.36945893815936259 0 0.42868610583755329 0.37529711219846418 0 0.42748120257709848 0.36945893815936259 0 0.42571467485899278 0.35341651155778048 0 0.43539985895938049 0.36089406365331539 0 0.42748120257709848 0.36945893815936259 0 0.42571467485899278 0.35341651155778048 0 0.43806043229102692 0.37086454850370121 0 0.43539985895938049 0.36089406365331539 0 0.42748120257709848 0.36945893815936259 0 0.42748120257709848 0.36945893815936259 0 0.41815281613889721 0.36481048072180122 0 0.42868610583755329 0.37529711219846418 0 0.40416801546680992 0.36852720260055533 0 0.41240990735164801 0.37779841218934618 0 0.42868610583755329 0.37529711219846418 0 0.40416801546680992 0.36852720260055533 0 0.42868610583755329 0.37529711219846418 0 0.41815281613889721 0.36481048072180122 0 0.40416801546680992 0.36852720260055533 0 0.42868610583755329 0.37529711219846418 0 0.41815281613889721 0.36481048072180122 0 0.40416801546680992 0.36852720260055533 0 0.40471408195403158 0.3573526390928437 0 0.42571467485899278 0.35341651155778048 0 0.40471408195403158 0.3573526390928437 0 0.41815281613889721 0.36481048072180122 0 0.42571467485899278 0.35341651155778048 0 0.40471408195403158 0.3573526390928437 0 0.42571467485899278 0.35341651155778048 0 0.40471408195403158 0.3573526390928437 0 0.40501002962422322 0.34461901771600179 0 0.42571467485899278 0.35341651155778048 0 0.414447140581086 0.33791867204476561 0 0.40501002962422322 0.34461901771600179 0 0.44311022260466421 0.35015607530347381 0 0.42571467485899278 0.35341651155778048 0 0.44311022260466421 0.35015607530347381 0 0.43539985895938049 0.36089406365331539 0 0.42571467485899278 0.35341651155778048 0 0.44311022260466421 0.35015607530347381 0 0.42571467485899278 0.35341651155778048 0 0.43298718923885232 0.33884303725074721 0 0.441287273824293 0.32851947151086691 0 0.43298718923885232 0.33884303725074721 0 0.42286415587303933 0.32752999919802139 0 0.42571467485899278 0.35341651155778048 0 0.42286415587303933 0.32752999919802139 0 0.42571467485899278 0.35341651155778048 0 0.43298718923885232 0.33884303725074721 0 0.42286415587303933 0.32752999919802139 0 0.43298718923885232 0.33884303725074721 0 0.42286415587303933 0.32752999919802139 0 0.42066466591091017 0.30755569824776863 0 0.43684692280088178 0.31432230815606849 0 0.42286415587303933 0.32752999919802139 0 0.441287273824293 0.32851947151086691 0 0.43684692280088178 0.31432230815606849 0 0.42286415587303933 0.32752999919802139 0 0.40435819158071779 0.30684858181294988 0 0.42286415587303933 0.32752999919802139 0 0.42066466591091017 0.30755569824776863 0 0.42286415587303933 0.32752999919802139 0 0.40435819158071779 0.30684858181294988 0 0.42286415587303933 0.32752999919802139 0 0.40419970196808802 0.32610915970725868 0 0.40435819158071779 0.30684858181294988 0 0.42066466591091017 0.30755569824776863 0 0.42286415587303933 0.32752999919802139 0 0.42571467485899278 0.35341651155778048 0 0.42286415587303933 0.32752999919802139 0 0.414447140581086 0.33791867204476561 0 0.42286415587303933 0.32752999919802139 0 0.414447140581086 0.33791867204476561 0 0.40419970196808802 0.32610915970725868 0 0.414447140581086 0.33791867204476561 0 0.40419970196808802 0.32610915970725868 0 0.40501002962422322 0.34461901771600179 0 0.38523408214048699 0.33291454303906481 0 0.40501002962422322 0.34461901771600179 0 0.40419970196808802 0.32610915970725868 0 0.38523408214048699 0.33291454303906481 0 0.40501002962422322 0.34461901771600179 0 0.38523408214048699 0.33291454303906481 0 0.3890634705749545 0.34915014981232811 0 0.40501002962422322 0.34461901771600179 0 0.39512059533734428 0.31549681214274089 0 0.40419970196808802 0.32610915970725868 0 0.38523408214048699 0.33291454303906481 0 0.40435819158071779 0.30684858181294988 0 0.39512059533734428 0.31549681214274089 0 0.40419970196808802 0.32610915970725868 0 0.36545813465675081 0.32121006836212762 0 0.38523408214048699 0.33291454303906481 0 0.36545813465675081 0.32121006836212762 0 0.38162766334343901 0.31154091328445122 0 0.38523408214048699 0.33291454303906481 0 0.38162766334343901 0.31154091328445122 0 0.39512059533734428 0.31549681214274089 0 0.38523408214048699 0.33291454303906481 0 0.36664567010696042 0.34957578258582261 0 0.38523408214048699 0.33291454303906481 0 0.3890634705749545 0.34915014981232811 0 0.36664567010696042 0.34957578258582261 0 0.38371348904907038 0.36128876662790671 0 0.36664567010696042 0.34957578258582261 0 0.3890634705749545 0.34915014981232811 0 0.38371348904907038 0.36128876662790671 0 0.36664567010696042 0.34957578258582261 0 0.37911528252024168 0.36215060550131117 0 0.38371348904907038 0.36128876662790671 0 0.37840140898252689 0.36547857251988158 0 0.39003310728468438 0.37475821417965111 0 0.39015714785809519 0.38138136245393928 0 0.37007180766908038 0.37005079458721563 0 0.37840140898252689 0.36547857251988158 0 0.39015714785809519 0.38138136245393928 0 0.37840140898252689 0.36547857251988158 0 0.39015714785809519 0.38138136245393928 0 0.37840140898252689 0.36547857251988158 0 0.37911528252024168 0.36215060550131117 0 0.38336191074995052 0.36560548116012132 0 0.37911528252024168 0.36215060550131117 0 0.38371348904907038 0.36128876662790671 0 0.38336191074995052 0.36560548116012132 0 0.37911528252024168 0.36215060550131117 0 0.38371348904907038 0.36128876662790671 0 0.37840140898252689 0.36547857251988158 0 0.38799703420668191 0.37003987891237661 0 0.39003310728468438 0.37475821417965111 0 0.38799703420668191 0.37003987891237661 0 0.38336191074995052 0.36560548116012132 0 0.38733341658915132 0.36660056967367982 0 0.38799703420668191 0.37003987891237661 0 0.38733341658915132 0.36660056967367982 0 0.39226030995708999 0.36634519367486051 0 0.38371348904907038 0.36128876662790671 0 0.38726403688860572 0.36372537029274371 0 0.39590810786524661 0.36398314563970402 0 0.37840140898252689 0.36547857251988158 0 0.38799703420668191 0.37003987891237661 0 0.38336191074995052 0.36560548116012132 0 0.38371348904907038 0.36128876662790671 0 0.38726403688860572 0.36372537029274371 0 0.38336191074995052 0.36560548116012132 0 0.38733341658915132 0.36660056967367982 0 0.38726403688860572 0.36372537029274371 0 0.38371348904907038 0.36128876662790671 0 0.38336191074995052 0.36560548116012132 0 0.38726403688860572 0.36372537029274371 0 0.38733341658915132 0.36660056967367982 0 0.38726403688860572 0.36372537029274371 0 0.39226030995708999 0.36634519367486051 0 0.38371348904907038 0.36128876662790671 0 0.39590810786524661 0.36398314563970402 0 0.40471408195403158 0.3573526390928437 0 0.38726403688860572 0.36372537029274371 0 0.39226030995708999 0.36634519367486051 0 0.39590810786524661 0.36398314563970402 0 0.39226030995708999 0.36634519367486051 0 0.39590810786524661 0.36398314563970402 0 0.39570170604809651 0.36979148114570598 0 0.39003310728468438 0.37475821417965111 0 0.39570170604809651 0.36979148114570598 0 0.39941887690296413 0.37582773502336758 0 0.38799703420668191 0.37003987891237661 0 0.39003310728468438 0.37475821417965111 0 0.39570170604809651 0.36979148114570598 0 0.38799703420668191 0.37003987891237661 0 0.39226030995708999 0.36634519367486051 0 0.39570170604809651 0.36979148114570598 0 0.40416801546680992 0.36852720260055533 0 0.39941887690296413 0.37582773502336758 0 0.41240990735164801 0.37779841218934618 0 0.39590810786524661 0.36398314563970402 0 0.39570170604809651 0.36979148114570598 0 0.40416801546680992 0.36852720260055533 0 0.39570170604809651 0.36979148114570598 0 0.40416801546680992 0.36852720260055533 0 0.39941887690296413 0.37582773502336758 0 0.39590810786524661 0.36398314563970402 0 0.40416801546680992 0.36852720260055533 0 0.40471408195403158 0.3573526390928437 0 0.3890634705749545 0.34915014981232811 0 0.40471408195403158 0.3573526390928437 0 0.40501002962422322 0.34461901771600179 0 0.3890634705749545 0.34915014981232811 0 0.38371348904907038 0.36128876662790671 0 0.40471408195403158 0.3573526390928437 0 0.38371348904907038 0.36128876662790671 0 0.40471408195403158 0.3573526390928437 0 0.40549684373375211 0.40213241551364692 0 0.3849560004162208 0.3861100408530761 0 0.39150998324612812 0.41334305189902443 0 0.40549684373375211 0.40213241551364692 0 0.39015714785809519 0.38138136245393928 0 0.40549684373375211 0.40213241551364692 0 0.3849560004162208 0.3861100408530761 0 0.39015714785809519 0.38138136245393928 0 0.40549684373375211 0.40213241551364692 0 0.40404337740845048 0.38270973757100801 0 0.39015714785809519 0.38138136245393928 0 0.39941887690296413 0.37582773502336758 0 0.40404337740845048 0.38270973757100801 0 0.41240990735164801 0.37779841218934618 0 0.40404337740845048 0.38270973757100801 0 0.39015714785809519 0.38138136245393928 0 0.39003310728468438 0.37475821417965111 0 0.39941887690296413 0.37582773502336758 0 0.39015714785809519 0.38138136245393928 0 0.39941887690296413 0.37582773502336758 0 0.40404337740845048 0.38270973757100801 0 0.39015714785809519 0.38138136245393928 0 0.36428867353533573 0.3789067499263038 0 0.39015714785809519 0.38138136245393928 0 0.36428867353533573 0.3789067499263038 0 0.3849560004162208 0.3861100408530761 0 0.39015714785809519 0.38138136245393928 0 0.3849560004162208 0.3861100408530761 0 0.39150998324612812 0.41334305189902443 0 0.3849560004162208 0.3861100408530761 0 0.37758746502571572 0.39709640299692173 0 0.38186348682492621 0.40529558294704687 0 0.37141634134416712 0.39198704342809532 0 0.3849560004162208 0.3861100408530761 0 0.37758746502571572 0.39709640299692173 0 0.3849560004162208 0.3861100408530761 0 0.38186348682492621 0.40529558294704687 0 0.39150998324612812 0.41334305189902443 0 0.37026059137101719 0.40424103822755808 0 0.37758746502571572 0.39709640299692173 0 0.38186348682492621 0.40529558294704687 0 0.38186348682492621 0.40529558294704687 0 0.3761068813621975 0.42207822940548428 0 0.39150998324612812 0.41334305189902443 0 0.37026059137101719 0.40424103822755808 0 0.38186348682492621 0.40529558294704687 0 0.3761068813621975 0.42207822940548428 0 0.3761068813621975 0.42207822940548428 0 0.39150998324612812 0.41334305189902443 0 0.39806396607603522 0.44057606294497281 0 0.3761068813621975 0.42207822940548428 0 0.39806396607603522 0.44057606294497281 0 0.37502514857406283 0.4397897122098714 0 0.4042499862879696 0.42468215902425299 0 0.39150998324612812 0.41334305189902443 0 0.39806396607603522 0.44057606294497281 0 0.39150998324612812 0.41334305189902443 0 0.39806396607603522 0.44057606294497281 0 0.40549684373375211 0.40213241551364692 0 0.4042499862879696 0.42468215902425299 0 0.39150998324612812 0.41334305189902443 0 0.40549684373375211 0.40213241551364692 0 0.4042499862879696 0.42468215902425299 0 0.42138166899839508 0.41886529542634271 0 0.40549684373375211 0.40213241551364692 0 0.42138166899839508 0.41886529542634271 0 0.42075693346329951 0.40441954813454051 0 0.4042499862879696 0.42468215902425299 0 0.42138166899839508 0.41886529542634271 0 0.42314852865461627 0.44835045065702089 0 0.42138166899839508 0.41886529542634271 0 0.44167910840328728 0.4288918273231197 0 0.42314852865461627 0.44835045065702089 0 0.42138166899839508 0.41886529542634271 0 0.43482890338886743 0.40197544179538558 0 0.44167910840328728 0.4288918273231197 0 0.42138166899839508 0.41886529542634271 0 0.43482890338886743 0.40197544179538558 0 0.42075693346329951 0.40441954813454051 0 0.43482890338886743 0.40197544179538558 0 0.42108313100484218 0.39326743937941139 0 0.42873511672552889 0.38612524608429732 0 0.43482890338886743 0.40197544179538558 0 0.42873511672552889 0.38612524608429732 0 0.43909135895359341 0.38845575164566643 0 0.43482890338886743 0.40197544179538558 0 0.42075693346329951 0.40441954813454051 0 0.42108313100484218 0.39326743937941139 0 0.40549684373375211 0.40213241551364692 0 0.40404337740845048 0.38270973757100801 0 0.41282336743059161 0.38785426190633682 0 0.40549684373375211 0.40213241551364692 0 0.42075693346329951 0.40441954813454051 0 0.42108313100484218 0.39326743937941139 0 0.40549684373375211 0.40213241551364692 0 0.42108313100484218 0.39326743937941139 0 0.41282336743059161 0.38785426190633682 0 0.41240990735164801 0.37779841218934618 0 0.42108357765426502 0.38336330487827153 0 0.42868610583755329 0.37529711219846418 0 0.40404337740845048 0.38270973757100801 0 0.41240990735164801 0.37779841218934618 0 0.41282336743059161 0.38785426190633682 0 0.42108313100484218 0.39326743937941139 0 0.41282336743059161 0.38785426190633682 0 0.42108357765426502 0.38336330487827153 0 0.41240990735164801 0.37779841218934618 0 0.41282336743059161 0.38785426190633682 0 0.42108357765426502 0.38336330487827153 0 0.42108357765426502 0.38336330487827153 0 0.42868610583755329 0.37529711219846418 0 0.42873511672552889 0.38612524608429732 0 0.42108313100484218 0.39326743937941139 0 0.42108357765426502 0.38336330487827153 0 0.42873511672552889 0.38612524608429732 0 0.42868610583755329 0.37529711219846418 0 0.42873511672552889 0.38612524608429732 0 0.43909135895359341 0.38845575164566643 0 0.42868610583755329 0.37529711219846418 0 0.43909135895359341 0.38845575164566643 0 0.45320419620829677 0.38206702179637309 0 0.43806043229102692 0.37086454850370121 0 0.42868610583755329 0.37529711219846418 0 0.45320419620829677 0.38206702179637309 0 0.42868610583755329 0.37529711219846418 0 0.45320419620829677 0.38206702179637309 0 0.43909135895359341 0.38845575164566643 0 0.45019146287492251 0.39480949146112548 0 0.45320419620829677 0.38206702179637309 0 0.43482890338886743 0.40197544179538558 0 0.45019146287492251 0.39480949146112548 0 0.46020968815195828 0.40943320398921851 0 0.43482890338886743 0.40197544179538558 0 0.43909135895359341 0.38845575164566643 0 0.45019146287492251 0.39480949146112548 0 0.46401358034296941 0.39302424585926238 0 0.47772228657904059 0.38883693139428049 0 0.46020968815195828 0.40943320398921851 0 0.45019146287492251 0.39480949146112548 0 0.46401358034296941 0.39302424585926238 0 0.46020968815195828 0.40943320398921851 0 0.46401358034296941 0.39302424585926238 0 0.45320419620829677 0.38206702179637309 0 0.47772228657904059 0.38883693139428049 0 0.46041625459185392 0.36949650334887602 0 0.45320419620829677 0.38206702179637309 0 0.47772228657904059 0.38883693139428049 0 0.45320419620829677 0.38206702179637309 0 0.47772228657904059 0.38883693139428049 0 0.45019146287492251 0.39480949146112548 0 0.46401358034296941 0.39302424585926238 0 0.45320419620829677 0.38206702179637309 0 0.46041625459185392 0.36949650334887602 0 0.47772228657904059 0.38883693139428049 0 0.4790754544806643 0.370213071766955 0 0.47938614700590199 0.38929635480381758 0 0.47772228657904059 0.38883693139428049 0 0.4790754544806643 0.370213071766955 0 0.46041625459185392 0.36949650334887602 0 0.47772228657904059 0.38883693139428049 0 0.47938614700590199 0.38929635480381758 0 0.47772228657904059 0.38883693139428049 0 0.47772228657904059 0.38883693139428049 0 0.48944263050108461 0.40193505050439471 0 0.46020968815195828 0.40943320398921851 0 0.47772228657904059 0.38883693139428049 0 0.46020968815195828 0.40943320398921851 0 0.47938614700590199 0.38929635480381758 0 0.47772228657904059 0.38883693139428049 0 0.48944263050108461 0.40193505050439471 0 0.47772228657904059 0.38883693139428049 0 0.48944263050108461 0.40193505050439471 0 0.47938614700590199 0.38929635480381758 0 0.49999999999999689 0.39498823044030962 0 0.47938614700590199 0.38929635480381758 0 0.49999999999999689 0.39498823044030962 0 0.48944263050108461 0.40193505050439471 0 0.49999999999999689 0.39498823044030962 0 0.48944263050108461 0.40193505050439471 0 0.5 0.42030425797957027 0 0.49774736403160069 0.37001557617191011 0 0.4790754544806643 0.370213071766955 0 0.47938614700590199 0.38929635480381758 0 0.49774736403160069 0.37001557617191011 0 0.47938614700590199 0.38929635480381758 0 0.47938614700590199 0.38929635480381758 0 0.49999999999999689 0.39498823044030962 0 0.49999999999999922 0.37842882190740351 0 0.49774736403160069 0.37001557617191011 0 0.47938614700590199 0.38929635480381758 0 0.49999999999999922 0.37842882190740351 0 0.5 0.42030425797957027 0 0.48349057447993038 0.41757431921444399 0 0.47691603164775198 0.43296227174920082 0 0.5 0.42030425797957027 0 0.47691603164775198 0.43296227174920082 0 0.5 0.44562028551883098 0 0.48944263050108461 0.40193505050439471 0 0.5 0.42030425797957027 0 0.48349057447993038 0.41757431921444399 0 0.48349057447993038 0.41757431921444399 0 0.47691603164775198 0.43296227174920082 0 0.46020968815195828 0.40943320398921851 0 0.48944263050108461 0.40193505050439471 0 0.48349057447993038 0.41757431921444399 0 0.46020968815195828 0.40943320398921851 0 0.47691603164775198 0.43296227174920082 0 0.4589061880905807 0.43431515504924278 0 0.46020968815195828 0.40943320398921851 0 0.4589061880905807 0.43431515504924278 0 0.46020968815195828 0.40943320398921851 0 0.44167910840328728 0.4288918273231197 0 0.43482890338886743 0.40197544179538558 0 0.46020968815195828 0.40943320398921851 0 0.44167910840328728 0.4288918273231197 0 0.46020968815195828 0.40943320398921851 0 0.44167910840328728 0.4288918273231197 0 0.4589061880905807 0.43431515504924278 0 0.44167910840328728 0.4288918273231197 0 0.44373419841132128 0.44895715371248318 0 0.5 0.5 0 0.46051083360050798 0.48522864915524377 0 0.43515245002438629 0.5 0 0.44373419841132128 0.44895715371248318 0 0.45477013172054148 0.46768010560473311 0 0.45913213436977762 0.4523743274127881 0 0.44373419841132128 0.44895715371248318 0 0.45477013172054148 0.46768010560473311 0 0.43771255056824743 0.4718971020965288 0 0.45477013172054148 0.46768010560473311 0 0.45913213436977762 0.4523743274127881 0 0.47045023482758319 0.46495461854267262 0 0.45913213436977762 0.4523743274127881 0 0.475231741207921 0.44927142576453311 0 0.47045023482758319 0.46495461854267262 0 0.45913213436977762 0.4523743274127881 0 0.47045023482758319 0.46495461854267262 0 0.4589061880905807 0.43431515504924278 0 0.45913213436977762 0.4523743274127881 0 0.475231741207921 0.44927142576453311 0 0.4589061880905807 0.43431515504924278 0 0.44373419841132128 0.44895715371248318 0 0.45913213436977762 0.4523743274127881 0 0.47691603164775198 0.43296227174920082 0 0.4589061880905807 0.43431515504924278 0 0.475231741207921 0.44927142576453311 0 0.47691603164775198 0.43296227174920082 0 0.475231741207921 0.44927142576453311 0 0.5 0.44562028551883098 0 0.475231741207921 0.44927142576453311 0 0.47045023482758319 0.46495461854267262 0 0.48595453395866772 0.46180481870428869 0 0.47045023482758319 0.46495461854267262 0 0.48595453395866772 0.46180481870428869 0 0.48176833528538798 0.47753490967255813 0 0.48595453395866772 0.46180481870428869 0 0.5 0.44562028551883098 0 0.49999999999999889 0.47093631305809169 0 0.475231741207921 0.44927142576453311 0 0.48595453395866772 0.46180481870428869 0 0.5 0.44562028551883098 0 0.5 0.5 0 0.48176833528538798 0.47753490967255813 0 0.46051083360050798 0.48522864915524377 0 0.49999999999999872 0.49779976336839421 0 0.5 0.5 0 0.48176833528538798 0.47753490967255813 0 0.49999999999999872 0.49779976336839421 0 0.48176833528538798 0.47753490967255813 0 0.48595453395866772 0.46180481870428869 0 0.49999999999999889 0.47093631305809169 0 0.48176833528538798 0.47753490967255813 0 0.49999999999999872 0.49779976336839421 0 0.49999999999999889 0.47093631305809169 0 0.48176833528538798 0.47753490967255813 0 0.49999999999999889 0.47093631305809169 0 0.48176833528538798 0.47753490967255813 0 0.47045023482758319 0.46495461854267262 0 0.48176833528538798 0.47753490967255813 0 0.46051083360050798 0.48522864915524377 0 0.48176833528538798 0.47753490967255813 0 0.46051083360050798 0.48522864915524377 0 0.47045023482758319 0.46495461854267262 0 0.48176833528538798 0.47753490967255813 0 0.45477013172054148 0.46768010560473311 0 0.47045023482758319 0.46495461854267262 0 0.46051083360050798 0.48522864915524377 0 0.45477013172054148 0.46768010560473311 0 0.46051083360050798 0.48522864915524377 0 0.43771255056824743 0.4718971020965288 0 0.46051083360050798 0.48522864915524377 0 0.43771255056824743 0.4718971020965288 0 0.43515245002438629 0.5 0 0.43515245002438629 0.5 0 0.42285566454142792 0.4855976103875887 0 0.41236511927892872 0.50000000000000466 0 0.43771255056824743 0.4718971020965288 0 0.43515245002438629 0.5 0 0.42285566454142792 0.4855976103875887 0 0.42285566454142792 0.4855976103875887 0 0.41236511927892872 0.50000000000000466 0 0.40849153409243499 0.48390453699546288 0 0.41236511927892872 0.50000000000000466 0 0.40849153409243499 0.48390453699546288 0 0.40849153409243499 0.48390453699546288 0 0.42055666874314318 0.47218641284594692 0 0.4046179489059436 0.4678090739909207 0 0.40849153409243499 0.48390453699546288 0 0.4046179489059436 0.4678090739909207 0 0.42285566454142792 0.4855976103875887 0 0.40849153409243499 0.48390453699546288 0 0.42055666874314318 0.47218641284594692 0 0.43771255056824743 0.4718971020965288 0 0.42285566454142792 0.4855976103875887 0 0.42055666874314318 0.47218641284594692 0 0.44373419841132128 0.44895715371248318 0 0.43771255056824743 0.4718971020965288 0 0.42314852865461627 0.44835045065702089 0 0.43771255056824743 0.4718971020965288 0 0.42055666874314318 0.47218641284594692 0 0.42314852865461627 0.44835045065702089 0 0.44167910840328728 0.4288918273231197 0 0.42314852865461627 0.44835045065702089 0 0.44167910840328728 0.4288918273231197 0 0.44373419841132128 0.44895715371248318 0 0.42314852865461627 0.44835045065702089 0 0.4042499862879696 0.42468215902425299 0 0.42314852865461627 0.44835045065702089 0 0.39806396607603522 0.44057606294497281 0 0.42314852865461627 0.44835045065702089 0 0.4046179489059436 0.4678090739909207 0 0.39806396607603522 0.44057606294497281 0 0.42055666874314318 0.47218641284594692 0 0.42314852865461627 0.44835045065702089 0 0.4046179489059436 0.4678090739909207 0 0.42314852865461627 0.44835045065702089 0 0.4046179489059436 0.4678090739909207 0 0.4046179489059436 0.4678090739909207 0 0.39806396607603522 0.44057606294497281 0 0.4046179489059436 0.4678090739909207 0 0.39806396607603522 0.44057606294497281 0 0.38817398365873967 0.46690341121859252 0 0.39806396607603522 0.44057606294497281 0 0.37502514857406283 0.4397897122098714 0 0.37731054342266529 0.45523599042389329 0 0.39806396607603522 0.44057606294497281 0 0.38817398365873967 0.46690341121859252 0 0.37731054342266529 0.45523599042389329 0 0.36855302384870531 0.47568942338680931 0 0.38817398365873967 0.46690341121859252 0 0.37731054342266529 0.45523599042389329 0 0.36855302384870531 0.47568942338680931 0 0.38817398365873967 0.46690341121859252 0 0.38929012968259252 0.48390453699545888 0 0.37396231045924128 0.499999999999997 0 0.38929012968259252 0.48390453699545888 0 0.39316371486908502 0.5 0 0.37396231045924128 0.499999999999997 0 0.38929012968259252 0.48390453699545888 0 0.37396231045924128 0.499999999999997 0 0.36855302384870531 0.47568942338680931 0 0.38929012968259252 0.48390453699545888 0 0.40849153409243499 0.48390453699546288 0 0.38929012968259252 0.48390453699545888 0 0.39316371486908502 0.5 0 0.41236511927892872 0.50000000000000466 0 0.40849153409243499 0.48390453699546288 0 0.39316371486908502 0.5 0 0.4046179489059436 0.4678090739909207 0 0.38929012968259252 0.48390453699545888 0 0.4046179489059436 0.4678090739909207 0 0.38817398365873967 0.46690341121859252 0 0.38929012968259252 0.48390453699545888 0 0.40849153409243499 0.48390453699546288 0 0.4046179489059436 0.4678090739909207 0 0.38929012968259252 0.48390453699545888 0 0.33401165112948961 0.093367888309391356 0 0.34191981156566348 0.086779043078710982 0 0.35092545771995309 0.089746968670446292 0 0.33529465201713998 0.084967545477799125 0 0.33368873041722291 0.077202786653604541 0 0.32506462836507521 0.081417120421281727 0 0.33529465201713998 0.084967545477799125 0 0.33401165112948961 0.093367888309391356 0 0.32506462836507521 0.081417120421281727 0 0.33529465201713998 0.084967545477799125 0 0.33401165112948961 0.093367888309391356 0 0.34191981156566348 0.086779043078710982 0 0.33529465201713998 0.084967545477799125 0 0.34170270233512828 0.079213809505227439 0 0.33368873041722291 0.077202786653604541 0 0.33529465201713998 0.084967545477799125 0 0.34191981156566348 0.086779043078710982 0 0.34170270233512828 0.079213809505227439 0 0.34170270233512828 0.079213809505227439 0 0.33906457334706319 0.071559287266811364 0 0.33368873041722291 0.077202786653604541 0 0.33368873041722291 0.077202786653604541 0 0.32506462836507521 0.081417120421281727 0 0.32902272999342158 0.062365863190997309 0 0.34170270233512828 0.079213809505227439 0 0.33906457334706319 0.071559287266811364 0 0.34780886437748998 0.070542181269428517 0 0.33906457334706319 0.071559287266811364 0 0.34318601514489211 0.063191314890470848 0 0.34780886437748998 0.070542181269428517 0 0.33906457334706319 0.071559287266811364 0 0.34318601514489211 0.063191314890470848 0 0.32902272999342158 0.062365863190997309 0 0.33906457334706319 0.071559287266811364 0 0.33368873041722291 0.077202786653604541 0 0.32902272999342158 0.062365863190997309 0 0.32902272999342158 0.062365863190997309 0 0.30672275083008133 0.051100117944346463 0 0.30987240098578039 0.082330317244298595 0 0.32506462836507521 0.081417120421281727 0 0.32902272999342158 0.062365863190997309 0 0.30987240098578039 0.082330317244298595 0 0.32902272999342158 0.062365863190997309 0 0.30987240098578039 0.082330317244298595 0 0.32506462836507521 0.081417120421281727 0 0.32902272999342158 0.062365863190997309 0 0.33401165112948961 0.093367888309391356 0 0.32506462836507521 0.081417120421281727 0 0.3211065267367279 0.10046837765156599 0 0.32506462836507521 0.081417120421281727 0 0.3211065267367279 0.10046837765156599 0 0.32506462836507521 0.081417120421281727 0 0.3211065267367279 0.10046837765156599 0 0.30987240098578039 0.082330317244298595 0 0.3211065267367279 0.10046837765156599 0 0.30987240098578039 0.082330317244298595 0 0.30678264835944907 0.099718790373715005 0 0.3211065267367279 0.10046837765156599 0 0.32055113064452129 0.11175662156149239 0 0.30542959373714818 0.1137816953013949 0 0.3211065267367279 0.10046837765156599 0 0.32055113064452129 0.11175662156149239 0 0.3355312866080542 0.1075077939878183 0 0.32055113064452129 0.11175662156149239 0 0.3355312866080542 0.1075077939878183 0 0.32013711549615509 0.1252686193051904 0 0.3355312866080542 0.1075077939878183 0 0.32180757670786819 0.12657328920842581 0 0.32013711549615509 0.1252686193051904 0 0.3355312866080542 0.1075077939878183 0 0.32013711549615509 0.1252686193051904 0 0.30542959373714818 0.1137816953013949 0 0.32013711549615509 0.1252686193051904 0 0.32055113064452129 0.11175662156149239 0 0.30542959373714818 0.1137816953013949 0 0.32013711549615509 0.1252686193051904 0 0.33186283254246501 0.1235880783662746 0 0.3355312866080542 0.1075077939878183 0 0.32180757670786819 0.12657328920842581 0 0.33947101841536509 0.12468772685482531 0 0.3355312866080542 0.1075077939878183 0 0.34764442744574531 0.1165291392662538 0 0.33186283254246501 0.1235880783662746 0 0.33947101841536509 0.12468772685482531 0 0.3355312866080542 0.1075077939878183 0 0.33401165112948961 0.093367888309391356 0 0.3355312866080542 0.1075077939878183 0 0.35092545771995309 0.089746968670446292 0 0.3355312866080542 0.1075077939878183 0 0.35092545771995309 0.089746968670446292 0 0.33401165112948961 0.093367888309391356 0 0.3211065267367279 0.10046837765156599 0 0.3355312866080542 0.1075077939878183 0 0.3355312866080542 0.1075077939878183 0 0.34996484239406789 0.1044662077101558 0 0.35092545771995309 0.089746968670446292 0 0.34996484239406789 0.1044662077101558 0 0.36062254697328849 0.1126733800461734 0 0.36185517123188049 0.1012634730091696 0 0.34996484239406789 0.1044662077101558 0 0.35589040803910582 0.097007731718385809 0 0.35092545771995309 0.089746968670446292 0 0.34996484239406789 0.1044662077101558 0 0.35589040803910582 0.097007731718385809 0 0.36185517123188049 0.1012634730091696 0 0.34764442744574531 0.1165291392662538 0 0.36062254697328849 0.1126733800461734 0 0.3526324428379507 0.13331058773229601 0 0.33947101841536509 0.12468772685482531 0 0.34764442744574531 0.1165291392662538 0 0.3526324428379507 0.13331058773229601 0 0.3355312866080542 0.1075077939878183 0 0.34996484239406789 0.1044662077101558 0 0.34764442744574531 0.1165291392662538 0 0.34996484239406789 0.1044662077101558 0 0.34764442744574531 0.1165291392662538 0 0.36062254697328849 0.1126733800461734 0 0.3526324428379507 0.13331058773229601 0 0.37691947251953761 0.1162370639809312 0 0.36062254697328849 0.1126733800461734 0 0.37338409779400328 0.103700367915959 0 0.37691947251953761 0.1162370639809312 0 0.36062254697328849 0.1126733800461734 0 0.3526324428379507 0.13331058773229601 0 0.37691947251953761 0.1162370639809312 0 0.35589040803910582 0.097007731718385809 0 0.36185517123188049 0.1012634730091696 0 0.36081616081052148 0.092554277483771541 0 0.36185517123188049 0.1012634730091696 0 0.3694502742522805 0.094282320055936147 0 0.36081616081052148 0.092554277483771541 0 0.36062254697328849 0.1126733800461734 0 0.36185517123188049 0.1012634730091696 0 0.37338409779400328 0.103700367915959 0 0.36185517123188049 0.1012634730091696 0 0.37338409779400328 0.103700367915959 0 0.3694502742522805 0.094282320055936147 0 0.37338409779400328 0.103700367915959 0 0.3694502742522805 0.094282320055936147 0 0.37881355117099191 0.093078102586847011 0 0.3694502742522805 0.094282320055936147 0 0.37357245318636773 0.086506788959028413 0 0.37881355117099191 0.093078102586847011 0 0.36245560582468289 0.084395319442330155 0 0.35092545771995309 0.089746968670446292 0 0.36631962883185198 0.071986143353074253 0 0.3694502742522805 0.094282320055936147 0 0.37357245318636773 0.086506788959028413 0 0.36687487454232293 0.087924247686443829 0 0.37357245318636773 0.086506788959028413 0 0.36886841753438798 0.079927062313415037 0 0.36687487454232293 0.087924247686443829 0 0.37357245318636773 0.086506788959028413 0 0.36886841753438798 0.079927062313415037 0 0.37660116703828589 0.074451192733297311 0 0.36886841753438798 0.079927062313415037 0 0.36245560582468289 0.084395319442330155 0 0.36687487454232293 0.087924247686443829 0 0.36886841753438798 0.079927062313415037 0 0.36245560582468289 0.084395319442330155 0 0.36631962883185198 0.071986143353074253 0 0.36245560582468289 0.084395319442330155 0 0.36081616081052148 0.092554277483771541 0 0.36687487454232293 0.087924247686443829 0 0.3694502742522805 0.094282320055936147 0 0.36081616081052148 0.092554277483771541 0 0.36687487454232293 0.087924247686443829 0 0.36245560582468289 0.084395319442330155 0 0.36081616081052148 0.092554277483771541 0 0.35092545771995309 0.089746968670446292 0 0.35092545771995309 0.089746968670446292 0 0.36631962883185198 0.071986143353074253 0 0.35589040803910582 0.097007731718385809 0 0.36081616081052148 0.092554277483771541 0 0.35092545771995309 0.089746968670446292 0 0.3500697847248051 0.08271546986038833 0 0.35092545771995309 0.089746968670446292 0 0.36631962883185198 0.071986143353074253 0 0.34191981156566348 0.086779043078710982 0 0.34170270233512828 0.079213809505227439 0 0.3500697847248051 0.08271546986038833 0 0.34191981156566348 0.086779043078710982 0 0.3500697847248051 0.08271546986038833 0 0.35092545771995309 0.089746968670446292 0 0.3500697847248051 0.08271546986038833 0 0.35533567462178528 0.065965246497398572 0 0.36894782535792581 0.059710437286252693 0 0.3500697847248051 0.08271546986038833 0 0.34780886437748998 0.070542181269428517 0 0.35533567462178528 0.065965246497398572 0 0.34318601514489211 0.063191314890470848 0 0.34780886437748998 0.070542181269428517 0 0.3518836508816155 0.062183413392942123 0 0.34170270233512828 0.079213809505227439 0 0.3500697847248051 0.08271546986038833 0 0.34780886437748998 0.070542181269428517 0 0.34780886437748998 0.070542181269428517 0 0.35533567462178528 0.065965246497398572 0 0.3518836508816155 0.062183413392942123 0 0.3500697847248051 0.08271546986038833 0 0.36631962883185198 0.071986143353074253 0 0.36894782535792581 0.059710437286252693 0 0.36631962883185198 0.071986143353074253 0 0.37660116703828589 0.074451192733297311 0 0.38171379994375088 0.0542253180357022 0 0.36631962883185198 0.071986143353074253 0 0.38171379994375088 0.0542253180357022 0 0.3500697847248051 0.08271546986038833 0 0.36894782535792581 0.059710437286252693 0 0.36886841753438798 0.079927062313415037 0 0.36631962883185198 0.071986143353074253 0 0.37660116703828589 0.074451192733297311 0 0.36894782535792581 0.059710437286252693 0 0.36324215169811641 0.043807559820573841 0 0.3579682477670898 0.05467473067798119 0 0.36631962883185198 0.071986143353074253 0 0.36894782535792581 0.059710437286252693 0 0.38171379994375088 0.0542253180357022 0 0.35533567462178528 0.065965246497398572 0 0.36894782535792581 0.059710437286252693 0 0.3579682477670898 0.05467473067798119 0 0.36324215169811641 0.043807559820573841 0 0.36557274311667359 0.024262023964228479 0 0.38547184363024573 0.035389095235473858 0 0.36324215169811641 0.043807559820573841 0 0.38547184363024573 0.035389095235473858 0 0.36894782535792581 0.059710437286252693 0 0.36324215169811641 0.043807559820573841 0 0.38547184363024573 0.035389095235473858 0 0.34729773655504831 0.043313943577613513 0 0.36557274311667359 0.024262023964228479 0 0.3475259516361654 0.027955138246005089 0 0.36324215169811641 0.043807559820573841 0 0.34729773655504831 0.043313943577613513 0 0.36557274311667359 0.024262023964228479 0 0.34729773655504831 0.043313943577613513 0 0.36557274311667359 0.024262023964228479 0 0.36324215169811641 0.043807559820573841 0 0.34729773655504831 0.043313943577613513 0 0.34101245976598749 0.052226024405674622 0 0.36324215169811641 0.043807559820573841 0 0.34101245976598749 0.052226024405674622 0 0.34851259338989621 0.058068870841767192 0 0.3579682477670898 0.05467473067798119 0 0.34101245976598749 0.052226024405674622 0 0.36324215169811641 0.043807559820573841 0 0.3579682477670898 0.05467473067798119 0 0.34101245976598749 0.052226024405674622 0 0.34318601514489211 0.063191314890470848 0 0.34851259338989621 0.058068870841767192 0 0.3518836508816155 0.062183413392942123 0 0.34318601514489211 0.063191314890470848 0 0.34851259338989621 0.058068870841767192 0 0.34101245976598749 0.052226024405674622 0 0.34851259338989621 0.058068870841767192 0 0.3518836508816155 0.062183413392942123 0 0.3579682477670898 0.05467473067798119 0 0.35533567462178528 0.065965246497398572 0 0.3518836508816155 0.062183413392942123 0 0.3579682477670898 0.05467473067798119 0 0.36847154090155498 0.0023943355442805408 0 0.35399377624232842 0.0082926061036159293 0 0.37756287430724528 0.011762164397755331 0 0.3551246996721002 0.018419743607205469 0 0.35399377624232842 0.0082926061036159293 0 0.37756287430724528 0.011762164397755331 0 0.35399377624232842 0.0082926061036159293 0 0.37756287430724528 0.011762164397755331 0 0.36847154090155498 0.0023943355442805408 0 0.35399377624232842 0.0082926061036159293 0 0.36443153286036872 -0.0091360889960328002 0 0.36847154090155498 0.0023943355442805408 0 0.37576332961284681 0.004108183588312002 0 0.37521916583220177 -0.0055812383054568079 0 0.36847154090155498 0.0023943355442805408 0 0.37576332961284681 0.004108183588312002 0 0.37756287430724528 0.011762164397755331 0 0.36557274311667359 0.024262023964228479 0 0.3551246996721002 0.018419743607205469 0 0.37756287430724528 0.011762164397755331 0 0.36557274311667359 0.024262023964228479 0 0.3551246996721002 0.018419743607205469 0 0.36557274311667359 0.024262023964228479 0 0.37756287430724528 0.011762164397755331 0 0.36557274311667359 0.024262023964228479 0 0.3475259516361654 0.027955138246005089 0 0.3551246996721002 0.018419743607205469 0 0.3475259516361654 0.027955138246005089 0 0.3459648195205477 0.020377452998864509 0 0.3551246996721002 0.018419743607205469 0 0.3459648195205477 0.020377452998864509 0 0.3551246996721002 0.018419743607205469 0 0.35399377624232842 0.0082926061036159293 0 0.35399377624232842 0.0082926061036159293 0 0.33042467817741022 0.0048230478094846404 0 0.34951691367491772 -0.012283998130001609 0 0.3459648195205477 0.020377452998864509 0 0.35399377624232842 0.0082926061036159293 0 0.33839508470570467 0.01370758537919226 0 0.35399377624232842 0.0082926061036159293 0 0.33042467817741022 0.0048230478094846404 0 0.35399377624232842 0.0082926061036159293 0 0.33042467817741022 0.0048230478094846404 0 0.33839508470570467 0.01370758537919226 0 0.33042467817741022 0.0048230478094846404 0 0.33839508470570467 0.01370758537919226 0 0.32487427624406379 0.0097963250807044273 0 0.33686424584551239 0.024622836457270491 0 0.32487427624406379 0.0097963250807044273 0 0.3344778376084509 0.03610917042482744 0 0.32487427624406379 0.0097963250807044273 0 0.3344778376084509 0.03610917042482744 0 0.33839508470570467 0.01370758537919226 0 0.33686424584551239 0.024622836457270491 0 0.32487427624406379 0.0097963250807044273 0 0.3459648195205477 0.020377452998864509 0 0.33839508470570467 0.01370758537919226 0 0.33686424584551239 0.024622836457270491 0 0.3475259516361654 0.027955138246005089 0 0.3459648195205477 0.020377452998864509 0 0.33686424584551239 0.024622836457270491 0 0.3475259516361654 0.027955138246005089 0 0.33686424584551239 0.024622836457270491 0 0.3344778376084509 0.03610917042482744 0 0.33686424584551239 0.024622836457270491 0 0.3344778376084509 0.03610917042482744 0 0.32487427624406379 0.0097963250807044273 0 0.3344778376084509 0.03610917042482744 0 0.31028778442489041 0.022866129592551989 0 0.32487427624406379 0.0097963250807044273 0 0.31028778442489041 0.022866129592551989 0 0.32487427624406379 0.0097963250807044273 0 0.3100426025732328 0.01001692516859572 0 0.31028778442489041 0.022866129592551989 0 0.32487427624406379 0.0097963250807044273 0 0.32264094915195268 0.0036772211204291199 0 0.3100426025732328 0.01001692516859572 0 0.33042467817741022 0.0048230478094846404 0 0.32264094915195268 0.0036772211204291199 0 0.32839324399456887 -0.0083879771245694099 0 0.32487427624406379 0.0097963250807044273 0 0.32264094915195268 0.0036772211204291199 0 0.33042467817741022 0.0048230478094846404 0 0.32487427624406379 0.0097963250807044273 0 0.33042467817741022 0.0048230478094846404 0 0.32487427624406379 0.0097963250807044273 0 0.32264094915195268 0.0036772211204291199 0 0.33042467817741022 0.0048230478094846404 0 0.32264094915195268 0.0036772211204291199 0 0.32902272999342158 0.062365863190997309 0 0.3344778376084509 0.03610917042482744 0 0.32902272999342158 0.062365863190997309 0 0.34014514344544999 0.05077061006316462 0 0.3344778376084509 0.03610917042482744 0 0.32902272999342158 0.062365863190997309 0 0.34014514344544999 0.05077061006316462 0 0.32902272999342158 0.062365863190997309 0 0.34101245976598749 0.052226024405674622 0 0.34014514344544999 0.05077061006316462 0 0.34318601514489211 0.063191314890470848 0 0.32902272999342158 0.062365863190997309 0 0.34101245976598749 0.052226024405674622 0 0.34729773655504831 0.043313943577613513 0 0.34101245976598749 0.052226024405674622 0 0.34014514344544999 0.05077061006316462 0 0.34729773655504831 0.043313943577613513 0 0.34014514344544999 0.05077061006316462 0 0.34729773655504831 0.043313943577613513 0 0.34014514344544999 0.05077061006316462 0 0.3344778376084509 0.03610917042482744 0 0.34014514344544999 0.05077061006316462 0 0.3344778376084509 0.03610917042482744 0 0.34729773655504831 0.043313943577613513 0 0.3475259516361654 0.027955138246005089 0 0.3344778376084509 0.03610917042482744 0 0.3344778376084509 0.03610917042482744 0 0.30672275083008133 0.051100117944346463 0 0.31028778442489041 0.022866129592551989 0 0.32902272999342158 0.062365863190997309 0 0.3344778376084509 0.03610917042482744 0 0.30672275083008133 0.051100117944346463 0 0.30672275083008133 0.051100117944346463 0 0.31028778442489041 0.022866129592551989 0 0.29125241123315521 0.031123554245150158 0 0.30672275083008133 0.051100117944346463 0 0.28344035813711072 0.050442892291827142 0 0.29125241123315521 0.031123554245150158 0 0.28344035813711072 0.050442892291827142 0 0.29125241123315521 0.031123554245150158 0 0.26926736556656761 0.033174068777862373 0 0.30672275083008133 0.051100117944346463 0 0.28344035813711072 0.050442892291827142 0 0.28866862811492028 0.073096973632769568 0 0.32264094915195268 0.0036772211204291199 0 0.3100426025732328 0.01001692516859572 0 0.29447724234708123 -0.00046870004589340611 0 0.32264094915195268 0.0036772211204291199 0 0.29447724234708123 -0.00046870004589340611 0 0.3100426025732328 0.01001692516859572 0 0.29715551605657681 0.01581720405412073 0 0.29447724234708123 -0.00046870004589340611 0 0.29715551605657681 0.01581720405412073 0 0.31028778442489041 0.022866129592551989 0 0.29125241123315521 0.031123554245150158 0 0.3100426025732328 0.01001692516859572 0 0.29715551605657681 0.01581720405412073 0 0.31028778442489041 0.022866129592551989 0 0.29715551605657681 0.01581720405412073 0 0.29125241123315521 0.031123554245150158 0 0.27971753970452429 0.01554811131019921 0 0.29715551605657681 0.01581720405412073 0 0.27971753970452429 0.01554811131019921 0 0.29447724234708123 -0.00046870004589340611 0 0.27971753970452429 0.01554811131019921 0 0.26631353554220982 -0.0046146212122176247 0 0.29447724234708123 -0.00046870004589340611 0 0.27971753970452429 0.01554811131019921 0 0.25586098751065722 0.018130948215961711 0 0.26631353554220982 -0.0046146212122176247 0 0.29125241123315521 0.031123554245150158 0 0.27971753970452429 0.01554811131019921 0 0.26926736556656761 0.033174068777862373 0 0.27971753970452429 0.01554811131019921 0 0.25586098751065722 0.018130948215961711 0 0.26926736556656761 0.033174068777862373 0 0.24624575751259009 0.030279239029664898 0 0.25586098751065722 0.018130948215961711 0 0.26926736556656761 0.033174068777862373 0 0.25586098751065722 0.018130948215961711 0 0.25582356345651869 0.0037151648870848682 0 0.26631353554220982 -0.0046146212122176247 0 0.25586098751065722 0.018130948215961711 0 0.26631353554220982 -0.0046146212122176247 0 0.24651066935859009 0.0095266504650106734 0 0.25586098751065722 0.018130948215961711 0 0.25582356345651869 0.0037151648870848682 0 0.28344035813711072 0.050442892291827142 0 0.25920043295498391 0.051756052689076529 0 0.27068007428563762 0.066705841598532087 0 0.28344035813711072 0.050442892291827142 0 0.26926736556656761 0.033174068777862373 0 0.25920043295498391 0.051756052689076529 0 0.24624575751259009 0.030279239029664898 0 0.26926736556656761 0.033174068777862373 0 0.25920043295498391 0.051756052689076529 0 0.25115327748806898 0.071390602486790619 0 0.27093767473310387 0.086842686892196555 0 0.27068007428563762 0.066705841598532087 0 0.25920043295498391 0.051756052689076529 0 0.25115327748806898 0.071390602486790619 0 0.27068007428563762 0.066705841598532087 0 0.25115327748806898 0.071390602486790619 0 0.27093767473310387 0.086842686892196555 0 0.2491404277873363 0.088082738886410702 0 0.25115327748806898 0.071390602486790619 0 0.27093767473310387 0.086842686892196555 0 0.2491404277873363 0.088082738886410702 0 0.27093767473310387 0.086842686892196555 0 0.25691915416968902 0.1022140844603284 0 0.27093767473310387 0.086842686892196555 0 0.27068007428563762 0.066705841598532087 0 0.28866862811492028 0.073096973632769568 0 0.28344035813711072 0.050442892291827142 0 0.27068007428563762 0.066705841598532087 0 0.28866862811492028 0.073096973632769568 0 0.28866862811492028 0.073096973632769568 0 0.30987240098578039 0.082330317244298595 0 0.29072207197814021 0.1022947712976007 0 0.27093767473310387 0.086842686892196555 0 0.28866862811492028 0.073096973632769568 0 0.29072207197814021 0.1022947712976007 0 0.30987240098578039 0.082330317244298595 0 0.29072207197814021 0.1022947712976007 0 0.30672275083008133 0.051100117944346463 0 0.28866862811492028 0.073096973632769568 0 0.30987240098578039 0.082330317244298595 0 0.30542959373714818 0.1137816953013949 0 0.29105492043805969 0.12121856223854779 0 0.30239692978150728 0.1294678850340519 0 0.30542959373714818 0.1137816953013949 0 0.30239692978150728 0.1294678850340519 0 0.32013711549615509 0.1252686193051904 0 0.30987240098578039 0.082330317244298595 0 0.30678264835944907 0.099718790373715005 0 0.29072207197814021 0.1022947712976007 0 0.30542959373714818 0.1137816953013949 0 0.30678264835944907 0.099718790373715005 0 0.29072207197814021 0.1022947712976007 0 0.3211065267367279 0.10046837765156599 0 0.30542959373714818 0.1137816953013949 0 0.30678264835944907 0.099718790373715005 0 0.30542959373714818 0.1137816953013949 0 0.29072207197814021 0.1022947712976007 0 0.30542959373714818 0.1137816953013949 0 0.29072207197814021 0.1022947712976007 0 0.29105492043805969 0.12121856223854779 0 0.29072207197814021 0.1022947712976007 0 0.27508404671205899 0.11859760540475831 0 0.29072207197814021 0.1022947712976007 0 0.29105492043805969 0.12121856223854779 0 0.27508404671205899 0.11859760540475831 0 0.27508404671205899 0.11859760540475831 0 0.27262100001208639 0.1035513935461199 0 0.26170739164003698 0.1125634065289082 0 0.27093767473310387 0.086842686892196555 0 0.29072207197814021 0.1022947712976007 0 0.27093767473310387 0.086842686892196555 0 0.27262100001208639 0.1035513935461199 0 0.25691915416968902 0.1022140844603284 0 0.29072207197814021 0.1022947712976007 0 0.27508404671205899 0.11859760540475831 0 0.27262100001208639 0.1035513935461199 0 0.27093767473310387 0.086842686892196555 0 0.29072207197814021 0.1022947712976007 0 0.27262100001208639 0.1035513935461199 0 0.27262100001208639 0.1035513935461199 0 0.25691915416968902 0.1022140844603284 0 0.26170739164003698 0.1125634065289082 0 0.24450628680137701 0.11228218580733181 0 0.25691915416968902 0.1022140844603284 0 0.26170739164003698 0.1125634065289082 0 0.24450628680137701 0.11228218580733181 0 0.26170739164003698 0.1125634065289082 0 0.25497610093800638 0.12398571659301 0 0.27508404671205899 0.11859760540475831 0 0.26170739164003698 0.1125634065289082 0 0.25497610093800638 0.12398571659301 0 0.2448645016826331 0.1344993804399636 0 0.25497610093800638 0.12398571659301 0 0.25944602144597939 0.13490043951191741 0 0.27508404671205899 0.11859760540475831 0 0.25497610093800638 0.12398571659301 0 0.25944602144597939 0.13490043951191741 0 0.25497610093800638 0.12398571659301 0 0.25944602144597939 0.13490043951191741 0 0.24587194258807171 0.14905158404663629 0 0.2448645016826331 0.1344993804399636 0 0.25944602144597939 0.13490043951191741 0 0.27508404671205899 0.11859760540475831 0 0.25944602144597939 0.13490043951191741 0 0.2828623791190048 0.1396533902756045 0 0.27508404671205899 0.11859760540475831 0 0.25944602144597939 0.13490043951191741 0 0.2696086876195829 0.15971579924915399 0 0.28516017924370668 0.1656228059905929 0 0.2828623791190048 0.1396533902756045 0 0.25944602144597939 0.13490043951191741 0 0.2696086876195829 0.15971579924915399 0 0.2828623791190048 0.1396533902756045 0 0.25944602144597939 0.13490043951191741 0 0.2696086876195829 0.15971579924915399 0 0.24587194258807171 0.14905158404663629 0 0.25944602144597939 0.13490043951191741 0 0.2696086876195829 0.15971579924915399 0 0.24587194258807171 0.14905158404663629 0 0.25944602144597939 0.13490043951191741 0 0.25141269034433628 0.16569928600416739 0 0.26252333528839689 0.17717715664894629 0 0.2696086876195829 0.15971579924915399 0 0.24587194258807171 0.14905158404663629 0 0.25141269034433628 0.16569928600416739 0 0.2696086876195829 0.15971579924915399 0 0.24576080505334111 0.17983006675991989 0 0.26252333528839689 0.17717715664894629 0 0.25733601153618713 0.20030296615741469 0 0.24576080505334111 0.17983006675991989 0 0.25141269034433628 0.16569928600416739 0 0.26252333528839689 0.17717715664894629 0 0.26252333528839689 0.17717715664894629 0 0.2797713537931894 0.18453115898638961 0 0.25733601153618713 0.20030296615741469 0 0.2797713537931894 0.18453115898638961 0 0.2696086876195829 0.15971579924915399 0 0.26252333528839689 0.17717715664894629 0 0.2797713537931894 0.18453115898638961 0 0.2696086876195829 0.15971579924915399 0 0.2797713537931894 0.18453115898638961 0 0.2696086876195829 0.15971579924915399 0 0.28516017924370668 0.1656228059905929 0 0.2797713537931894 0.18453115898638961 0 0.30405838347477693 0.16745763523502549 0 0.2797713537931894 0.18453115898638961 0 0.28516017924370668 0.1656228059905929 0 0.30405838347477693 0.16745763523502549 0 0.2797713537931894 0.18453115898638961 0 0.30405838347477693 0.16745763523502549 0 0.29705377969152857 0.18863320976953771 0 0.30405838347477693 0.16745763523502549 0 0.29705377969152857 0.18863320976953771 0 0.31113041517341988 0.1885354991146535 0 0.30405838347477693 0.16745763523502549 0 0.31113041517341988 0.1885354991146535 0 0.32110028293434412 0.17997243123379089 0 0.28516017924370668 0.1656228059905929 0 0.30405838347477693 0.16745763523502549 0 0.30264864736993102 0.14544571264789169 0 0.30405838347477693 0.16745763523502549 0 0.30264864736993102 0.14544571264789169 0 0.3168778569062739 0.14072983446874529 0 0.30264864736993102 0.14544571264789169 0 0.30239692978150728 0.1294678850340519 0 0.32013711549615509 0.1252686193051904 0 0.30264864736993102 0.14544571264789169 0 0.32013711549615509 0.1252686193051904 0 0.30264864736993102 0.14544571264789169 0 0.30239692978150728 0.1294678850340519 0 0.2828623791190048 0.1396533902756045 0 0.29105492043805969 0.12121856223854779 0 0.30239692978150728 0.1294678850340519 0 0.2828623791190048 0.1396533902756045 0 0.29105492043805969 0.12121856223854779 0 0.27508404671205899 0.11859760540475831 0 0.2828623791190048 0.1396533902756045 0 0.28516017924370668 0.1656228059905929 0 0.30264864736993102 0.14544571264789169 0 0.28516017924370668 0.1656228059905929 0 0.30264864736993102 0.14544571264789169 0 0.2828623791190048 0.1396533902756045 0 0.26272059505331552 0.25415433454263281 0 0.27889214637354459 0.24811480575974629 0 0.26623756895108408 0.24345380475599721 0 0.27889214637354459 0.24811480575974629 0 0.27340771433914501 0.2346456806443602 0 0.28539452101391322 0.23466556281000631 0 0.27889214637354459 0.24811480575974629 0 0.27340771433914501 0.2346456806443602 0 0.26623756895108408 0.24345380475599721 0 0.27340771433914501 0.2346456806443602 0 0.26623756895108408 0.24345380475599721 0 0.26105836170541208 0.2325828975714847 0 0.26272059505331552 0.25415433454263281 0 0.26623756895108408 0.24345380475599721 0 0.25330967369459462 0.24464425994429659 0 0.24860647170749631 0.23267263154699949 0 0.25330967369459462 0.24464425994429659 0 0.26105836170541208 0.2325828975714847 0 0.26623756895108408 0.24345380475599721 0 0.25330967369459462 0.24464425994429659 0 0.26105836170541208 0.2325828975714847 0 0.24983742741469361 0.21995574559805861 0 0.26105836170541208 0.2325828975714847 0 0.26826311679650289 0.21949858027164229 0 0.24983742741469361 0.21995574559805861 0 0.24860647170749631 0.23267263154699949 0 0.26105836170541208 0.2325828975714847 0 0.27340771433914501 0.2346456806443602 0 0.26105836170541208 0.2325828975714847 0 0.26826311679650289 0.21949858027164229 0 0.27340771433914501 0.2346456806443602 0 0.28162976399265849 0.22411567455681949 0 0.28539452101391322 0.23466556281000631 0 0.27340771433914501 0.2346456806443602 0 0.26826311679650289 0.21949858027164229 0 0.28162976399265849 0.22411567455681949 0 0.26826311679650289 0.21949858027164229 0 0.27953531030885442 0.21294767646700791 0 0.28162976399265849 0.22411567455681949 0 0.26826311679650289 0.21949858027164229 0 0.27953531030885442 0.21294767646700791 0 0.27429599645532038 0.20368456280454661 0 0.26826311679650289 0.21949858027164229 0 0.27429599645532038 0.20368456280454661 0 0.25733601153618713 0.20030296615741469 0 0.27953531030885442 0.21294767646700791 0 0.27429599645532038 0.20368456280454661 0 0.28657418984186739 0.20114243214027791 0 0.24983742741469361 0.21995574559805861 0 0.26826311679650289 0.21949858027164229 0 0.25733601153618713 0.20030296615741469 0 0.2797713537931894 0.18453115898638961 0 0.27429599645532038 0.20368456280454661 0 0.28657418984186739 0.20114243214027791 0 0.2797713537931894 0.18453115898638961 0 0.25733601153618713 0.20030296615741469 0 0.2797713537931894 0.18453115898638961 0 0.27429599645532038 0.20368456280454661 0 0.25733601153618713 0.20030296615741469 0 0.28657418984186739 0.20114243214027791 0 0.29705377969152857 0.18863320976953771 0 0.3023259608227078 0.19926395100539571 0 0.2797713537931894 0.18453115898638961 0 0.28657418984186739 0.20114243214027791 0 0.2797713537931894 0.18453115898638961 0 0.28657418984186739 0.20114243214027791 0 0.29705377969152857 0.18863320976953771 0 0.29705377969152857 0.18863320976953771 0 0.31113041517341988 0.1885354991146535 0 0.3023259608227078 0.19926395100539571 0 0.31113041517341988 0.1885354991146535 0 0.3023259608227078 0.19926395100539571 0 0.31774528260143969 0.20299108077116379 0 0.29488724807269839 0.2132751084532945 0 0.31774528260143969 0.20299108077116379 0 0.29923601887228601 0.21625722043154849 0 0.29488724807269839 0.2132751084532945 0 0.31299248231872789 0.2127648402730884 0 0.29488724807269839 0.2132751084532945 0 0.31299248231872789 0.2127648402730884 0 0.31774528260143969 0.20299108077116379 0 0.3023259608227078 0.19926395100539571 0 0.29488724807269839 0.2132751084532945 0 0.31774528260143969 0.20299108077116379 0 0.29923601887228601 0.21625722043154849 0 0.307626824269081 0.2211989756033953 0 0.31299248231872789 0.2127648402730884 0 0.28657418984186739 0.20114243214027791 0 0.29488724807269839 0.2132751084532945 0 0.29337702589054909 0.2177537052941648 0 0.28657418984186739 0.20114243214027791 0 0.29337702589054909 0.2177537052941648 0 0.28602698755932737 0.21611319805730089 0 0.28657418984186739 0.20114243214027791 0 0.3023259608227078 0.19926395100539571 0 0.29488724807269839 0.2132751084532945 0 0.28657418984186739 0.20114243214027791 0 0.29337702589054909 0.2177537052941648 0 0.27953531030885442 0.21294767646700791 0 0.28657418984186739 0.20114243214027791 0 0.28602698755932737 0.21611319805730089 0 0.27953531030885442 0.21294767646700791 0 0.28602698755932737 0.21611319805730089 0 0.28162976399265849 0.22411567455681949 0 0.29488724807269839 0.2132751084532945 0 0.29337702589054909 0.2177537052941648 0 0.29448694918304691 0.22938466604744559 0 0.28602698755932737 0.21611319805730089 0 0.28901864776270753 0.22460650182823441 0 0.28162976399265849 0.22411567455681949 0 0.28901864776270753 0.22460650182823441 0 0.28162976399265849 0.22411567455681949 0 0.28539452101391322 0.23466556281000631 0 0.28901864776270753 0.22460650182823441 0 0.29448694918304691 0.22938466604744559 0 0.28539452101391322 0.23466556281000631 0 0.29337702589054909 0.2177537052941648 0 0.28901864776270753 0.22460650182823441 0 0.29448694918304691 0.22938466604744559 0 0.29337702589054909 0.2177537052941648 0 0.28602698755932737 0.21611319805730089 0 0.28901864776270753 0.22460650182823441 0 0.29488724807269839 0.2132751084532945 0 0.29448694918304691 0.22938466604744559 0 0.30359849104984371 0.24235528973672671 0 0.29923601887228601 0.21625722043154849 0 0.307626824269081 0.2211989756033953 0 0.3041126029054404 0.2307892726056702 0 0.29488724807269839 0.2132751084532945 0 0.3041126029054404 0.2307892726056702 0 0.30359849104984371 0.24235528973672671 0 0.29923601887228601 0.21625722043154849 0 0.29488724807269839 0.2132751084532945 0 0.3041126029054404 0.2307892726056702 0 0.29488724807269839 0.2132751084532945 0 0.30359849104984371 0.24235528973672671 0 0.307626824269081 0.2211989756033953 0 0.31416619297986959 0.22498456910327419 0 0.31299248231872789 0.2127648402730884 0 0.307626824269081 0.2211989756033953 0 0.3041126029054404 0.2307892726056702 0 0.31416619297986959 0.22498456910327419 0 0.3041126029054404 0.2307892726056702 0 0.31460202602286857 0.23567295235726859 0 0.31416619297986959 0.22498456910327419 0 0.30359849104984371 0.24235528973672671 0 0.31841864486346638 0.24792162156080891 0 0.31460202602286857 0.23567295235726859 0 0.3041126029054404 0.2307892726056702 0 0.30359849104984371 0.24235528973672671 0 0.31460202602286857 0.23567295235726859 0 0.29230539062393113 0.25211069622483201 0 0.30359849104984371 0.24235528973672671 0 0.29093549964885579 0.2413262041157514 0 0.29448694918304691 0.22938466604744559 0 0.30359849104984371 0.24235528973672671 0 0.29093549964885579 0.2413262041157514 0 0.29448694918304691 0.22938466604744559 0 0.29093549964885579 0.2413262041157514 0 0.28539452101391322 0.23466556281000631 0 0.27889214637354459 0.24811480575974629 0 0.29093549964885579 0.2413262041157514 0 0.28539452101391322 0.23466556281000631 0 0.29230539062393113 0.25211069622483201 0 0.27889214637354459 0.24811480575974629 0 0.29093549964885579 0.2413262041157514 0 0.34382687823700492 0.25366359617077439 0 0.33541413474965698 0.22657398575938889 0 0.34382687823700492 0.25366359617077439 0 0.31841864486346638 0.24792162156080891 0 0.33541413474965698 0.22657398575938889 0 0.31841864486346638 0.24792162156080891 0 0.31460202602286857 0.23567295235726859 0 0.33541413474965698 0.22657398575938889 0 0.31416619297986959 0.22498456910327419 0 0.33541413474965698 0.22657398575938889 0 0.31299248231872789 0.2127648402730884 0 0.31460202602286857 0.23567295235726859 0 0.31416619297986959 0.22498456910327419 0 0.33541413474965698 0.22657398575938889 0 0.33541413474965698 0.22657398575938889 0 0.32675530039915929 0.19893739573837019 0 0.33541413474965698 0.22657398575938889 0 0.34268335646806919 0.20849120579468239 0 0.32675530039915929 0.19893739573837019 0 0.33541413474965698 0.22657398575938889 0 0.31299248231872789 0.2127648402730884 0 0.32675530039915929 0.19893739573837019 0 0.31299248231872789 0.2127648402730884 0 0.32675530039915929 0.19893739573837019 0 0.31774528260143969 0.20299108077116379 0 0.32675530039915929 0.19893739573837019 0 0.31774528260143969 0.20299108077116379 0 0.32494698652051318 0.18896270289450071 0 0.32675530039915929 0.19893739573837019 0 0.31774528260143969 0.20299108077116379 0 0.31113041517341988 0.1885354991146535 0 0.31774528260143969 0.20299108077116379 0 0.32494698652051318 0.18896270289450071 0 0.32675530039915929 0.19893739573837019 0 0.32494698652051318 0.18896270289450071 0 0.34060331713018099 0.19270705308903319 0 0.34268335646806919 0.20849120579468239 0 0.32675530039915929 0.19893739573837019 0 0.34060331713018099 0.19270705308903319 0 0.32675530039915929 0.19893739573837019 0 0.34060331713018099 0.19270705308903319 0 0.34060331713018099 0.19270705308903319 0 0.36346135165892218 0.1824230254069025 0 0.34268335646806919 0.20849120579468239 0 0.34060331713018099 0.19270705308903319 0 0.35433853716687752 0.20303200144128 0 0.34060331713018099 0.19270705308903319 0 0.35433853716687752 0.20303200144128 0 0.36346135165892218 0.1824230254069025 0 0.37080724922377067 0.20930902907989571 0 0.36346135165892218 0.1824230254069025 0 0.37080724922377067 0.20930902907989571 0 0.36346135165892218 0.1824230254069025 0 0.37819345577481889 0.19284440219188459 0 0.35433853716687752 0.20303200144128 0 0.37080724922377067 0.20930902907989571 0 0.36346135165892218 0.1824230254069025 0 0.35433853716687752 0.20303200144128 0 0.37080724922377067 0.20930902907989571 0 0.35605940203132341 0.22065861333570561 0 0.33541413474965698 0.22657398575938889 0 0.34268335646806919 0.20849120579468239 0 0.35605940203132341 0.22065861333570561 0 0.34268335646806919 0.20849120579468239 0 0.35433853716687752 0.20303200144128 0 0.35605940203132341 0.22065861333570561 0 0.33541413474965698 0.22657398575938889 0 0.35605940203132341 0.22065861333570561 0 0.35805444133798131 0.23916082611570549 0 0.35605940203132341 0.22065861333570561 0 0.35805444133798131 0.23916082611570549 0 0.37815314678861961 0.2361950327528887 0 0.37080724922377067 0.20930902907989571 0 0.35605940203132341 0.22065861333570561 0 0.37815314678861961 0.2361950327528887 0 0.37080724922377067 0.20930902907989571 0 0.37815314678861961 0.2361950327528887 0 0.36466296129523779 0.25837231629832791 0 0.35805444133798131 0.23916082611570549 0 0.37815314678861961 0.2361950327528887 0 0.34382687823700492 0.25366359617077439 0 0.33541413474965698 0.22657398575938889 0 0.35805444133798131 0.23916082611570549 0 0.32834541315636379 0.15038411148366079 0 0.3526324428379507 0.13331058773229601 0 0.32834541315636379 0.15038411148366079 0 0.34836281040420453 0.15520077986892611 0 0.3526324428379507 0.13331058773229601 0 0.33947101841536509 0.12468772685482531 0 0.33064144843857252 0.13558350341402911 0 0.3526324428379507 0.13331058773229601 0 0.32834541315636379 0.15038411148366079 0 0.33064144843857252 0.13558350341402911 0 0.3526324428379507 0.13331058773229601 0 0.33186283254246501 0.1235880783662746 0 0.33947101841536509 0.12468772685482531 0 0.33064144843857252 0.13558350341402911 0 0.30264864736993102 0.14544571264789169 0 0.32013711549615509 0.1252686193051904 0 0.3168778569062739 0.14072983446874529 0 0.33064144843857252 0.13558350341402911 0 0.32180757670786819 0.12657328920842581 0 0.3168778569062739 0.14072983446874529 0 0.33186283254246501 0.1235880783662746 0 0.33064144843857252 0.13558350341402911 0 0.32180757670786819 0.12657328920842581 0 0.32180757670786819 0.12657328920842581 0 0.32013711549615509 0.1252686193051904 0 0.32180757670786819 0.12657328920842581 0 0.32013711549615509 0.1252686193051904 0 0.3168778569062739 0.14072983446874529 0 0.30405838347477693 0.16745763523502549 0 0.32834541315636379 0.15038411148366079 0 0.3168778569062739 0.14072983446874529 0 0.32834541315636379 0.15038411148366079 0 0.33064144843857252 0.13558350341402911 0 0.3168778569062739 0.14072983446874529 0 0.30405838347477693 0.16745763523502549 0 0.32834541315636379 0.15038411148366079 0 0.30405838347477693 0.16745763523502549 0 0.32834541315636379 0.15038411148366079 0 0.32830549572802142 0.1683003480280095 0 0.30405838347477693 0.16745763523502549 0 0.32110028293434412 0.17997243123379089 0 0.32830549572802142 0.1683003480280095 0 0.31113041517341988 0.1885354991146535 0 0.32494698652051318 0.18896270289450071 0 0.32110028293434412 0.17997243123379089 0 0.32110028293434412 0.17997243123379089 0 0.33415563476318128 0.1806074502638621 0 0.32830549572802142 0.1683003480280095 0 0.32494698652051318 0.18896270289450071 0 0.32110028293434412 0.17997243123379089 0 0.33415563476318128 0.1806074502638621 0 0.32494698652051318 0.18896270289450071 0 0.34060331713018099 0.19270705308903319 0 0.33415563476318128 0.1806074502638621 0 0.33415563476318128 0.1806074502638621 0 0.32830549572802142 0.1683003480280095 0 0.34130901204252168 0.16816964283436689 0 0.33415563476318128 0.1806074502638621 0 0.34130901204252168 0.16816964283436689 0 0.3491168992282972 0.1816005397249647 0 0.34060331713018099 0.19270705308903319 0 0.33415563476318128 0.1806074502638621 0 0.3491168992282972 0.1816005397249647 0 0.32834541315636379 0.15038411148366079 0 0.32830549572802142 0.1683003480280095 0 0.34130901204252168 0.16816964283436689 0 0.32834541315636379 0.15038411148366079 0 0.34130901204252168 0.16816964283436689 0 0.34836281040420453 0.15520077986892611 0 0.35575528797885941 0.16999373575518939 0 0.36377189600532689 0.15414582153911741 0 0.34836281040420453 0.15520077986892611 0 0.34130901204252168 0.16816964283436689 0 0.35575528797885941 0.16999373575518939 0 0.34836281040420453 0.15520077986892611 0 0.34060331713018099 0.19270705308903319 0 0.3491168992282972 0.1816005397249647 0 0.36346135165892218 0.1824230254069025 0 0.34130901204252168 0.16816964283436689 0 0.35575528797885941 0.16999373575518939 0 0.3491168992282972 0.1816005397249647 0 0.35575528797885941 0.16999373575518939 0 0.35791144589171831 0.1778876261118115 0 0.36195665194967819 0.17397545630340069 0 0.35575528797885941 0.16999373575518939 0 0.3491168992282972 0.1816005397249647 0 0.35791144589171831 0.1778876261118115 0 0.3491168992282972 0.1816005397249647 0 0.35791144589171831 0.1778876261118115 0 0.36346135165892218 0.1824230254069025 0 0.36346135165892218 0.1824230254069025 0 0.36853323772669339 0.1694753076273619 0 0.38016675378110992 0.17490712032548869 0 0.36346135165892218 0.1824230254069025 0 0.38016675378110992 0.17490712032548869 0 0.36346135165892218 0.1824230254069025 0 0.37389689462615772 0.18329455011772131 0 0.38016675378110992 0.17490712032548869 0 0.36346135165892218 0.1824230254069025 0 0.36195665194967819 0.17397545630340069 0 0.36853323772669339 0.1694753076273619 0 0.35791144589171831 0.1778876261118115 0 0.36346135165892218 0.1824230254069025 0 0.36195665194967819 0.17397545630340069 0 0.36346135165892218 0.1824230254069025 0 0.37389689462615772 0.18329455011772131 0 0.37819345577481889 0.19284440219188459 0 0.35575528797885941 0.16999373575518939 0 0.36853323772669339 0.1694753076273619 0 0.36377189600532689 0.15414582153911741 0 0.36853323772669339 0.1694753076273619 0 0.36377189600532689 0.15414582153911741 0 0.38048155521774712 0.1577703516237087 0 0.35575528797885941 0.16999373575518939 0 0.36195665194967819 0.17397545630340069 0 0.36853323772669339 0.1694753076273619 0 0.36377189600532689 0.15414582153911741 0 0.3526324428379507 0.13331058773229601 0 0.37756298340506378 0.13780562740498051 0 0.36377189600532689 0.15414582153911741 0 0.37756298340506378 0.13780562740498051 0 0.38048155521774712 0.1577703516237087 0 0.36377189600532689 0.15414582153911741 0 0.34836281040420453 0.15520077986892611 0 0.3526324428379507 0.13331058773229601 0 0.3526324428379507 0.13331058773229601 0 0.37756298340506378 0.13780562740498051 0 0.37691947251953761 0.1162370639809312 0 0.37756298340506378 0.13780562740498051 0 0.37691947251953761 0.1162370639809312 0 0.40128318485565218 0.1233558183267775 0 0.37756298340506378 0.13780562740498051 0 0.40004870126415087 0.1435276578684985 0 0.40128318485565218 0.1233558183267775 0 0.40004870126415087 0.1435276578684985 0 0.41391247776593992 0.1373442411299958 0 0.40128318485565218 0.1233558183267775 0 0.40004870126415087 0.1435276578684985 0 0.38048155521774712 0.1577703516237087 0 0.39687215590329739 0.1673912152440748 0 0.37756298340506378 0.13780562740498051 0 0.40004870126415087 0.1435276578684985 0 0.38048155521774712 0.1577703516237087 0 0.38048155521774712 0.1577703516237087 0 0.38016675378110992 0.17490712032548869 0 0.39687215590329739 0.1673912152440748 0 0.36853323772669339 0.1694753076273619 0 0.38048155521774712 0.1577703516237087 0 0.38016675378110992 0.17490712032548869 0 0.38016675378110992 0.17490712032548869 0 0.39687215590329739 0.1673912152440748 0 0.38016675378110992 0.17490712032548869 0 0.39179017975897029 0.1837701635688106 0 0.39687215590329739 0.1673912152440748 0 0.37389689462615772 0.18329455011772131 0 0.38016675378110992 0.17490712032548869 0 0.39179017975897029 0.1837701635688106 0 0.37389689462615772 0.18329455011772131 0 0.39179017975897029 0.1837701635688106 0 0.37819345577481889 0.19284440219188459 0 0.39179017975897029 0.1837701635688106 0 0.41499104526480102 0.16828412237100751 0 0.40599763051941118 0.1911619260409177 0 0.39179017975897029 0.1837701635688106 0 0.39687215590329739 0.1673912152440748 0 0.41499104526480102 0.16828412237100751 0 0.40004870126415087 0.1435276578684985 0 0.39687215590329739 0.1673912152440748 0 0.41499104526480102 0.16828412237100751 0 0.41499104526480102 0.16828412237100751 0 0.42990314799042889 0.15689934957605831 0 0.41731117198332418 0.14904383321146741 0 0.41499104526480102 0.16828412237100751 0 0.40599763051941118 0.1911619260409177 0 0.42993338926545049 0.19304058687351641 0 0.42993338926545049 0.19304058687351641 0 0.44156550802905331 0.16986994519669321 0 0.41499104526480102 0.16828412237100751 0 0.42993338926545049 0.19304058687351641 0 0.44156550802905331 0.16986994519669321 0 0.41499104526480102 0.16828412237100751 0 0.42993338926545049 0.19304058687351641 0 0.41499104526480102 0.16828412237100751 0 0.42990314799042889 0.15689934957605831 0 0.44156550802905331 0.16986994519669321 0 0.42990314799042889 0.15689934957605831 0 0.4404559221865878 0.14453231946416251 0 0.44156550802905331 0.16986994519669321 0 0.42990314799042889 0.15689934957605831 0 0.42770048763130047 0.13916379511177679 0 0.41731117198332418 0.14904383321146741 0 0.42990314799042889 0.15689934957605831 0 0.42770048763130047 0.13916379511177679 0 0.4404559221865878 0.14453231946416251 0 0.42770048763130047 0.13916379511177679 0 0.4382500518442225 0.13212319946095291 0 0.4404559221865878 0.14453231946416251 0 0.43071063789456399 0.12502849078214531 0 0.42770048763130047 0.13916379511177679 0 0.4382500518442225 0.13212319946095291 0 0.43071063789456399 0.12502849078214531 0 0.42770048763130047 0.13916379511177679 0 0.42055308092332638 0.12629155744970219 0 0.42770048763130047 0.13916379511177679 0 0.42055308092332638 0.12629155744970219 0 0.41391247776593992 0.1373442411299958 0 0.42055308092332638 0.12629155744970219 0 0.41391247776593992 0.1373442411299958 0 0.40128318485565218 0.1233558183267775 0 0.40004870126415087 0.1435276578684985 0 0.41499104526480102 0.16828412237100751 0 0.40004870126415087 0.1435276578684985 0 0.41391247776593992 0.1373442411299958 0 0.41731117198332418 0.14904383321146741 0 0.40004870126415087 0.1435276578684985 0 0.41499104526480102 0.16828412237100751 0 0.41731117198332418 0.14904383321146741 0 0.42770048763130047 0.13916379511177679 0 0.41391247776593992 0.1373442411299958 0 0.41731117198332418 0.14904383321146741 0 0.40307186745932611 0.24164668840001571 0 0.39116481085226162 0.24486815483127761 0 0.38948577197267659 0.2283691713467394 0 0.40307186745932611 0.24164668840001571 0 0.4055205603405086 0.2416698110787677 0 0.40213911942956593 0.2283856093792089 0 0.39961422368721461 0.25504884523086307 0 0.40307186745932611 0.24164668840001571 0 0.39116481085226162 0.24486815483127761 0 0.39116481085226162 0.24486815483127761 0 0.37815314678861961 0.2361950327528887 0 0.38948577197267659 0.2283691713467394 0 0.38549904435347071 0.26308103642588132 0 0.39116481085226162 0.24486815483127761 0 0.37815314678861961 0.2361950327528887 0 0.38549904435347071 0.26308103642588132 0 0.37815314678861961 0.2361950327528887 0 0.37080724922377067 0.20930902907989571 0 0.37815314678861961 0.2361950327528887 0 0.38948577197267659 0.2283691713467394 0 0.38948577197267659 0.2283691713467394 0 0.40213911942956593 0.2283856093792089 0 0.39241332244319638 0.20850780869057989 0 0.40307186745932611 0.24164668840001571 0 0.38948577197267659 0.2283691713467394 0 0.40213911942956593 0.2283856093792089 0 0.40213911942956593 0.2283856093792089 0 0.39241332244319638 0.20850780869057989 0 0.41772697480297921 0.21735519897614189 0 0.37080724922377067 0.20930902907989571 0 0.38948577197267659 0.2283691713467394 0 0.39241332244319638 0.20850780869057989 0 0.37080724922377067 0.20930902907989571 0 0.39241332244319638 0.20850780869057989 0 0.37819345577481889 0.19284440219188459 0 0.39179017975897029 0.1837701635688106 0 0.39241332244319638 0.20850780869057989 0 0.37819345577481889 0.19284440219188459 0 0.39179017975897029 0.1837701635688106 0 0.39241332244319638 0.20850780869057989 0 0.40599763051941118 0.1911619260409177 0 0.39241332244319638 0.20850780869057989 0 0.40599763051941118 0.1911619260409177 0 0.41406346515225328 0.20208028355110369 0 0.40599763051941118 0.1911619260409177 0 0.41406346515225328 0.20208028355110369 0 0.42993338926545049 0.19304058687351641 0 0.42993338926545049 0.19304058687351641 0 0.43811661208239677 0.20659854439176301 0 0.41772697480297921 0.21735519897614189 0 0.43170612979828688 0.22229396871989479 0 0.43811661208239677 0.20659854439176301 0 0.42993338926545049 0.19304058687351641 0 0.41772697480297921 0.21735519897614189 0 0.43811661208239677 0.20659854439176301 0 0.42993338926545049 0.19304058687351641 0 0.41772697480297921 0.21735519897614189 0 0.39241332244319638 0.20850780869057989 0 0.41406346515225328 0.20208028355110369 0 0.41772697480297921 0.21735519897614189 0 0.41406346515225328 0.20208028355110369 0 0.42993338926545049 0.19304058687351641 0 0.41772697480297921 0.21735519897614189 0 0.4055205603405086 0.2416698110787677 0 0.41772697480297921 0.21735519897614189 0 0.4055205603405086 0.2416698110787677 0 0.41772697480297921 0.21735519897614189 0 0.4207529593419152 0.23385050278102459 0 0.4055205603405086 0.2416698110787677 0 0.40213911942956593 0.2283856093792089 0 0.41772697480297921 0.21735519897614189 0 0.41772697480297921 0.21735519897614189 0 0.4207529593419152 0.23385050278102459 0 0.43170612979828688 0.22229396871989479 0 0.4207529593419152 0.23385050278102459 0 0.43170612979828688 0.22229396871989479 0 0.43563426786480108 0.23350909554053501 0 0.4207529593419152 0.23385050278102459 0 0.43563426786480108 0.23350909554053501 0 0.42496870083025928 0.24686168917106019 0 0.43563426786480108 0.23350909554053501 0 0.42496870083025928 0.24686168917106019 0 0.43563426786480108 0.23350909554053501 0 0.42496870083025928 0.24686168917106019 0 0.43837580178273289 0.24680007367012541 0 0.41397834584231102 0.25681423376881951 0 0.42496870083025928 0.24686168917106019 0 0.41583116612429061 0.2452871265857296 0 0.4207529593419152 0.23385050278102459 0 0.42496870083025928 0.24686168917106019 0 0.41583116612429061 0.2452871265857296 0 0.4055205603405086 0.2416698110787677 0 0.4207529593419152 0.23385050278102459 0 0.41583116612429061 0.2452871265857296 0 0.41397834584231102 0.25681423376881951 0 0.40307186745932611 0.24164668840001571 0 0.4055205603405086 0.2416698110787677 0 0.41397834584231102 0.25681423376881951 0 0.4055205603405086 0.2416698110787677 0 0.41583116612429061 0.2452871265857296 0 0.41397834584231102 0.25681423376881951 0 0.40307186745932611 0.24164668840001571 0 0.46819191412942962 0.25963055775866262 0 0.4622623097057188 0.23748440550378511 0 0.46819191412942962 0.25963055775866262 0 0.4636234786344271 0.248858302053486 0 0.4622623097057188 0.23748440550378511 0 0.4636234786344271 0.248858302053486 0 0.4622623097057188 0.23748440550378511 0 0.4590063719711216 0.24120868314433469 0 0.4636234786344271 0.248858302053486 0 0.4590063719711216 0.24120868314433469 0 0.4622623097057188 0.23748440550378511 0 0.46091091418264069 0.23243715296010739 0 0.4622623097057188 0.23748440550378511 0 0.4590063719711216 0.24120868314433469 0 0.46091091418264069 0.23243715296010739 0 0.4622623097057188 0.23748440550378511 0 0.4590063719711216 0.24120868314433469 0 0.45852910184224138 0.25462015848999148 0 0.4636234786344271 0.248858302053486 0 0.4590063719711216 0.24120868314433469 0 0.44495931258128413 0.25727629667548702 0 0.4590063719711216 0.24120868314433469 0 0.44495931258128413 0.25727629667548702 0 0.4590063719711216 0.24120868314433469 0 0.43837580178273289 0.24680007367012541 0 0.43563426786480108 0.23350909554053501 0 0.4590063719711216 0.24120868314433469 0 0.43837580178273289 0.24680007367012541 0 0.4590063719711216 0.24120868314433469 0 0.44629983489934277 0.22015650191000971 0 0.43563426786480108 0.23350909554053501 0 0.4590063719711216 0.24120868314433469 0 0.44629983489934277 0.22015650191000971 0 0.43563426786480108 0.23350909554053501 0 0.44629983489934277 0.22015650191000971 0 0.43170612979828688 0.22229396871989479 0 0.43563426786480108 0.23350909554053501 0 0.44629983489934277 0.22015650191000971 0 0.4590063719711216 0.24120868314433469 0 0.44629983489934277 0.22015650191000971 0 0.46091091418264069 0.23243715296010739 0 0.44629983489934277 0.22015650191000971 0 0.46091091418264069 0.23243715296010739 0 0.46128259443552078 0.2181041728270926 0 0.4622623097057188 0.23748440550378511 0 0.46091091418264069 0.23243715296010739 0 0.47463198055998562 0.22333545907463531 0 0.4622623097057188 0.23748440550378511 0 0.47463198055998562 0.22333545907463531 0 0.46091091418264069 0.23243715296010739 0 0.46128259443552078 0.2181041728270926 0 0.47463198055998562 0.22333545907463531 0 0.44629983489934277 0.22015650191000971 0 0.46128259443552078 0.2181041728270926 0 0.4592793391558625 0.20390700994191391 0 0.46128259443552078 0.2181041728270926 0 0.4592793391558625 0.20390700994191391 0 0.47359118118805632 0.20418024004446081 0 0.44629983489934277 0.22015650191000971 0 0.4592793391558625 0.20390700994191391 0 0.43170612979828688 0.22229396871989479 0 0.44629983489934277 0.22015650191000971 0 0.43811661208239677 0.20659854439176301 0 0.44629983489934277 0.22015650191000971 0 0.4592793391558625 0.20390700994191391 0 0.43811661208239677 0.20659854439176301 0 0.44629983489934277 0.22015650191000971 0 0.43811661208239677 0.20659854439176301 0 0.4592793391558625 0.20390700994191391 0 0.43811661208239677 0.20659854439176301 0 0.44942550822311328 0.1896669097585659 0 0.42993338926545049 0.19304058687351641 0 0.43811661208239677 0.20659854439176301 0 0.44942550822311328 0.1896669097585659 0 0.4592793391558625 0.20390700994191391 0 0.44942550822311328 0.1896669097585659 0 0.47225884341238189 0.18765751797381791 0 0.4592793391558625 0.20390700994191391 0 0.47225884341238189 0.18765751797381791 0 0.47359118118805632 0.20418024004446081 0 0.4592793391558625 0.20390700994191391 0 0.47225884341238189 0.18765751797381791 0 0.47225884341238189 0.18765751797381791 0 0.48536979440758199 0.19629478183707319 0 0.47359118118805632 0.20418024004446081 0 0.47225884341238189 0.18765751797381791 0 0.48536979440758199 0.19629478183707319 0 0.48517469933923979 0.18427302123577041 0 0.49199466307053941 0.18788459319946341 0 0.48536979440758199 0.19629478183707319 0 0.48517469933923979 0.18427302123577041 0 0.49199466307053941 0.18788459319946341 0 0.5 0.20153755310618299 0 0.5 0.17723247705058071 0 0.49199466307053941 0.18788459319946341 0 0.5 0.20153755310618299 0 0.48536979440758199 0.19629478183707319 0 0.5 0.20153755310618299 0 0.48536979440758199 0.19629478183707319 0 0.48700165141425128 0.2091865126454846 0 0.5 0.20153755310618299 0 0.48700165141425128 0.2091865126454846 0 0.5 0.22584262916178541 0 0.48700165141425128 0.2091865126454846 0 0.47359118118805632 0.20418024004446081 0 0.47463198055998562 0.22333545907463531 0 0.46128259443552078 0.2181041728270926 0 0.47359118118805632 0.20418024004446081 0 0.47463198055998562 0.22333545907463531 0 0.48700165141425128 0.2091865126454846 0 0.47463198055998562 0.22333545907463531 0 0.48536979440758199 0.19629478183707319 0 0.48700165141425128 0.2091865126454846 0 0.47359118118805632 0.20418024004446081 0 0.47422603099963478 0.23358508441598261 0 0.48539228077000662 0.22462198847147991 0 0.48173234060001391 0.24202447164634611 0 0.4622623097057188 0.23748440550378511 0 0.47463198055998562 0.22333545907463531 0 0.47422603099963478 0.23358508441598261 0 0.47463198055998562 0.22333545907463531 0 0.47422603099963478 0.23358508441598261 0 0.48539228077000662 0.22462198847147991 0 0.48700165141425128 0.2091865126454846 0 0.47463198055998562 0.22333545907463531 0 0.48539228077000662 0.22462198847147991 0 0.48700165141425128 0.2091865126454846 0 0.48539228077000662 0.22462198847147991 0 0.5 0.22584262916178541 0 0.48539228077000662 0.22462198847147991 0 0.5 0.22584262916178541 0 0.48173234060001391 0.24202447164634611 0 0.5 0.25014770521738799 0 0.5 0.22584262916178541 0 0.48173234060001391 0.24202447164634611 0 0.46819191412942962 0.25963055775866262 0 0.4622623097057188 0.23748440550378511 0 0.48173234060001391 0.24202447164634611 0 0.4622623097057188 0.23748440550378511 0 0.47422603099963478 0.23358508441598261 0 0.48173234060001391 0.24202447164634611 0 0.45319762679265668 0.1466993035198704 0 0.45659537402215211 0.16043337933642521 0 0.46911416086001162 0.1533458663554253 0 0.45298997405112068 0.13528370670512799 0 0.46911416086001162 0.1533458663554253 0 0.45319762679265668 0.1466993035198704 0 0.45298997405112068 0.13528370670512799 0 0.46911416086001162 0.1533458663554253 0 0.46791488031267608 0.12971683876964091 0 0.45298997405112068 0.13528370670512799 0 0.46911416086001162 0.1533458663554253 0 0.46791488031267608 0.12971683876964091 0 0.45298997405112068 0.13528370670512799 0 0.44567875427549231 0.1195324059229495 0 0.45298997405112068 0.13528370670512799 0 0.4382500518442225 0.13212319946095291 0 0.43686578724223002 0.1172215470548308 0 0.45298997405112068 0.13528370670512799 0 0.43686578724223002 0.1172215470548308 0 0.45298997405112068 0.13528370670512799 0 0.4382500518442225 0.13212319946095291 0 0.4404559221865878 0.14453231946416251 0 0.45319762679265668 0.1466993035198704 0 0.4404559221865878 0.14453231946416251 0 0.44156550802905331 0.16986994519669321 0 0.45319762679265668 0.1466993035198704 0 0.45298997405112068 0.13528370670512799 0 0.4404559221865878 0.14453231946416251 0 0.45319762679265668 0.1466993035198704 0 0.44156550802905331 0.16986994519669321 0 0.45319762679265668 0.1466993035198704 0 0.44156550802905331 0.16986994519669321 0 0.45659537402215211 0.16043337933642521 0 0.44942550822311328 0.1896669097585659 0 0.44156550802905331 0.16986994519669321 0 0.46250420040688711 0.17181840227371201 0 0.42993338926545049 0.19304058687351641 0 0.44942550822311328 0.1896669097585659 0 0.44156550802905331 0.16986994519669321 0 0.44942550822311328 0.1896669097585659 0 0.47225884341238189 0.18765751797381791 0 0.46250420040688711 0.17181840227371201 0 0.44156550802905331 0.16986994519669321 0 0.46250420040688711 0.17181840227371201 0 0.45659537402215211 0.16043337933642521 0 0.46250420040688711 0.17181840227371201 0 0.45659537402215211 0.16043337933642521 0 0.46911416086001162 0.1533458663554253 0 0.48523834766890228 0.17140802600572269 0 0.48468535884038022 0.15460173691254589 0 0.46911416086001162 0.1533458663554253 0 0.48523834766890228 0.17140802600572269 0 0.46911416086001162 0.1533458663554253 0 0.46250420040688711 0.17181840227371201 0 0.48523834766890228 0.17140802600572269 0 0.46911416086001162 0.1533458663554253 0 0.47225884341238189 0.18765751797381791 0 0.46250420040688711 0.17181840227371201 0 0.48523834766890228 0.17140802600572269 0 0.47225884341238189 0.18765751797381791 0 0.48523834766890228 0.17140802600572269 0 0.47225884341238189 0.18765751797381791 0 0.48517469933923979 0.18427302123577041 0 0.48523834766890228 0.17140802600572269 0 0.49199466307053941 0.18788459319946341 0 0.48517469933923979 0.18427302123577041 0 0.49009612812803471 0.17684966515558401 0 0.49009612812803471 0.17684966515558401 0 0.5 0.17723247705058071 0 0.48523834766890228 0.17140802600572269 0 0.48517469933923979 0.18427302123577041 0 0.49009612812803471 0.17684966515558401 0 0.48523834766890228 0.17140802600572269 0 0.49009612812803471 0.17684966515558401 0 0.48523834766890228 0.17140802600572269 0 0.49199466307053941 0.18788459319946341 0 0.49009612812803471 0.17684966515558401 0 0.5 0.17723247705058071 0 0.48523834766890228 0.17140802600572269 0 0.50000000000000244 0.15292740099497809 0 0.48523834766890228 0.17140802600572269 0 0.50000000000000244 0.15292740099497809 0 0.48468535884038022 0.15460173691254589 0 0.5 0.17723247705058071 0 0.48523834766890228 0.17140802600572269 0 0.50000000000000244 0.15292740099497809 0 0.50000000000000244 0.15292740099497809 0 0.48438892683260409 0.14072565429405709 0 0.48468535884038022 0.15460173691254589 0 0.48438892683260409 0.14072565429405709 0 0.48468535884038022 0.15460173691254589 0 0.46911416086001162 0.1533458663554253 0 0.46791488031267608 0.12971683876964091 0 0.48438892683260409 0.14072565429405709 0 0.46911416086001162 0.1533458663554253 0 0.46791488031267608 0.12971683876964091 0 0.48438892683260409 0.14072565429405709 0 0.48176905321619518 0.12737724680991891 0 0.50000000000000244 0.15292740099497809 0 0.48438892683260409 0.14072565429405709 0 0.5 0.1246669565937749 0 0.48438892683260409 0.14072565429405709 0 0.48176905321619518 0.12737724680991891 0 0.5 0.1246669565937749 0 0.5 0.1246669565937749 0 0.5 0.096406512192571903 0 0.47477240571950069 0.1143995375822025 0 0.48176905321619518 0.12737724680991891 0 0.5 0.1246669565937749 0 0.47477240571950069 0.1143995375822025 0 0.5 0.096406512192571903 0 0.47477240571950069 0.1143995375822025 0 0.48269709084383772 0.09038327126138801 0 0.47477240571950069 0.1143995375822025 0 0.48269709084383772 0.09038327126138801 0 0.46863390301693869 0.098780185644859575 0 0.47477240571950069 0.1143995375822025 0 0.46455537595218022 0.1093850591155995 0 0.46863390301693869 0.098780185644859575 0 0.46791488031267608 0.12971683876964091 0 0.48176905321619518 0.12737724680991891 0 0.47477240571950069 0.1143995375822025 0 0.50000000000000111 0.068146067791368781 0 0.4762503674825751 0.074604692661907543 0 0.47934360680792132 0.059827195240447162 0 0.50000000000000111 0.068146067791368781 0 0.48269709084383772 0.09038327126138801 0 0.4762503674825751 0.074604692661907543 0 0.5 0.096406512192571903 0 0.50000000000000111 0.068146067791368781 0 0.48269709084383772 0.09038327126138801 0 0.48269709084383772 0.09038327126138801 0 0.46991561208366062 0.086314581268473856 0 0.4762503674825751 0.074604692661907543 0 0.48269709084383772 0.09038327126138801 0 0.46991561208366062 0.086314581268473856 0 0.46863390301693869 0.098780185644859575 0 0.46991561208366062 0.086314581268473856 0 0.4762503674825751 0.074604692661907543 0 0.4613984731203663 0.078144277460282546 0 0.4762503674825751 0.074604692661907543 0 0.46120063341575729 0.066486121345630755 0 0.47934360680792132 0.059827195240447162 0 0.46120063341575729 0.066486121345630755 0 0.44476346126311889 0.068543460918422422 0 0.46346883004162021 0.055393785461823067 0 0.4762503674825751 0.074604692661907543 0 0.46120063341575729 0.066486121345630755 0 0.4613984731203663 0.078144277460282546 0 0.46120063341575729 0.066486121345630755 0 0.4613984731203663 0.078144277460282546 0 0.452080408855496 0.072634912051734751 0 0.4613984731203663 0.078144277460282546 0 0.45122683378063239 0.082088122213960529 0 0.452080408855496 0.072634912051734751 0 0.4613984731203663 0.078144277460282546 0 0.45836713409231278 0.087708285717100154 0 0.45122683378063239 0.082088122213960529 0 0.46991561208366062 0.086314581268473856 0 0.4613984731203663 0.078144277460282546 0 0.45836713409231278 0.087708285717100154 0 0.46991561208366062 0.086314581268473856 0 0.45836713409231278 0.087708285717100154 0 0.46863390301693869 0.098780185644859575 0 0.45836713409231278 0.087708285717100154 0 0.45582672410397201 0.09706220810488693 0 0.44628432154230019 0.095992743929607327 0 0.44105447916535151 0.083182941203517824 0 0.44628432154230019 0.095992743929607327 0 0.42920158121037549 0.096493251374348249 0 0.45836713409231278 0.087708285717100154 0 0.45122683378063239 0.082088122213960529 0 0.44628432154230019 0.095992743929607327 0 0.44105447916535151 0.083182941203517824 0 0.45122683378063239 0.082088122213960529 0 0.44628432154230019 0.095992743929607327 0 0.44105447916535151 0.083182941203517824 0 0.45122683378063239 0.082088122213960529 0 0.452080408855496 0.072634912051734751 0 0.44476346126311889 0.068543460918422422 0 0.4399612537531109 0.065858188526994738 0 0.46346883004162021 0.055393785461823067 0 0.46120063341575729 0.066486121345630755 0 0.452080408855496 0.072634912051734751 0 0.44476346126311889 0.068543460918422422 0 0.44105447916535151 0.083182941203517824 0 0.452080408855496 0.072634912051734751 0 0.44476346126311889 0.068543460918422422 0 0.452080408855496 0.072634912051734751 0 0.44476346126311889 0.068543460918422422 0 0.44476346126311889 0.068543460918422422 0 0.4399612537531109 0.065858188526994738 0 0.46791488031267608 0.12971683876964091 0 0.4590964120630075 0.11760423308985681 0 0.44567875427549231 0.1195324059229495 0 0.47477240571950069 0.1143995375822025 0 0.4590964120630075 0.11760423308985681 0 0.46455537595218022 0.1093850591155995 0 0.46791488031267608 0.12971683876964091 0 0.44567875427549231 0.1195324059229495 0 0.46791488031267608 0.12971683876964091 0 0.47477240571950069 0.1143995375822025 0 0.4590964120630075 0.11760423308985681 0 0.4590964120630075 0.11760423308985681 0 0.45571878300927338 0.1067562801454793 0 0.44721251189938138 0.1099981154846609 0 0.4590964120630075 0.11760423308985681 0 0.46455537595218022 0.1093850591155995 0 0.45571878300927338 0.1067562801454793 0 0.46455537595218022 0.1093850591155995 0 0.46863390301693869 0.098780185644859575 0 0.45571878300927338 0.1067562801454793 0 0.45836713409231278 0.087708285717100154 0 0.46863390301693869 0.098780185644859575 0 0.45582672410397201 0.09706220810488693 0 0.46863390301693869 0.098780185644859575 0 0.45582672410397201 0.09706220810488693 0 0.45571878300927338 0.1067562801454793 0 0.44628432154230019 0.095992743929607327 0 0.43823792291420521 0.106326090855647 0 0.42920158121037549 0.096493251374348249 0 0.45571878300927338 0.1067562801454793 0 0.44628432154230019 0.095992743929607327 0 0.44721251189938138 0.1099981154846609 0 0.45582672410397201 0.09706220810488693 0 0.45571878300927338 0.1067562801454793 0 0.44628432154230019 0.095992743929607327 0 0.44628432154230019 0.095992743929607327 0 0.43823792291420521 0.106326090855647 0 0.44721251189938138 0.1099981154846609 0 0.43823792291420521 0.106326090855647 0 0.44721251189938138 0.1099981154846609 0 0.44567875427549231 0.1195324059229495 0 0.45298997405112068 0.13528370670512799 0 0.44567875427549231 0.1195324059229495 0 0.43686578724223002 0.1172215470548308 0 0.4590964120630075 0.11760423308985681 0 0.44721251189938138 0.1099981154846609 0 0.44567875427549231 0.1195324059229495 0 0.44567875427549231 0.1195324059229495 0 0.42344262823830842 0.1093479730762579 0 0.43071063789456399 0.12502849078214531 0 0.4382500518442225 0.13212319946095291 0 0.43686578724223002 0.1172215470548308 0 0.43071063789456399 0.12502849078214531 0 0.42055308092332638 0.12629155744970219 0 0.42344262823830842 0.1093479730762579 0 0.44567875427549231 0.1195324059229495 0 0.43686578724223002 0.1172215470548308 0 0.42344262823830842 0.1093479730762579 0 0.43823792291420521 0.106326090855647 0 0.44567875427549231 0.1195324059229495 0 0.42344262823830842 0.1093479730762579 0 0.43071063789456399 0.12502849078214531 0 0.43686578724223002 0.1172215470548308 0 0.42344262823830842 0.1093479730762579 0 0.42055308092332638 0.12629155744970219 0 0.42344262823830842 0.1093479730762579 0 0.40128318485565218 0.1233558183267775 0 0.42344262823830842 0.1093479730762579 0 0.40128318485565218 0.1233558183267775 0 0.40120650220112442 0.099163540229566471 0 0.42344262823830842 0.1093479730762579 0 0.40120650220112442 0.099163540229566471 0 0.42920158121037549 0.096493251374348249 0 0.42344262823830842 0.1093479730762579 0 0.40120650220112442 0.099163540229566471 0 0.43823792291420521 0.106326090855647 0 0.42920158121037549 0.096493251374348249 0 0.42344262823830842 0.1093479730762579 0 0.44105447916535151 0.083182941203517824 0 0.42920158121037549 0.096493251374348249 0 0.42298498173212279 0.083853500573996056 0 0.44105447916535151 0.083182941203517824 0 0.44476346126311889 0.068543460918422422 0 0.42298498173212279 0.083853500573996056 0 0.44476346126311889 0.068543460918422422 0 0.42298498173212279 0.083853500573996056 0 0.4399612537531109 0.065858188526994738 0 0.42111802534233322 0.074246256046993045 0 0.4399612537531109 0.065858188526994738 0 0.42298498173212279 0.083853500573996056 0 0.42111802534233322 0.074246256046993045 0 0.4399612537531109 0.065858188526994738 0 0.42111802534233322 0.074246256046993045 0 0.41389355987207871 0.051281796619556307 0 0.44476346126311889 0.068543460918422422 0 0.4399612537531109 0.065858188526994738 0 0.42298498173212279 0.083853500573996056 0 0.42111802534233322 0.074246256046993045 0 0.4022747969315551 0.082634323566990284 0 0.39902164583352667 0.061290855230049859 0 0.42298498173212279 0.083853500573996056 0 0.4022747969315551 0.082634323566990284 0 0.40120650220112442 0.099163540229566471 0 0.42111802534233322 0.074246256046993045 0 0.4022747969315551 0.082634323566990284 0 0.42298498173212279 0.083853500573996056 0 0.40120650220112442 0.099163540229566471 0 0.42298498173212279 0.083853500573996056 0 0.42111802534233322 0.074246256046993045 0 0.4022747969315551 0.082634323566990284 0 0.42920158121037549 0.096493251374348249 0 0.42298498173212279 0.083853500573996056 0 0.40120650220112442 0.099163540229566471 0 0.4022747969315551 0.082634323566990284 0 0.38343156852077698 0.091022391086987564 0 0.4022747969315551 0.082634323566990284 0 0.38793808127173901 0.07117615043477922 0 0.38476361338974502 0.081158169356216558 0 0.4022747969315551 0.082634323566990284 0 0.38343156852077698 0.091022391086987564 0 0.40120650220112442 0.099163540229566471 0 0.4022747969315551 0.082634323566990284 0 0.38793808127173901 0.07117615043477922 0 0.39902164583352667 0.061290855230049859 0 0.38793808127173901 0.07117615043477922 0 0.37660116703828589 0.074451192733297311 0 0.38171379994375088 0.0542253180357022 0 0.38793808127173901 0.07117615043477922 0 0.37660116703828589 0.074451192733297311 0 0.38476361338974502 0.081158169356216558 0 0.4022747969315551 0.082634323566990284 0 0.38343156852077698 0.091022391086987564 0 0.38476361338974502 0.081158169356216558 0 0.37357245318636773 0.086506788959028413 0 0.37660116703828589 0.074451192733297311 0 0.38476361338974502 0.081158169356216558 0 0.37357245318636773 0.086506788959028413 0 0.38343156852077698 0.091022391086987564 0 0.37357245318636773 0.086506788959028413 0 0.38343156852077698 0.091022391086987564 0 0.38476361338974502 0.081158169356216558 0 0.37357245318636773 0.086506788959028413 0 0.38343156852077698 0.091022391086987564 0 0.37881355117099191 0.093078102586847011 0 0.38343156852077698 0.091022391086987564 0 0.37881355117099191 0.093078102586847011 0 0.38275103844128677 0.10064029316005831 0 0.37691947251953761 0.1162370639809312 0 0.40120650220112442 0.099163540229566471 0 0.38343156852077698 0.091022391086987564 0 0.38275103844128677 0.10064029316005831 0 0.40120650220112442 0.099163540229566471 0 0.38343156852077698 0.091022391086987564 0 0.37881355117099191 0.093078102586847011 0 0.38275103844128677 0.10064029316005831 0 0.37691947251953761 0.1162370639809312 0 0.40120650220112442 0.099163540229566471 0 0.37338409779400328 0.103700367915959 0 0.37881355117099191 0.093078102586847011 0 0.38275103844128677 0.10064029316005831 0 0.37338409779400328 0.103700367915959 0 0.38275103844128677 0.10064029316005831 0 0.37691947251953761 0.1162370639809312 0 0.37691947251953761 0.1162370639809312 0 0.40128318485565218 0.1233558183267775 0 0.40120650220112442 0.099163540229566471 0 0.38343156852077698 0.091022391086987564 0 0.40120650220112442 0.099163540229566471 0 0.40498217077221782 0.015798502453937598 0 0.39045446535697881 0.03350215840002202 0 0.4143617697724199 0.024448375911218252 0 0.40498217077221782 0.015798502453937598 0 0.39045446535697881 0.03350215840002202 0 0.40498217077221782 0.015798502453937598 0 0.38480881943667211 0.024142788890282742 0 0.39045446535697881 0.03350215840002202 0 0.39045446535697881 0.03350215840002202 0 0.4143617697724199 0.024448375911218252 0 0.40498217077221782 0.015798502453937598 0 0.40745588828659562 0.016162653305013871 0 0.40498217077221782 0.015798502453937598 0 0.39026598149007408 0.0050009458897899723 0 0.37756287430724528 0.011762164397755331 0 0.40498217077221782 0.015798502453937598 0 0.40220063449233717 0.0033575902942124228 0 0.39026598149007408 0.0050009458897899723 0 0.40498217077221782 0.015798502453937598 0 0.37756287430724528 0.011762164397755331 0 0.40220063449233717 0.0033575902942124228 0 0.39026598149007408 0.0050009458897899723 0 0.39512660610726902 -0.0037635568173960809 0 0.39026598149007408 0.0050009458897899723 0 0.38172434371131853 0.0045516513347433072 0 0.37756287430724528 0.011762164397755331 0 0.39026598149007408 0.0050009458897899723 0 0.38172434371131853 0.0045516513347433072 0 0.38383006574189632 -0.001074199461184717 0 0.39026598149007408 0.0050009458897899723 0 0.39512660610726902 -0.0037635568173960809 0 0.38383006574189632 -0.001074199461184717 0 0.38172434371131853 0.0045516513347433072 0 0.37576332961284681 0.004108183588312002 0 0.38383006574189632 -0.001074199461184717 0 0.38172434371131853 0.0045516513347433072 0 0.37576332961284681 0.004108183588312002 0 0.37756287430724528 0.011762164397755331 0 0.36557274311667359 0.024262023964228479 0 0.38480881943667211 0.024142788890282742 0 0.38547184363024573 0.035389095235473858 0 0.36557274311667359 0.024262023964228479 0 0.38547184363024573 0.035389095235473858 0 0.40498217077221782 0.015798502453937598 0 0.37756287430724528 0.011762164397755331 0 0.38480881943667211 0.024142788890282742 0 0.36557274311667359 0.024262023964228479 0 0.37756287430724528 0.011762164397755331 0 0.38480881943667211 0.024142788890282742 0 0.38480881943667211 0.024142788890282742 0 0.39045446535697881 0.03350215840002202 0 0.38547184363024573 0.035389095235473858 0 0.36894782535792581 0.059710437286252693 0 0.3878258659910469 0.036705404712117251 0 0.38547184363024573 0.035389095235473858 0 0.3878258659910469 0.036705404712117251 0 0.39045446535697881 0.03350215840002202 0 0.38547184363024573 0.035389095235473858 0 0.3878258659910469 0.036705404712117251 0 0.39045446535697881 0.03350215840002202 0 0.39045446535697881 0.03350215840002202 0 0.38547184363024573 0.035389095235473858 0 0.3878258659910469 0.036705404712117251 0 0.38547184363024573 0.035389095235473858 0 0.3878258659910469 0.036705404712117251 0 0.38171379994375088 0.0542253180357022 0 0.39561371791010042 0.050875843649357003 0 0.36894782535792581 0.059710437286252693 0 0.3878258659910469 0.036705404712117251 0 0.38171379994375088 0.0542253180357022 0 0.36894782535792581 0.059710437286252693 0 0.3878258659910469 0.036705404712117251 0 0.38793808127173901 0.07117615043477922 0 0.38171379994375088 0.0542253180357022 0 0.39902164583352667 0.061290855230049859 0 0.38171379994375088 0.0542253180357022 0 0.39561371791010042 0.050875843649357003 0 0.39902164583352667 0.061290855230049859 0 0.39561371791010042 0.050875843649357003 0 0.39902164583352667 0.061290855230049859 0 0.41389355987207871 0.051281796619556307 0 0.39045446535697881 0.03350215840002202 0 0.40468661915171988 0.036297396104894353 0 0.4143617697724199 0.024448375911218252 0 0.3878258659910469 0.036705404712117251 0 0.41389355987207871 0.051281796619556307 0 0.3878258659910469 0.036705404712117251 0 0.39561371791010042 0.050875843649357003 0 0.41389355987207871 0.051281796619556307 0 0.3878258659910469 0.036705404712117251 0 0.39045446535697881 0.03350215840002202 0 0.40468661915171988 0.036297396104894353 0 0.3878258659910469 0.036705404712117251 0 0.40468661915171988 0.036297396104894353 0 0.41389355987207871 0.051281796619556307 0 0.40468661915171988 0.036297396104894353 0 0.41673574938893831 0.035475668586974547 0 0.4143617697724199 0.024448375911218252 0 0.40468661915171988 0.036297396104894353 0 0.41673574938893831 0.035475668586974547 0 0.41389355987207871 0.051281796619556307 0 0.41673574938893831 0.035475668586974547 0 0.41389355987207871 0.051281796619556307 0 0.42715285796769459 0.037168896995520027 0 0.42111802534233322 0.074246256046993045 0 0.39902164583352667 0.061290855230049859 0 0.41389355987207871 0.051281796619556307 0 0.4399612537531109 0.065858188526994738 0 0.41389355987207871 0.051281796619556307 0 0.4399612537531109 0.065858188526994738 0 0.41389355987207871 0.051281796619556307 0 0.44061206725762292 0.044946437138064767 0 0.41389355987207871 0.051281796619556307 0 0.42715285796769459 0.037168896995520027 0 0.44061206725762292 0.044946437138064767 0 0.42715285796769459 0.037168896995520027 0 0.43704740407154308 0.025683143898134551 0 0.44061206725762292 0.044946437138064767 0 0.41673574938893831 0.035475668586974547 0 0.42715285796769459 0.037168896995520027 0 0.42358394018077861 0.028181877303683819 0 0.43704740407154308 0.025683143898134551 0 0.42699545384233489 0.018835806780444501 0 0.43490284539554103 0.012230972893665081 0 0.43704740407154308 0.025683143898134551 0 0.42699545384233489 0.018835806780444501 0 0.42358394018077861 0.028181877303683819 0 0.42715285796769459 0.037168896995520027 0 0.43704740407154308 0.025683143898134551 0 0.42358394018077861 0.028181877303683819 0 0.41673574938893831 0.035475668586974547 0 0.42358394018077861 0.028181877303683819 0 0.4143617697724199 0.024448375911218252 0 0.42699545384233489 0.018835806780444501 0 0.4143617697724199 0.024448375911218252 0 0.40745588828659562 0.016162653305013871 0 0.42699545384233489 0.018835806780444501 0 0.42358394018077861 0.028181877303683819 0 0.4143617697724199 0.024448375911218252 0 0.40498217077221782 0.015798502453937598 0 0.4143617697724199 0.024448375911218252 0 0.40745588828659562 0.016162653305013871 0 0.42699545384233489 0.018835806780444501 0 0.40745588828659562 0.016162653305013871 0 0.41462129863557812 0.0040521324363909823 0 0.40220063449233717 0.0033575902942124228 0 0.41462129863557812 0.0040521324363909823 0 0.40816500409161949 -0.0042299970316301222 0 0.40498217077221782 0.015798502453937598 0 0.40220063449233717 0.0033575902942124228 0 0.41462129863557812 0.0040521324363909823 0 0.40498217077221782 0.015798502453937598 0 0.40745588828659562 0.016162653305013871 0 0.41462129863557812 0.0040521324363909823 0 0.40498217077221782 0.015798502453937598 0 0.41462129863557812 0.0040521324363909823 0 0.42699545384233489 0.018835806780444501 0 0.41462129863557812 0.0040521324363909823 0 0.42426042649894041 -0.007694237581154225 0 0.42699545384233489 0.018835806780444501 0 0.4317922620945811 0.003670571562150996 0 0.42426042649894041 -0.007694237581154225 0 0.42699545384233489 0.018835806780444501 0 0.42426042649894041 -0.007694237581154225 0 0.42699545384233489 0.018835806780444501 0 0.43490284539554103 0.012230972893665081 0 0.4317922620945811 0.003670571562150996 0 0.4317922620945811 0.003670571562150996 0 0.44213654324867241 0.0055164087951831038 0 0.43414703366845081 -0.0044506786977244481 0 0.43490284539554103 0.012230972893665081 0 0.4317922620945811 0.003670571562150996 0 0.44213654324867241 0.0055164087951831038 0 0.44213654324867241 0.0055164087951831038 0 0.45846650074554252 0.0086952507341566451 0 0.44302015506799619 -0.0055733252883869207 0 0.44213654324867241 0.0055164087951831038 0 0.45045216425624029 0.012147347249051201 0 0.45846650074554252 0.0086952507341566451 0 0.45846650074554252 0.0086952507341566451 0 0.44302015506799619 -0.0055733252883869207 0 0.45045216425624029 0.012147347249051201 0 0.44217484151235431 0.011894723113369169 0 0.45098388991290889 0.02038789680450194 0 0.44213654324867241 0.0055164087951831038 0 0.45045216425624029 0.012147347249051201 0 0.44217484151235431 0.011894723113369169 0 0.43490284539554103 0.012230972893665081 0 0.44213654324867241 0.0055164087951831038 0 0.44217484151235431 0.011894723113369169 0 0.43704740407154308 0.025683143898134551 0 0.44217484151235431 0.011894723113369169 0 0.45098388991290889 0.02038789680450194 0 0.43704740407154308 0.025683143898134551 0 0.43490284539554103 0.012230972893665081 0 0.44217484151235431 0.011894723113369169 0 0.43704740407154308 0.025683143898134551 0 0.45098388991290889 0.02038789680450194 0 0.45227971183432158 0.032631568930346369 0 0.45098388991290889 0.02038789680450194 0 0.45882758774568361 0.018017367993873469 0 0.46032253739063739 0.025892518424957389 0 0.45045216425624029 0.012147347249051201 0 0.45098388991290889 0.02038789680450194 0 0.45882758774568361 0.018017367993873469 0 0.45098388991290889 0.02038789680450194 0 0.46032253739063739 0.025892518424957389 0 0.45227971183432158 0.032631568930346369 0 0.46032253739063739 0.025892518424957389 0 0.46491766579178828 0.036417110703275031 0 0.47391284642308867 0.022963826756700199 0 0.45882758774568361 0.018017367993873469 0 0.46032253739063739 0.025892518424957389 0 0.47391284642308867 0.022963826756700199 0 0.45882758774568361 0.018017367993873469 0 0.45846650074554252 0.0086952507341566451 0 0.47391284642308867 0.022963826756700199 0 0.45846650074554252 0.0086952507341566451 0 0.47391284642308867 0.022963826756700199 0 0.46419489186374679 0.006132593561035871 0 0.45846650074554252 0.0086952507341566451 0 0.47391284642308867 0.022963826756700199 0 0.46419489186374679 0.006132593561035871 0 0.45846650074554252 0.0086952507341566451 0 0.45447693730440492 -0.010698639634628479 0 0.46419489186374679 0.006132593561035871 0 0.47217365332082067 0.0084446617167224739 0 0.46854010341728197 -0.0019972372401138539 0 0.45045216425624029 0.012147347249051201 0 0.45882758774568361 0.018017367993873469 0 0.45846650074554252 0.0086952507341566451 0 0.4399612537531109 0.065858188526994738 0 0.45302363416802138 0.046521221956485913 0 0.44061206725762292 0.044946437138064767 0 0.4399612537531109 0.065858188526994738 0 0.46346883004162021 0.055393785461823067 0 0.4399612537531109 0.065858188526994738 0 0.45302363416802138 0.046521221956485913 0 0.46346883004162021 0.055393785461823067 0 0.43704740407154308 0.025683143898134551 0 0.44061206725762292 0.044946437138064767 0 0.45227971183432158 0.032631568930346369 0 0.45302363416802138 0.046521221956485913 0 0.44061206725762292 0.044946437138064767 0 0.45227971183432158 0.032631568930346369 0 0.45302363416802138 0.046521221956485913 0 0.46491766579178828 0.036417110703275031 0 0.46346883004162021 0.055393785461823067 0 0.46032253739063739 0.025892518424957389 0 0.45227971183432158 0.032631568930346369 0 0.46491766579178828 0.036417110703275031 0 0.45302363416802138 0.046521221956485913 0 0.45227971183432158 0.032631568930346369 0 0.46491766579178828 0.036417110703275031 0 0.44476346126311889 0.068543460918422422 0 0.46346883004162021 0.055393785461823067 0 0.46120063341575729 0.066486121345630755 0 0.46346883004162021 0.055393785461823067 0 0.47934360680792132 0.059827195240447162 0 0.46346883004162021 0.055393785461823067 0 0.47934360680792132 0.059827195240447162 0 0.48667317354145972 0.045064366543218951 0 0.46346883004162021 0.055393785461823067 0 0.47891945453100548 0.044532160650085313 0 0.48667317354145972 0.045064366543218951 0 0.46346883004162021 0.055393785461823067 0 0.48667317354145972 0.045064366543218951 0 0.46346883004162021 0.055393785461823067 0 0.47891945453100548 0.044532160650085313 0 0.49420708193067808 0.041710645467373492 0 0.47391284642308867 0.022963826756700199 0 0.48667317354145972 0.045064366543218951 0 0.47391284642308867 0.022963826756700199 0 0.46491766579178828 0.036417110703275031 0 0.46346883004162021 0.055393785461823067 0 0.47891945453100548 0.044532160650085313 0 0.46491766579178828 0.036417110703275031 0 0.47891945453100548 0.044532160650085313 0 0.47391284642308867 0.022963826756700199 0 0.47891945453100548 0.044532160650085313 0 0.48667317354145972 0.045064366543218951 0 0.47391284642308867 0.022963826756700199 0 0.49420708193067808 0.041710645467373492 0 0.48667317354145972 0.045064366543218951 0 0.47391284642308867 0.022963826756700199 0 0.49420708193067808 0.041710645467373492 0 0.50000000000000089 0.039131926638303879 0 0.49035259134053949 0.02671883102782445 0 0.49420708193067808 0.041710645467373492 0 0.50000000000000089 0.039131926638303879 0 0.49999999999999972 0.047061858860501293 0 0.49420708193067808 0.041710645467373492 0 0.48667317354145972 0.045064366543218951 0 0.49999999999999972 0.047061858860501293 0 0.49420708193067808 0.041710645467373492 0 0.50000000000000089 0.039131926638303879 0 0.49420708193067808 0.041710645467373492 0 0.49999999999999972 0.047061858860501293 0 0.49420708193067808 0.041710645467373492 0 0.48667317354145972 0.045064366543218951 0 0.50000000000000111 0.068146067791368781 0 0.47934360680792132 0.059827195240447162 0 0.48667317354145972 0.045064366543218951 0 0.50000000000000111 0.068146067791368781 0 0.48667317354145972 0.045064366543218951 0 0.50000000000000111 0.068146067791368781 0 0.48667317354145972 0.045064366543218951 0 0.49999999999999972 0.047061858860501293 0 0.46419489186374679 0.006132593561035871 0 0.47391284642308867 0.022963826756700199 0 0.46419489186374679 0.006132593561035871 0 0.47217365332082067 0.0084446617167224739 0 0.47391284642308867 0.022963826756700199 0 0.47851413004807403 0.012780371842806681 0 0.4836430283489303 0.018810196461766921 0 0.48653167558577842 0.0095841885288508802 0 0.47851413004807403 0.012780371842806681 0 0.47630944656175161 0.0040989857499929786 0 0.48653167558577842 0.0095841885288508802 0 0.47630944656175161 0.0040989857499929786 0 0.48653167558577842 0.0095841885288508802 0 0.47663619921769412 -0.0050641130378412131 0 0.47630944656175161 0.0040989857499929786 0 0.47217365332082067 0.0084446617167224739 0 0.46854010341728197 -0.0019972372401138539 0 0.47851413004807403 0.012780371842806681 0 0.47217365332082067 0.0084446617167224739 0 0.47391284642308867 0.022963826756700199 0 0.47851413004807403 0.012780371842806681 0 0.47630944656175161 0.0040989857499929786 0 0.47217365332082067 0.0084446617167224739 0 0.47391284642308867 0.022963826756700199 0 0.4836430283489303 0.018810196461766921 0 0.49035259134053949 0.02671883102782445 0 0.47851413004807403 0.012780371842806681 0 0.47391284642308867 0.022963826756700199 0 0.4836430283489303 0.018810196461766921 0 0.50000000000000089 0.039131926638303879 0 0.49035259134053949 0.02671883102782445 0 0.5 0.010977559814979051 0 0.49420708193067808 0.041710645467373492 0 0.47391284642308867 0.022963826756700199 0 0.49035259134053949 0.02671883102782445 0 0.4836430283489303 0.018810196461766921 0 0.49035259134053949 0.02671883102782445 0 0.5 0.010977559814979051 0 0.4836430283489303 0.018810196461766921 0 0.5 0.010977559814979051 0 0.48653167558577842 0.0095841885288508802 0 0.5 0.010977559814979051 0 0.48653167558577842 0.0095841885288508802 0 0.49463798796151293 -0.002982326957628656 0 0.48653167558577842 0.0095841885288508802 0 0.48397655925664801 -0.01152475212589903 0 0.49326583779288891 -0.017873492651410059 0 0.5 0.010977559814979051 0 0.49463798796151293 -0.002982326957628656 0 0.5 -0.017176807008345899 0 0.48653167558577842 0.0095841885288508802 0 0.49463798796151293 -0.002982326957628656 0 0.49326583779288891 -0.017873492651410059 0 0.48653167558577842 0.0095841885288508802 0 0.49326583779288891 -0.017873492651410059 0 0.49463798796151293 -0.002982326957628656 0 0.5 -0.017176807008345899 0 0.49326583779288891 -0.017873492651410059 0 0.48653167558577842 0.0095841885288508802 0 0.47663619921769412 -0.0050641130378412131 0 0.48397655925664801 -0.01152475212589903 0 0.47663619921769412 -0.0050641130378412131 0 0.48397655925664801 -0.01152475212589903 0 0.47427980369143291 -0.016822449284934059 0 0.47663619921769412 -0.0050641130378412131 0 0.47427980369143291 -0.016822449284934059 0 0.46797113455392692 -0.01161271913767754 0 0.47630944656175161 0.0040989857499929786 0 0.47663619921769412 -0.0050641130378412131 0 0.46854010341728197 -0.0019972372401138539 0 0.47663619921769412 -0.0050641130378412131 0 0.46854010341728197 -0.0019972372401138539 0 0.46797113455392692 -0.01161271913767754 0 0.47427980369143291 -0.016822449284934059 0 0.4769523790512305 -0.032629900579446688 0 0.46494254961127168 -0.02240130541161137 0 0.48397655925664801 -0.01152475212589903 0 0.47427980369143291 -0.016822449284934059 0 0.4769523790512305 -0.032629900579446688 0 0.48397655925664801 -0.01152475212589903 0 0.4769523790512305 -0.032629900579446688 0 0.47427980369143291 -0.016822449284934059 0 0.46797113455392692 -0.01161271913767754 0 0.46494254961127168 -0.02240130541161137 0 0.48397655925664801 -0.01152475212589903 0 0.49326583779288891 -0.017873492651410059 0 0.4769523790512305 -0.032629900579446688 0 0.5 -0.017176807008345899 0 0.49326583779288891 -0.017873492651410059 0 0.49999999999999978 -0.045331173831670832 0 0.49326583779288891 -0.017873492651410059 0 0.49010956222633578 -0.034643413792424783 0 0.4769523790512305 -0.032629900579446688 0 0.49326583779288891 -0.017873492651410059 0 0.49999999999999978 -0.045331173831670832 0 0.49326583779288891 -0.017873492651410059 0 0.49999999999999978 -0.045331173831670832 0 0.49010956222633578 -0.034643413792424783 0 0.49999999999999978 -0.045331173831670832 0 0.49040520814009397 -0.042604542952009349 0 0.49010956222633578 -0.034643413792424783 0 0.49999999999999978 -0.045331173831670832 0 0.49040520814009397 -0.042604542952009349 0 0.49999999999999828 -0.049033801360005513 0 0.49040520814009397 -0.042604542952009349 0 0.49010956222633578 -0.034643413792424783 0 0.4769523790512305 -0.032629900579446688 0 0.49999999999999828 -0.049033801360005513 0 0.48496409942290503 -0.051384425196499203 0 0.5 -0.074799239426681208 0 0.49999999999999828 -0.049033801360005513 0 0.48496409942290503 -0.051384425196499203 0 0.49040520814009397 -0.042604542952009349 0 0.49999999999999828 -0.049033801360005513 0 0.48496409942290503 -0.051384425196499203 0 0.48496409942290503 -0.051384425196499203 0 0.46992819884581172 -0.053735049032993809 0 0.47825477151573481 -0.0714582064787911 0 0.48496409942290503 -0.051384425196499203 0 0.46992819884581172 -0.053735049032993809 0 0.49040520814009397 -0.042604542952009349 0 0.48496409942290503 -0.051384425196499203 0 0.4769523790512305 -0.032629900579446688 0 0.46992819884581172 -0.053735049032993809 0 0.4769523790512305 -0.032629900579446688 0 0.46992819884581172 -0.053735049032993809 0 0.4769523790512305 -0.032629900579446688 0 0.46119915370152792 -0.03869717269231604 0 0.48496409942290503 -0.051384425196499203 0 0.46992819884581172 -0.053735049032993809 0 0.4769523790512305 -0.032629900579446688 0 0.46119915370152792 -0.03869717269231604 0 0.44554152465628871 -0.03545595548450825 0 0.45366276164205033 -0.025476663178954279 0 0.46992819884581172 -0.053735049032993809 0 0.46119915370152792 -0.03869717269231604 0 0.44430818871838978 -0.057740330006218137 0 0.46992819884581172 -0.053735049032993809 0 0.44430818871838978 -0.057740330006218137 0 0.44430818871838978 -0.057740330006218137 0 0.44554152465628871 -0.03545595548450825 0 0.43229115957190961 -0.046825351091351948 0 0.46119915370152792 -0.03869717269231604 0 0.44430818871838978 -0.057740330006218137 0 0.44554152465628871 -0.03545595548450825 0 0.44554152465628871 -0.03545595548450825 0 0.44215364293675768 -0.020130242671707231 0 0.43380688782007232 -0.031394674967759377 0 0.44554152465628871 -0.03545595548450825 0 0.44215364293675768 -0.020130242671707231 0 0.45366276164205033 -0.025476663178954279 0 0.44215364293675768 -0.020130242671707231 0 0.45447693730440492 -0.010698639634628479 0 0.45366276164205033 -0.025476663178954279 0 0.45846650074554252 0.0086952507341566451 0 0.44302015506799619 -0.0055733252883869207 0 0.45447693730440492 -0.010698639634628479 0 0.44215364293675768 -0.020130242671707231 0 0.44302015506799619 -0.0055733252883869207 0 0.42757380939044998 -0.019841901310930509 0 0.44213654324867241 0.0055164087951831038 0 0.44302015506799619 -0.0055733252883869207 0 0.43414703366845081 -0.0044506786977244481 0 0.44215364293675768 -0.020130242671707231 0 0.44302015506799619 -0.0055733252883869207 0 0.45447693730440492 -0.010698639634628479 0 0.46419489186374679 0.006132593561035871 0 0.45447693730440492 -0.010698639634628479 0 0.46419489186374679 0.006132593561035871 0 0.45447693730440492 -0.010698639634628479 0 0.46854010341728197 -0.0019972372401138539 0 0.45447693730440492 -0.010698639634628479 0 0.46854010341728197 -0.0019972372401138539 0 0.46797113455392692 -0.01161271913767754 0 0.45447693730440492 -0.010698639634628479 0 0.46797113455392692 -0.01161271913767754 0 0.46494254961127168 -0.02240130541161137 0 0.4769523790512305 -0.032629900579446688 0 0.46119915370152792 -0.03869717269231604 0 0.46494254961127168 -0.02240130541161137 0 0.46119915370152792 -0.03869717269231604 0 0.46494254961127168 -0.02240130541161137 0 0.45366276164205033 -0.025476663178954279 0 0.45447693730440492 -0.010698639634628479 0 0.46494254961127168 -0.02240130541161137 0 0.45366276164205033 -0.025476663178954279 0 0.4705600542762402 -0.1207412066741483 0 0.48721517183547203 -0.11411714512046101 0 0.48822491055721401 -0.13656929071137819 0 0.4705600542762402 -0.1207412066741483 0 0.48721517183547203 -0.11411714512046101 0 0.4775747475638451 -0.095896223183618248 0 0.48721517183547203 -0.11411714512046101 0 0.5 -0.100564677493357 0 0.5 -0.12633011556003279 0 0.48721517183547203 -0.11411714512046101 0 0.5 -0.100564677493357 0 0.4775747475638451 -0.095896223183618248 0 0.4775747475638451 -0.095896223183618248 0 0.47825477151573481 -0.0714582064787911 0 0.46141169842054242 -0.079324085834956384 0 0.4775747475638451 -0.095896223183618248 0 0.5 -0.074799239426681208 0 0.47825477151573481 -0.0714582064787911 0 0.5 -0.100564677493357 0 0.4775747475638451 -0.095896223183618248 0 0.5 -0.074799239426681208 0 0.48496409942290503 -0.051384425196499203 0 0.5 -0.074799239426681208 0 0.47825477151573481 -0.0714582064787911 0 0.46992819884581172 -0.053735049032993809 0 0.47825477151573481 -0.0714582064787911 0 0.46141169842054242 -0.079324085834956384 0 0.46992819884581172 -0.053735049032993809 0 0.46141169842054242 -0.079324085834956384 0 0.46992819884581172 -0.053735049032993809 0 0.44430818871838978 -0.057740330006218137 0 0.46141169842054242 -0.079324085834956384 0 0.44430818871838978 -0.057740330006218137 0 0.43892454743563569 -0.074546512420234357 0 0.46141169842054242 -0.079324085834956384 0 0.43892454743563569 -0.074546512420234357 0 0.43752800538598852 -0.091143793740768642 0 0.46141169842054242 -0.079324085834956384 0 0.43752800538598852 -0.091143793740768642 0 0.46141169842054242 -0.079324085834956384 0 0.45289519799526751 -0.1049131226369171 0 0.46141169842054242 -0.079324085834956384 0 0.45289519799526751 -0.1049131226369171 0 0.4775747475638451 -0.095896223183618248 0 0.46141169842054242 -0.079324085834956384 0 0.45289519799526751 -0.1049131226369171 0 0.4705600542762402 -0.1207412066741483 0 0.4775747475638451 -0.095896223183618248 0 0.45289519799526751 -0.1049131226369171 0 0.43752800538598852 -0.091143793740768642 0 0.45289519799526751 -0.1049131226369171 0 0.43548215288475772 -0.1091424888550412 0 0.43752800538598852 -0.091143793740768642 0 0.45289519799526751 -0.1049131226369171 0 0.45289519799526751 -0.1049131226369171 0 0.44743723931885598 -0.12131233574797121 0 0.43548215288475772 -0.1091424888550412 0 0.45289519799526751 -0.1049131226369171 0 0.44743723931885598 -0.12131233574797121 0 0.44743723931885598 -0.12131233574797121 0 0.43479326036583821 -0.1243194629350251 0 0.43548215288475772 -0.1091424888550412 0 0.4705600542762402 -0.1207412066741483 0 0.45289519799526751 -0.1049131226369171 0 0.4705600542762402 -0.1207412066741483 0 0.45289519799526751 -0.1049131226369171 0 0.44743723931885598 -0.12131233574797121 0 0.42159608029648549 -0.1196655463708958 0 0.41458433545905993 -0.098414458638250268 0 0.39592118067352727 -0.1163074301991535 0 0.42159608029648549 -0.1196655463708958 0 0.39592118067352727 -0.1163074301991535 0 0.41255287296548809 -0.1290505203717412 0 0.42159608029648549 -0.1196655463708958 0 0.43479326036583821 -0.1243194629350251 0 0.43548215288475772 -0.1091424888550412 0 0.43752800538598852 -0.091143793740768642 0 0.43548215288475772 -0.1091424888550412 0 0.41458433545905993 -0.098414458638250268 0 0.42159608029648549 -0.1196655463708958 0 0.43548215288475772 -0.1091424888550412 0 0.41458433545905993 -0.098414458638250268 0 0.41458433545905993 -0.098414458638250268 0 0.42216081277671069 -0.077374464844618865 0 0.40299152614099132 -0.083668111011716326 0 0.43892454743563569 -0.074546512420234357 0 0.43752800538598852 -0.091143793740768642 0 0.42216081277671069 -0.077374464844618865 0 0.43752800538598852 -0.091143793740768642 0 0.41458433545905993 -0.098414458638250268 0 0.42216081277671069 -0.077374464844618865 0 0.43752800538598852 -0.091143793740768642 0 0.42216081277671069 -0.077374464844618865 0 0.44430818871838978 -0.057740330006218137 0 0.43892454743563569 -0.074546512420234357 0 0.42851723901495348 -0.06698690900935575 0 0.43892454743563569 -0.074546512420234357 0 0.42216081277671069 -0.077374464844618865 0 0.42851723901495348 -0.06698690900935575 0 0.42851723901495348 -0.06698690900935575 0 0.41850446755306348 -0.063527626796264225 0 0.41868817859096807 -0.061745610979443519 0 0.42216081277671069 -0.077374464844618865 0 0.42851723901495348 -0.06698690900935575 0 0.41850446755306348 -0.063527626796264225 0 0.42216081277671069 -0.077374464844618865 0 0.40188733700845858 -0.073202706496863792 0 0.40299152614099132 -0.083668111011716326 0 0.41850446755306348 -0.063527626796264225 0 0.4067936201674317 -0.063605135948470434 0 0.41868817859096807 -0.061745610979443519 0 0.42216081277671069 -0.077374464844618865 0 0.4067936201674317 -0.063605135948470434 0 0.40188733700845858 -0.073202706496863792 0 0.42216081277671069 -0.077374464844618865 0 0.41850446755306348 -0.063527626796264225 0 0.4067936201674317 -0.063605135948470434 0 0.41850446755306348 -0.063527626796264225 0 0.41868817859096807 -0.061745610979443519 0 0.42216081277671069 -0.077374464844618865 0 0.4067936201674317 -0.063605135948470434 0 0.4067936201674317 -0.063605135948470434 0 0.41868817859096807 -0.061745610979443519 0 0.4067936201674317 -0.063605135948470434 0 0.40188733700845858 -0.073202706496863792 0 0.39139034217518898 -0.066013193398909181 0 0.4067936201674317 -0.063605135948470434 0 0.39776040507211963 -0.063611686965398914 0 0.39139034217518898 -0.066013193398909181 0 0.4067936201674317 -0.063605135948470434 0 0.39139034217518898 -0.066013193398909181 0 0.40188733700845858 -0.073202706496863792 0 0.39104828908163092 -0.077247784428504038 0 0.40299152614099132 -0.083668111011716326 0 0.40188733700845858 -0.073202706496863792 0 0.39104828908163092 -0.077247784428504038 0 0.39139034217518898 -0.066013193398909181 0 0.39776040507211963 -0.063611686965398914 0 0.39139034217518898 -0.066013193398909181 0 0.37220700250254363 -0.059340702350146497 0 0.39139034217518898 -0.066013193398909181 0 0.37598706418294597 -0.068421250849346138 0 0.39139034217518898 -0.066013193398909181 0 0.37598706418294597 -0.068421250849346138 0 0.37220700250254363 -0.059340702350146497 0 0.39104828908163092 -0.077247784428504038 0 0.39139034217518898 -0.066013193398909181 0 0.37598706418294597 -0.068421250849346138 0 0.39104828908163092 -0.077247784428504038 0 0.37598706418294597 -0.068421250849346138 0 0.38595412242823801 -0.092364340524249189 0 0.37598706418294597 -0.068421250849346138 0 0.38595412242823801 -0.092364340524249189 0 0.37598706418294597 -0.068421250849346138 0 0.38595412242823801 -0.092364340524249189 0 0.3633147646899369 -0.082666602191507663 0 0.41458433545905993 -0.098414458638250268 0 0.38595412242823801 -0.092364340524249189 0 0.40299152614099132 -0.083668111011716326 0 0.39104828908163092 -0.077247784428504038 0 0.38595412242823801 -0.092364340524249189 0 0.40299152614099132 -0.083668111011716326 0 0.38595412242823801 -0.092364340524249189 0 0.39592118067352727 -0.1163074301991535 0 0.41458433545905993 -0.098414458638250268 0 0.38595412242823801 -0.092364340524249189 0 0.39592118067352727 -0.1163074301991535 0 0.38595412242823801 -0.092364340524249189 0 0.3756298573667074 -0.1121325287009476 0 0.39592118067352727 -0.1163074301991535 0 0.3756298573667074 -0.1121325287009476 0 0.39592118067352727 -0.1163074301991535 0 0.38896199114956759 -0.1332505043577599 0 0.42147430254495533 -0.034719924280298957 0 0.40254002081237422 -0.033893301785332751 0 0.40461605472397361 -0.017101913490203329 0 0.42426042649894041 -0.007694237581154225 0 0.42147430254495533 -0.034719924280298957 0 0.40461605472397361 -0.017101913490203329 0 0.41462129863557812 0.0040521324363909823 0 0.40816500409161949 -0.0042299970316301222 0 0.42426042649894041 -0.007694237581154225 0 0.40816500409161949 -0.0042299970316301222 0 0.42426042649894041 -0.007694237581154225 0 0.40461605472397361 -0.017101913490203329 0 0.41462129863557812 0.0040521324363909823 0 0.42426042649894041 -0.007694237581154225 0 0.42426042649894041 -0.007694237581154225 0 0.43414703366845081 -0.0044506786977244481 0 0.43054530856142148 -0.01535307884449651 0 0.42426042649894041 -0.007694237581154225 0 0.43054530856142148 -0.01535307884449651 0 0.42757380939044998 -0.019841901310930509 0 0.42426042649894041 -0.007694237581154225 0 0.43054530856142148 -0.01535307884449651 0 0.4317922620945811 0.003670571562150996 0 0.42426042649894041 -0.007694237581154225 0 0.43414703366845081 -0.0044506786977244481 0 0.44302015506799619 -0.0055733252883869207 0 0.43054530856142148 -0.01535307884449651 0 0.42757380939044998 -0.019841901310930509 0 0.44302015506799619 -0.0055733252883869207 0 0.43414703366845081 -0.0044506786977244481 0 0.43054530856142148 -0.01535307884449651 0 0.44302015506799619 -0.0055733252883869207 0 0.42757380939044998 -0.019841901310930509 0 0.42426042649894041 -0.007694237581154225 0 0.42757380939044998 -0.019841901310930509 0 0.42147430254495533 -0.034719924280298957 0 0.42426042649894041 -0.007694237581154225 0 0.42147430254495533 -0.034719924280298957 0 0.42757380939044998 -0.019841901310930509 0 0.43380688782007232 -0.031394674967759377 0 0.42147430254495533 -0.034719924280298957 0 0.44215364293675768 -0.020130242671707231 0 0.42757380939044998 -0.019841901310930509 0 0.43380688782007232 -0.031394674967759377 0 0.44554152465628871 -0.03545595548450825 0 0.43380688782007232 -0.031394674967759377 0 0.43229115957190961 -0.046825351091351948 0 0.43380688782007232 -0.031394674967759377 0 0.43229115957190961 -0.046825351091351948 0 0.42147430254495533 -0.034719924280298957 0 0.44430818871838978 -0.057740330006218137 0 0.41868817859096807 -0.061745610979443519 0 0.44430818871838978 -0.057740330006218137 0 0.43229115957190961 -0.046825351091351948 0 0.41868817859096807 -0.061745610979443519 0 0.44430818871838978 -0.057740330006218137 0 0.42851723901495348 -0.06698690900935575 0 0.41868817859096807 -0.061745610979443519 0 0.43229115957190961 -0.046825351091351948 0 0.41868817859096807 -0.061745610979443519 0 0.42147430254495533 -0.034719924280298957 0 0.4067936201674317 -0.063605135948470434 0 0.40840871615679242 -0.047650792440796591 0 0.41868817859096807 -0.061745610979443519 0 0.40840871615679242 -0.047650792440796591 0 0.41868817859096807 -0.061745610979443519 0 0.42147430254495533 -0.034719924280298957 0 0.41868817859096807 -0.061745610979443519 0 0.42147430254495533 -0.034719924280298957 0 0.40840871615679242 -0.047650792440796591 0 0.42147430254495533 -0.034719924280298957 0 0.40254002081237422 -0.033893301785332751 0 0.40254002081237422 -0.033893301785332751 0 0.38770138466992787 -0.046498090008979913 0 0.38847584053689072 -0.026217072037333099 0 0.40840871615679242 -0.047650792440796591 0 0.40254002081237422 -0.033893301785332751 0 0.38770138466992787 -0.046498090008979913 0 0.4067936201674317 -0.063605135948470434 0 0.39776040507211963 -0.063611686965398914 0 0.38770138466992787 -0.046498090008979913 0 0.4067936201674317 -0.063605135948470434 0 0.38770138466992787 -0.046498090008979913 0 0.4067936201674317 -0.063605135948470434 0 0.40840871615679242 -0.047650792440796591 0 0.38770138466992787 -0.046498090008979913 0 0.39776040507211963 -0.063611686965398914 0 0.37622921989354341 -0.04946233235659301 0 0.38770138466992787 -0.046498090008979913 0 0.39776040507211963 -0.063611686965398914 0 0.37622921989354341 -0.04946233235659301 0 0.37220700250254363 -0.059340702350146497 0 0.39776040507211963 -0.063611686965398914 0 0.37220700250254363 -0.059340702350146497 0 0.38770138466992787 -0.046498090008979913 0 0.36860914917242271 -0.02939104406949071 0 0.38770138466992787 -0.046498090008979913 0 0.38847584053689072 -0.026217072037333099 0 0.36860914917242271 -0.02939104406949071 0 0.37622921989354341 -0.04946233235659301 0 0.38770138466992787 -0.046498090008979913 0 0.36860914917242271 -0.02939104406949071 0 0.37685369196324481 -0.016548634830496629 0 0.38847584053689072 -0.026217072037333099 0 0.36860914917242271 -0.02939104406949071 0 0.37685369196324481 -0.016548634830496629 0 0.38847584053689072 -0.026217072037333099 0 0.38753277141434028 -0.012417730744169761 0 0.40254002081237422 -0.033893301785332751 0 0.38847584053689072 -0.026217072037333099 0 0.40461605472397361 -0.017101913490203329 0 0.38847584053689072 -0.026217072037333099 0 0.40461605472397361 -0.017101913490203329 0 0.38753277141434028 -0.012417730744169761 0 0.40461605472397361 -0.017101913490203329 0 0.39512660610726902 -0.0037635568173960809 0 0.38753277141434028 -0.012417730744169761 0 0.40220063449233717 0.0033575902942124228 0 0.40816500409161949 -0.0042299970316301222 0 0.39512660610726902 -0.0037635568173960809 0 0.40816500409161949 -0.0042299970316301222 0 0.40461605472397361 -0.017101913490203329 0 0.39512660610726902 -0.0037635568173960809 0 0.39512660610726902 -0.0037635568173960809 0 0.38383006574189632 -0.001074199461184717 0 0.38753277141434028 -0.012417730744169761 0 0.37685369196324481 -0.016548634830496629 0 0.38753277141434028 -0.012417730744169761 0 0.37521916583220177 -0.0055812383054568079 0 0.37576332961284681 0.004108183588312002 0 0.38383006574189632 -0.001074199461184717 0 0.37521916583220177 -0.0055812383054568079 0 0.38383006574189632 -0.001074199461184717 0 0.38753277141434028 -0.012417730744169761 0 0.37521916583220177 -0.0055812383054568079 0 0.36847154090155498 0.0023943355442805408 0 0.37521916583220177 -0.0055812383054568079 0 0.36443153286036872 -0.0091360889960328002 0 0.37685369196324481 -0.016548634830496629 0 0.37521916583220177 -0.0055812383054568079 0 0.36443153286036872 -0.0091360889960328002 0 0.37685369196324481 -0.016548634830496629 0 0.36443153286036872 -0.0091360889960328002 0 0.36860914917242271 -0.02939104406949071 0 0.36443153286036872 -0.0091360889960328002 0 0.36860914917242271 -0.02939104406949071 0 0.34951691367491772 -0.012283998130001609 0 0.36860914917242271 -0.02939104406949071 0 0.34951691367491772 -0.012283998130001609 0 0.3446522522114483 -0.039386200777438457 0 0.36860914917242271 -0.02939104406949071 0 0.34951691367491772 -0.012283998130001609 0 0.35399377624232842 0.0082926061036159293 0 0.36443153286036872 -0.0091360889960328002 0 0.34951691367491772 -0.012283998130001609 0 0.33042467817741022 0.0048230478094846404 0 0.34951691367491772 -0.012283998130001609 0 0.32839324399456887 -0.0083879771245694099 0 0.34951691367491772 -0.012283998130001609 0 0.32839324399456887 -0.0083879771245694099 0 0.32833629531939801 -0.024443216257606211 0 0.33042467817741022 0.0048230478094846404 0 0.34951691367491772 -0.012283998130001609 0 0.34951691367491772 -0.012283998130001609 0 0.32833629531939801 -0.024443216257606211 0 0.3446522522114483 -0.039386200777438457 0 0.31622154218412302 -0.01391134382297716 0 0.30980213521629291 -0.031499908766383408 0 0.32833629531939801 -0.024443216257606211 0 0.31622154218412302 -0.01391134382297716 0 0.30980213521629291 -0.031499908766383408 0 0.32264094915195268 0.0036772211204291199 0 0.32839324399456887 -0.0083879771245694099 0 0.31622154218412302 -0.01391134382297716 0 0.32264094915195268 0.0036772211204291199 0 0.31622154218412302 -0.01391134382297716 0 0.32839324399456887 -0.0083879771245694099 0 0.32833629531939801 -0.024443216257606211 0 0.31622154218412302 -0.01391134382297716 0 0.32178649584250052 -0.03980441600629412 0 0.3321597051849689 -0.052647214457088122 0 0.31213605652618143 -0.049300470510559698 0 0.3321597051849689 -0.052647214457088122 0 0.32118595155751778 -0.063903214225834254 0 0.31213605652618143 -0.049300470510559698 0 0.3321597051849689 -0.052647214457088122 0 0.31213605652618143 -0.049300470510559698 0 0.32118595155751778 -0.063903214225834254 0 0.31213605652618143 -0.049300470510559698 0 0.31028765366945299 -0.059813859753099302 0 0.32178649584250052 -0.03980441600629412 0 0.30669329071692403 -0.042021489982263648 0 0.31213605652618143 -0.049300470510559698 0 0.32833629531939801 -0.024443216257606211 0 0.32178649584250052 -0.03980441600629412 0 0.30980213521629291 -0.031499908766383408 0 0.32178649584250052 -0.03980441600629412 0 0.30980213521629291 -0.031499908766383408 0 0.30669329071692403 -0.042021489982263648 0 0.32833629531939801 -0.024443216257606211 0 0.32178649584250052 -0.03980441600629412 0 0.3446522522114483 -0.039386200777438457 0 0.32178649584250052 -0.03980441600629412 0 0.3321597051849689 -0.052647214457088122 0 0.3446522522114483 -0.039386200777438457 0 0.3321597051849689 -0.052647214457088122 0 0.35218335384375632 -0.055993958403616553 0 0.33631356846709609 -0.065140531000461077 0 0.3321597051849689 -0.052647214457088122 0 0.35218335384375632 -0.055993958403616553 0 0.3446522522114483 -0.039386200777438457 0 0.3321597051849689 -0.052647214457088122 0 0.35218335384375632 -0.055993958403616553 0 0.3321597051849689 -0.052647214457088122 0 0.33631356846709609 -0.065140531000461077 0 0.32118595155751778 -0.063903214225834254 0 0.35218335384375632 -0.055993958403616553 0 0.3446522522114483 -0.039386200777438457 0 0.36235014127912291 -0.046302831895513742 0 0.36860914917242271 -0.02939104406949071 0 0.3446522522114483 -0.039386200777438457 0 0.36235014127912291 -0.046302831895513742 0 0.37622921989354341 -0.04946233235659301 0 0.36860914917242271 -0.02939104406949071 0 0.36235014127912291 -0.046302831895513742 0 0.35218335384375632 -0.055993958403616553 0 0.3704303456847039 -0.055072777706373671 0 0.37220700250254363 -0.059340702350146497 0 0.35218335384375632 -0.055993958403616553 0 0.36235014127912291 -0.046302831895513742 0 0.3704303456847039 -0.055072777706373671 0 0.35218335384375632 -0.055993958403616553 0 0.37220700250254363 -0.059340702350146497 0 0.37622921989354341 -0.04946233235659301 0 0.36235014127912291 -0.046302831895513742 0 0.3704303456847039 -0.055072777706373671 0 0.37622921989354341 -0.04946233235659301 0 0.3704303456847039 -0.055072777706373671 0 0.37220700250254363 -0.059340702350146497 0 0.3704303456847039 -0.055072777706373671 0 0.37220700250254363 -0.059340702350146497 0 0.37598706418294597 -0.068421250849346138 0 0.34689931189575868 -0.072968658138036963 0 0.37598706418294597 -0.068421250849346138 0 0.37220700250254363 -0.059340702350146497 0 0.34689931189575868 -0.072968658138036963 0 0.37598706418294597 -0.068421250849346138 0 0.37220700250254363 -0.059340702350146497 0 0.37598706418294597 -0.068421250849346138 0 0.3633147646899369 -0.082666602191507663 0 0.34689931189575868 -0.072968658138036963 0 0.38595412242823801 -0.092364340524249189 0 0.3633147646899369 -0.082666602191507663 0 0.35742157350034348 -0.1007991008308301 0 0.3633147646899369 -0.082666602191507663 0 0.34768199394140242 -0.086731131165957182 0 0.34689931189575868 -0.072968658138036963 0 0.3633147646899369 -0.082666602191507663 0 0.34768199394140242 -0.086731131165957182 0 0.35742157350034348 -0.1007991008308301 0 0.35218335384375632 -0.055993958403616553 0 0.37220700250254363 -0.059340702350146497 0 0.34689931189575868 -0.072968658138036963 0 0.35218335384375632 -0.055993958403616553 0 0.34689931189575868 -0.072968658138036963 0 0.33631356846709609 -0.065140531000461077 0 0.3756298573667074 -0.1121325287009476 0 0.35281273824187598 -0.1180947422506244 0 0.37113166727084229 -0.1298369395766992 0 0.3756298573667074 -0.1121325287009476 0 0.35742157350034348 -0.1007991008308301 0 0.35281273824187598 -0.1180947422506244 0 0.38595412242823801 -0.092364340524249189 0 0.3756298573667074 -0.1121325287009476 0 0.35742157350034348 -0.1007991008308301 0 0.34768199394140242 -0.086731131165957182 0 0.35742157350034348 -0.1007991008308301 0 0.33686224911640511 -0.097313832157909924 0 0.35742157350034348 -0.1007991008308301 0 0.35281273824187598 -0.1180947422506244 0 0.33686224911640511 -0.097313832157909924 0 0.35281273824187598 -0.1180947422506244 0 0.33300908673166357 -0.1178073935000308 0 0.34339729202483582 -0.13417808471666101 0 0.35281273824187598 -0.1180947422506244 0 0.33300908673166357 -0.1178073935000308 0 0.33686224911640511 -0.097313832157909924 0 0.33300908673166357 -0.1178073935000308 0 0.33686224911640511 -0.097313832157909924 0 0.3247680563325876 -0.1056489168639404 0 0.33686224911640511 -0.097313832157909924 0 0.3247680563325876 -0.1056489168639404 0 0.32160018235703192 -0.091431062077084763 0 0.3247680563325876 -0.1056489168639404 0 0.32160018235703192 -0.091431062077084763 0 0.31031741738569368 -0.10301791512023829 0 0.31031741738569368 -0.10301791512023829 0 0.3155764542219951 -0.1267745065661133 0 0.33300908673166357 -0.1178073935000308 0 0.3247680563325876 -0.1056489168639404 0 0.3155764542219951 -0.1267745065661133 0 0.3247680563325876 -0.1056489168639404 0 0.31031741738569368 -0.10301791512023829 0 0.3155764542219951 -0.1267745065661133 0 0.34689931189575868 -0.072968658138036963 0 0.3311603449480145 -0.077255885959434181 0 0.33631356846709609 -0.065140531000461077 0 0.3311603449480145 -0.077255885959434181 0 0.33631356846709609 -0.065140531000461077 0 0.32118595155751778 -0.063903214225834254 0 0.34768199394140242 -0.086731131165957182 0 0.34689931189575868 -0.072968658138036963 0 0.3311603449480145 -0.077255885959434181 0 0.34768199394140242 -0.086731131165957182 0 0.33686224911640511 -0.097313832157909924 0 0.3311603449480145 -0.077255885959434181 0 0.33686224911640511 -0.097313832157909924 0 0.3311603449480145 -0.077255885959434181 0 0.32160018235703192 -0.091431062077084763 0 0.3311603449480145 -0.077255885959434181 0 0.30505838054939299 -0.079261323674363143 0 0.3311603449480145 -0.077255885959434181 0 0.32160018235703192 -0.091431062077084763 0 0.30505838054939299 -0.079261323674363143 0 0.3311603449480145 -0.077255885959434181 0 0.32118595155751778 -0.063903214225834254 0 0.30505838054939299 -0.079261323674363143 0 0.32118595155751778 -0.063903214225834254 0 0.30505838054939299 -0.079261323674363143 0 0.31028765366945299 -0.059813859753099302 0 0.30505838054939299 -0.079261323674363143 0 0.30006956444745492 -0.056725397492169018 0 0.30505838054939299 -0.079261323674363143 0 0.28862019264376698 -0.066497334691705531 0 0.30006956444745492 -0.056725397492169018 0 0.30505838054939299 -0.079261323674363143 0 0.31028765366945299 -0.059813859753099302 0 0.30006956444745492 -0.056725397492169018 0 0.30505838054939299 -0.079261323674363143 0 0.31031741738569368 -0.10301791512023829 0 0.29283392045420159 -0.094427869748587814 0 0.30505838054939299 -0.079261323674363143 0 0.31031741738569368 -0.10301791512023829 0 0.32160018235703192 -0.091431062077084763 0 0.30505838054939299 -0.079261323674363143 0 0.31031741738569368 -0.10301791512023829 0 0.30505838054939299 -0.079261323674363143 0 0.29283392045420159 -0.094427869748587814 0 0.2761325871866005 -0.081483718742339104 0 0.30505838054939299 -0.079261323674363143 0 0.2761325871866005 -0.081483718742339104 0 0.29283392045420159 -0.094427869748587814 0 0.28037939363898112 -0.1021950051257175 0 0.2761325871866005 -0.081483718742339104 0 0.30505838054939299 -0.079261323674363143 0 0.28862019264376698 -0.066497334691705531 0 0.2761325871866005 -0.081483718742339104 0 0.31031741738569368 -0.10301791512023829 0 0.29482179699199079 -0.1135426889583632 0 0.3155764542219951 -0.1267745065661133 0 0.29482179699199079 -0.1135426889583632 0 0.29596683270299212 -0.12770183990796111 0 0.3155764542219951 -0.1267745065661133 0 0.31031741738569368 -0.10301791512023829 0 0.29283392045420159 -0.094427869748587814 0 0.29482179699199079 -0.1135426889583632 0 0.29283392045420159 -0.094427869748587814 0 0.29482179699199079 -0.1135426889583632 0 0.28037939363898112 -0.1021950051257175 0 0.29482179699199079 -0.1135426889583632 0 0.28197998887454651 -0.1153642932657986 0 0.28037939363898112 -0.1021950051257175 0 0.29482179699199079 -0.1135426889583632 0 0.28197998887454651 -0.1153642932657986 0 0.28580966605375718 -0.1235880223547437 0 0.29482179699199079 -0.1135426889583632 0 0.28580966605375718 -0.1235880223547437 0 0.29596683270299212 -0.12770183990796111 0 0.27486795419144161 -0.12429321240304519 0 0.27046394930342837 -0.1113314892848306 0 0.2597982996860107 -0.12367424494955589 0 0.28197998887454651 -0.1153642932657986 0 0.28580966605375718 -0.1235880223547437 0 0.27486795419144161 -0.12429321240304519 0 0.28197998887454651 -0.1153642932657986 0 0.27046394930342837 -0.1113314892848306 0 0.28037939363898112 -0.1021950051257175 0 0.28197998887454651 -0.1153642932657986 0 0.27486795419144161 -0.12429321240304519 0 0.27046394930342837 -0.1113314892848306 0 0.27046394930342837 -0.1113314892848306 0 0.28037939363898112 -0.1021950051257175 0 0.26604411902311897 -0.097019970754385801 0 0.27046394930342837 -0.1113314892848306 0 0.26604411902311897 -0.097019970754385801 0 0.25248068696964349 -0.10451247860643401 0 0.26604411902311897 -0.097019970754385801 0 0.25248068696964349 -0.10451247860643401 0 0.24720679382380811 -0.083706113810315161 0 0.27046394930342837 -0.1113314892848306 0 0.25248068696964349 -0.10451247860643401 0 0.2597982996860107 -0.12367424494955589 0 0.25248068696964349 -0.10451247860643401 0 0.2597982996860107 -0.12367424494955589 0 0.24073824683074749 -0.11898309597363541 0 0.2761325871866005 -0.081483718742339104 0 0.25203211719755469 -0.064864740168063206 0 0.27295324768807422 -0.061279573208932077 0 0.28862019264376698 -0.066497334691705531 0 0.2761325871866005 -0.081483718742339104 0 0.27295324768807422 -0.061279573208932077 0 0.28037939363898112 -0.1021950051257175 0 0.26604411902311897 -0.097019970754385801 0 0.2761325871866005 -0.081483718742339104 0 0.2761325871866005 -0.081483718742339104 0 0.24720679382380811 -0.083706113810315161 0 0.26604411902311897 -0.097019970754385801 0 0.2761325871866005 -0.081483718742339104 0 0.24720679382380811 -0.083706113810315161 0 0.2761325871866005 -0.081483718742339104 0 0.25203211719755469 -0.064864740168063206 0 0.24720679382380811 -0.083706113810315161 0 0.25203211719755469 -0.064864740168063206 0 0.26143378601699291 -0.05077457182344082 0 0.27295324768807422 -0.061279573208932077 0 0.25203211719755469 -0.064864740168063206 0 0.25000706599388611 -0.051970212916489379 0 0.26143378601699291 -0.05077457182344082 0 0.25000706599388611 -0.051970212916489379 0 0.26143378601699291 -0.05077457182344082 0 0.25057940684032642 -0.039708976576940939 0 0.27295324768807422 -0.061279573208932077 0 0.2734014231400832 -0.046116761400404271 0 0.28888718334731278 -0.053736660340724308 0 0.26143378601699291 -0.05077457182344082 0 0.27295324768807422 -0.061279573208932077 0 0.2734014231400832 -0.046116761400404271 0 0.2734014231400832 -0.046116761400404271 0 0.2644647156204894 -0.036395450133496231 0 0.27760035944475969 -0.029175640776471709 0 0.2734014231400832 -0.046116761400404271 0 0.27760035944475969 -0.029175640776471709 0 0.28888718334731278 -0.053736660340724308 0 0.26143378601699291 -0.05077457182344082 0 0.2734014231400832 -0.046116761400404271 0 0.2644647156204894 -0.036395450133496231 0 0.26143378601699291 -0.05077457182344082 0 0.2644647156204894 -0.036395450133496231 0 0.25057940684032642 -0.039708976576940939 0 0.2644647156204894 -0.036395450133496231 0 0.25057940684032642 -0.039708976576940939 0 0.2550806638953147 -0.025735556707865509 0 0.25057940684032642 -0.039708976576940939 0 0.2550806638953147 -0.025735556707865509 0 0.24807984005970191 -0.028253642934939888 0 0.2550806638953147 -0.025735556707865509 0 0.25179701251938408 -0.017694226939863441 0 0.2465187985406741 -0.02114865632870299 0 0.2550806638953147 -0.025735556707865509 0 0.25179701251938408 -0.017694226939863441 0 0.25740926141773712 -0.017856876947501141 0 0.25179701251938408 -0.017694226939863441 0 0.25740926141773712 -0.017856876947501141 0 0.25364027478551648 -0.01143751081797992 0 0.25740926141773712 -0.017856876947501141 0 0.26552621845285462 -0.018112004422397899 0 0.26552202806562702 -0.0269924649531103 0 0.25740926141773712 -0.017856876947501141 0 0.26552621845285462 -0.018112004422397899 0 0.26146358212722048 -0.012233094089575401 0 0.2550806638953147 -0.025735556707865509 0 0.25740926141773712 -0.017856876947501141 0 0.26552202806562702 -0.0269924649531103 0 0.2644647156204894 -0.036395450133496231 0 0.2550806638953147 -0.025735556707865509 0 0.26552202806562702 -0.0269924649531103 0 0.24717639833345989 6.4481204013932397e-05 0 0.25582356345651869 0.0037151648870848682 0 0.25120190602382952 -0.0052095755072275214 0 0.25582356345651869 0.0037151648870848682 0 0.25120190602382952 -0.0052095755072275214 0 0.25795112800726999 -0.0058570290173119363 0 0.25120190602382952 -0.0052095755072275214 0 0.25364027478551648 -0.01143751081797992 0 0.25795112800726999 -0.0058570290173119363 0 0.25740926141773712 -0.017856876947501141 0 0.25364027478551648 -0.01143751081797992 0 0.26146358212722048 -0.012233094089575401 0 0.25364027478551648 -0.01143751081797992 0 0.26146358212722048 -0.012233094089575401 0 0.25795112800726999 -0.0058570290173119363 0 0.25120190602382952 -0.0052095755072275214 0 0.25364027478551648 -0.01143751081797992 0 0.24633606395767821 -0.012292533897267661 0 0.25179701251938408 -0.017694226939863441 0 0.25364027478551648 -0.01143751081797992 0 0.24633606395767821 -0.012292533897267661 0 0.26552621845285462 -0.018112004422397899 0 0.26146358212722048 -0.012233094089575401 0 0.26631353554220982 -0.0046146212122176247 0 0.26146358212722048 -0.012233094089575401 0 0.2627199092146707 -0.0068726106011613702 0 0.26631353554220982 -0.0046146212122176247 0 0.26146358212722048 -0.012233094089575401 0 0.25795112800726999 -0.0058570290173119363 0 0.2627199092146707 -0.0068726106011613702 0 0.25795112800726999 -0.0058570290173119363 0 0.2627199092146707 -0.0068726106011613702 0 0.26631353554220982 -0.0046146212122176247 0 0.25582356345651869 0.0037151648870848682 0 0.25795112800726999 -0.0058570290173119363 0 0.26631353554220982 -0.0046146212122176247 0 0.26631353554220982 -0.0046146212122176247 0 0.29447724234708123 -0.00046870004589340611 0 0.26631353554220982 -0.0046146212122176247 0 0.27760035944475969 -0.029175640776471709 0 0.26631353554220982 -0.0046146212122176247 0 0.27760035944475969 -0.029175640776471709 0 0.28434920985366519 -0.01433814118644665 0 0.26552621845285462 -0.018112004422397899 0 0.26631353554220982 -0.0046146212122176247 0 0.27760035944475969 -0.029175640776471709 0 0.26552621845285462 -0.018112004422397899 0 0.26552202806562702 -0.0269924649531103 0 0.27760035944475969 -0.029175640776471709 0 0.2644647156204894 -0.036395450133496231 0 0.26552202806562702 -0.0269924649531103 0 0.27760035944475969 -0.029175640776471709 0 0.27760035944475969 -0.029175640776471709 0 0.28875115087537578 -0.024115816305427799 0 0.29508074834551762 -0.034189471309974788 0 0.27760035944475969 -0.029175640776471709 0 0.28875115087537578 -0.024115816305427799 0 0.28434920985366519 -0.01433814118644665 0 0.28875115087537578 -0.024115816305427799 0 0.28434920985366519 -0.01433814118644665 0 0.29810052188423108 -0.0196601341743569 0 0.28875115087537578 -0.024115816305427799 0 0.29810052188423108 -0.0196601341743569 0 0.29508074834551762 -0.034189471309974788 0 0.29447724234708123 -0.00046870004589340611 0 0.28434920985366519 -0.01433814118644665 0 0.29810052188423108 -0.0196601341743569 0 0.26631353554220982 -0.0046146212122176247 0 0.29447724234708123 -0.00046870004589340611 0 0.28434920985366519 -0.01433814118644665 0 0.32264094915195268 0.0036772211204291199 0 0.31622154218412302 -0.01391134382297716 0 0.29447724234708123 -0.00046870004589340611 0 0.31622154218412302 -0.01391134382297716 0 0.29447724234708123 -0.00046870004589340611 0 0.29810052188423108 -0.0196601341743569 0 0.31622154218412302 -0.01391134382297716 0 0.29810052188423108 -0.0196601341743569 0 0.30980213521629291 -0.031499908766383408 0 0.29810052188423108 -0.0196601341743569 0 0.30980213521629291 -0.031499908766383408 0 0.29508074834551762 -0.034189471309974788 0 0.30006956444745492 -0.056725397492169018 0 0.29508074834551762 -0.034189471309974788 0 0.30669329071692403 -0.042021489982263648 0 0.30006956444745492 -0.056725397492169018 0 0.29508074834551762 -0.034189471309974788 0 0.30980213521629291 -0.031499908766383408 0 0.30669329071692403 -0.042021489982263648 0 0.29508074834551762 -0.034189471309974788 0 0.30669329071692403 -0.042021489982263648 0 0.31213605652618143 -0.049300470510559698 0 0.30006956444745492 -0.056725397492169018 0 0.31213605652618143 -0.049300470510559698 0 0.31028765366945299 -0.059813859753099302 0 0.30006956444745492 -0.056725397492169018 0 0.30006956444745492 -0.056725397492169018 0 0.28888718334731278 -0.053736660340724308 0 0.29508074834551762 -0.034189471309974788 0 0.28862019264376698 -0.066497334691705531 0 0.27295324768807422 -0.061279573208932077 0 0.28888718334731278 -0.053736660340724308 0 0.28862019264376698 -0.066497334691705531 0 0.30006956444745492 -0.056725397492169018 0 0.28888718334731278 -0.053736660340724308 0 0.27760035944475969 -0.029175640776471709 0 0.28888718334731278 -0.053736660340724308 0 0.29508074834551762 -0.034189471309974788 0 0.27760035944475969 -0.029175640776471709 0 0.28888718334731278 -0.053736660340724308 0 0.28481308202711692 -0.21754428947698529 0 0.28958088885113709 -0.19804448160796659 0 0.30311102886287322 -0.20233399892257611 0 0.28481308202711692 -0.21754428947698529 0 0.28958088885113709 -0.19804448160796659 0 0.27508428013598479 -0.1941114162115522 0 0.28958088885113709 -0.19804448160796659 0 0.30059999447824159 -0.1879344105909275 0 0.28868513743100888 -0.17929067554219161 0 0.28958088885113709 -0.19804448160796659 0 0.27508428013598479 -0.1941114162115522 0 0.28868513743100888 -0.17929067554219161 0 0.28958088885113709 -0.19804448160796659 0 0.30311102886287322 -0.20233399892257611 0 0.30059999447824159 -0.1879344105909275 0 0.30311102886287322 -0.20233399892257611 0 0.30059999447824159 -0.1879344105909275 0 0.31338697532703391 -0.19019266013455111 0 0.28481308202711692 -0.21754428947698529 0 0.30311102886287322 -0.20233399892257611 0 0.31157950201889789 -0.2223599900154333 0 0.28481308202711692 -0.21754428947698529 0 0.31157950201889789 -0.2223599900154333 0 0.30319782325364969 -0.24304381306985409 0 0.30319782325364969 -0.24304381306985409 0 0.27474985741257119 -0.24083550340129439 0 0.30319782325364969 -0.24304381306985409 0 0.27474985741257119 -0.24083550340129439 0 0.28677326490980509 -0.26553328257918329 0 0.28481308202711692 -0.21754428947698529 0 0.30319782325364969 -0.24304381306985409 0 0.27474985741257119 -0.24083550340129439 0 0.28481308202711692 -0.21754428947698529 0 0.27474985741257119 -0.24083550340129439 0 0.26413358901203171 -0.215992289990554 0 0.27474985741257119 -0.24083550340129439 0 0.24630189157149271 -0.23862719373273489 0 0.27474985741257119 -0.24083550340129439 0 0.26424800045146218 -0.26647896932476101 0 0.24630189157149271 -0.23862719373273489 0 0.27474985741257119 -0.24083550340129439 0 0.26413358901203171 -0.215992289990554 0 0.24630189157149271 -0.23862719373273489 0 0.26413358901203171 -0.215992289990554 0 0.24621464331876661 -0.21430126791017801 0 0.24630189157149271 -0.23862719373273489 0 0.26413358901203171 -0.215992289990554 0 0.25763777960625811 -0.1905340692105793 0 0.24621464331876661 -0.21430126791017801 0 0.28481308202711692 -0.21754428947698529 0 0.26413358901203171 -0.215992289990554 0 0.27508428013598479 -0.1941114162115522 0 0.27508428013598479 -0.1941114162115522 0 0.25763777960625811 -0.1905340692105793 0 0.27396259362887698 -0.17927141992405071 0 0.26413358901203171 -0.215992289990554 0 0.27508428013598479 -0.1941114162115522 0 0.25763777960625811 -0.1905340692105793 0 0.25763777960625811 -0.1905340692105793 0 0.26473810636541001 -0.16759997742855029 0 0.24368847620589321 -0.17005331356982009 0 0.25763777960625811 -0.1905340692105793 0 0.26473810636541001 -0.16759997742855029 0 0.27396259362887698 -0.17927141992405071 0 0.26473810636541001 -0.16759997742855029 0 0.2593630558311944 -0.15522840324506251 0 0.24368847620589321 -0.17005331356982009 0 0.26473810636541001 -0.16759997742855029 0 0.2593630558311944 -0.15522840324506251 0 0.2724583978228215 -0.15610684189743379 0 0.28006300350585162 -0.1671640752775593 0 0.2724583978228215 -0.15610684189743379 0 0.28849842414838761 -0.15487949135339729 0 0.26473810636541001 -0.16759997742855029 0 0.28006300350585162 -0.1671640752775593 0 0.27396259362887698 -0.17927141992405071 0 0.26473810636541001 -0.16759997742855029 0 0.28006300350585162 -0.1671640752775593 0 0.2724583978228215 -0.15610684189743379 0 0.28006300350585162 -0.1671640752775593 0 0.27396259362887698 -0.17927141992405071 0 0.28868513743100888 -0.17929067554219161 0 0.27508428013598479 -0.1941114162115522 0 0.27396259362887698 -0.17927141992405071 0 0.28868513743100888 -0.17929067554219161 0 0.2597982996860107 -0.12367424494955589 0 0.25297455976986188 -0.13670752837950159 0 0.24073824683074749 -0.11898309597363541 0 0.2597982996860107 -0.12367424494955589 0 0.2628496448736467 -0.1318130462106476 0 0.25297455976986188 -0.13670752837950159 0 0.2597982996860107 -0.12367424494955589 0 0.2628496448736467 -0.1318130462106476 0 0.26916696521830658 -0.13070666356532379 0 0.25297455976986188 -0.13670752837950159 0 0.26853738895072832 -0.1404439412017463 0 0.26698560035816499 -0.13799012919014761 0 0.2628496448736467 -0.1318130462106476 0 0.25297455976986188 -0.13670752837950159 0 0.26698560035816499 -0.13799012919014761 0 0.2593630558311944 -0.15522840324506251 0 0.26853738895072832 -0.1404439412017463 0 0.2461275228407423 -0.14899868001382041 0 0.25297455976986188 -0.13670752837950159 0 0.26853738895072832 -0.1404439412017463 0 0.2461275228407423 -0.14899868001382041 0 0.26853738895072832 -0.1404439412017463 0 0.2461275228407423 -0.14899868001382041 0 0.26853738895072832 -0.1404439412017463 0 0.26698560035816499 -0.13799012919014761 0 0.28849842414838761 -0.15487949135339729 0 0.2593630558311944 -0.15522840324506251 0 0.2724583978228215 -0.15610684189743379 0 0.26853738895072832 -0.1404439412017463 0 0.2724583978228215 -0.15610684189743379 0 0.26853738895072832 -0.1404439412017463 0 0.28849842414838761 -0.15487949135339729 0 0.26698560035816499 -0.13799012919014761 0 0.28849842414838761 -0.15487949135339729 0 0.2811430518601053 -0.14181871779710581 0 0.26698560035816499 -0.13799012919014761 0 0.28849842414838761 -0.15487949135339729 0 0.27264225976652512 -0.13585303781849711 0 0.27740992750453097 -0.13431403584281301 0 0.26916696521830658 -0.13070666356532379 0 0.26698560035816499 -0.13799012919014761 0 0.26791111755416092 -0.13409071919615401 0 0.27264225976652512 -0.13585303781849711 0 0.2628496448736467 -0.1318130462106476 0 0.26698560035816499 -0.13799012919014761 0 0.26791111755416092 -0.13409071919615401 0 0.26791111755416092 -0.13409071919615401 0 0.27264225976652512 -0.13585303781849711 0 0.26916696521830658 -0.13070666356532379 0 0.2811430518601053 -0.14181871779710581 0 0.26698560035816499 -0.13799012919014761 0 0.27264225976652512 -0.13585303781849711 0 0.2811430518601053 -0.14181871779710581 0 0.27264225976652512 -0.13585303781849711 0 0.27740992750453097 -0.13431403584281301 0 0.2811430518601053 -0.14181871779710581 0 0.27740992750453097 -0.13431403584281301 0 0.28355173782398169 -0.1363785018331107 0 0.27740992750453097 -0.13431403584281301 0 0.28165887915567639 -0.12912237196641829 0 0.28355173782398169 -0.1363785018331107 0 0.27486795419144161 -0.12429321240304519 0 0.27740992750453097 -0.13431403584281301 0 0.28165887915567639 -0.12912237196641829 0 0.27486795419144161 -0.12429321240304519 0 0.27740992750453097 -0.13431403584281301 0 0.26916696521830658 -0.13070666356532379 0 0.28580966605375718 -0.1235880223547437 0 0.27486795419144161 -0.12429321240304519 0 0.28165887915567639 -0.12912237196641829 0 0.27486795419144161 -0.12429321240304519 0 0.2597982996860107 -0.12367424494955589 0 0.26916696521830658 -0.13070666356532379 0 0.2628496448736467 -0.1318130462106476 0 0.26791111755416092 -0.13409071919615401 0 0.26916696521830658 -0.13070666356532379 0 0.28580966605375718 -0.1235880223547437 0 0.29596683270299212 -0.12770183990796111 0 0.28785623107854691 -0.13257700594107891 0 0.28580966605375718 -0.1235880223547437 0 0.28165887915567639 -0.12912237196641829 0 0.28785623107854691 -0.13257700594107891 0 0.28165887915567639 -0.12912237196641829 0 0.28785623107854691 -0.13257700594107891 0 0.28355173782398169 -0.1363785018331107 0 0.2811430518601053 -0.14181871779710581 0 0.28355173782398169 -0.1363785018331107 0 0.29133126106055451 -0.1402560866650967 0 0.28785623107854691 -0.13257700594107891 0 0.28355173782398169 -0.1363785018331107 0 0.29133126106055451 -0.1402560866650967 0 0.29596683270299212 -0.12770183990796111 0 0.29133126106055451 -0.1402560866650967 0 0.30295709854186348 -0.1364224322925445 0 0.29596683270299212 -0.12770183990796111 0 0.28785623107854691 -0.13257700594107891 0 0.29133126106055451 -0.1402560866650967 0 0.2811430518601053 -0.14181871779710581 0 0.29133126106055451 -0.1402560866650967 0 0.28849842414838761 -0.15487949135339729 0 0.29133126106055451 -0.1402560866650967 0 0.28849842414838761 -0.15487949135339729 0 0.30031543433052399 -0.15052008885025689 0 0.30031543433052399 -0.15052008885025689 0 0.31010900997331042 -0.1420226913929899 0 0.32083549105829512 -0.15053109801198861 0 0.30031543433052399 -0.15052008885025689 0 0.32083549105829512 -0.15053109801198861 0 0.30031543433052399 -0.15052008885025689 0 0.31057108945026313 -0.1586769150439945 0 0.32083549105829512 -0.15053109801198861 0 0.28849842414838761 -0.15487949135339729 0 0.30031543433052399 -0.15052008885025689 0 0.31057108945026313 -0.1586769150439945 0 0.29133126106055451 -0.1402560866650967 0 0.30031543433052399 -0.15052008885025689 0 0.30295709854186348 -0.1364224322925445 0 0.30031543433052399 -0.15052008885025689 0 0.31010900997331042 -0.1420226913929899 0 0.30295709854186348 -0.1364224322925445 0 0.29596683270299212 -0.12770183990796111 0 0.30295709854186348 -0.1364224322925445 0 0.3155764542219951 -0.1267745065661133 0 0.31010900997331042 -0.1420226913929899 0 0.30295709854186348 -0.1364224322925445 0 0.3155764542219951 -0.1267745065661133 0 0.28868513743100888 -0.17929067554219161 0 0.2918144532559645 -0.16827577392244869 0 0.31001124793861012 -0.17176885351664681 0 0.28849842414838761 -0.15487949135339729 0 0.2918144532559645 -0.16827577392244869 0 0.31001124793861012 -0.17176885351664681 0 0.28006300350585162 -0.1671640752775593 0 0.28868513743100888 -0.17929067554219161 0 0.2918144532559645 -0.16827577392244869 0 0.28006300350585162 -0.1671640752775593 0 0.28849842414838761 -0.15487949135339729 0 0.2918144532559645 -0.16827577392244869 0 0.28849842414838761 -0.15487949135339729 0 0.31001124793861012 -0.17176885351664681 0 0.28849842414838761 -0.15487949135339729 0 0.31057108945026313 -0.1586769150439945 0 0.31001124793861012 -0.17176885351664681 0 0.30059999447824159 -0.1879344105909275 0 0.31001124793861012 -0.17176885351664681 0 0.31338697532703391 -0.19019266013455111 0 0.30059999447824159 -0.1879344105909275 0 0.28868513743100888 -0.17929067554219161 0 0.31001124793861012 -0.17176885351664681 0 0.31001124793861012 -0.17176885351664681 0 0.33152407172883241 -0.1886582156798963 0 0.31001124793861012 -0.17176885351664681 0 0.32737400812944578 -0.18006747198240081 0 0.33152407172883241 -0.1886582156798963 0 0.31001124793861012 -0.17176885351664681 0 0.33152407172883241 -0.1886582156798963 0 0.31338697532703391 -0.19019266013455111 0 0.31057108945026313 -0.1586769150439945 0 0.32737400812944578 -0.18006747198240081 0 0.32083549105829512 -0.15053109801198861 0 0.32737400812944578 -0.18006747198240081 0 0.33140352814142271 -0.16470772984645399 0 0.32083549105829512 -0.15053109801198861 0 0.32737400812944578 -0.18006747198240081 0 0.32083549105829512 -0.15053109801198861 0 0.31057108945026313 -0.1586769150439945 0 0.31001124793861012 -0.17176885351664681 0 0.32737400812944578 -0.18006747198240081 0 0.33140352814142271 -0.16470772984645399 0 0.33731049418815129 -0.1505399369726409 0 0.34475411136617218 -0.16880551894058099 0 0.33140352814142271 -0.16470772984645399 0 0.33567379051094809 -0.17331266074261831 0 0.34475411136617218 -0.16880551894058099 0 0.3391635144067518 -0.17966992220103761 0 0.33567379051094809 -0.17331266074261831 0 0.34475411136617218 -0.16880551894058099 0 0.3391635144067518 -0.17966992220103761 0 0.35006933943388652 -0.18695298246709521 0 0.33152407172883241 -0.1886582156798963 0 0.32737400812944578 -0.18006747198240081 0 0.3391635144067518 -0.17966992220103761 0 0.33152407172883241 -0.1886582156798963 0 0.32737400812944578 -0.18006747198240081 0 0.3391635144067518 -0.17966992220103761 0 0.33567379051094809 -0.17331266074261831 0 0.32737400812944578 -0.18006747198240081 0 0.33140352814142271 -0.16470772984645399 0 0.33567379051094809 -0.17331266074261831 0 0.3155764542219951 -0.1267745065661133 0 0.32083549105829512 -0.15053109801198861 0 0.3155764542219951 -0.1267745065661133 0 0.32083549105829512 -0.15053109801198861 0 0.32975543962499509 -0.1365943898863646 0 0.31010900997331042 -0.1420226913929899 0 0.3155764542219951 -0.1267745065661133 0 0.32083549105829512 -0.15053109801198861 0 0.33300908673166357 -0.1178073935000308 0 0.3155764542219951 -0.1267745065661133 0 0.32975543962499509 -0.1365943898863646 0 0.32083549105829512 -0.15053109801198861 0 0.33731049418815129 -0.1505399369726409 0 0.32083549105829512 -0.15053109801198861 0 0.33731049418815129 -0.1505399369726409 0 0.32975543962499509 -0.1365943898863646 0 0.33140352814142271 -0.16470772984645399 0 0.32083549105829512 -0.15053109801198861 0 0.33731049418815129 -0.1505399369726409 0 0.33300908673166357 -0.1178073935000308 0 0.34339729202483582 -0.13417808471666101 0 0.32975543962499509 -0.1365943898863646 0 0.33731049418815129 -0.1505399369726409 0 0.34339729202483582 -0.13417808471666101 0 0.32975543962499509 -0.1365943898863646 0 0.33300908673166357 -0.1178073935000308 0 0.34339729202483582 -0.13417808471666101 0 0.35281273824187598 -0.1180947422506244 0 0.34339729202483582 -0.13417808471666101 0 0.35967383332498121 -0.13678987302462961 0 0.34339729202483582 -0.13417808471666101 0 0.35378549731800751 -0.1505487759332915 0 0.35967383332498121 -0.13678987302462961 0 0.33731049418815129 -0.1505399369726409 0 0.35378549731800751 -0.1505487759332915 0 0.33731049418815129 -0.1505399369726409 0 0.34339729202483582 -0.13417808471666101 0 0.35378549731800751 -0.1505487759332915 0 0.34339729202483582 -0.13417808471666101 0 0.35378549731800751 -0.1505487759332915 0 0.35378549731800751 -0.1505487759332915 0 0.35967383332498121 -0.13678987302462961 0 0.38298489678591058 -0.15056444162639901 0 0.35378549731800751 -0.1505487759332915 0 0.38298489678591058 -0.15056444162639901 0 0.35281273824187598 -0.1180947422506244 0 0.35967383332498121 -0.13678987302462961 0 0.37113166727084229 -0.1298369395766992 0 0.35967383332498121 -0.13678987302462961 0 0.37113166727084229 -0.1298369395766992 0 0.38298489678591058 -0.15056444162639901 0 0.35006933943388652 -0.18695298246709521 0 0.34475411136617218 -0.16880551894058099 0 0.36950494281605217 -0.17532092676037059 0 0.3391635144067518 -0.17966992220103761 0 0.35006933943388652 -0.18695298246709521 0 0.34475411136617218 -0.16880551894058099 0 0.33731049418815129 -0.1505399369726409 0 0.35378549731800751 -0.1505487759332915 0 0.34475411136617218 -0.16880551894058099 0 0.35378549731800751 -0.1505487759332915 0 0.34475411136617218 -0.16880551894058099 0 0.36950494281605217 -0.17532092676037059 0 0.35378549731800751 -0.1505487759332915 0 0.36950494281605217 -0.17532092676037059 0 0.35378549731800751 -0.1505487759332915 0 0.36950494281605217 -0.17532092676037059 0 0.38298489678591058 -0.15056444162639901 0 0.35006933943388652 -0.18695298246709521 0 0.36950494281605217 -0.17532092676037059 0 0.36724214127137922 -0.19368748626927221 0 0.36950494281605217 -0.17532092676037059 0 0.36724214127137922 -0.19368748626927221 0 0.38522438831409639 -0.2000930775874501 0 0.36724214127137922 -0.19368748626927221 0 0.35303689551905482 -0.20554757784314581 0 0.37454971930927727 -0.22243694000639541 0 0.35303689551905482 -0.20554757784314581 0 0.37454971930927727 -0.22243694000639541 0 0.35006933943388652 -0.18695298246709521 0 0.36724214127137922 -0.19368748626927221 0 0.35303689551905482 -0.20554757784314581 0 0.35006933943388652 -0.18695298246709521 0 0.35303689551905482 -0.20554757784314581 0 0.33152407172883241 -0.1886582156798963 0 0.35303689551905482 -0.20554757784314581 0 0.33152407172883241 -0.1886582156798963 0 0.32361749017362401 -0.20503619447443869 0 0.35303689551905482 -0.20554757784314581 0 0.33152407172883241 -0.1886582156798963 0 0.35303689551905482 -0.20554757784314581 0 0.32361749017362401 -0.20503619447443869 0 0.33333408821623389 -0.22124986913724259 0 0.30311102886287322 -0.20233399892257611 0 0.31157950201889789 -0.2223599900154333 0 0.32361749017362401 -0.20503619447443869 0 0.31157950201889789 -0.2223599900154333 0 0.32361749017362401 -0.20503619447443869 0 0.33333408821623389 -0.22124986913724259 0 0.30311102886287322 -0.20233399892257611 0 0.32361749017362401 -0.20503619447443869 0 0.31338697532703391 -0.19019266013455111 0 0.33152407172883241 -0.1886582156798963 0 0.32361749017362401 -0.20503619447443869 0 0.31338697532703391 -0.19019266013455111 0 0.30319782325364969 -0.24304381306985409 0 0.33164578909472808 -0.24525212273841371 0 0.31157950201889789 -0.2223599900154333 0 0.30319782325364969 -0.24304381306985409 0 0.33164578909472808 -0.24525212273841371 0 0.31157950201889789 -0.2223599900154333 0 0.33333408821623389 -0.22124986913724259 0 0.33164578909472808 -0.24525212273841371 0 0.33333408821623389 -0.22124986913724259 0 0.33164578909472808 -0.24525212273841371 0 0.35209968844333128 -0.23196766962807711 0 0.33164578909472808 -0.24525212273841371 0 0.35209968844333128 -0.23196766962807711 0 0.34337386365515071 -0.25990193033803188 0 0.35209968844333128 -0.23196766962807711 0 0.34337386365515071 -0.25990193033803188 0 0.36284533118166051 -0.25184142910743867 0 0.35303689551905482 -0.20554757784314581 0 0.33333408821623389 -0.22124986913724259 0 0.35209968844333128 -0.23196766962807711 0 0.37454971930927727 -0.22243694000639541 0 0.36679430028833598 -0.23635085058581301 0 0.37778092624594778 -0.24313624425873381 0 0.35303689551905482 -0.20554757784314581 0 0.35209968844333128 -0.23196766962807711 0 0.37454971930927727 -0.22243694000639541 0 0.35209968844333128 -0.23196766962807711 0 0.37454971930927727 -0.22243694000639541 0 0.36679430028833598 -0.23635085058581301 0 0.35209968844333128 -0.23196766962807711 0 0.36679430028833598 -0.23635085058581301 0 0.36284533118166051 -0.25184142910743867 0 0.36679430028833598 -0.23635085058581301 0 0.37778092624594778 -0.24313624425873381 0 0.36284533118166051 -0.25184142910743867 0 0.37778092624594778 -0.24313624425873381 0 0.38972013589370658 -0.24860602692987729 0 0.39606254309949968 -0.2393263021696449 0 0.37454971930927727 -0.22243694000639541 0 0.37778092624594778 -0.24313624425873381 0 0.39606254309949968 -0.2393263021696449 0 0.39606254309949968 -0.2393263021696449 0 0.39339019263086872 -0.22636127981786661 0 0.40989247196553152 -0.25088968501773468 0 0.38972013589370658 -0.24860602692987729 0 0.39606254309949968 -0.2393263021696449 0 0.39806170646907491 -0.25157951124394029 0 0.39339019263086872 -0.22636127981786661 0 0.40989247196553152 -0.25088968501773468 0 0.39606254309949968 -0.2393263021696449 0 0.39806170646907491 -0.25157951124394029 0 0.40989247196553152 -0.25088968501773468 0 0.39339019263086872 -0.22636127981786661 0 0.40094383381214072 -0.22486522841452969 0 0.40989247196553152 -0.25088968501773468 0 0.37454971930927727 -0.22243694000639541 0 0.39606254309949968 -0.2393263021696449 0 0.39339019263086872 -0.22636127981786661 0 0.37454971930927727 -0.22243694000639541 0 0.39606254309949968 -0.2393263021696449 0 0.36724214127137922 -0.19368748626927221 0 0.37454971930927727 -0.22243694000639541 0 0.38522438831409639 -0.2000930775874501 0 0.37454971930927727 -0.22243694000639541 0 0.39339019263086872 -0.22636127981786661 0 0.38522438831409639 -0.2000930775874501 0 0.36950494281605217 -0.17532092676037059 0 0.38522438831409639 -0.2000930775874501 0 0.40132332963278788 -0.20393533337722741 0 0.39893042918046168 -0.17973374753413829 0 0.41217082038485658 -0.1830442990372847 0 0.38522438831409639 -0.2000930775874501 0 0.40132332963278788 -0.20393533337722741 0 0.39893042918046168 -0.17973374753413829 0 0.40094383381214072 -0.22486522841452969 0 0.38522438831409639 -0.2000930775874501 0 0.40094383381214072 -0.22486522841452969 0 0.38522438831409639 -0.2000930775874501 0 0.40132332963278788 -0.20393533337722741 0 0.40094383381214072 -0.22486522841452969 0 0.40132332963278788 -0.20393533337722741 0 0.40758099342992521 -0.21693771273545981 0 0.39339019263086872 -0.22636127981786661 0 0.40094383381214072 -0.22486522841452969 0 0.38522438831409639 -0.2000930775874501 0 0.40132332963278788 -0.20393533337722741 0 0.4150072925707855 -0.21472777653291711 0 0.41684924298249387 -0.19820080150494929 0 0.40132332963278788 -0.20393533337722741 0 0.40758099342992521 -0.21693771273545981 0 0.4150072925707855 -0.21472777653291711 0 0.4150072925707855 -0.21472777653291711 0 0.41684924298249387 -0.19820080150494929 0 0.42687404468587431 -0.21342668297075321 0 0.40758099342992521 -0.21693771273545981 0 0.4150072925707855 -0.21472777653291711 0 0.41304951770398662 -0.22422251261716489 0 0.40132332963278788 -0.20393533337722741 0 0.41684924298249387 -0.19820080150494929 0 0.41217082038485658 -0.1830442990372847 0 0.41684924298249387 -0.19820080150494929 0 0.4383743294469078 -0.20627517657470831 0 0.44078971776123471 -0.1884296026845276 0 0.41684924298249387 -0.19820080150494929 0 0.4383743294469078 -0.20627517657470831 0 0.41684924298249387 -0.19820080150494929 0 0.42687404468587431 -0.21342668297075321 0 0.4383743294469078 -0.20627517657470831 0 0.4150072925707855 -0.21472777653291711 0 0.42687404468587431 -0.21342668297075321 0 0.42413563389686709 -0.22614634025147379 0 0.42687404468587431 -0.21342668297075321 0 0.44000372453231668 -0.2217833199897172 0 0.4383743294469078 -0.20627517657470831 0 0.42413563389686709 -0.22614634025147379 0 0.42990480379075602 -0.24159383882398189 0 0.44000372453231668 -0.2217833199897172 0 0.42687404468587431 -0.21342668297075321 0 0.42413563389686709 -0.22614634025147379 0 0.44000372453231668 -0.2217833199897172 0 0.42990480379075602 -0.24159383882398189 0 0.43756297283723639 -0.25506191069322409 0 0.42689480477342839 -0.25068783913870613 0 0.42990480379075602 -0.24159383882398189 0 0.41666327931018488 -0.24963737924160931 0 0.42689480477342839 -0.25068783913870613 0 0.42413563389686709 -0.22614634025147379 0 0.42990480379075602 -0.24159383882398189 0 0.4175102228975538 -0.23542513760335271 0 0.40094383381214072 -0.22486522841452969 0 0.41666327931018488 -0.24963737924160931 0 0.40989247196553152 -0.25088968501773468 0 0.40094383381214072 -0.22486522841452969 0 0.41666327931018488 -0.24963737924160931 0 0.40094383381214072 -0.22486522841452969 0 0.4175102228975538 -0.23542513760335271 0 0.41666327931018488 -0.24963737924160931 0 0.42990480379075602 -0.24159383882398189 0 0.4175102228975538 -0.23542513760335271 0 0.41666327931018488 -0.24963737924160931 0 0.40094383381214072 -0.22486522841452969 0 0.4175102228975538 -0.23542513760335271 0 0.41304951770398662 -0.22422251261716489 0 0.40094383381214072 -0.22486522841452969 0 0.40758099342992521 -0.21693771273545981 0 0.41304951770398662 -0.22422251261716489 0 0.4150072925707855 -0.21472777653291711 0 0.42413563389686709 -0.22614634025147379 0 0.41304951770398662 -0.22422251261716489 0 0.42413563389686709 -0.22614634025147379 0 0.4175102228975538 -0.23542513760335271 0 0.41304951770398662 -0.22422251261716489 0 0.39592118067352727 -0.1163074301991535 0 0.40588823891881659 -0.1402505198740579 0 0.41255287296548809 -0.1290505203717412 0 0.39592118067352727 -0.1163074301991535 0 0.40588823891881659 -0.1402505198740579 0 0.39592118067352727 -0.1163074301991535 0 0.40588823891881659 -0.1402505198740579 0 0.38896199114956759 -0.1332505043577599 0 0.37113166727084229 -0.1298369395766992 0 0.38896199114956759 -0.1332505043577599 0 0.38298489678591058 -0.15056444162639901 0 0.3756298573667074 -0.1121325287009476 0 0.37113166727084229 -0.1298369395766992 0 0.38896199114956759 -0.1332505043577599 0 0.38298489678591058 -0.15056444162639901 0 0.41218429625381348 -0.1505801073195053 0 0.38298489678591058 -0.15056444162639901 0 0.3980217356083291 -0.1631905127795969 0 0.41218429625381348 -0.1505801073195053 0 0.40588823891881659 -0.1402505198740579 0 0.38298489678591058 -0.15056444162639901 0 0.41218429625381348 -0.1505801073195053 0 0.40588823891881659 -0.1402505198740579 0 0.38896199114956759 -0.1332505043577599 0 0.38298489678591058 -0.15056444162639901 0 0.3980217356083291 -0.1631905127795969 0 0.38550485312584881 -0.1708535891723586 0 0.39893042918046168 -0.17973374753413829 0 0.3980217356083291 -0.1631905127795969 0 0.39893042918046168 -0.17973374753413829 0 0.41132325396574881 -0.16589897645959251 0 0.38298489678591058 -0.15056444162639901 0 0.3980217356083291 -0.1631905127795969 0 0.38550485312584881 -0.1708535891723586 0 0.36950494281605217 -0.17532092676037059 0 0.38298489678591058 -0.15056444162639901 0 0.38550485312584881 -0.1708535891723586 0 0.36950494281605217 -0.17532092676037059 0 0.38522438831409639 -0.2000930775874501 0 0.38550485312584881 -0.1708535891723586 0 0.38522438831409639 -0.2000930775874501 0 0.38550485312584881 -0.1708535891723586 0 0.39893042918046168 -0.17973374753413829 0 0.41217082038485658 -0.1830442990372847 0 0.4298779511497815 -0.17309654838418029 0 0.41132325396574881 -0.16589897645959251 0 0.41684924298249387 -0.19820080150494929 0 0.41217082038485658 -0.1830442990372847 0 0.4298779511497815 -0.17309654838418029 0 0.39893042918046168 -0.17973374753413829 0 0.41217082038485658 -0.1830442990372847 0 0.41132325396574881 -0.16589897645959251 0 0.41684924298249387 -0.19820080150494929 0 0.4298779511497815 -0.17309654838418029 0 0.44078971776123471 -0.1884296026845276 0 0.4298779511497815 -0.17309654838418029 0 0.42369229927276508 -0.16004285129397239 0 0.4413836957217166 -0.15059577301261151 0 0.42369229927276508 -0.16004285129397239 0 0.41132325396574881 -0.16589897645959251 0 0.41218429625381348 -0.1505801073195053 0 0.4298779511497815 -0.17309654838418029 0 0.42369229927276508 -0.16004285129397239 0 0.41132325396574881 -0.16589897645959251 0 0.3980217356083291 -0.1631905127795969 0 0.41132325396574881 -0.16589897645959251 0 0.41218429625381348 -0.1505801073195053 0 0.40588823891881659 -0.1402505198740579 0 0.41218429625381348 -0.1505801073195053 0 0.42385275921023469 -0.1365067047463949 0 0.42369229927276508 -0.16004285129397239 0 0.41218429625381348 -0.1505801073195053 0 0.4413836957217166 -0.15059577301261151 0 0.41218429625381348 -0.1505801073195053 0 0.42385275921023469 -0.1365067047463949 0 0.4413836957217166 -0.15059577301261151 0 0.41218429625381348 -0.1505801073195053 0 0.4413836957217166 -0.15059577301261151 0 0.42159608029648549 -0.1196655463708958 0 0.43479326036583821 -0.1243194629350251 0 0.42385275921023469 -0.1365067047463949 0 0.43479326036583821 -0.1243194629350251 0 0.42385275921023469 -0.1365067047463949 0 0.44343861149794328 -0.13431391773607471 0 0.42385275921023469 -0.1365067047463949 0 0.44343861149794328 -0.13431391773607471 0 0.4413836957217166 -0.15059577301261151 0 0.40588823891881659 -0.1402505198740579 0 0.42385275921023469 -0.1365067047463949 0 0.41255287296548809 -0.1290505203717412 0 0.42159608029648549 -0.1196655463708958 0 0.42385275921023469 -0.1365067047463949 0 0.41255287296548809 -0.1290505203717412 0 0.4705600542762402 -0.1207412066741483 0 0.44743723931885598 -0.12131233574797121 0 0.4593607014926831 -0.13568497038838259 0 0.4705600542762402 -0.1207412066741483 0 0.4593607014926831 -0.13568497038838259 0 0.47263887983407848 -0.13607992524104179 0 0.44743723931885598 -0.12131233574797121 0 0.4593607014926831 -0.13568497038838259 0 0.44343861149794328 -0.13431391773607471 0 0.4593607014926831 -0.13568497038838259 0 0.44343861149794328 -0.13431391773607471 0 0.4413836957217166 -0.15059577301261151 0 0.44743723931885598 -0.12131233574797121 0 0.43479326036583821 -0.1243194629350251 0 0.44343861149794328 -0.13431391773607471 0 0.4413836957217166 -0.15059577301261151 0 0.4705830951896196 -0.1506114387057178 0 0.4593607014926831 -0.13568497038838259 0 0.4413836957217166 -0.15059577301261151 0 0.4705830951896196 -0.1506114387057178 0 0.4593607014926831 -0.13568497038838259 0 0.4705830951896196 -0.1506114387057178 0 0.47263887983407848 -0.13607992524104179 0 0.45906046449505139 -0.1720721694604129 0 0.47106901259065581 -0.16474642981543719 0 0.4705830951896196 -0.1506114387057178 0 0.4413836957217166 -0.15059577301261151 0 0.45906046449505139 -0.1720721694604129 0 0.4705830951896196 -0.1506114387057178 0 0.4298779511497815 -0.17309654838418029 0 0.4413836957217166 -0.15059577301261151 0 0.45906046449505139 -0.1720721694604129 0 0.45906046449505139 -0.1720721694604129 0 0.44078971776123471 -0.1884296026845276 0 0.45522948940946439 -0.1978484083220311 0 0.4298779511497815 -0.17309654838418029 0 0.45906046449505139 -0.1720721694604129 0 0.44078971776123471 -0.1884296026845276 0 0.45906046449505139 -0.1720721694604129 0 0.48341203523997228 -0.1714933906563553 0 0.47165572557564711 -0.19292147115041089 0 0.48341203523997228 -0.1714933906563553 0 0.47165572557564711 -0.19292147115041089 0 0.48341203523997228 -0.1714933906563553 0 0.47165572557564711 -0.19292147115041089 0 0.4876497547103063 -0.19023689708041769 0 0.5 -0.17786099169338471 0 0.48341203523997228 -0.1714933906563553 0 0.4876497547103063 -0.19023689708041769 0 0.48341203523997228 -0.1714933906563553 0 0.48207430671284091 -0.15545384043139671 0 0.49516834490429762 -0.15006531016229971 0 0.5 -0.17786099169338471 0 0.48341203523997228 -0.1714933906563553 0 0.5 -0.15209555362670871 0 0.48341203523997228 -0.1714933906563553 0 0.49516834490429762 -0.15006531016229971 0 0.5 -0.15209555362670871 0 0.48341203523997228 -0.1714933906563553 0 0.49516834490429762 -0.15006531016229971 0 0.48341203523997228 -0.1714933906563553 0 0.47106901259065581 -0.16474642981543719 0 0.48207430671284091 -0.15545384043139671 0 0.45906046449505139 -0.1720721694604129 0 0.48341203523997228 -0.1714933906563553 0 0.47106901259065581 -0.16474642981543719 0 0.47106901259065581 -0.16474642981543719 0 0.4705830951896196 -0.1506114387057178 0 0.48207430671284091 -0.15545384043139671 0 0.4705830951896196 -0.1506114387057178 0 0.48822491055721401 -0.13656929071137819 0 0.47263887983407848 -0.13607992524104179 0 0.4705830951896196 -0.1506114387057178 0 0.48207430671284091 -0.15545384043139671 0 0.48822491055721401 -0.13656929071137819 0 0.48207430671284091 -0.15545384043139671 0 0.49516834490429762 -0.15006531016229971 0 0.48822491055721401 -0.13656929071137819 0 0.49516834490429762 -0.15006531016229971 0 0.5 -0.15209555362670871 0 0.5 -0.12633011556003279 0 0.48721517183547203 -0.11411714512046101 0 0.48822491055721401 -0.13656929071137819 0 0.5 -0.12633011556003279 0 0.49516834490429762 -0.15006531016229971 0 0.48822491055721401 -0.13656929071137819 0 0.5 -0.12633011556003279 0 0.4705600542762402 -0.1207412066741483 0 0.48822491055721401 -0.13656929071137819 0 0.47263887983407848 -0.13607992524104179 0 0.4705600542762402 -0.1207412066741483 0 0.48822491055721401 -0.13656929071137819 0 0.46551258054565792 -0.2350543601612286 0 0.45989941591132188 -0.21434955164446651 0 0.47994970795566072 -0.22187070973560191 0 0.46551258054565792 -0.2350543601612286 0 0.44873119437427911 -0.2347057311688453 0 0.45989941591132188 -0.21434955164446651 0 0.44873119437427911 -0.2347057311688453 0 0.45989941591132188 -0.21434955164446651 0 0.46551258054565792 -0.2350543601612286 0 0.47371889651218219 -0.2487370014827493 0 0.45638490602314452 -0.25715149347717342 0 0.46551258054565792 -0.2350543601612286 0 0.44873119437427911 -0.2347057311688453 0 0.45638490602314452 -0.25715149347717342 0 0.44873119437427911 -0.2347057311688453 0 0.43756297283723639 -0.25506191069322409 0 0.44873119437427911 -0.2347057311688453 0 0.45638490602314452 -0.25715149347717342 0 0.43756297283723639 -0.25506191069322409 0 0.42990480379075602 -0.24159383882398189 0 0.44873119437427911 -0.2347057311688453 0 0.43756297283723639 -0.25506191069322409 0 0.44873119437427911 -0.2347057311688453 0 0.44000372453231668 -0.2217833199897172 0 0.45989941591132188 -0.21434955164446651 0 0.42990480379075602 -0.24159383882398189 0 0.44873119437427911 -0.2347057311688453 0 0.44000372453231668 -0.2217833199897172 0 0.4383743294469078 -0.20627517657470831 0 0.45522948940946439 -0.1978484083220311 0 0.45989941591132188 -0.21434955164446651 0 0.4383743294469078 -0.20627517657470831 0 0.45989941591132188 -0.21434955164446651 0 0.44000372453231668 -0.2217833199897172 0 0.4383743294469078 -0.20627517657470831 0 0.45989941591132188 -0.21434955164446651 0 0.4383743294469078 -0.20627517657470831 0 0.44078971776123471 -0.1884296026845276 0 0.45522948940946439 -0.1978484083220311 0 0.45906046449505139 -0.1720721694604129 0 0.45522948940946439 -0.1978484083220311 0 0.47165572557564711 -0.19292147115041089 0 0.45522948940946439 -0.1978484083220311 0 0.45989941591132188 -0.21434955164446651 0 0.47165572557564711 -0.19292147115041089 0 0.45989941591132188 -0.21434955164446651 0 0.47165572557564711 -0.19292147115041089 0 0.45989941591132188 -0.21434955164446651 0 0.48196013376166819 -0.20503395495977569 0 0.47994970795566072 -0.22187070973560191 0 0.45989941591132188 -0.21434955164446651 0 0.48196013376166819 -0.20503395495977569 0 0.47165572557564711 -0.19292147115041089 0 0.45989941591132188 -0.21434955164446651 0 0.47994970795566072 -0.22187070973560191 0 0.48196013376166819 -0.20503395495977569 0 0.47165572557564711 -0.19292147115041089 0 0.4876497547103063 -0.19023689708041769 0 0.48196013376166819 -0.20503395495977569 0 0.4876497547103063 -0.19023689708041769 0 0.5 -0.2036264297600606 0 0.5 -0.17786099169338471 0 0.4876497547103063 -0.19023689708041769 0 0.5 -0.2036264297600606 0 0.48196013376166819 -0.20503395495977569 0 0.5 -0.2036264297600606 0 0.47994970795566072 -0.22187070973560191 0 0.5 -0.2036264297600606 0 0.49999999999999989 -0.22939186782673651 0 0.47994970795566072 -0.22187070973560191 0 0.49999999999999989 -0.22939186782673651 0 0.47994970795566072 -0.22187070973560191 0 0.48213675569416897 -0.2362305202775063 0 0.49999999999999989 -0.22939186782673651 0 0.47994970795566072 -0.22187070973560191 0 0.46551258054565792 -0.2350543601612286 0 0.47994970795566072 -0.22187070973560191 0 0.48213675569416897 -0.2362305202775063 0 0.48213675569416897 -0.2362305202775063 0 0.47371889651218219 -0.2487370014827493 0 0.49195687937588789 -0.24625812907891181 0 0.46551258054565792 -0.2350543601612286 0 0.48213675569416897 -0.2362305202775063 0 0.47371889651218219 -0.2487370014827493 0 0.49999999999999989 -0.22939186782673651 0 0.49195687937588789 -0.24625812907891181 0 0.5 -0.25293022324215048 0 0.49999999999999989 -0.22939186782673651 0 0.48213675569416897 -0.2362305202775063 0 0.49195687937588789 -0.24625812907891181 0 0.49195687937588789 -0.24625812907891181 0 0.5 -0.25293022324215048 0 0.48078136030509599 -0.26884007005042843 0 0.49195687937588789 -0.24625812907891181 0 0.48078136030509599 -0.26884007005042843 0 0.5 -0.27646857865756441 0 0.48078136030509599 -0.26884007005042843 0 0.49039068015254922 -0.29619267976940977 0 0.5 -0.25293022324215048 0 0.5 -0.27646857865756441 0 0.48078136030509599 -0.26884007005042843 0 0.48078136030509599 -0.26884007005042843 0 0.46692190105455472 -0.26783836597731042 0 0.47166515997241099 -0.28726082496060629 0 0.48078136030509599 -0.26884007005042843 0 0.47166515997241099 -0.28726082496060629 0 0.47371889651218219 -0.2487370014827493 0 0.48078136030509599 -0.26884007005042843 0 0.46692190105455472 -0.26783836597731042 0 0.47371889651218219 -0.2487370014827493 0 0.48078136030509599 -0.26884007005042843 0 0.47371889651218219 -0.2487370014827493 0 0.49195687937588789 -0.24625812907891181 0 0.48078136030509599 -0.26884007005042843 0 0.47371889651218219 -0.2487370014827493 0 0.45638490602314452 -0.25715149347717342 0 0.46692190105455472 -0.26783836597731042 0 0.46692190105455472 -0.26783836597731042 0 0.457711104020462 -0.27685875243279617 0 0.47166515997241099 -0.28726082496060629 0 0.45638490602314452 -0.25715149347717342 0 0.46692190105455472 -0.26783836597731042 0 0.457711104020462 -0.27685875243279617 0 0.45638490602314452 -0.25715149347717342 0 0.457711104020462 -0.27685875243279617 0 0.4424056814083836 -0.27390528821591681 0 0.457711104020462 -0.27685875243279617 0 0.4424056814083836 -0.27390528821591681 0 0.44923260553916999 -0.28156456885253162 0 0.4424056814083836 -0.27390528821591681 0 0.44135431075352838 -0.28504466136174239 0 0.43499338819666522 -0.2795710343536848 0 0.4424056814083836 -0.27390528821591681 0 0.44135431075352838 -0.28504466136174239 0 0.44923260553916999 -0.28156456885253162 0 0.45638490602314452 -0.25715149347717342 0 0.4424056814083836 -0.27390528821591681 0 0.43756297283723639 -0.25506191069322409 0 0.44937559604391891 -0.30120099523086658 0 0.44413558996226998 -0.31393935592811478 0 0.43058504361814942 -0.31146828515519581 0 0.44937559604391891 -0.30120099523086658 0 0.4435479504709377 -0.300913999673594 0 0.43058504361814942 -0.31146828515519581 0 0.44937559604391891 -0.30120099523086658 0 0.46254895963972881 -0.30568157987078548 0 0.44413558996226998 -0.31393935592811478 0 0.44937559604391891 -0.30120099523086658 0 0.43058504361814942 -0.31146828515519581 0 0.44937559604391891 -0.30120099523086658 0 0.4435479504709377 -0.300913999673594 0 0.44673336895220878 -0.2955425568609355 0 0.44937559604391891 -0.30120099523086658 0 0.44673336895220878 -0.2955425568609355 0 0.45342627127390311 -0.29586340095960789 0 0.4435479504709377 -0.300913999673594 0 0.43497135088556588 -0.28816604494559839 0 0.4435479504709377 -0.300913999673594 0 0.44301156339517328 -0.29201233577308189 0 0.44673336895220878 -0.2955425568609355 0 0.4435479504709377 -0.300913999673594 0 0.44301156339517328 -0.29201233577308189 0 0.43497135088556588 -0.28816604494559839 0 0.44301156339517328 -0.29201233577308189 0 0.44135431075352838 -0.28504466136174239 0 0.4484508359136255 -0.29039441602353888 0 0.44301156339517328 -0.29201233577308189 0 0.44135431075352838 -0.28504466136174239 0 0.43497135088556588 -0.28816604494559839 0 0.44923260553916999 -0.28156456885253162 0 0.4484508359136255 -0.29039441602353888 0 0.4595012619788047 -0.29303632289935988 0 0.44135431075352838 -0.28504466136174239 0 0.44923260553916999 -0.28156456885253162 0 0.4484508359136255 -0.29039441602353888 0 0.44301156339517328 -0.29201233577308189 0 0.44673336895220878 -0.2955425568609355 0 0.4484508359136255 -0.29039441602353888 0 0.44673336895220878 -0.2955425568609355 0 0.4484508359136255 -0.29039441602353888 0 0.45342627127390311 -0.29586340095960789 0 0.46254895963972881 -0.30568157987078548 0 0.47166515997241099 -0.28726082496060629 0 0.457711104020462 -0.27685875243279617 0 0.44923260553916999 -0.28156456885253162 0 0.4595012619788047 -0.29303632289935988 0 0.4595012619788047 -0.29303632289935988 0 0.46254895963972881 -0.30568157987078548 0 0.47166515997241099 -0.28726082496060629 0 0.4484508359136255 -0.29039441602353888 0 0.4595012619788047 -0.29303632289935988 0 0.45342627127390311 -0.29586340095960789 0 0.457711104020462 -0.27685875243279617 0 0.4595012619788047 -0.29303632289935988 0 0.47166515997241099 -0.28726082496060629 0 0.4595012619788047 -0.29303632289935988 0 0.45342627127390311 -0.29586340095960789 0 0.46254895963972881 -0.30568157987078548 0 0.44937559604391891 -0.30120099523086658 0 0.45342627127390311 -0.29586340095960789 0 0.46254895963972881 -0.30568157987078548 0 0.46254895963972881 -0.30568157987078548 0 0.47637328632681819 -0.30120002001250579 0 0.47166515997241099 -0.28726082496060629 0 0.47637328632681819 -0.30120002001250579 0 0.49039068015254922 -0.29619267976940977 0 0.48088834554258419 -0.31566499544922139 0 0.46254895963972881 -0.30568157987078548 0 0.47637328632681819 -0.30120002001250579 0 0.48088834554258419 -0.31566499544922139 0 0.48078136030509599 -0.26884007005042843 0 0.47166515997241099 -0.28726082496060629 0 0.49039068015254922 -0.29619267976940977 0 0.47637328632681819 -0.30120002001250579 0 0.47166515997241099 -0.28726082496060629 0 0.49039068015254922 -0.29619267976940977 0 0.5 -0.27646857865756441 0 0.49039068015254922 -0.29619267976940977 0 0.5 -0.30000693407297818 0 0.48078136030509599 -0.26884007005042843 0 0.49039068015254922 -0.29619267976940977 0 0.49039068015254922 -0.29619267976940977 0 0.50000000000000022 -0.32354528948839201 0 0.48088834554258419 -0.31566499544922139 0 0.49039068015254922 -0.29619267976940977 0 0.50000000000000022 -0.32354528948839201 0 0.49039068015254922 -0.29619267976940977 0 0.5 -0.30000693407297818 0 0.50000000000000022 -0.32354528948839201 0 0.50000000000000022 -0.32354528948839201 0 0.48851529600822569 -0.33605159810710777 0 0.48088834554258419 -0.31566499544922139 0 0.50000000000000022 -0.32354528948839201 0 0.48851529600822569 -0.33605159810710777 0 0.5 -0.35213716912984472 0 0.48851529600822569 -0.33605159810710777 0 0.47491234637456919 -0.33661554306743041 0 0.48088834554258419 -0.31566499544922139 0 0.47491234637456919 -0.33661554306743041 0 0.47136735484092618 -0.35347374538633008 0 0.46029344080735213 -0.3380128582151477 0 0.48851529600822569 -0.33605159810710777 0 0.47491234637456919 -0.33661554306743041 0 0.4823788533639321 -0.34871573099662928 0 0.47491234637456919 -0.33661554306743041 0 0.48088834554258419 -0.31566499544922139 0 0.46693264099485271 -0.32110437008835502 0 0.46254895963972881 -0.30568157987078548 0 0.48088834554258419 -0.31566499544922139 0 0.46693264099485271 -0.32110437008835502 0 0.48677988336055422 -0.36082108795714563 0 0.5 -0.35213716912984472 0 0.5 -0.38072904877129737 0 0.48677988336055422 -0.36082108795714563 0 0.48547152742100042 -0.38597819350020213 0 0.48677988336055422 -0.36082108795714563 0 0.5 -0.35213716912984472 0 0.4823788533639321 -0.34871573099662928 0 0.48851529600822569 -0.33605159810710777 0 0.5 -0.35213716912984472 0 0.4823788533639321 -0.34871573099662928 0 0.47491234637456919 -0.33661554306743041 0 0.4823788533639321 -0.34871573099662928 0 0.47136735484092618 -0.35347374538633008 0 0.48677988336055422 -0.36082108795714563 0 0.4823788533639321 -0.34871573099662928 0 0.47136735484092618 -0.35347374538633008 0 0.48677988336055422 -0.36082108795714563 0 0.46967985974134702 -0.37016718822746608 0 0.48547152742100042 -0.38597819350020213 0 0.48677988336055422 -0.36082108795714563 0 0.47136735484092618 -0.35347374538633008 0 0.46967985974134702 -0.37016718822746608 0 0.47136735484092618 -0.35347374538633008 0 0.46967985974134702 -0.37016718822746608 0 0.4551794022833604 -0.35628951230254491 0 0.46967985974134702 -0.37016718822746608 0 0.4551794022833604 -0.35628951230254491 0 0.44669292513219061 -0.37695801552449332 0 0.47136735484092618 -0.35347374538633008 0 0.4551794022833604 -0.35628951230254491 0 0.46029344080735213 -0.3380128582151477 0 0.4551794022833604 -0.35628951230254491 0 0.46029344080735213 -0.3380128582151477 0 0.44526895539350753 -0.34057769797159021 0 0.4551794022833604 -0.35628951230254491 0 0.43926477257684587 -0.35514891415589139 0 0.44526895539350753 -0.34057769797159021 0 0.4551794022833604 -0.35628951230254491 0 0.43926477257684587 -0.35514891415589139 0 0.44669292513219061 -0.37695801552449332 0 0.46254895963972881 -0.30568157987078548 0 0.46693264099485271 -0.32110437008835502 0 0.45343275930704652 -0.32410233478096467 0 0.46254895963972881 -0.30568157987078548 0 0.45343275930704652 -0.32410233478096467 0 0.44413558996226998 -0.31393935592811478 0 0.46254895963972881 -0.30568157987078548 0 0.45343275930704652 -0.32410233478096467 0 0.46693264099485271 -0.32110437008835502 0 0.45343275930704652 -0.32410233478096467 0 0.46029344080735213 -0.3380128582151477 0 0.47491234637456919 -0.33661554306743041 0 0.46693264099485271 -0.32110437008835502 0 0.46029344080735213 -0.3380128582151477 0 0.45343275930704652 -0.32410233478096467 0 0.46029344080735213 -0.3380128582151477 0 0.44526895539350753 -0.34057769797159021 0 0.45343275930704652 -0.32410233478096467 0 0.44526895539350753 -0.34057769797159021 0 0.44011503016486669 -0.32550409765248473 0 0.44526895539350753 -0.34057769797159021 0 0.44011503016486669 -0.32550409765248473 0 0.42715280254336002 -0.33743281442655798 0 0.45343275930704652 -0.32410233478096467 0 0.44011503016486669 -0.32550409765248473 0 0.44413558996226998 -0.31393935592811478 0 0.44011503016486669 -0.32550409765248473 0 0.44413558996226998 -0.31393935592811478 0 0.43058504361814942 -0.31146828515519581 0 0.44011503016486669 -0.32550409765248473 0 0.42715280254336002 -0.33743281442655798 0 0.43058504361814942 -0.31146828515519581 0 0.42715280254336002 -0.33743281442655798 0 0.43058504361814942 -0.31146828515519581 0 0.42715280254336002 -0.33743281442655798 0 0.4152552434246064 -0.31984459573418672 0 0.43058504361814942 -0.31146828515519581 0 0.4152552434246064 -0.31984459573418672 0 0.43058504361814942 -0.31146828515519581 0 0.4152552434246064 -0.31984459573418672 0 0.43058504361814942 -0.31146828515519581 0 0.42197392821585711 -0.3065136011248869 0 0.42715280254336002 -0.33743281442655798 0 0.41251402854579328 -0.33348501705474448 0 0.4067822014109943 -0.34742663932262341 0 0.42715280254336002 -0.33743281442655798 0 0.41251402854579328 -0.33348501705474448 0 0.4152552434246064 -0.31984459573418672 0 0.41251402854579328 -0.33348501705474448 0 0.4067822014109943 -0.34742663932262341 0 0.39992544323106399 -0.3282209063131788 0 0.4152552434246064 -0.31984459573418672 0 0.39992544323106399 -0.3282209063131788 0 0.41251402854579328 -0.33348501705474448 0 0.4152552434246064 -0.31984459573418672 0 0.39992544323106399 -0.3282209063131788 0 0.4152552434246064 -0.31984459573418672 0 0.39992544323106399 -0.3282209063131788 0 0.41202657656190211 -0.31018934859101571 0 0.43926477257684587 -0.35514891415589139 0 0.42372056146856918 -0.36339734369791987 0 0.44669292513219061 -0.37695801552449332 0 0.42715280254336002 -0.33743281442655798 0 0.42372056146856918 -0.36339734369791987 0 0.43926477257684587 -0.35514891415589139 0 0.44526895539350753 -0.34057769797159021 0 0.42715280254336002 -0.33743281442655798 0 0.43926477257684587 -0.35514891415589139 0 0.42715280254336002 -0.33743281442655798 0 0.42372056146856918 -0.36339734369791987 0 0.42715280254336002 -0.33743281442655798 0 0.42372056146856918 -0.36339734369791987 0 0.4067822014109943 -0.34742663932262341 0 0.42372056146856918 -0.36339734369791987 0 0.4067822014109943 -0.34742663932262341 0 0.39582897825467389 -0.36386063096252791 0 0.42372056146856918 -0.36339734369791987 0 0.39582897825467389 -0.36386063096252791 0 0.39804232549897628 -0.38091864675304238 0 0.4067822014109943 -0.34742663932262341 0 0.39582897825467389 -0.36386063096252791 0 0.38340187535638232 -0.35284220910876829 0 0.38340187535638232 -0.35284220910876829 0 0.36687830748170119 -0.37746351190435812 0 0.39582897825467389 -0.36386063096252791 0 0.39804232549897628 -0.38091864675304238 0 0.36687830748170119 -0.37746351190435812 0 0.39582897825467389 -0.36386063096252791 0 0.38340187535638232 -0.35284220910876829 0 0.36687830748170119 -0.37746351190435812 0 0.39992544323106399 -0.3282209063131788 0 0.41202657656190211 -0.31018934859101571 0 0.39992544323106399 -0.3282209063131788 0 0.4000478473225324 -0.31110654828200879 0 0.41202657656190211 -0.31018934859101571 0 0.39224842679558758 -0.31869019435519319 0 0.39992544323106399 -0.3282209063131788 0 0.38117582617505552 -0.32510628498508087 0 0.39224842679558758 -0.31869019435519319 0 0.39992544323106399 -0.3282209063131788 0 0.4000478473225324 -0.31110654828200879 0 0.39224842679558758 -0.31869019435519319 0 0.38689763121207821 -0.30772679202414682 0 0.4000478473225324 -0.31110654828200879 0 0.38340187535638232 -0.35284220910876829 0 0.39992544323106399 -0.3282209063131788 0 0.4067822014109943 -0.34742663932262341 0 0.38340187535638232 -0.35284220910876829 0 0.39992544323106399 -0.3282209063131788 0 0.39992544323106399 -0.3282209063131788 0 0.37366903975347943 -0.34256758972972229 0 0.38340187535638232 -0.35284220910876829 0 0.39992544323106399 -0.3282209063131788 0 0.37366903975347943 -0.34256758972972229 0 0.39992544323106399 -0.3282209063131788 0 0.38117582617505552 -0.32510628498508087 0 0.37366903975347943 -0.34256758972972229 0 0.38117582617505552 -0.32510628498508087 0 0.38689763121207821 -0.30772679202414682 0 0.37219226040532771 -0.31334382324257581 0 0.39224842679558758 -0.31869019435519319 0 0.38117582617505552 -0.32510628498508087 0 0.38689763121207821 -0.30772679202414682 0 0.38689763121207821 -0.30772679202414682 0 0.36956577276930203 -0.29617820675167411 0 0.37219226040532771 -0.31334382324257581 0 0.38689763121207821 -0.30772679202414682 0 0.38931301422172898 -0.29238665246038298 0 0.36956577276930203 -0.29617820675167411 0 0.38689763121207821 -0.30772679202414682 0 0.40135500008854141 -0.2997530462244411 0 0.4000478473225324 -0.31110654828200879 0 0.38689763121207821 -0.30772679202414682 0 0.40135500008854141 -0.2997530462244411 0 0.38931301422172898 -0.29238665246038298 0 0.40624593447964358 -0.3058791288191906 0 0.4000478473225324 -0.31110654828200879 0 0.41202657656190211 -0.31018934859101571 0 0.40135500008854141 -0.2997530462244411 0 0.40624593447964358 -0.3058791288191906 0 0.4000478473225324 -0.31110654828200879 0 0.4032488471478633 -0.28765960677769947 0 0.39446564727815958 -0.2792625064581466 0 0.40286262396494621 -0.27997156856717192 0 0.4032488471478633 -0.28765960677769947 0 0.40286262396494621 -0.27997156856717192 0 0.40946202117596209 -0.28020830942009561 0 0.40135500008854141 -0.2997530462244411 0 0.4032488471478633 -0.28765960677769947 0 0.40979231016693329 -0.29301935006036772 0 0.40135500008854141 -0.2997530462244411 0 0.4032488471478633 -0.28765960677769947 0 0.38931301422172898 -0.29238665246038298 0 0.4032488471478633 -0.28765960677769947 0 0.38931301422172898 -0.29238665246038298 0 0.39446564727815958 -0.2792625064581466 0 0.38931301422172898 -0.29238665246038298 0 0.38225668983245609 -0.27759582712849662 0 0.36956577276930203 -0.29617820675167411 0 0.38931301422172898 -0.29238665246038298 0 0.38225668983245609 -0.27759582712849662 0 0.39446564727815958 -0.2792625064581466 0 0.38225668983245609 -0.27759582712849662 0 0.38707902688018642 -0.26739107182117672 0 0.37686302842415381 -0.26152495457731839 0 0.38225668983245609 -0.27759582712849662 0 0.38707902688018642 -0.26739107182117672 0 0.39446564727815958 -0.2792625064581466 0 0.37778092624594778 -0.24313624425873381 0 0.38972013589370658 -0.24860602692987729 0 0.37686302842415381 -0.26152495457731839 0 0.38707902688018642 -0.26739107182117672 0 0.37686302842415381 -0.26152495457731839 0 0.39205337628062148 -0.25879484303050598 0 0.38972013589370658 -0.24860602692987729 0 0.37686302842415381 -0.26152495457731839 0 0.39205337628062148 -0.25879484303050598 0 0.38972013589370658 -0.24860602692987729 0 0.39806170646907491 -0.25157951124394029 0 0.39205337628062148 -0.25879484303050598 0 0.39806170646907491 -0.25157951124394029 0 0.39205337628062148 -0.25879484303050598 0 0.40203248969573657 -0.26107825823795461 0 0.39205337628062148 -0.25879484303050598 0 0.40203248969573657 -0.26107825823795461 0 0.39599322808350368 -0.26717442426334509 0 0.38707902688018642 -0.26739107182117672 0 0.39205337628062148 -0.25879484303050598 0 0.39599322808350368 -0.26717442426334509 0 0.39806170646907491 -0.25157951124394029 0 0.40203248969573657 -0.26107825823795461 0 0.40989247196553152 -0.25088968501773468 0 0.38707902688018642 -0.26739107182117672 0 0.39446564727815958 -0.2792625064581466 0 0.39599322808350368 -0.26717442426334509 0 0.39446564727815958 -0.2792625064581466 0 0.39599322808350368 -0.26717442426334509 0 0.40460597239764662 -0.27226177304157051 0 0.40203248969573657 -0.26107825823795461 0 0.39599322808350368 -0.26717442426334509 0 0.40460597239764662 -0.27226177304157051 0 0.40203248969573657 -0.26107825823795461 0 0.40460597239764662 -0.27226177304157051 0 0.40809912509282731 -0.26388713951026271 0 0.40460597239764662 -0.27226177304157051 0 0.40286262396494621 -0.27997156856717192 0 0.40946202117596209 -0.28020830942009561 0 0.39446564727815958 -0.2792625064581466 0 0.40460597239764662 -0.27226177304157051 0 0.40286262396494621 -0.27997156856717192 0 0.41586556631239457 -0.27131884174379112 0 0.40989247196553152 -0.25088968501773468 0 0.426394751300194 -0.27541809021760311 0 0.40460597239764662 -0.27226177304157051 0 0.40946202117596209 -0.28020830942009561 0 0.41586556631239457 -0.27131884174379112 0 0.40946202117596209 -0.28020830942009561 0 0.41586556631239457 -0.27131884174379112 0 0.41649747145223598 -0.28046662460143601 0 0.40460597239764662 -0.27226177304157051 0 0.41586556631239457 -0.27131884174379112 0 0.40809912509282731 -0.26388713951026271 0 0.41586556631239457 -0.27131884174379112 0 0.41649747145223598 -0.28046662460143601 0 0.426394751300194 -0.27541809021760311 0 0.40989247196553152 -0.25088968501773468 0 0.426394751300194 -0.27541809021760311 0 0.40989247196553152 -0.25088968501773468 0 0.42344816315553618 -0.2564582277960093 0 0.426394751300194 -0.27541809021760311 0 0.41586556631239457 -0.27131884174379112 0 0.40989247196553152 -0.25088968501773468 0 0.40809912509282731 -0.26388713951026271 0 0.40203248969573657 -0.26107825823795461 0 0.40989247196553152 -0.25088968501773468 0 0.40809912509282731 -0.26388713951026271 0 0.41666327931018488 -0.24963737924160931 0 0.40989247196553152 -0.25088968501773468 0 0.42344816315553618 -0.2564582277960093 0 0.43756297283723639 -0.25506191069322409 0 0.42344816315553618 -0.2564582277960093 0 0.426394751300194 -0.27541809021760311 0 0.43756297283723639 -0.25506191069322409 0 0.426394751300194 -0.27541809021760311 0 0.43756297283723639 -0.25506191069322409 0 0.42344816315553618 -0.2564582277960093 0 0.42689480477342839 -0.25068783913870613 0 0.41666327931018488 -0.24963737924160931 0 0.42344816315553618 -0.2564582277960093 0 0.42689480477342839 -0.25068783913870613 0 0.4424056814083836 -0.27390528821591681 0 0.426394751300194 -0.27541809021760311 0 0.43499338819666522 -0.2795710343536848 0 0.4424056814083836 -0.27390528821591681 0 0.43756297283723639 -0.25506191069322409 0 0.426394751300194 -0.27541809021760311 0 0.426394751300194 -0.27541809021760311 0 0.43499338819666522 -0.2795710343536848 0 0.43497135088556588 -0.28816604494559839 0 0.426394751300194 -0.27541809021760311 0 0.43497135088556588 -0.28816604494559839 0 0.44135431075352838 -0.28504466136174239 0 0.43499338819666522 -0.2795710343536848 0 0.43497135088556588 -0.28816604494559839 0 0.426394751300194 -0.27541809021760311 0 0.42766464664089748 -0.28849672944256483 0 0.41897453262289619 -0.28894283119844988 0 0.426394751300194 -0.27541809021760311 0 0.41897453262289619 -0.28894283119844988 0 0.426394751300194 -0.27541809021760311 0 0.43497135088556588 -0.28816604494559839 0 0.42766464664089748 -0.28849672944256483 0 0.42766464664089748 -0.28849672944256483 0 0.42412770989274068 -0.29215779086885302 0 0.41897453262289619 -0.28894283119844988 0 0.42766464664089748 -0.28849672944256483 0 0.42412770989274068 -0.29215779086885302 0 0.4284072664903642 -0.293185113322043 0 0.4284072664903642 -0.293185113322043 0 0.43300777747056712 -0.29314056788329118 0 0.42764124337414722 -0.29928705931476413 0 0.42412770989274068 -0.29215779086885302 0 0.4284072664903642 -0.293185113322043 0 0.42764124337414722 -0.29928705931476413 0 0.4435479504709377 -0.300913999673594 0 0.43497135088556588 -0.28816604494559839 0 0.43300777747056712 -0.29314056788329118 0 0.43497135088556588 -0.28816604494559839 0 0.42766464664089748 -0.28849672944256483 0 0.43300777747056712 -0.29314056788329118 0 0.42766464664089748 -0.28849672944256483 0 0.4284072664903642 -0.293185113322043 0 0.43300777747056712 -0.29314056788329118 0 0.4435479504709377 -0.300913999673594 0 0.43300777747056712 -0.29314056788329118 0 0.43058504361814942 -0.31146828515519581 0 0.43300777747056712 -0.29314056788329118 0 0.43058504361814942 -0.31146828515519581 0 0.42764124337414722 -0.29928705931476413 0 0.43300777747056712 -0.29314056788329118 0 0.43058504361814942 -0.31146828515519581 0 0.43058504361814942 -0.31146828515519581 0 0.42197392821585711 -0.3065136011248869 0 0.42764124337414722 -0.29928705931476413 0 0.42412770989274068 -0.29215779086885302 0 0.42197392821585711 -0.3065136011248869 0 0.42764124337414722 -0.29928705931476413 0 0.42412770989274068 -0.29215779086885302 0 0.41202657656190211 -0.31018934859101571 0 0.42412770989274068 -0.29215779086885302 0 0.42197392821585711 -0.3065136011248869 0 0.41202657656190211 -0.31018934859101571 0 0.42412770989274068 -0.29215779086885302 0 0.41202657656190211 -0.31018934859101571 0 0.4115543139455986 -0.30246757217929687 0 0.4152552434246064 -0.31984459573418672 0 0.42197392821585711 -0.3065136011248869 0 0.41202657656190211 -0.31018934859101571 0 0.40624593447964358 -0.3058791288191906 0 0.41202657656190211 -0.31018934859101571 0 0.4115543139455986 -0.30246757217929687 0 0.40135500008854141 -0.2997530462244411 0 0.40624593447964358 -0.3058791288191906 0 0.4115543139455986 -0.30246757217929687 0 0.40135500008854141 -0.2997530462244411 0 0.4115543139455986 -0.30246757217929687 0 0.40979231016693329 -0.29301935006036772 0 0.4115543139455986 -0.30246757217929687 0 0.40979231016693329 -0.29301935006036772 0 0.41897453262289619 -0.28894283119844988 0 0.40979231016693329 -0.29301935006036772 0 0.41179048584973321 -0.28644505042724028 0 0.41897453262289619 -0.28894283119844988 0 0.4032488471478633 -0.28765960677769947 0 0.40979231016693329 -0.29301935006036772 0 0.41179048584973321 -0.28644505042724028 0 0.4032488471478633 -0.28765960677769947 0 0.40946202117596209 -0.28020830942009561 0 0.41179048584973321 -0.28644505042724028 0 0.40946202117596209 -0.28020830942009561 0 0.41649747145223598 -0.28046662460143601 0 0.41179048584973321 -0.28644505042724028 0 0.41649747145223598 -0.28046662460143601 0 0.426394751300194 -0.27541809021760311 0 0.41897453262289619 -0.28894283119844988 0 0.41649747145223598 -0.28046662460143601 0 0.41179048584973321 -0.28644505042724028 0 0.41897453262289619 -0.28894283119844988 0 0.42412770989274068 -0.29215779086885302 0 0.4115543139455986 -0.30246757217929687 0 0.41897453262289619 -0.28894283119844988 0 0.4115543139455986 -0.30246757217929687 0 0.41897453262289619 -0.28894283119844988 0 0.5 -0.5 0 0.47552091673434838 -0.48052264680798079 0 0.41641988850815631 -0.50000000000000355 0 0.45020963578890061 -0.47770585891504708 0 0.47552091673434838 -0.48052264680798079 0 0.41641988850815631 -0.50000000000000355 0 0.45020963578890061 -0.47770585891504708 0 0.4550973194095439 -0.45682729964429503 0 0.43596987244984908 -0.47817782673246029 0 0.43753353570114611 -0.48017405777008881 0 0.45020963578890061 -0.47770585891504708 0 0.43596987244984908 -0.47817782673246029 0 0.45020963578890061 -0.47770585891504708 0 0.47552091673434838 -0.48052264680798079 0 0.4550973194095439 -0.45682729964429503 0 0.5 -0.5 0 0.47552091673434838 -0.48052264680798079 0 0.4821445479204568 -0.44994945078918402 0 0.5 -0.5 0 0.49999999999999828 -0.43791280805420252 0 0.4821445479204568 -0.44994945078918402 0 0.47552091673434838 -0.48052264680798079 0 0.4821445479204568 -0.44994945078918402 0 0.4550973194095439 -0.45682729964429503 0 0.49999999999999828 -0.43791280805420252 0 0.4821445479204568 -0.44994945078918402 0 0.48285481554189302 -0.43629240458631552 0 0.4821445479204568 -0.44994945078918402 0 0.4550973194095439 -0.45682729964429503 0 0.47422476636923899 -0.43547677255612999 0 0.4821445479204568 -0.44994945078918402 0 0.47422476636923899 -0.43547677255612999 0 0.48285481554189302 -0.43629240458631552 0 0.4821445479204568 -0.44994945078918402 0 0.48285481554189302 -0.43629240458631552 0 0.4550973194095439 -0.45682729964429503 0 0.44533597927511148 -0.4327464729256511 0 0.47422476636923899 -0.43547677255612999 0 0.4550973194095439 -0.45682729964429503 0 0.47422476636923899 -0.43547677255612999 0 0.4550973194095439 -0.45682729964429503 0 0.43596987244984908 -0.47817782673246029 0 0.4550973194095439 -0.45682729964429503 0 0.44533597927511148 -0.4327464729256511 0 0.42527690835835291 -0.43723135119112189 0 0.44533597927511148 -0.4327464729256511 0 0.44379619833535378 -0.41236773953628092 0 0.46148860585588042 -0.41478814978291789 0 0.44379619833535378 -0.41236773953628092 0 0.46148860585588042 -0.41478814978291789 0 0.45549187594694079 -0.39845495145942122 0 0.46148860585588042 -0.41478814978291789 0 0.47262234643958911 -0.41132597018854988 0 0.47051843857880388 -0.40022104922816742 0 0.46148860585588042 -0.41478814978291789 0 0.46750183444605392 -0.42743841646637698 0 0.47528976510788212 -0.4204269174628833 0 0.44533597927511148 -0.4327464729256511 0 0.46148860585588042 -0.41478814978291789 0 0.46750183444605392 -0.42743841646637698 0 0.44533597927511148 -0.4327464729256511 0 0.46750183444605392 -0.42743841646637698 0 0.47422476636923899 -0.43547677255612999 0 0.44533597927511148 -0.4327464729256511 0 0.47422476636923899 -0.43547677255612999 0 0.47622808041963599 -0.433240624104681 0 0.48285481554189302 -0.43629240458631552 0 0.47528976510788212 -0.4204269174628833 0 0.46750183444605392 -0.42743841646637698 0 0.47622808041963599 -0.433240624104681 0 0.47422476636923899 -0.43547677255612999 0 0.48285481554189302 -0.43629240458631552 0 0.48416317148144672 -0.41113529904325868 0 0.47528976510788212 -0.4204269174628833 0 0.48285481554189302 -0.43629240458631552 0 0.48416317148144672 -0.41113529904325868 0 0.47622808041963599 -0.433240624104681 0 0.47422476636923899 -0.43547677255612999 0 0.46750183444605392 -0.42743841646637698 0 0.47622808041963599 -0.433240624104681 0 0.47528976510788212 -0.4204269174628833 0 0.47422476636923899 -0.43547677255612999 0 0.48285481554189302 -0.43629240458631552 0 0.47622808041963599 -0.433240624104681 0 0.47422476636923899 -0.43547677255612999 0 0.48285481554189302 -0.43629240458631552 0 0.49999999999999828 -0.43791280805420252 0 0.49175449675583449 -0.42366536002413102 0 0.5 -0.40932092841274992 0 0.49999999999999828 -0.43791280805420252 0 0.48285481554189302 -0.43629240458631552 0 0.49175449675583449 -0.42366536002413102 0 0.48285481554189302 -0.43629240458631552 0 0.49175449675583449 -0.42366536002413102 0 0.48416317148144672 -0.41113529904325868 0 0.49999999999999828 -0.43791280805420252 0 0.48285481554189302 -0.43629240458631552 0 0.49175449675583449 -0.42366536002413102 0 0.5 -0.40932092841274992 0 0.48416317148144672 -0.41113529904325868 0 0.48416317148144672 -0.41113529904325868 0 0.47528976510788212 -0.4204269174628833 0 0.47262234643958911 -0.41132597018854988 0 0.46148860585588042 -0.41478814978291789 0 0.47528976510788212 -0.4204269174628833 0 0.47262234643958911 -0.41132597018854988 0 0.48416317148144672 -0.41113529904325868 0 0.47262234643958911 -0.41132597018854988 0 0.47051843857880388 -0.40022104922816742 0 0.48416317148144672 -0.41113529904325868 0 0.47051843857880388 -0.40022104922816742 0 0.48547152742100042 -0.38597819350020213 0 0.47051843857880388 -0.40022104922816742 0 0.48547152742100042 -0.38597819350020213 0 0.46557092536405648 -0.38635587958794998 0 0.5 -0.40932092841274992 0 0.48416317148144672 -0.41113529904325868 0 0.48547152742100042 -0.38597819350020213 0 0.5 -0.40932092841274992 0 0.48547152742100042 -0.38597819350020213 0 0.5 -0.38072904877129737 0 0.48416317148144672 -0.41113529904325868 0 0.48547152742100042 -0.38597819350020213 0 0.48677988336055422 -0.36082108795714563 0 0.48547152742100042 -0.38597819350020213 0 0.5 -0.38072904877129737 0 0.46967985974134702 -0.37016718822746608 0 0.48547152742100042 -0.38597819350020213 0 0.46557092536405648 -0.38635587958794998 0 0.46557092536405648 -0.38635587958794998 0 0.45549187594694079 -0.39845495145942122 0 0.44669292513219061 -0.37695801552449332 0 0.46967985974134702 -0.37016718822746608 0 0.46557092536405648 -0.38635587958794998 0 0.44669292513219061 -0.37695801552449332 0 0.46148860585588042 -0.41478814978291789 0 0.47051843857880388 -0.40022104922816742 0 0.45549187594694079 -0.39845495145942122 0 0.47051843857880388 -0.40022104922816742 0 0.46557092536405648 -0.38635587958794998 0 0.45549187594694079 -0.39845495145942122 0 0.45549187594694079 -0.39845495145942122 0 0.44669292513219061 -0.37695801552449332 0 0.43648421544511351 -0.39830975532828311 0 0.44379619833535378 -0.41236773953628092 0 0.45549187594694079 -0.39845495145942122 0 0.43648421544511351 -0.39830975532828311 0 0.44669292513219061 -0.37695801552449332 0 0.43648421544511351 -0.39830975532828311 0 0.4202883203937785 -0.38936187296928182 0 0.42372056146856918 -0.36339734369791987 0 0.44669292513219061 -0.37695801552449332 0 0.4202883203937785 -0.38936187296928182 0 0.42372056146856918 -0.36339734369791987 0 0.4202883203937785 -0.38936187296928182 0 0.43648421544511351 -0.39830975532828311 0 0.4202883203937785 -0.38936187296928182 0 0.42005202006761022 -0.41500959524021408 0 0.4202883203937785 -0.38936187296928182 0 0.40094864370310768 -0.39870542013910648 0 0.42005202006761022 -0.41500959524021408 0 0.4202883203937785 -0.38936187296928182 0 0.39804232549897628 -0.38091864675304238 0 0.40094864370310768 -0.39870542013910648 0 0.42372056146856918 -0.36339734369791987 0 0.4202883203937785 -0.38936187296928182 0 0.39804232549897628 -0.38091864675304238 0 0.39804232549897628 -0.38091864675304238 0 0.3839260649417684 -0.39613747676743177 0 0.36687830748170119 -0.37746351190435812 0 0.3839260649417684 -0.39613747676743177 0 0.40094864370310768 -0.39870542013910648 0 0.38596348309549389 -0.41433779824392603 0 0.39804232549897628 -0.38091864675304238 0 0.3839260649417684 -0.39613747676743177 0 0.40094864370310768 -0.39870542013910648 0 0.38596348309549389 -0.41433779824392603 0 0.4026322795469468 -0.43561780774010322 0 0.42005202006761022 -0.41500959524021408 0 0.40094864370310768 -0.39870542013910648 0 0.38596348309549389 -0.41433779824392603 0 0.42005202006761022 -0.41500959524021408 0 0.3839260649417684 -0.39613747676743177 0 0.38596348309549389 -0.41433779824392603 0 0.36928065296100399 -0.40873123841504022 0 0.38596348309549389 -0.41433779824392603 0 0.37814603850010442 -0.43338254181182018 0 0.36928065296100399 -0.40873123841504022 0 0.38596348309549389 -0.41433779824392603 0 0.37814603850010442 -0.43338254181182018 0 0.4026322795469468 -0.43561780774010322 0 0.38596348309549389 -0.41433779824392603 0 0.4026322795469468 -0.43561780774010322 0 0.4026322795469468 -0.43561780774010322 0 0.42005202006761022 -0.41500959524021408 0 0.42527690835835291 -0.43723135119112189 0 0.44533597927511148 -0.4327464729256511 0 0.44379619833535378 -0.41236773953628092 0 0.42005202006761022 -0.41500959524021408 0 0.44379619833535378 -0.41236773953628092 0 0.43648421544511351 -0.39830975532828311 0 0.42005202006761022 -0.41500959524021408 0 0.44533597927511148 -0.4327464729256511 0 0.42005202006761022 -0.41500959524021408 0 0.42527690835835291 -0.43723135119112189 0 0.4550973194095439 -0.45682729964429503 0 0.42527690835835291 -0.43723135119112189 0 0.41930107599839972 -0.45689781723628042 0 0.4550973194095439 -0.45682729964429503 0 0.41930107599839972 -0.45689781723628042 0 0.43596987244984908 -0.47817782673246029 0 0.41930107599839972 -0.45689781723628042 0 0.43596987244984908 -0.47817782673246029 0 0.4026322795469468 -0.43561780774010322 0 0.41930107599839972 -0.45689781723628042 0 0.4026322795469468 -0.43561780774010322 0 0.42527690835835291 -0.43723135119112189 0 0.41930107599839972 -0.45689781723628042 0 0.41930107599839972 -0.45689781723628042 0 0.38523855334661727 -0.45100240318804019 0 0.39186590909152452 -0.4724153432690904 0 0.4026322795469468 -0.43561780774010322 0 0.41930107599839972 -0.45689781723628042 0 0.38523855334661727 -0.45100240318804019 0 0.37814603850010442 -0.43338254181182018 0 0.4026322795469468 -0.43561780774010322 0 0.38523855334661727 -0.45100240318804019 0 0.37814603850010442 -0.43338254181182018 0 0.38523855334661727 -0.45100240318804019 0 0.36626204538194929 -0.45019281858338051 0 0.38523855334661727 -0.45100240318804019 0 0.37429565078029042 -0.46588338160399417 0 0.36626204538194929 -0.45019281858338051 0 0.38523855334661727 -0.45100240318804019 0 0.39186590909152452 -0.4724153432690904 0 0.37429565078029042 -0.46588338160399417 0 0.39186590909152452 -0.4724153432690904 0 0.38745057946837358 -0.5 0 0.41057473913393272 -0.48050564635427601 0 0.39186590909152452 -0.4724153432690904 0 0.37378396251326662 -0.48291038112254392 0 0.37429565078029042 -0.46588338160399417 0 0.39186590909152452 -0.4724153432690904 0 0.38745057946837358 -0.5 0 0.37378396251326662 -0.48291038112254392 0 0.38745057946837358 -0.5 0 0.41641988850815631 -0.50000000000000355 0 0.41057473913393272 -0.48050564635427601 0 0.41641988850815631 -0.50000000000000355 0 0.41057473913393272 -0.48050564635427601 0 0.43596987244984908 -0.47817782673246029 0 0.43753353570114611 -0.48017405777008881 0 0.45020963578890061 -0.47770585891504708 0 0.41641988850815631 -0.50000000000000355 0 0.41930107599839972 -0.45689781723628042 0 0.39186590909152452 -0.4724153432690904 0 0.41057473913393272 -0.48050564635427601 0 0.41930107599839972 -0.45689781723628042 0 0.41057473913393272 -0.48050564635427601 0 0.43596987244984908 -0.47817782673246029 0 0.43753353570114611 -0.48017405777008881 0 0.43596987244984908 -0.47817782673246029 0 0.41641988850815631 -0.50000000000000355 0 0.43596987244984908 -0.47817782673246029 0 0.43753353570114611 -0.48017405777008881 0 0.41641988850815631 -0.50000000000000355 0 0.43596987244984908 -0.47817782673246029 0 0.31961712169918832 -0.49111642676834921 0 0.32868085578442918 -0.4732032317704426 0 0.32951196138880862 -0.49999999999999523 0 0.31961712169918832 -0.49111642676834921 0 0.30912953980976532 -0.48294107650319518 0 0.30972228200957203 -0.49999999999999978 0 0.31961712169918832 -0.49111642676834921 0 0.32951196138880862 -0.49999999999999523 0 0.30972228200957203 -0.49999999999999978 0 0.31961712169918832 -0.49111642676834921 0 0.31775189083149319 -0.47866030730123421 0 0.32868085578442918 -0.4732032317704426 0 0.31961712169918832 -0.49111642676834921 0 0.31775189083149319 -0.47866030730123421 0 0.30912953980976532 -0.48294107650319518 0 0.31775189083149319 -0.47866030730123421 0 0.31358004603259032 -0.46738049416294969 0 0.30912953980976532 -0.48294107650319518 0 0.31775189083149319 -0.47866030730123421 0 0.32868085578442918 -0.4732032317704426 0 0.31358004603259032 -0.46738049416294969 0 0.32868085578442918 -0.4732032317704426 0 0.32951196138880862 -0.49999999999999523 0 0.35432778356809458 -0.47289596185691601 0 0.32868085578442918 -0.4732032317704426 0 0.32951196138880862 -0.49999999999999523 0 0.32951196138880862 -0.49999999999999523 0 0.35848127042859113 -0.5 0 0.35432778356809458 -0.47289596185691601 0 0.38745057946837358 -0.5 0 0.35848127042859113 -0.5 0 0.37378396251326662 -0.48291038112254392 0 0.35848127042859113 -0.5 0 0.37378396251326662 -0.48291038112254392 0 0.35432778356809458 -0.47289596185691601 0 0.37378396251326662 -0.48291038112254392 0 0.35432778356809458 -0.47289596185691601 0 0.37429565078029042 -0.46588338160399417 0 0.35432778356809458 -0.47289596185691601 0 0.36626204538194929 -0.45019281858338051 0 0.34705589778099838 -0.44829964106213538 0 0.35432778356809458 -0.47289596185691601 0 0.37429565078029042 -0.46588338160399417 0 0.36626204538194929 -0.45019281858338051 0 0.36626204538194929 -0.45019281858338051 0 0.34705589778099838 -0.44829964106213538 0 0.36626204538194929 -0.45019281858338051 0 0.34705589778099838 -0.44829964106213538 0 0.35895787120103861 -0.42592406118424619 0 0.34705589778099838 -0.44829964106213538 0 0.32784975018004747 -0.44640646354088992 0 0.34705589778099838 -0.44829964106213538 0 0.32784975018004747 -0.44640646354088992 0 0.34224745735555839 -0.42846740771329278 0 0.32868085578442918 -0.4732032317704426 0 0.32784975018004747 -0.44640646354088992 0 0.32868085578442918 -0.4732032317704426 0 0.34705589778099838 -0.44829964106213538 0 0.32784975018004747 -0.44640646354088992 0 0.32868085578442918 -0.4732032317704426 0 0.35432778356809458 -0.47289596185691601 0 0.34705589778099838 -0.44829964106213538 0 0.32868085578442918 -0.4732032317704426 0 0.31358004603259032 -0.46738049416294969 0 0.32784975018004747 -0.44640646354088992 0 0.32784975018004747 -0.44640646354088992 0 0.31490500923565312 -0.43251325891487991 0 0.30962196598569203 -0.44460972470414639 0 0.32784975018004747 -0.44640646354088992 0 0.30962196598569203 -0.44460972470414639 0 0.31358004603259032 -0.46738049416294969 0 0.32784975018004747 -0.44640646354088992 0 0.30962196598569203 -0.44460972470414639 0 0.32784975018004747 -0.44640646354088992 0 0.31490500923565312 -0.43251325891487991 0 0.32701902800868732 -0.41962205807924469 0 0.32784975018004747 -0.44640646354088992 0 0.32701902800868732 -0.41962205807924469 0 0.31490500923565312 -0.43251325891487991 0 0.32701902800868732 -0.41962205807924469 0 0.30865778535040211 -0.41702698134929522 0 0.32701902800868732 -0.41962205807924469 0 0.32618830583732489 -0.3928376526175994 0 0.30865778535040211 -0.41702698134929522 0 0.32701902800868732 -0.41962205807924469 0 0.34224745735555839 -0.42846740771329278 0 0.35035473960702013 -0.40208481469994789 0 0.32784975018004747 -0.44640646354088992 0 0.32701902800868732 -0.41962205807924469 0 0.34224745735555839 -0.42846740771329278 0 0.34705589778099838 -0.44829964106213538 0 0.34224745735555839 -0.42846740771329278 0 0.35895787120103861 -0.42592406118424619 0 0.37814603850010442 -0.43338254181182018 0 0.35895787120103861 -0.42592406118424619 0 0.36928065296100399 -0.40873123841504022 0 0.37814603850010442 -0.43338254181182018 0 0.36626204538194929 -0.45019281858338051 0 0.35895787120103861 -0.42592406118424619 0 0.35895787120103861 -0.42592406118424619 0 0.36928065296100399 -0.40873123841504022 0 0.35035473960702013 -0.40208481469994789 0 0.34224745735555839 -0.42846740771329278 0 0.35895787120103861 -0.42592406118424619 0 0.35035473960702013 -0.40208481469994789 0 0.3839260649417684 -0.39613747676743177 0 0.36928065296100399 -0.40873123841504022 0 0.36687830748170119 -0.37746351190435812 0 0.36928065296100399 -0.40873123841504022 0 0.35035473960702013 -0.40208481469994789 0 0.36687830748170119 -0.37746351190435812 0 0.35035473960702013 -0.40208481469994789 0 0.36687830748170119 -0.37746351190435812 0 0.3408526051493872 -0.37811939125700672 0 0.35035473960702013 -0.40208481469994789 0 0.36687830748170119 -0.37746351190435812 0 0.3408526051493872 -0.37811939125700672 0 0.32618830583732489 -0.3928376526175994 0 0.32293207796547568 -0.37565101325984679 0 0.32701902800868732 -0.41962205807924469 0 0.35035473960702013 -0.40208481469994789 0 0.32618830583732489 -0.3928376526175994 0 0.35035473960702013 -0.40208481469994789 0 0.3408526051493872 -0.37811939125700672 0 0.32618830583732489 -0.3928376526175994 0 0.32701902800868732 -0.41962205807924469 0 0.32618830583732489 -0.3928376526175994 0 0.32293207796547568 -0.37565101325984679 0 0.30666948885861828 -0.38406112226932049 0 0.30936441786792679 -0.36738148533176412 0 0.32618830583732489 -0.3928376526175994 0 0.32293207796547568 -0.37565101325984679 0 0.30666948885861828 -0.38406112226932049 0 0.30666948885861828 -0.38406112226932049 0 0.28832323080120847 -0.37754687067653953 0 0.30936441786792679 -0.36738148533176412 0 0.30666948885861828 -0.38406112226932049 0 0.29883256325794599 -0.40172771267139629 0 0.29411237228000692 -0.3887862184316021 0 0.32618830583732489 -0.3928376526175994 0 0.29883256325794599 -0.40172771267139629 0 0.30865778535040211 -0.41702698134929522 0 0.32618830583732489 -0.3928376526175994 0 0.30666948885861828 -0.38406112226932049 0 0.29883256325794599 -0.40172771267139629 0 0.29883256325794599 -0.40172771267139629 0 0.2841663527812629 -0.39580172790695178 0 0.29411237228000692 -0.3887862184316021 0 0.29883256325794599 -0.40172771267139629 0 0.2841663527812629 -0.39580172790695178 0 0.28078618429577779 -0.4142162305715682 0 0.2841663527812629 -0.39580172790695178 0 0.28832323080120847 -0.37754687067653953 0 0.29411237228000692 -0.3887862184316021 0 0.30666948885861828 -0.38406112226932049 0 0.28832323080120847 -0.37754687067653953 0 0.29411237228000692 -0.3887862184316021 0 0.2841663527812629 -0.39580172790695178 0 0.28832323080120847 -0.37754687067653953 0 0.2672820437344901 -0.38771225602131493 0 0.28832323080120847 -0.37754687067653953 0 0.2672820437344901 -0.38771225602131493 0 0.28832323080120847 -0.37754687067653953 0 0.27576294810115187 -0.37831899175545047 0 0.2672820437344901 -0.38771225602131493 0 0.27576294810115187 -0.37831899175545047 0 0.26101289094709779 -0.37776622657233522 0 0.25072728554097401 -0.39225920906677919 0 0.27576294810115187 -0.37831899175545047 0 0.2672820437344901 -0.38771225602131493 0 0.25072728554097401 -0.39225920906677919 0 0.27576294810115187 -0.37831899175545047 0 0.25072728554097401 -0.39225920906677919 0 0.26101289094709779 -0.37776622657233522 0 0.25339810722930878 -0.38087195501962939 0 0.25072728554097401 -0.39225920906677919 0 0.25339810722930878 -0.38087195501962939 0 0.25444059068645558 -0.37191808954092881 0 0.24380606657216011 -0.37974840465794668 0 0.26101289094709779 -0.37776622657233522 0 0.25339810722930878 -0.38087195501962939 0 0.25444059068645558 -0.37191808954092881 0 0.2672820437344901 -0.38771225602131493 0 0.24624085666777179 -0.39787764136609022 0 0.2672820437344901 -0.38771225602131493 0 0.25072728554097401 -0.39225920906677919 0 0.24624085666777179 -0.39787764136609022 0 0.2672820437344901 -0.38771225602131493 0 0.26205693304776978 -0.40375599359319542 0 0.24624085666777179 -0.39787764136609022 0 0.26205693304776978 -0.40375599359319542 0 0.25114155707815061 -0.40719189012314011 0 0.24624085666777179 -0.39787764136609022 0 0.2841663527812629 -0.39580172790695178 0 0.2672820437344901 -0.38771225602131493 0 0.27258378588810811 -0.3983116464255238 0 0.2841663527812629 -0.39580172790695178 0 0.27258378588810811 -0.3983116464255238 0 0.28078618429577779 -0.4142162305715682 0 0.2672820437344901 -0.38771225602131493 0 0.26205693304776978 -0.40375599359319542 0 0.27258378588810811 -0.3983116464255238 0 0.26205693304776978 -0.40375599359319542 0 0.27258378588810811 -0.3983116464255238 0 0.28078618429577779 -0.4142162305715682 0 0.28078618429577779 -0.4142162305715682 0 0.25303131495126879 -0.41801227343542441 0 0.28078618429577779 -0.4142162305715682 0 0.25303131495126879 -0.41801227343542441 0 0.26862457326202849 -0.42576385013125201 0 0.26205693304776978 -0.40375599359319542 0 0.28078618429577779 -0.4142162305715682 0 0.25303131495126879 -0.41801227343542441 0 0.26205693304776978 -0.40375599359319542 0 0.25303131495126879 -0.41801227343542441 0 0.25114155707815061 -0.40719189012314011 0 0.25303131495126879 -0.41801227343542441 0 0.25055652634272252 -0.43500727358404162 0 0.25962082173622852 -0.43050162725764041 0 0.25055652634272252 -0.43500727358404162 0 0.25962082173622852 -0.43050162725764041 0 0.26177050715897032 -0.43937643812997901 0 0.25303131495126879 -0.41801227343542441 0 0.25962082173622852 -0.43050162725764041 0 0.26862457326202849 -0.42576385013125201 0 0.25962082173622852 -0.43050162725764041 0 0.2672399005254591 -0.43433258231412042 0 0.26177050715897032 -0.43937643812997901 0 0.25962082173622852 -0.43050162725764041 0 0.2672399005254591 -0.43433258231412042 0 0.26862457326202849 -0.42576385013125201 0 0.2672399005254591 -0.43433258231412042 0 0.27573131552824359 -0.43473306422833091 0 0.27045228494182449 -0.44128793182339959 0 0.2672399005254591 -0.43433258231412042 0 0.26862457326202849 -0.42576385013125201 0 0.27573131552824359 -0.43473306422833091 0 0.26862457326202849 -0.42576385013125201 0 0.27573131552824359 -0.43473306422833091 0 0.28169964439443651 -0.4275919107327304 0 0.28078618429577779 -0.4142162305715682 0 0.26862457326202849 -0.42576385013125201 0 0.28169964439443651 -0.4275919107327304 0 0.27573131552824359 -0.43473306422833091 0 0.28227330264573819 -0.43671789387881588 0 0.28169964439443651 -0.4275919107327304 0 0.28227330264573819 -0.43671789387881588 0 0.28865481368211537 -0.43426565794409822 0 0.28169964439443651 -0.4275919107327304 0 0.28865481368211537 -0.43426565794409822 0 0.29366400970362089 -0.42319941225994251 0 0.3013765166534369 -0.43490106690082309 0 0.28865481368211537 -0.43426565794409822 0 0.3013765166534369 -0.43490106690082309 0 0.29139418179133658 -0.44281298586740209 0 0.28865481368211537 -0.43426565794409822 0 0.29366400970362089 -0.42319941225994251 0 0.28169964439443651 -0.4275919107327304 0 0.28078618429577779 -0.4142162305715682 0 0.29366400970362089 -0.42319941225994251 0 0.28169964439443651 -0.4275919107327304 0 0.29883256325794599 -0.40172771267139629 0 0.28078618429577779 -0.4142162305715682 0 0.29366400970362089 -0.42319941225994251 0 0.29883256325794599 -0.40172771267139629 0 0.29366400970362089 -0.42319941225994251 0 0.30865778535040211 -0.41702698134929522 0 0.31490500923565312 -0.43251325891487991 0 0.30865778535040211 -0.41702698134929522 0 0.3013765166534369 -0.43490106690082309 0 0.29366400970362089 -0.42319941225994251 0 0.30865778535040211 -0.41702698134929522 0 0.3013765166534369 -0.43490106690082309 0 0.31490500923565312 -0.43251325891487991 0 0.3013765166534369 -0.43490106690082309 0 0.30962196598569203 -0.44460972470414639 0 0.30962196598569203 -0.44460972470414639 0 0.2979371969654408 -0.46322838608760619 0 0.29139418179133658 -0.44281298586740209 0 0.30962196598569203 -0.44460972470414639 0 0.29139418179133658 -0.44281298586740209 0 0.3013765166534369 -0.43490106690082309 0 0.30962196598569203 -0.44460972470414639 0 0.29139418179133658 -0.44281298586740209 0 0.31358004603259032 -0.46738049416294969 0 0.30962196598569203 -0.44460972470414639 0 0.2979371969654408 -0.46322838608760619 0 0.28547185063994612 -0.45646501121961358 0 0.27575613548444389 -0.46712668782526301 0 0.28831031395772061 -0.47241398283222019 0 0.2979371969654408 -0.46322838608760619 0 0.28547185063994612 -0.45646501121961358 0 0.28831031395772061 -0.47241398283222019 0 0.2979371969654408 -0.46322838608760619 0 0.28547185063994612 -0.45646501121961358 0 0.29139418179133658 -0.44281298586740209 0 0.28547185063994612 -0.45646501121961358 0 0.283186705812286 -0.44663535678888971 0 0.29139418179133658 -0.44281298586740209 0 0.2979371969654408 -0.46322838608760619 0 0.29139418179133658 -0.44281298586740209 0 0.28865481368211537 -0.43426565794409822 0 0.29139418179133658 -0.44281298586740209 0 0.28865481368211537 -0.43426565794409822 0 0.29139418179133658 -0.44281298586740209 0 0.28621641500451839 -0.4423026059674498 0 0.283186705812286 -0.44663535678888971 0 0.29139418179133658 -0.44281298586740209 0 0.28621641500451839 -0.4423026059674498 0 0.28227330264573819 -0.43671789387881588 0 0.28865481368211537 -0.43426565794409822 0 0.28621641500451839 -0.4423026059674498 0 0.29139418179133658 -0.44281298586740209 0 0.28621641500451839 -0.4423026059674498 0 0.283186705812286 -0.44663535678888971 0 0.28621641500451839 -0.4423026059674498 0 0.27848346962944381 -0.44221690934706009 0 0.28227330264573819 -0.43671789387881588 0 0.28621641500451839 -0.4423026059674498 0 0.27848346962944381 -0.44221690934706009 0 0.27573131552824359 -0.43473306422833091 0 0.28227330264573819 -0.43671789387881588 0 0.27848346962944381 -0.44221690934706009 0 0.27573131552824359 -0.43473306422833091 0 0.27848346962944381 -0.44221690934706009 0 0.27045228494182449 -0.44128793182339959 0 0.27848346962944381 -0.44221690934706009 0 0.27436761199618459 -0.44937927154292262 0 0.27045228494182449 -0.44128793182339959 0 0.28547185063994612 -0.45646501121961358 0 0.283186705812286 -0.44663535678888971 0 0.27436761199618459 -0.44937927154292262 0 0.283186705812286 -0.44663535678888971 0 0.27848346962944381 -0.44221690934706009 0 0.27436761199618459 -0.44937927154292262 0 0.27436761199618459 -0.44937927154292262 0 0.26592638067605739 -0.44791869910949672 0 0.26840941641217519 -0.4581841581601257 0 0.27436761199618459 -0.44937927154292262 0 0.26592638067605739 -0.44791869910949672 0 0.27045228494182449 -0.44128793182339959 0 0.26592638067605739 -0.44791869910949672 0 0.27045228494182449 -0.44128793182339959 0 0.26177050715897032 -0.43937643812997901 0 0.2672399005254591 -0.43433258231412042 0 0.27045228494182449 -0.44128793182339959 0 0.26177050715897032 -0.43937643812997901 0 0.26592638067605739 -0.44791869910949672 0 0.26177050715897032 -0.43937643812997901 0 0.25511771060706018 -0.44914440124838467 0 0.26592638067605739 -0.44791869910949672 0 0.25511771060706018 -0.44914440124838467 0 0.26840941641217519 -0.4581841581601257 0 0.25055652634272252 -0.43500727358404162 0 0.26177050715897032 -0.43937643812997901 0 0.25511771060706018 -0.44914440124838467 0 0.25511771060706018 -0.44914440124838467 0 0.25661402482830381 -0.46627622087328607 0 0.26840941641217519 -0.4581841581601257 0 0.25511771060706018 -0.44914440124838467 0 0.25661402482830381 -0.46627622087328607 0 0.24094523521753189 -0.44404226858628248 0 0.28547185063994612 -0.45646501121961358 0 0.26840941641217519 -0.4581841581601257 0 0.27575613548444389 -0.46712668782526301 0 0.25661402482830381 -0.46627622087328607 0 0.26840941641217519 -0.4581841581601257 0 0.27575613548444389 -0.46712668782526301 0 0.28547185063994612 -0.45646501121961358 0 0.27436761199618459 -0.44937927154292262 0 0.26840941641217519 -0.4581841581601257 0 0.25661402482830381 -0.46627622087328607 0 0.27575613548444389 -0.46712668782526301 0 0.27783497522763762 -0.4779430458189789 0 0.27783497522763762 -0.4779430458189789 0 0.27228281443907609 -0.48851017316028927 0 0.28838151328931028 -0.48607697973404901 0 0.25661402482830381 -0.46627622087328607 0 0.27783497522763762 -0.4779430458189789 0 0.27228281443907609 -0.48851017316028927 0 0.27575613548444389 -0.46712668782526301 0 0.27783497522763762 -0.4779430458189789 0 0.28831031395772061 -0.47241398283222019 0 0.25661402482830381 -0.46627622087328607 0 0.25547179674817921 -0.48129583905144002 0 0.27228281443907609 -0.48851017316028927 0 0.25661402482830381 -0.46627622087328607 0 0.27228281443907609 -0.48851017316028927 0 0.25661402482830381 -0.46627622087328607 0 0.25547179674817921 -0.48129583905144002 0 0.24535942785631279 -0.47816084641428719 0 0.25341619424093648 -0.5 0 0.27228281443907609 -0.48851017316028927 0 0.24763091986902461 -0.49223611575789677 0 0.25547179674817921 -0.48129583905144002 0 0.27228281443907609 -0.48851017316028927 0 0.24763091986902461 -0.49223611575789677 0 0.27228281443907609 -0.48851017316028927 0 0.24763091986902461 -0.49223611575789677 0 0.27228281443907609 -0.48851017316028927 0 0.28838151328931028 -0.48607697973404901 0 0.27228281443907609 -0.48851017316028927 0 0.28037996590777642 -0.50000000000000377 0 0.28838151328931028 -0.48607697973404901 0 0.25341619424093648 -0.5 0 0.27228281443907609 -0.48851017316028927 0 0.28037996590777642 -0.50000000000000377 0 0.27228281443907609 -0.48851017316028927 0 0.28037996590777642 -0.50000000000000377 0 0.28037996590777642 -0.50000000000000377 0 0.28838151328931028 -0.48607697973404901 0 0.30972228200957203 -0.49999999999999978 0 0.28838151328931028 -0.48607697973404901 0 0.30448021213954468 -0.48364378630781041 0 0.28838151328931028 -0.48607697973404901 0 0.28831031395772061 -0.47241398283222019 0 0.30448021213954468 -0.48364378630781041 0 0.27783497522763762 -0.4779430458189789 0 0.28838151328931028 -0.48607697973404901 0 0.28831031395772061 -0.47241398283222019 0 0.2979371969654408 -0.46322838608760619 0 0.30448021213954468 -0.48364378630781041 0 0.31358004603259032 -0.46738049416294969 0 0.2979371969654408 -0.46322838608760619 0 0.30448021213954468 -0.48364378630781041 0 0.2979371969654408 -0.46322838608760619 0 0.28831031395772061 -0.47241398283222019 0 0.30448021213954468 -0.48364378630781041 0 0.31358004603259032 -0.46738049416294969 0 0.30448021213954468 -0.48364378630781041 0 0.30912953980976532 -0.48294107650319518 0 0.30448021213954468 -0.48364378630781041 0 0.30912953980976532 -0.48294107650319518 0 0.30448021213954468 -0.48364378630781041 0 0.30972228200957203 -0.49999999999999978 0 0.28838151328931028 -0.48607697973404901 0 0.30448021213954468 -0.48364378630781041 0 0.30972228200957203 -0.49999999999999978 0 0.30448021213954468 -0.48364378630781041 0 0.30912953980976532 -0.48294107650319518 0 0.30972228200957203 -0.49999999999999978 0 0.3243120255984665 -0.30297620936026592 0 0.31544929708888159 -0.27379155156986162 0 0.30401962561685342 -0.30711228788272238 0 0.3243120255984665 -0.30297620936026592 0 0.3390479730941135 -0.27816257836745822 0 0.3243120255984665 -0.30297620936026592 0 0.3390479730941135 -0.27816257836745822 0 0.34953271941572361 -0.29447816869214583 0 0.3243120255984665 -0.30297620936026592 0 0.34953271941572361 -0.29447816869214583 0 0.35371660233441449 -0.31489342483359373 0 0.3243120255984665 -0.30297620936026592 0 0.31544929708888159 -0.27379155156986162 0 0.3390479730941135 -0.27816257836745822 0 0.30319782325364969 -0.24304381306985409 0 0.33164578909472808 -0.24525212273841371 0 0.31544929708888159 -0.27379155156986162 0 0.33164578909472808 -0.24525212273841371 0 0.31544929708888159 -0.27379155156986162 0 0.34337386365515071 -0.25990193033803188 0 0.31544929708888159 -0.27379155156986162 0 0.34337386365515071 -0.25990193033803188 0 0.3390479730941135 -0.27816257836745822 0 0.34337386365515071 -0.25990193033803188 0 0.3390479730941135 -0.27816257836745822 0 0.3604119815831901 -0.27441555598241613 0 0.34337386365515071 -0.25990193033803188 0 0.36284533118166051 -0.25184142910743867 0 0.3604119815831901 -0.27441555598241613 0 0.37686302842415381 -0.26152495457731839 0 0.36284533118166051 -0.25184142910743867 0 0.3604119815831901 -0.27441555598241613 0 0.37778092624594778 -0.24313624425873381 0 0.37686302842415381 -0.26152495457731839 0 0.36284533118166051 -0.25184142910743867 0 0.38225668983245609 -0.27759582712849662 0 0.37686302842415381 -0.26152495457731839 0 0.3604119815831901 -0.27441555598241613 0 0.38225668983245609 -0.27759582712849662 0 0.3604119815831901 -0.27441555598241613 0 0.36956577276930203 -0.29617820675167411 0 0.3604119815831901 -0.27441555598241613 0 0.36956577276930203 -0.29617820675167411 0 0.34953271941572361 -0.29447816869214583 0 0.3390479730941135 -0.27816257836745822 0 0.3604119815831901 -0.27441555598241613 0 0.34953271941572361 -0.29447816869214583 0 0.36956577276930203 -0.29617820675167411 0 0.34953271941572361 -0.29447816869214583 0 0.35371660233441449 -0.31489342483359373 0 0.36956577276930203 -0.29617820675167411 0 0.37219226040532771 -0.31334382324257581 0 0.35371660233441449 -0.31489342483359373 0 0.37219226040532771 -0.31334382324257581 0 0.36679228438020878 -0.32679524919380393 0 0.35371660233441449 -0.31489342483359373 0 0.38117582617505552 -0.32510628498508087 0 0.37219226040532771 -0.31334382324257581 0 0.36679228438020878 -0.32679524919380393 0 0.38117582617505552 -0.32510628498508087 0 0.36679228438020878 -0.32679524919380393 0 0.37366903975347943 -0.34256758972972229 0 0.36679228438020878 -0.32679524919380393 0 0.37366903975347943 -0.34256758972972229 0 0.35371276827028419 -0.33733106383105488 0 0.35371276827028419 -0.33733106383105488 0 0.35371660233441449 -0.31489342483359373 0 0.33614928316089798 -0.33240727760531791 0 0.35371276827028419 -0.33733106383105488 0 0.3474126362758943 -0.35691427314626512 0 0.33614928316089798 -0.33240727760531791 0 0.36679228438020878 -0.32679524919380393 0 0.35371276827028419 -0.33733106383105488 0 0.35371660233441449 -0.31489342483359373 0 0.36687830748170119 -0.37746351190435812 0 0.3663463293516363 -0.35925129121914989 0 0.3474126362758943 -0.35691427314626512 0 0.38340187535638232 -0.35284220910876829 0 0.36687830748170119 -0.37746351190435812 0 0.3663463293516363 -0.35925129121914989 0 0.37366903975347943 -0.34256758972972229 0 0.3474126362758943 -0.35691427314626512 0 0.37366903975347943 -0.34256758972972229 0 0.3663463293516363 -0.35925129121914989 0 0.3474126362758943 -0.35691427314626512 0 0.38340187535638232 -0.35284220910876829 0 0.37366903975347943 -0.34256758972972229 0 0.3663463293516363 -0.35925129121914989 0 0.37366903975347943 -0.34256758972972229 0 0.35371276827028419 -0.33733106383105488 0 0.3474126362758943 -0.35691427314626512 0 0.36687830748170119 -0.37746351190435812 0 0.3408526051493872 -0.37811939125700672 0 0.3474126362758943 -0.35691427314626512 0 0.3408526051493872 -0.37811939125700672 0 0.32293207796547568 -0.37565101325984679 0 0.33134956372890711 -0.36376508191402279 0 0.3408526051493872 -0.37811939125700672 0 0.3474126362758943 -0.35691427314626512 0 0.33134956372890711 -0.36376508191402279 0 0.3474126362758943 -0.35691427314626512 0 0.32463702832856051 -0.34588038133605192 0 0.33614928316089798 -0.33240727760531791 0 0.3474126362758943 -0.35691427314626512 0 0.33134956372890711 -0.36376508191402279 0 0.32463702832856051 -0.34588038133605192 0 0.33134956372890711 -0.36376508191402279 0 0.32463702832856051 -0.34588038133605192 0 0.31844490111157758 -0.36058342254143999 0 0.32463702832856051 -0.34588038133605192 0 0.31844490111157758 -0.36058342254143999 0 0.30979616565892742 -0.35243068490271617 0 0.32293207796547568 -0.37565101325984679 0 0.33134956372890711 -0.36376508191402279 0 0.31844490111157758 -0.36058342254143999 0 0.31844490111157758 -0.36058342254143999 0 0.30936441786792679 -0.36738148533176412 0 0.30979616565892742 -0.35243068490271617 0 0.32293207796547568 -0.37565101325984679 0 0.31844490111157758 -0.36058342254143999 0 0.30936441786792679 -0.36738148533176412 0 0.3243120255984665 -0.30297620936026592 0 0.35371660233441449 -0.31489342483359373 0 0.33614928316089798 -0.33240727760531791 0 0.32463702832856051 -0.34588038133605192 0 0.30957607810281951 -0.32778984035307368 0 0.30979616565892742 -0.35243068490271617 0 0.32463702832856051 -0.34588038133605192 0 0.33614928316089798 -0.33240727760531791 0 0.30957607810281951 -0.32778984035307368 0 0.3243120255984665 -0.30297620936026592 0 0.33614928316089798 -0.33240727760531791 0 0.30957607810281951 -0.32778984035307368 0 0.3243120255984665 -0.30297620936026592 0 0.30957607810281951 -0.32778984035307368 0 0.30401962561685342 -0.30711228788272238 0 0.3243120255984665 -0.30297620936026592 0 0.30957607810281951 -0.32778984035307368 0 0.30957607810281951 -0.32778984035307368 0 0.29068902390063589 -0.32296106387461732 0 0.30401962561685342 -0.30711228788272238 0 0.30957607810281951 -0.32778984035307368 0 0.29068902390063589 -0.32296106387461732 0 0.29484013060717251 -0.35260347134588138 0 0.30957607810281951 -0.32778984035307368 0 0.29484013060717251 -0.35260347134588138 0 0.29068902390063589 -0.32296106387461732 0 0.29484013060717251 -0.35260347134588138 0 0.2800429228726945 -0.34014859134046188 0 0.28832323080120847 -0.37754687067653953 0 0.30936441786792679 -0.36738148533176412 0 0.28832323080120847 -0.37754687067653953 0 0.30936441786792679 -0.36738148533176412 0 0.30079861066132968 -0.36437877444412192 0 0.30936441786792679 -0.36738148533176412 0 0.30079861066132968 -0.36437877444412192 0 0.30979616565892742 -0.35243068490271617 0 0.30957607810281951 -0.32778984035307368 0 0.30979616565892742 -0.35243068490271617 0 0.29484013060717251 -0.35260347134588138 0 0.30079861066132968 -0.36437877444412192 0 0.30979616565892742 -0.35243068490271617 0 0.29484013060717251 -0.35260347134588138 0 0.28204396135271731 -0.35500392845373702 0 0.29484013060717251 -0.35260347134588138 0 0.2800429228726945 -0.34014859134046188 0 0.30079861066132968 -0.36437877444412192 0 0.29061866375092182 -0.35926734156209261 0 0.29484013060717251 -0.35260347134588138 0 0.28204396135271731 -0.35500392845373702 0 0.29061866375092182 -0.35926734156209261 0 0.29484013060717251 -0.35260347134588138 0 0.28832323080120847 -0.37754687067653953 0 0.27576294810115187 -0.37831899175545047 0 0.30079861066132968 -0.36437877444412192 0 0.27576294810115187 -0.37831899175545047 0 0.30079861066132968 -0.36437877444412192 0 0.28479195238246757 -0.36508319200463007 0 0.30079861066132968 -0.36437877444412192 0 0.29061866375092182 -0.35926734156209261 0 0.28479195238246757 -0.36508319200463007 0 0.27576294810115187 -0.37831899175545047 0 0.30079861066132968 -0.36437877444412192 0 0.28204396135271731 -0.35500392845373702 0 0.29061866375092182 -0.35926734156209261 0 0.28479195238246757 -0.36508319200463007 0 0.27576294810115187 -0.37831899175545047 0 0.26101289094709779 -0.37776622657233522 0 0.2707355231775988 -0.36546288747888761 0 0.27576294810115187 -0.37831899175545047 0 0.28479195238246757 -0.36508319200463007 0 0.2707355231775988 -0.36546288747888761 0 0.28204396135271731 -0.35500392845373702 0 0.28479195238246757 -0.36508319200463007 0 0.2707355231775988 -0.36546288747888761 0 0.28204396135271731 -0.35500392845373702 0 0.2707355231775988 -0.36546288747888761 0 0.26884264761465132 -0.35111405645978477 0 0.28204396135271731 -0.35500392845373702 0 0.26884264761465132 -0.35111405645978477 0 0.2800429228726945 -0.34014859134046188 0 0.2707355231775988 -0.36546288747888761 0 0.26884264761465132 -0.35111405645978477 0 0.2537947373904903 -0.35675619724414459 0 0.2537947373904903 -0.35675619724414459 0 0.25979194053494348 -0.33690292201496269 0 0.24172088398188979 -0.34612960648814189 0 0.26884264761465132 -0.35111405645978477 0 0.2537947373904903 -0.35675619724414459 0 0.25979194053494348 -0.33690292201496269 0 0.26101289094709779 -0.37776622657233522 0 0.2707355231775988 -0.36546288747888761 0 0.25444059068645558 -0.37191808954092881 0 0.2707355231775988 -0.36546288747888761 0 0.2537947373904903 -0.35675619724414459 0 0.25444059068645558 -0.37191808954092881 0 0.29068902390063589 -0.32296106387461732 0 0.2712784066113284 -0.32476822605968608 0 0.27101247601829809 -0.30364099378184539 0 0.2712784066113284 -0.32476822605968608 0 0.25653124397825278 -0.31463832042947237 0 0.27101247601829809 -0.30364099378184539 0 0.26884264761465132 -0.35111405645978477 0 0.2800429228726945 -0.34014859134046188 0 0.25979194053494348 -0.33690292201496269 0 0.2712784066113284 -0.32476822605968608 0 0.2800429228726945 -0.34014859134046188 0 0.25979194053494348 -0.33690292201496269 0 0.29068902390063589 -0.32296106387461732 0 0.2712784066113284 -0.32476822605968608 0 0.2800429228726945 -0.34014859134046188 0 0.25979194053494348 -0.33690292201496269 0 0.25653124397825278 -0.31463832042947237 0 0.24364017958120229 -0.32478709672664802 0 0.2712784066113284 -0.32476822605968608 0 0.25979194053494348 -0.33690292201496269 0 0.25653124397825278 -0.31463832042947237 0 0.25653124397825278 -0.31463832042947237 0 0.25276693154094942 -0.29085798371577032 0 0.27101247601829809 -0.30364099378184539 0 0.25276693154094942 -0.29085798371577032 0 0.27067787902652862 -0.28491069968514809 0 0.27101247601829809 -0.30364099378184539 0 0.27067787902652862 -0.28491069968514809 0 0.27101247601829809 -0.30364099378184539 0 0.28890790412871098 -0.29222389597366011 0 0.31544929708888159 -0.27379155156986162 0 0.28890790412871098 -0.29222389597366011 0 0.30401962561685342 -0.30711228788272238 0 0.29068902390063589 -0.32296106387461732 0 0.28890790412871098 -0.29222389597366011 0 0.30401962561685342 -0.30711228788272238 0 0.29068902390063589 -0.32296106387461732 0 0.27101247601829809 -0.30364099378184539 0 0.28890790412871098 -0.29222389597366011 0 0.30319782325364969 -0.24304381306985409 0 0.31544929708888159 -0.27379155156986162 0 0.28677326490980509 -0.26553328257918329 0 0.31544929708888159 -0.27379155156986162 0 0.28890790412871098 -0.29222389597366011 0 0.28677326490980509 -0.26553328257918329 0 0.27067787902652862 -0.28491069968514809 0 0.28890790412871098 -0.29222389597366011 0 0.28677326490980509 -0.26553328257918329 0 0.27474985741257119 -0.24083550340129439 0 0.28677326490980509 -0.26553328257918329 0 0.26424800045146218 -0.26647896932476101 0 0.27067787902652862 -0.28491069968514809 0 0.28677326490980509 -0.26553328257918329 0 0.26424800045146218 -0.26647896932476101 0 0.25276693154094942 -0.29085798371577032 0 0.27067787902652862 -0.28491069968514809 0 0.26424800045146218 -0.26647896932476101 0 0.25276693154094942 -0.29085798371577032 0 0.26424800045146218 -0.26647896932476101 0 0.23957730355537241 -0.2690264722939496 0 0.26424800045146218 -0.26647896932476101 0 0.23957730355537241 -0.2690264722939496 0 0.24630189157149271 -0.23862719373273489 0 0.23957730355537241 -0.2690264722939496 0 0.22539995833197279 -0.25439694151812092 0 0.24630189157149271 -0.23862719373273489 0 0.23957730355537241 -0.2690264722939496 0 0.22201160553014149 -0.27282713281430182 0 0.22597038554665891 -0.29198530353609969 0 0.23957730355537241 -0.2690264722939496 0 0.22201160553014149 -0.27282713281430182 0 0.22539995833197279 -0.25439694151812092 0 0.22201160553014149 -0.27282713281430182 0 0.22539995833197279 -0.25439694151812092 0 0.20839792567908169 -0.26286137611100968 0 0.22539995833197279 -0.25439694151812092 0 0.20839792567908169 -0.26286137611100968 0 0.21785392573041409 -0.23641888406417749 0 0.20839792567908169 -0.26286137611100968 0 0.19894192562774871 -0.28930386815784148 0 0.22201160553014149 -0.27282713281430182 0 0.20839792567908169 -0.26286137611100968 0 0.19894192562774871 -0.28930386815784148 0 0.20839792567908169 -0.26286137611100968 0 0.19243964543688619 -0.27084220977607648 0 0.19894192562774871 -0.28930386815784148 0 0.19243964543688619 -0.27084220977607648 0 0.18788263882716169 -0.25679145815736337 0 0.2011585879306918 -0.25009629578211662 0 0.18788263882716169 -0.25679145815736337 0 0.18152387782089699 -0.25911639126544889 0 0.198785433941357 -0.2385073185293709 0 0.20839792567908169 -0.26286137611100968 0 0.19243964543688619 -0.27084220977607648 0 0.2011585879306918 -0.25009629578211662 0 0.19894192562774871 -0.28930386815784148 0 0.18948592557641589 -0.31574636020467339 0 0.19894192562774871 -0.28930386815784148 0 0.18948592557641589 -0.31574636020467339 0 0.1770129769203902 -0.30535665193074168 0 0.19894192562774871 -0.28930386815784148 0 0.2085923184386152 -0.30701114228629311 0 0.18948592557641589 -0.31574636020467339 0 0.19243964543688619 -0.27084220977607648 0 0.19894192562774871 -0.28930386815784148 0 0.18195351203568819 -0.28910923805319949 0 0.19894192562774871 -0.28930386815784148 0 0.2085923184386152 -0.30701114228629311 0 0.22597038554665891 -0.29198530353609969 0 0.22201160553014149 -0.27282713281430182 0 0.19894192562774871 -0.28930386815784148 0 0.22597038554665891 -0.29198530353609969 0 0.2085923184386152 -0.30701114228629311 0 0.22597038554665891 -0.29198530353609969 0 0.22472105574930559 -0.31526289337286872 0 0.22597038554665891 -0.29198530353609969 0 0.2406975295827955 -0.30687270027792241 0 0.22472105574930559 -0.31526289337286872 0 0.25276693154094942 -0.29085798371577032 0 0.23957730355537241 -0.2690264722939496 0 0.22597038554665891 -0.29198530353609969 0 0.25276693154094942 -0.29085798371577032 0 0.22597038554665891 -0.29198530353609969 0 0.2406975295827955 -0.30687270027792241 0 0.25653124397825278 -0.31463832042947237 0 0.25276693154094942 -0.29085798371577032 0 0.2406975295827955 -0.30687270027792241 0 0.25653124397825278 -0.31463832042947237 0 0.2406975295827955 -0.30687270027792241 0 0.24364017958120229 -0.32478709672664802 0 0.2406975295827955 -0.30687270027792241 0 0.24364017958120229 -0.32478709672664802 0 0.22472105574930559 -0.31526289337286872 0 0.24364017958120229 -0.32478709672664802 0 0.2237320611570546 -0.3338085578095345 0 0.24172088398188979 -0.34612960648814189 0 0.25979194053494348 -0.33690292201496269 0 0.24364017958120229 -0.32478709672664802 0 0.24172088398188979 -0.34612960648814189 0 0.24364017958120229 -0.32478709672664802 0 0.2237320611570546 -0.3338085578095345 0 0.22472105574930559 -0.31526289337286872 0 0.2537947373904903 -0.35675619724414459 0 0.25444059068645558 -0.37191808954092881 0 0.23637779698152581 -0.36615287978479749 0 0.25444059068645558 -0.37191808954092881 0 0.23637779698152581 -0.36615287978479749 0 0.24380606657216011 -0.37974840465794668 0 0.2537947373904903 -0.35675619724414459 0 0.23637779698152581 -0.36615287978479749 0 0.24172088398188979 -0.34612960648814189 0 0.23637779698152581 -0.36615287978479749 0 0.24172088398188979 -0.34612960648814189 0 0.2237320611570546 -0.3338085578095345 0 0.24172088398188979 -0.34612960648814189 0 0.22204741308944859 -0.35417908652141578 0 0.23637779698152581 -0.36615287978479749 0 0.24172088398188979 -0.34612960648814189 0 0.22204741308944859 -0.35417908652141578 0 0.23637779698152581 -0.36615287978479749 0 0.22204741308944859 -0.35417908652141578 0 0.2191939411925202 -0.37263181995564731 0 0.23637779698152581 -0.36615287978479749 0 0.2191939411925202 -0.37263181995564731 0 0.2310347099811618 -0.38617615308145331 0 0.22204741308944859 -0.35417908652141578 0 0.2191939411925202 -0.37263181995564731 0 0.20145269425608561 -0.3665412632288384 0 0.22204741308944859 -0.35417908652141578 0 0.20145269425608561 -0.3665412632288384 0 0.2064205348475347 -0.3397353775881507 0 0.18973940258922151 -0.34929604267397318 0 0.20145269425608561 -0.3665412632288384 0 0.18075138689458439 -0.36220584295203673 0 0.18973940258922151 -0.34929604267397318 0 0.20145269425608561 -0.3665412632288384 0 0.2064205348475347 -0.3397353775881507 0 0.20145269425608561 -0.3665412632288384 0 0.18075138689458439 -0.36220584295203673 0 0.18213057246060591 -0.38074624602169133 0 0.2085923184386152 -0.30701114228629311 0 0.22472105574930559 -0.31526289337286872 0 0.20457359191662389 -0.32305166573223781 0 0.2237320611570546 -0.3338085578095345 0 0.22472105574930559 -0.31526289337286872 0 0.20457359191662389 -0.32305166573223781 0 0.2237320611570546 -0.3338085578095345 0 0.20457359191662389 -0.32305166573223781 0 0.2064205348475347 -0.3397353775881507 0 0.2237320611570546 -0.3338085578095345 0 0.22204741308944859 -0.35417908652141578 0 0.2064205348475347 -0.3397353775881507 0 0.18973940258922151 -0.34929604267397318 0 0.2064205348475347 -0.3397353775881507 0 0.18695789562762291 -0.33176471708703481 0 0.20457359191662389 -0.32305166573223781 0 0.2064205348475347 -0.3397353775881507 0 0.18695789562762291 -0.33176471708703481 0 0.20457359191662389 -0.32305166573223781 0 0.18948592557641589 -0.31574636020467339 0 0.18695789562762291 -0.33176471708703481 0 0.2085923184386152 -0.30701114228629311 0 0.20457359191662389 -0.32305166573223781 0 0.18948592557641589 -0.31574636020467339 0 0.18948592557641589 -0.31574636020467339 0 0.16959577495952491 -0.3197963749635766 0 0.1770129769203902 -0.30535665193074168 0 0.18948592557641589 -0.31574636020467339 0 0.18695789562762291 -0.33176471708703481 0 0.16959577495952491 -0.3197963749635766 0 0.18973940258922151 -0.34929604267397318 0 0.18695789562762291 -0.33176471708703481 0 0.17311450132028 -0.34623301251380528 0 0.18695789562762291 -0.33176471708703481 0 0.16959577495952491 -0.3197963749635766 0 0.17311450132028 -0.34623301251380528 0 0.16959577495952491 -0.3197963749635766 0 0.17311450132028 -0.34623301251380528 0 0.1613968493767752 -0.33336117095685058 0 0.16959577495952491 -0.3197963749635766 0 0.17311450132028 -0.34623301251380528 0 0.1613968493767752 -0.33336117095685058 0 0.17311450132028 -0.34623301251380528 0 0.156511293587241 -0.34851346173340592 0 0.1613968493767752 -0.33336117095685058 0 0.15525372721436881 -0.31558835456349382 0 0.15318239743714709 -0.32374855202542852 0 0.1613968493767752 -0.33336117095685058 0 0.15525372721436881 -0.31558835456349382 0 0.1613968493767752 -0.33336117095685058 0 0.16959577495952491 -0.3197963749635766 0 0.15525372721436881 -0.31558835456349382 0 0.18075138689458439 -0.36220584295203673 0 0.16732818357902929 -0.37360824803752529 0 0.18213057246060591 -0.38074624602169133 0 0.18973940258922151 -0.34929604267397318 0 0.18075138689458439 -0.36220584295203673 0 0.17311450132028 -0.34623301251380528 0 0.18075138689458439 -0.36220584295203673 0 0.17311450132028 -0.34623301251380528 0 0.16650360347246601 -0.35927322258992522 0 0.156511293587241 -0.34851346173340592 0 0.16650360347246601 -0.35927322258992522 0 0.15481265198119551 -0.36580554771285279 0 0.17311450132028 -0.34623301251380528 0 0.156511293587241 -0.34851346173340592 0 0.16650360347246601 -0.35927322258992522 0 0.16732818357902929 -0.37360824803752529 0 0.15481265198119551 -0.36580554771285279 0 0.14932313113035309 -0.38055236960979683 0 0.18075138689458439 -0.36220584295203673 0 0.16650360347246601 -0.35927322258992522 0 0.16732818357902929 -0.37360824803752529 0 0.16650360347246601 -0.35927322258992522 0 0.16732818357902929 -0.37360824803752529 0 0.15481265198119551 -0.36580554771285279 0 0.156511293587241 -0.34851346173340592 0 0.15481265198119551 -0.36580554771285279 0 0.1343813265877957 -0.36655647894117332 0 0.15481265198119551 -0.36580554771285279 0 0.1343813265877957 -0.36655647894117332 0 0.14932313113035309 -0.38055236960979683 0 0.156511293587241 -0.34851346173340592 0 0.13937477804762949 -0.34970604882952611 0 0.1343813265877957 -0.36655647894117332 0 0.156511293587241 -0.34851346173340592 0 0.13937477804762949 -0.34970604882952611 0 0.1485125517190537 -0.33971527582684219 0 0.156511293587241 -0.34851346173340592 0 0.1343813265877957 -0.36655647894117332 0 0.13937477804762949 -0.34970604882952611 0 0.12753577774158109 -0.35723144939643259 0 0.1343813265877957 -0.36655647894117332 0 0.13937477804762949 -0.34970604882952611 0 0.1312256460533191 -0.34688880491308849 0 0.13744217702709849 -0.33780852286981672 0 0.13937477804762949 -0.34970604882952611 0 0.1312256460533191 -0.34688880491308849 0 0.12753577774158109 -0.35723144939643259 0 0.1312256460533191 -0.34688880491308849 0 0.12753577774158109 -0.35723144939643259 0 0.1205498513969674 -0.34280919855657882 0 0.12753577774158109 -0.35723144939643259 0 0.1343813265877957 -0.36655647894117332 0 0.1164194778774393 -0.36846460229955258 0 0.14824135260092011 -0.31685750783675781 0 0.1478376605565242 -0.32918717474461179 0 0.13843842419252361 -0.32419865147451637 0 0.14824135260092011 -0.31685750783675781 0 0.13843842419252361 -0.32419865147451637 0 0.13824864400695269 -0.31561374980801349 0 0.14824135260092011 -0.31685750783675781 0 0.13824864400695269 -0.31561374980801349 0 0.13551968645263859 -0.30908445711996979 0 0.14824135260092011 -0.31685750783675781 0 0.15525372721436881 -0.31558835456349382 0 0.15318239743714709 -0.32374855202542852 0 0.14824135260092011 -0.31685750783675781 0 0.15318239743714709 -0.32374855202542852 0 0.1478376605565242 -0.32918717474461179 0 0.1613968493767752 -0.33336117095685058 0 0.15318239743714709 -0.32374855202542852 0 0.1478376605565242 -0.32918717474461179 0 0.1613968493767752 -0.33336117095685058 0 0.1485125517190537 -0.33971527582684219 0 0.1478376605565242 -0.32918717474461179 0 0.1613968493767752 -0.33336117095685058 0 0.156511293587241 -0.34851346173340592 0 0.1485125517190537 -0.33971527582684219 0 0.13937477804762949 -0.34970604882952611 0 0.1485125517190537 -0.33971527582684219 0 0.13744217702709849 -0.33780852286981672 0 0.1485125517190537 -0.33971527582684219 0 0.1478376605565242 -0.32918717474461179 0 0.13744217702709849 -0.33780852286981672 0 0.1478376605565242 -0.32918717474461179 0 0.13744217702709849 -0.33780852286981672 0 0.13843842419252361 -0.32419865147451637 0 0.1312256460533191 -0.34688880491308849 0 0.13744217702709849 -0.33780852286981672 0 0.1205498513969674 -0.34280919855657882 0 0.13744217702709849 -0.33780852286981672 0 0.12763385932923721 -0.32818683299039292 0 0.13843842419252361 -0.32419865147451637 0 0.13744217702709849 -0.33780852286981672 0 0.12763385932923721 -0.32818683299039292 0 0.1205498513969674 -0.34280919855657882 0 0.12763385932923721 -0.32818683299039292 0 0.1304157201778631 -0.31455018048044359 0 0.1196153766217003 -0.31834555168308359 0 0.12763385932923721 -0.32818683299039292 0 0.13843842419252361 -0.32419865147451637 0 0.1304157201778631 -0.31455018048044359 0 0.13824864400695269 -0.31561374980801349 0 0.1304157201778631 -0.31455018048044359 0 0.13551968645263859 -0.30908445711996979 0 0.13843842419252361 -0.32419865147451637 0 0.13824864400695269 -0.31561374980801349 0 0.1304157201778631 -0.31455018048044359 0 0.14824135260092011 -0.31685750783675781 0 0.13497665918743201 -0.29754995726766859 0 0.13551968645263859 -0.30908445711996979 0 0.1304157201778631 -0.31455018048044359 0 0.12566154821000311 -0.30243398926056081 0 0.13551968645263859 -0.30908445711996979 0 0.12566154821000311 -0.30243398926056081 0 0.13497665918743201 -0.29754995726766859 0 0.1215480224228756 -0.29147622864376582 0 0.12566154821000311 -0.30243398926056081 0 0.13497665918743201 -0.29754995726766859 0 0.13551968645263859 -0.30908445711996979 0 0.15525372721436881 -0.31558835456349382 0 0.14911060505196619 -0.29781553817013567 0 0.14824135260092011 -0.31685750783675781 0 0.15525372721436881 -0.31558835456349382 0 0.1465592649972581 -0.30086165709447088 0 0.15525372721436881 -0.31558835456349382 0 0.14911060505196619 -0.29781553817013567 0 0.16100537785956909 -0.30186500005210298 0 0.15525372721436881 -0.31558835456349382 0 0.1465592649972581 -0.30086165709447088 0 0.14911060505196619 -0.29781553817013567 0 0.14824135260092011 -0.31685750783675781 0 0.13497665918743201 -0.29754995726766859 0 0.1465592649972581 -0.30086165709447088 0 0.14824135260092011 -0.31685750783675781 0 0.13497665918743201 -0.29754995726766859 0 0.13497665918743201 -0.29754995726766859 0 0.1465592649972581 -0.30086165709447088 0 0.1469348393038139 -0.29442119309349379 0 0.1465592649972581 -0.30086165709447088 0 0.14911060505196619 -0.29781553817013567 0 0.1469348393038139 -0.29442119309349379 0 0.1465592649972581 -0.30086165709447088 0 0.14911060505196619 -0.29781553817013567 0 0.14911060505196619 -0.29781553817013567 0 0.14375092580598831 -0.28230931956538402 0 0.15239289526956881 -0.27941837432677941 0 0.14911060505196619 -0.29781553817013567 0 0.15239289526956881 -0.27941837432677941 0 0.1642623217004365 -0.27972546400152648 0 0.14911060505196619 -0.29781553817013567 0 0.1469348393038139 -0.29442119309349379 0 0.14375092580598831 -0.28230931956538402 0 0.14911060505196619 -0.29781553817013567 0 0.14375092580598831 -0.28230931956538402 0 0.13497665918743201 -0.29754995726766859 0 0.1217119657739448 -0.27824240669857869 0 0.13497665918743201 -0.29754995726766859 0 0.1217119657739448 -0.27824240669857869 0 0.1215480224228756 -0.29147622864376582 0 0.1469348393038139 -0.29442119309349379 0 0.14375092580598831 -0.28230931956538402 0 0.12869775419521359 -0.27345127867594482 0 0.1469348393038139 -0.29442119309349379 0 0.13664524524861971 -0.28832359302281763 0 0.12869775419521359 -0.27345127867594482 0 0.13497665918743201 -0.29754995726766859 0 0.13159579244609529 -0.28524757378206578 0 0.1217119657739448 -0.27824240669857869 0 0.1469348393038139 -0.29442119309349379 0 0.12869775419521359 -0.27345127867594482 0 0.13497665918743201 -0.29754995726766859 0 0.13664524524861971 -0.28832359302281763 0 0.13159579244609529 -0.28524757378206578 0 0.13497665918743201 -0.29754995726766859 0 0.1469348393038139 -0.29442119309349379 0 0.13664524524861971 -0.28832359302281763 0 0.13664524524861971 -0.28832359302281763 0 0.13159579244609529 -0.28524757378206578 0 0.12869775419521359 -0.27345127867594482 0 0.13159579244609529 -0.28524757378206578 0 0.12869775419521359 -0.27345127867594482 0 0.1217119657739448 -0.27824240669857869 0 0.12869775419521359 -0.27345127867594482 0 0.1217119657739448 -0.27824240669857869 0 0.12869775419521359 -0.27345127867594482 0 0.1216510438795569 -0.26534861800596082 0 0.12869775419521359 -0.27345127867594482 0 0.1304548186636536 -0.26425944353343528 0 0.1216510438795569 -0.26534861800596082 0 0.12869775419521359 -0.27345127867594482 0 0.1383912465600142 -0.26680310096063081 0 0.1304548186636536 -0.26425944353343528 0 0.12869775419521359 -0.27345127867594482 0 0.1383912465600142 -0.26680310096063081 0 0.14375092580598831 -0.28230931956538402 0 0.12869775419521359 -0.27345127867594482 0 0.1383912465600142 -0.26680310096063081 0 0.13307923001982941 -0.25143477649120521 0 0.1216510438795569 -0.26534861800596082 0 0.12629816317163689 -0.23799161899509089 0 0.1304548186636536 -0.26425944353343528 0 0.13307923001982941 -0.25143477649120521 0 0.1216510438795569 -0.26534861800596082 0 0.1383912465600142 -0.26680310096063081 0 0.13307923001982941 -0.25143477649120521 0 0.1383912465600142 -0.26680310096063081 0 0.1304548186636536 -0.26425944353343528 0 0.13307923001982941 -0.25143477649120521 0 0.1383912465600142 -0.26680310096063081 0 0.1574966032874438 -0.25369989707307561 0 0.14878385083484991 -0.269889688490911 0 0.15715392813969689 -0.26738715374205713 0 0.1574966032874438 -0.25369989707307561 0 0.1383912465600142 -0.26680310096063081 0 0.13307923001982941 -0.25143477649120521 0 0.1574966032874438 -0.25369989707307561 0 0.1383912465600142 -0.26680310096063081 0 0.14878385083484991 -0.269889688490911 0 0.1574966032874438 -0.25369989707307561 0 0.14375092580598831 -0.28230931956538402 0 0.14878385083484991 -0.269889688490911 0 0.15239289526956881 -0.27941837432677941 0 0.14375092580598831 -0.28230931956538402 0 0.1383912465600142 -0.26680310096063081 0 0.14375092580598831 -0.28230931956538402 0 0.1383912465600142 -0.26680310096063081 0 0.14878385083484991 -0.269889688490911 0 0.14878385083484991 -0.269889688490911 0 0.15239289526956881 -0.27941837432677941 0 0.15715392813969689 -0.26738715374205713 0 0.15715392813969689 -0.26738715374205713 0 0.1642623217004365 -0.27972546400152648 0 0.1617731483335649 -0.26102398870818072 0 0.15239289526956881 -0.27941837432677941 0 0.15715392813969689 -0.26738715374205713 0 0.1642623217004365 -0.27972546400152648 0 0.1642623217004365 -0.27972546400152648 0 0.1617731483335649 -0.26102398870818072 0 0.18152387782089699 -0.25911639126544889 0 0.1642623217004365 -0.27972546400152648 0 0.1617731483335649 -0.26102398870818072 0 0.1617731483335649 -0.26102398870818072 0 0.17660196001487369 -0.24059669318552079 0 0.16074166857342259 -0.25327435041196428 0 0.1617731483335649 -0.26102398870818072 0 0.17660196001487369 -0.24059669318552079 0 0.16074166857342259 -0.25327435041196428 0 0.1574966032874438 -0.25369989707307561 0 0.1617731483335649 -0.26102398870818072 0 0.16074166857342259 -0.25327435041196428 0 0.1617731483335649 -0.26102398870818072 0 0.15715392813969689 -0.26738715374205713 0 0.1574966032874438 -0.25369989707307561 0 0.1617731483335649 -0.26102398870818072 0 0.15715392813969689 -0.26738715374205713 0 0.1617731483335649 -0.26102398870818072 0 0.1617731483335649 -0.26102398870818072 0 0.18152387782089699 -0.25911639126544889 0 0.17660196001487369 -0.24059669318552079 0 0.18788263882716169 -0.25679145815736337 0 0.18152387782089699 -0.25911639126544889 0 0.17697984371296621 -0.27507559778535567 0 0.1642623217004365 -0.27972546400152648 0 0.18152387782089699 -0.25911639126544889 0 0.17697984371296621 -0.27507559778535567 0 0.19243964543688619 -0.27084220977607648 0 0.18788263882716169 -0.25679145815736337 0 0.17697984371296621 -0.27507559778535567 0 0.1642623217004365 -0.27972546400152648 0 0.18152387782089699 -0.25911639126544889 0 0.19243964543688619 -0.27084220977607648 0 0.17697984371296621 -0.27507559778535567 0 0.18195351203568819 -0.28910923805319949 0 0.18788263882716169 -0.25679145815736337 0 0.17697984371296621 -0.27507559778535567 0 0.19894192562774871 -0.28930386815784148 0 0.18195351203568819 -0.28910923805319949 0 0.1770129769203902 -0.30535665193074168 0 0.17697984371296621 -0.27507559778535567 0 0.18195351203568819 -0.28910923805319949 0 0.1660770485987704 -0.29335973741334792 0 0.18195351203568819 -0.28910923805319949 0 0.1770129769203902 -0.30535665193074168 0 0.1660770485987704 -0.29335973741334792 0 0.16959577495952491 -0.3197963749635766 0 0.1660770485987704 -0.29335973741334792 0 0.14911060505196619 -0.29781553817013567 0 0.16100537785956909 -0.30186500005210298 0 0.1660770485987704 -0.29335973741334792 0 0.16959577495952491 -0.3197963749635766 0 0.16100537785956909 -0.30186500005210298 0 0.1660770485987704 -0.29335973741334792 0 0.16959577495952491 -0.3197963749635766 0 0.15525372721436881 -0.31558835456349382 0 0.16100537785956909 -0.30186500005210298 0 0.16959577495952491 -0.3197963749635766 0 0.1770129769203902 -0.30535665193074168 0 0.1660770485987704 -0.29335973741334792 0 0.16100537785956909 -0.30186500005210298 0 0.1660770485987704 -0.29335973741334792 0 0.17697984371296621 -0.27507559778535567 0 0.1660770485987704 -0.29335973741334792 0 0.14911060505196619 -0.29781553817013567 0 0.1642623217004365 -0.27972546400152648 0 0.14911060505196619 -0.29781553817013567 0 0.1642623217004365 -0.27972546400152648 0 0.1660770485987704 -0.29335973741334792 0 0.1642623217004365 -0.27972546400152648 0 0.17697984371296621 -0.27507559778535567 0 0.1660770485987704 -0.29335973741334792 0 0.1642623217004365 -0.27972546400152648 0 0.1660770485987704 -0.29335973741334792 0 0.1994886509072569 -0.5 0 0.19423597600606349 -0.48322803238544781 0 0.2115038685958113 -0.48910130639053873 0 0.1994886509072569 -0.5 0 0.19423597600606349 -0.48322803238544781 0 0.17252487924041721 -0.5 0 0.2020659539159253 -0.46964857775004692 0 0.19423597600606349 -0.48322803238544781 0 0.1866985158824534 -0.46582595997398041 0 0.2020659539159253 -0.46964857775004692 0 0.19423597600606349 -0.48322803238544781 0 0.21046970366584311 -0.47887833558123349 0 0.19423597600606349 -0.48322803238544781 0 0.21046970366584311 -0.47887833558123349 0 0.2115038685958113 -0.48910130639053873 0 0.2020659539159253 -0.46964857775004692 0 0.21046970366584311 -0.47887833558123349 0 0.21843876457192449 -0.46964783290320122 0 0.21046970366584311 -0.47887833558123349 0 0.21843876457192449 -0.46964783290320122 0 0.22307137279884329 -0.48448875047673678 0 0.21046970366584311 -0.47887833558123349 0 0.2115038685958113 -0.48910130639053873 0 0.22307137279884329 -0.48448875047673678 0 0.1994886509072569 -0.5 0 0.2115038685958113 -0.48910130639053873 0 0.2229790252989734 -0.49596205835550622 0 0.1994886509072569 -0.5 0 0.2229790252989734 -0.49596205835550622 0 0.22645242257409681 -0.5 0 0.2229790252989734 -0.49596205835550622 0 0.23219312693684549 -0.48906882517204231 0 0.24763091986902461 -0.49223611575789677 0 0.2229790252989734 -0.49596205835550622 0 0.22645242257409681 -0.5 0 0.24763091986902461 -0.49223611575789677 0 0.2115038685958113 -0.48910130639053873 0 0.2229790252989734 -0.49596205835550622 0 0.22307137279884329 -0.48448875047673678 0 0.2229790252989734 -0.49596205835550622 0 0.22307137279884329 -0.48448875047673678 0 0.23219312693684549 -0.48906882517204231 0 0.22307137279884329 -0.48448875047673678 0 0.23219312693684549 -0.48906882517204231 0 0.23509118978054069 -0.48358837609802913 0 0.25341619424093648 -0.5 0 0.22645242257409681 -0.5 0 0.24763091986902461 -0.49223611575789677 0 0.2229790252989734 -0.49596205835550622 0 0.24763091986902461 -0.49223611575789677 0 0.23219312693684549 -0.48906882517204231 0 0.24763091986902461 -0.49223611575789677 0 0.23509118978054069 -0.48358837609802913 0 0.24763091986902461 -0.49223611575789677 0 0.24535942785631279 -0.47816084641428719 0 0.23509118978054069 -0.48358837609802913 0 0.24535942785631279 -0.47816084641428719 0 0.23177735528290291 -0.47279380550303668 0 0.23883600563845681 -0.45918583798105422 0 0.25547179674817921 -0.48129583905144002 0 0.24763091986902461 -0.49223611575789677 0 0.24535942785631279 -0.47816084641428719 0 0.24535942785631279 -0.47816084641428719 0 0.23509118978054069 -0.48358837609802913 0 0.23177735528290291 -0.47279380550303668 0 0.22307137279884329 -0.48448875047673678 0 0.23509118978054069 -0.48358837609802913 0 0.23177735528290291 -0.47279380550303668 0 0.21843876457192449 -0.46964783290320122 0 0.22307137279884329 -0.48448875047673678 0 0.23177735528290291 -0.47279380550303668 0 0.21843876457192449 -0.46964783290320122 0 0.22666713105088279 -0.45480012231869849 0 0.21161208171813681 -0.45896265156508281 0 0.23177735528290291 -0.47279380550303668 0 0.22666713105088279 -0.45480012231869849 0 0.23883600563845681 -0.45918583798105422 0 0.21843876457192449 -0.46964783290320122 0 0.23177735528290291 -0.47279380550303668 0 0.22666713105088279 -0.45480012231869849 0 0.22666713105088279 -0.45480012231869849 0 0.23883600563845681 -0.45918583798105422 0 0.23455790491571579 -0.45091202783205259 0 0.25661402482830381 -0.46627622087328607 0 0.23883600563845681 -0.45918583798105422 0 0.24094523521753189 -0.44404226858628248 0 0.25661402482830381 -0.46627622087328607 0 0.24094523521753189 -0.44404226858628248 0 0.25661402482830381 -0.46627622087328607 0 0.24535942785631279 -0.47816084641428719 0 0.23883600563845681 -0.45918583798105422 0 0.25055652634272252 -0.43500727358404162 0 0.25511771060706018 -0.44914440124838467 0 0.24094523521753189 -0.44404226858628248 0 0.23455790491571579 -0.45091202783205259 0 0.24094523521753189 -0.44404226858628248 0 0.23178324775599191 -0.44561988244217521 0 0.23883600563845681 -0.45918583798105422 0 0.23455790491571579 -0.45091202783205259 0 0.24094523521753189 -0.44404226858628248 0 0.23178324775599191 -0.44561988244217521 0 0.2246818433788236 -0.44273761810506679 0 0.22351502538222151 -0.43271658929810242 0 0.22666713105088279 -0.45480012231869849 0 0.23455790491571579 -0.45091202783205259 0 0.23178324775599191 -0.44561988244217521 0 0.22666713105088279 -0.45480012231869849 0 0.23178324775599191 -0.44561988244217521 0 0.2246818433788236 -0.44273761810506679 0 0.22666713105088279 -0.45480012231869849 0 0.2246818433788236 -0.44273761810506679 0 0.2164982624546154 -0.44065163917529793 0 0.2246818433788236 -0.44273761810506679 0 0.2164982624546154 -0.44065163917529793 0 0.22351502538222151 -0.43271658929810242 0 0.2164982624546154 -0.44065163917529793 0 0.21161208171813681 -0.45896265156508281 0 0.2164982624546154 -0.44065163917529793 0 0.20703485761851159 -0.44728056916450049 0 0.21161208171813681 -0.45896265156508281 0 0.22666713105088279 -0.45480012231869849 0 0.2164982624546154 -0.44065163917529793 0 0.21161208171813681 -0.45896265156508281 0 0.2164982624546154 -0.44065163917529793 0 0.20703485761851159 -0.44728056916450049 0 0.20284643745406181 -0.43749649751754299 0 0.20703485761851159 -0.44728056916450049 0 0.21161208171813681 -0.45896265156508281 0 0.19718264884723249 -0.4520114884000781 0 0.2020659539159253 -0.46964857775004692 0 0.21843876457192449 -0.46964783290320122 0 0.21161208171813681 -0.45896265156508281 0 0.2020659539159253 -0.46964857775004692 0 0.21161208171813681 -0.45896265156508281 0 0.19718264884723249 -0.4520114884000781 0 0.19718264884723249 -0.4520114884000781 0 0.18030320322362581 -0.44994646081668788 0 0.1866985158824534 -0.46582595997398041 0 0.2020659539159253 -0.46964857775004692 0 0.19718264884723249 -0.4520114884000781 0 0.1866985158824534 -0.46582595997398041 0 0.19718264884723249 -0.4520114884000781 0 0.19056462480476619 -0.4372130613046678 0 0.18030320322362581 -0.44994646081668788 0 0.19718264884723249 -0.4520114884000781 0 0.20284643745406181 -0.43749649751754299 0 0.19056462480476619 -0.4372130613046678 0 0.20703485761851159 -0.44728056916450049 0 0.19718264884723249 -0.4520114884000781 0 0.20284643745406181 -0.43749649751754299 0 0.2009381557839276 -0.42513707242685023 0 0.19056462480476619 -0.4372130613046678 0 0.18016681342343119 -0.42831328727138829 0 0.2009381557839276 -0.42513707242685023 0 0.1935463351267416 -0.42333533609237373 0 0.21037597688232759 -0.41820497566857601 0 0.2009381557839276 -0.42513707242685023 0 0.18016681342343119 -0.42831328727138829 0 0.2009381557839276 -0.42513707242685023 0 0.1935463351267416 -0.42333533609237373 0 0.18016681342343119 -0.42831328727138829 0 0.2009381557839276 -0.42513707242685023 0 0.20284643745406181 -0.43749649751754299 0 0.19056462480476619 -0.4372130613046678 0 0.1935463351267416 -0.42333533609237373 0 0.18957177006676759 -0.41155416557530239 0 0.18208318357215769 -0.41513112401732161 0 0.1935463351267416 -0.42333533609237373 0 0.19835790206249451 -0.40731840066172309 0 0.2064474394919826 -0.40957359772466262 0 0.1935463351267416 -0.42333533609237373 0 0.18957177006676759 -0.41155416557530239 0 0.19835790206249451 -0.40731840066172309 0 0.18957177006676759 -0.41155416557530239 0 0.19835790206249451 -0.40731840066172309 0 0.18429965950567681 -0.40043180152979141 0 0.1935463351267416 -0.42333533609237373 0 0.2064474394919826 -0.40957359772466262 0 0.21802011019095219 -0.41151160420974692 0 0.2009381557839276 -0.42513707242685023 0 0.21037597688232759 -0.41820497566857601 0 0.21517419014994149 -0.41973031595742238 0 0.1935463351267416 -0.42333533609237373 0 0.21037597688232759 -0.41820497566857601 0 0.21802011019095219 -0.41151160420974692 0 0.1935463351267416 -0.42333533609237373 0 0.21802011019095219 -0.41151160420974692 0 0.2064474394919826 -0.40957359772466262 0 0.21802011019095219 -0.41151160420974692 0 0.21539364713476919 -0.4077846632190652 0 0.21802011019095219 -0.41151160420974692 0 0.21631711298899101 -0.41480027094476041 0 0.21951421215198219 -0.41363172915485441 0 0.21802011019095219 -0.41151160420974692 0 0.21539364713476919 -0.4077846632190652 0 0.21037597688232759 -0.41820497566857601 0 0.21615237142163049 -0.41727799628674422 0 0.21517419014994149 -0.41973031595742238 0 0.21037597688232759 -0.41820497566857601 0 0.21615237142163049 -0.41727799628674422 0 0.21631711298899101 -0.41480027094476041 0 0.21037597688232759 -0.41820497566857601 0 0.21802011019095219 -0.41151160420974692 0 0.21631711298899101 -0.41480027094476041 0 0.21615237142163049 -0.41727799628674422 0 0.2186469869774503 -0.41776440782750141 0 0.21951421215198219 -0.41363172915485441 0 0.21615237142163049 -0.41727799628674422 0 0.21631711298899101 -0.41480027094476041 0 0.21951421215198219 -0.41363172915485441 0 0.21517419014994149 -0.41973031595742238 0 0.22138444319109429 -0.4223406267855131 0 0.21905272051500571 -0.42036355506973888 0 0.2186469869774503 -0.41776440782750141 0 0.21517419014994149 -0.41973031595742238 0 0.21905272051500571 -0.42036355506973888 0 0.21615237142163049 -0.41727799628674422 0 0.2186469869774503 -0.41776440782750141 0 0.21517419014994149 -0.41973031595742238 0 0.2009381557839276 -0.42513707242685023 0 0.21517419014994149 -0.41973031595742238 0 0.22138444319109429 -0.4223406267855131 0 0.2009381557839276 -0.42513707242685023 0 0.22138444319109429 -0.4223406267855131 0 0.2164982624546154 -0.44065163917529793 0 0.21033826167253239 -0.43128231304384651 0 0.22138444319109429 -0.4223406267855131 0 0.2009381557839276 -0.42513707242685023 0 0.21033826167253239 -0.43128231304384651 0 0.22138444319109429 -0.4223406267855131 0 0.2009381557839276 -0.42513707242685023 0 0.20284643745406181 -0.43749649751754299 0 0.21033826167253239 -0.43128231304384651 0 0.2164982624546154 -0.44065163917529793 0 0.20284643745406181 -0.43749649751754299 0 0.21033826167253239 -0.43128231304384651 0 0.23178324775599191 -0.44561988244217521 0 0.22138444319109429 -0.4223406267855131 0 0.22527644560675961 -0.42180831629927917 0 0.24094523521753189 -0.44404226858628248 0 0.23178324775599191 -0.44561988244217521 0 0.22527644560675961 -0.42180831629927917 0 0.24094523521753189 -0.44404226858628248 0 0.22527644560675961 -0.42180831629927917 0 0.2164982624546154 -0.44065163917529793 0 0.22138444319109429 -0.4223406267855131 0 0.23178324775599191 -0.44561988244217521 0 0.22138444319109429 -0.4223406267855131 0 0.2164982624546154 -0.44065163917529793 0 0.22351502538222151 -0.43271658929810242 0 0.22138444319109429 -0.4223406267855131 0 0.23178324775599191 -0.44561988244217521 0 0.22351502538222151 -0.43271658929810242 0 0.22138444319109429 -0.4223406267855131 0 0.22138444319109429 -0.4223406267855131 0 0.22527644560675961 -0.42180831629927917 0 0.24065233844580261 -0.43322986720253892 0 0.24289389136575629 -0.42780920866693861 0 0.22527644560675961 -0.42180831629927917 0 0.25303131495126879 -0.41801227343542441 0 0.24289389136575629 -0.42780920866693861 0 0.22527644560675961 -0.42180831629927917 0 0.25303131495126879 -0.41801227343542441 0 0.25055652634272252 -0.43500727358404162 0 0.24289389136575629 -0.42780920866693861 0 0.24094523521753189 -0.44404226858628248 0 0.24065233844580261 -0.43322986720253892 0 0.22527644560675961 -0.42180831629927917 0 0.25055652634272252 -0.43500727358404162 0 0.24094523521753189 -0.44404226858628248 0 0.24065233844580261 -0.43322986720253892 0 0.25055652634272252 -0.43500727358404162 0 0.24065233844580261 -0.43322986720253892 0 0.24289389136575629 -0.42780920866693861 0 0.25303131495126879 -0.41801227343542441 0 0.2432371236457922 -0.40912165209785029 0 0.23341636989301609 -0.41485958271769507 0 0.25303131495126879 -0.41801227343542441 0 0.22527644560675961 -0.42180831629927917 0 0.25303131495126879 -0.41801227343542441 0 0.23341636989301609 -0.41485958271769507 0 0.22527644560675961 -0.42180831629927917 0 0.25303131495126879 -0.41801227343542441 0 0.25114155707815061 -0.40719189012314011 0 0.2432371236457922 -0.40912165209785029 0 0.2432371236457922 -0.40912165209785029 0 0.23512405903149489 -0.4086052227153732 0 0.23341636989301609 -0.41485958271769507 0 0.23512405903149489 -0.4086052227153732 0 0.22752627534984041 -0.41312421068436428 0 0.22519966960105381 -0.40804302671086601 0 0.23512405903149489 -0.4086052227153732 0 0.22752627534984041 -0.41312421068436428 0 0.23341636989301609 -0.41485958271769507 0 0.23341636989301609 -0.41485958271769507 0 0.22696588919012481 -0.41683404474765751 0 0.22527644560675961 -0.42180831629927917 0 0.22752627534984041 -0.41312421068436428 0 0.23341636989301609 -0.41485958271769507 0 0.22696588919012481 -0.41683404474765751 0 0.22696588919012481 -0.41683404474765751 0 0.22527644560675961 -0.42180831629927917 0 0.22255642411759791 -0.41794861625147911 0 0.22138444319109429 -0.4223406267855131 0 0.22527644560675961 -0.42180831629927917 0 0.22198758100021279 -0.42008036166411261 0 0.22527644560675961 -0.42180831629927917 0 0.22255642411759791 -0.41794861625147911 0 0.22198758100021279 -0.42008036166411261 0 0.22527644560675961 -0.42180831629927917 0 0.22255642411759791 -0.41794861625147911 0 0.22752627534984041 -0.41312421068436428 0 0.22696588919012481 -0.41683404474765751 0 0.22255642411759791 -0.41794861625147911 0 0.22255642411759791 -0.41794861625147911 0 0.21951421215198219 -0.41363172915485441 0 0.22255642411759791 -0.41794861625147911 0 0.22198758100021279 -0.42008036166411261 0 0.21951421215198219 -0.41363172915485441 0 0.22198758100021279 -0.42008036166411261 0 0.21951421215198219 -0.41363172915485441 0 0.2186469869774503 -0.41776440782750141 0 0.22198758100021279 -0.42008036166411261 0 0.21951421215198219 -0.41363172915485441 0 0.22255642411759791 -0.41794861625147911 0 0.22198758100021279 -0.42008036166411261 0 0.2186469869774503 -0.41776440782750141 0 0.21905272051500571 -0.42036355506973888 0 0.22198758100021279 -0.42008036166411261 0 0.22138444319109429 -0.4223406267855131 0 0.22198758100021279 -0.42008036166411261 0 0.22138444319109429 -0.4223406267855131 0 0.21905272051500571 -0.42036355506973888 0 0.22198758100021279 -0.42008036166411261 0 0.22752627534984041 -0.41312421068436428 0 0.22255642411759791 -0.41794861625147911 0 0.22519966960105381 -0.40804302671086601 0 0.22255642411759791 -0.41794861625147911 0 0.22519966960105381 -0.40804302671086601 0 0.21951421215198219 -0.41363172915485441 0 0.22255642411759791 -0.41794861625147911 0 0.22519966960105381 -0.40804302671086601 0 0.22153365695531191 -0.40851464171658941 0 0.22569162298079651 -0.40619942637810857 0 0.22519966960105381 -0.40804302671086601 0 0.22153365695531191 -0.40851464171658941 0 0.22569162298079651 -0.40619942637810857 0 0.22519966960105381 -0.40804302671086601 0 0.22569162298079651 -0.40619942637810857 0 0.21802011019095219 -0.41151160420974692 0 0.22519966960105381 -0.40804302671086601 0 0.21951421215198219 -0.41363172915485441 0 0.21802011019095219 -0.41151160420974692 0 0.21951421215198219 -0.41363172915485441 0 0.21802011019095219 -0.41151160420974692 0 0.22519966960105381 -0.40804302671086601 0 0.21802011019095219 -0.41151160420974692 0 0.22519966960105381 -0.40804302671086601 0 0.22153365695531191 -0.40851464171658941 0 0.22153365695531191 -0.40851464171658941 0 0.22569162298079651 -0.40619942637810857 0 0.21002364154618691 -0.38888766310754808 0 0.22569162298079651 -0.40619942637810857 0 0.2310347099811618 -0.38617615308145331 0 0.21002364154618691 -0.38888766310754808 0 0.22519966960105381 -0.40804302671086601 0 0.22569162298079651 -0.40619942637810857 0 0.24624085666777179 -0.39787764136609022 0 0.22569162298079651 -0.40619942637810857 0 0.2310347099811618 -0.38617615308145331 0 0.2432371236457922 -0.40912165209785029 0 0.23512405903149489 -0.4086052227153732 0 0.24624085666777179 -0.39787764136609022 0 0.25072728554097401 -0.39225920906677919 0 0.22569162298079651 -0.40619942637810857 0 0.2310347099811618 -0.38617615308145331 0 0.22519966960105381 -0.40804302671086601 0 0.24624085666777179 -0.39787764136609022 0 0.25072728554097401 -0.39225920906677919 0 0.22569162298079651 -0.40619942637810857 0 0.23512405903149489 -0.4086052227153732 0 0.22519966960105381 -0.40804302671086601 0 0.24624085666777179 -0.39787764136609022 0 0.25072728554097401 -0.39225920906677919 0 0.22569162298079651 -0.40619942637810857 0 0.24624085666777179 -0.39787764136609022 0 0.25114155707815061 -0.40719189012314011 0 0.2432371236457922 -0.40912165209785029 0 0.24624085666777179 -0.39787764136609022 0 0.25072728554097401 -0.39225920906677919 0 0.24380606657216011 -0.37974840465794668 0 0.2310347099811618 -0.38617615308145331 0 0.23637779698152581 -0.36615287978479749 0 0.24380606657216011 -0.37974840465794668 0 0.2310347099811618 -0.38617615308145331 0 0.25339810722930878 -0.38087195501962939 0 0.25072728554097401 -0.39225920906677919 0 0.24380606657216011 -0.37974840465794668 0 0.2191939411925202 -0.37263181995564731 0 0.2310347099811618 -0.38617615308145331 0 0.21002364154618691 -0.38888766310754808 0 0.23637779698152581 -0.36615287978479749 0 0.2310347099811618 -0.38617615308145331 0 0.20145269425608561 -0.3665412632288384 0 0.21002364154618691 -0.38888766310754808 0 0.2191939411925202 -0.37263181995564731 0 0.20145269425608561 -0.3665412632288384 0 0.21002364154618691 -0.38888766310754808 0 0.21802011019095219 -0.41151160420974692 0 0.21002364154618691 -0.38888766310754808 0 0.21802011019095219 -0.41151160420974692 0 0.21539364713476919 -0.4077846632190652 0 0.21002364154618691 -0.38888766310754808 0 0.21802011019095219 -0.41151160420974692 0 0.22153365695531191 -0.40851464171658941 0 0.21002364154618691 -0.38888766310754808 0 0.21539364713476919 -0.4077846632190652 0 0.21002364154618691 -0.38888766310754808 0 0.20554990655200989 -0.40070588488352288 0 0.19835790206249451 -0.40731840066172309 0 0.2064474394919826 -0.40957359772466262 0 0.20554990655200989 -0.40070588488352288 0 0.2064474394919826 -0.40957359772466262 0 0.21539364713476919 -0.4077846632190652 0 0.20554990655200989 -0.40070588488352288 0 0.21002364154618691 -0.38888766310754808 0 0.20554990655200989 -0.40070588488352288 0 0.19684225432814351 -0.39135904992617437 0 0.19684225432814351 -0.39135904992617437 0 0.18213057246060591 -0.38074624602169133 0 0.18429965950567681 -0.40043180152979141 0 0.19835790206249451 -0.40731840066172309 0 0.19684225432814351 -0.39135904992617437 0 0.18429965950567681 -0.40043180152979141 0 0.19835790206249451 -0.40731840066172309 0 0.20554990655200989 -0.40070588488352288 0 0.19684225432814351 -0.39135904992617437 0 0.20145269425608561 -0.3665412632288384 0 0.21002364154618691 -0.38888766310754808 0 0.19684225432814351 -0.39135904992617437 0 0.20145269425608561 -0.3665412632288384 0 0.19684225432814351 -0.39135904992617437 0 0.18213057246060591 -0.38074624602169133 0 0.18213057246060591 -0.38074624602169133 0 0.18429965950567681 -0.40043180152979141 0 0.16592639845465429 -0.39053863128738647 0 0.18429965950567681 -0.40043180152979141 0 0.17069508789656651 -0.40509105823374641 0 0.16592639845465429 -0.39053863128738647 0 0.17069508789656651 -0.40509105823374641 0 0.16592639845465429 -0.39053863128738647 0 0.1509428975665861 -0.40329973028762017 0 0.16732818357902929 -0.37360824803752529 0 0.18213057246060591 -0.38074624602169133 0 0.16592639845465429 -0.39053863128738647 0 0.16732818357902929 -0.37360824803752529 0 0.16592639845465429 -0.39053863128738647 0 0.14932313113035309 -0.38055236960979683 0 0.14932313113035309 -0.38055236960979683 0 0.13113203394749609 -0.38634306477909652 0 0.1509428975665861 -0.40329973028762017 0 0.1343813265877957 -0.36655647894117332 0 0.14932313113035309 -0.38055236960979683 0 0.13113203394749609 -0.38634306477909652 0 0.1343813265877957 -0.36655647894117332 0 0.13113203394749609 -0.38634306477909652 0 0.11225135958835029 -0.38459949614894079 0 0.13113203394749609 -0.38634306477909652 0 0.1509428975665861 -0.40329973028762017 0 0.1275392518666742 -0.41040709911348211 0 0.13113203394749609 -0.38634306477909652 0 0.1509428975665861 -0.40329973028762017 0 0.16592639845465429 -0.39053863128738647 0 0.14932313113035309 -0.38055236960979683 0 0.1509428975665861 -0.40329973028762017 0 0.1509428975665861 -0.40329973028762017 0 0.1425289094007863 -0.41767982880022131 0 0.1707537611856762 -0.42025639579614399 0 0.1509428975665861 -0.40329973028762017 0 0.1425289094007863 -0.41767982880022131 0 0.1275392518666742 -0.41040709911348211 0 0.1425289094007863 -0.41767982880022131 0 0.1275392518666742 -0.41040709911348211 0 0.13236798474785899 -0.4320801020831036 0 0.1425289094007863 -0.41767982880022131 0 0.15271754546110339 -0.43086217022034662 0 0.1707537611856762 -0.42025639579614399 0 0.1425289094007863 -0.41767982880022131 0 0.13236798474785899 -0.4320801020831036 0 0.15271754546110339 -0.43086217022034662 0 0.15271754546110339 -0.43086217022034662 0 0.1654182915846685 -0.43286880866480387 0 0.1707537611856762 -0.42025639579614399 0 0.15271754546110339 -0.43086217022034662 0 0.1654182915846685 -0.43286880866480387 0 0.16403986999473821 -0.44403110754456671 0 0.1654182915846685 -0.43286880866480387 0 0.1707537611856762 -0.42025639579614399 0 0.17416198969715641 -0.43632556109815851 0 0.1509428975665861 -0.40329973028762017 0 0.1707537611856762 -0.42025639579614399 0 0.17069508789656651 -0.40509105823374641 0 0.1509428975665861 -0.40329973028762017 0 0.1707537611856762 -0.42025639579614399 0 0.1707537611856762 -0.42025639579614399 0 0.18208318357215769 -0.41513112401732161 0 0.18016681342343119 -0.42831328727138829 0 0.17069508789656651 -0.40509105823374641 0 0.1707537611856762 -0.42025639579614399 0 0.18208318357215769 -0.41513112401732161 0 0.18429965950567681 -0.40043180152979141 0 0.17069508789656651 -0.40509105823374641 0 0.18208318357215769 -0.41513112401732161 0 0.18957177006676759 -0.41155416557530239 0 0.18429965950567681 -0.40043180152979141 0 0.18208318357215769 -0.41513112401732161 0 0.1935463351267416 -0.42333533609237373 0 0.18208318357215769 -0.41513112401732161 0 0.18016681342343119 -0.42831328727138829 0 0.1707537611856762 -0.42025639579614399 0 0.18016681342343119 -0.42831328727138829 0 0.17416198969715641 -0.43632556109815851 0 0.19056462480476619 -0.4372130613046678 0 0.18016681342343119 -0.42831328727138829 0 0.17416198969715641 -0.43632556109815851 0 0.19056462480476619 -0.4372130613046678 0 0.18016681342343119 -0.42831328727138829 0 0.1707537611856762 -0.42025639579614399 0 0.18016681342343119 -0.42831328727138829 0 0.19056462480476619 -0.4372130613046678 0 0.17416198969715641 -0.43632556109815851 0 0.18030320322362581 -0.44994646081668788 0 0.17416198969715641 -0.43632556109815851 0 0.18030320322362581 -0.44994646081668788 0 0.16403986999473821 -0.44403110754456671 0 0.18030320322362581 -0.44994646081668788 0 0.1866985158824534 -0.46582595997398041 0 0.16915162383326071 -0.46171692760674482 0 0.16915162383326071 -0.46171692760674482 0 0.14679290329116479 -0.45327630519587869 0 0.16017499077284469 -0.47807968510701931 0 0.18030320322362581 -0.44994646081668788 0 0.16915162383326071 -0.46171692760674482 0 0.16403986999473821 -0.44403110754456671 0 0.16915162383326071 -0.46171692760674482 0 0.16403986999473821 -0.44403110754456671 0 0.14679290329116479 -0.45327630519587869 0 0.1654182915846685 -0.43286880866480387 0 0.17416198969715641 -0.43632556109815851 0 0.16403986999473821 -0.44403110754456671 0 0.13236798474785899 -0.4320801020831036 0 0.15271754546110339 -0.43086217022034662 0 0.14679290329116479 -0.45327630519587869 0 0.15271754546110339 -0.43086217022034662 0 0.16403986999473821 -0.44403110754456671 0 0.14679290329116479 -0.45327630519587869 0 0.13236798474785899 -0.4320801020831036 0 0.14679290329116479 -0.45327630519587869 0 0.1165120425055826 -0.45007748601683578 0 0.14679290329116479 -0.45327630519587869 0 0.13256631944061689 -0.47353199882060321 0 0.1165120425055826 -0.45007748601683578 0 0.14679290329116479 -0.45327630519587869 0 0.13256631944061689 -0.47353199882060321 0 0.16017499077284469 -0.47807968510701931 0 0.13256631944061689 -0.47353199882060321 0 0.16017499077284469 -0.47807968510701931 0 0.13256631944061689 -0.47353199882060321 0 0.14556110757357729 -0.5 0 0.16017499077284469 -0.47807968510701931 0 0.13256631944061689 -0.47353199882060321 0 0.14556110757357729 -0.5 0 0.1185973359067375 -0.5 0 0.14556110757357729 -0.5 0 0.16017499077284469 -0.47807968510701931 0 0.17252487924041721 -0.5 0 0.16017499077284469 -0.47807968510701931 0 0.17681095780232109 -0.47878492341120249 0 0.17252487924041721 -0.5 0 0.16915162383326071 -0.46171692760674482 0 0.16017499077284469 -0.47807968510701931 0 0.17681095780232109 -0.47878492341120249 0 0.1866985158824534 -0.46582595997398041 0 0.16915162383326071 -0.46171692760674482 0 0.17681095780232109 -0.47878492341120249 0 0.19423597600606349 -0.48322803238544781 0 0.1866985158824534 -0.46582595997398041 0 0.17681095780232109 -0.47878492341120249 0 0.19423597600606349 -0.48322803238544781 0 0.17681095780232109 -0.47878492341120249 0 0.17252487924041721 -0.5 0 0.064669792573057938 -0.5 0 0.073482986649123075 -0.48354322286074469 0 0.083266912202788812 -0.4916864643988722 0 0.064669792573057938 -0.5 0 0.073482986649123075 -0.48354322286074469 0 0.057503398884302372 -0.48180981277180962 0 0.073482986649123075 -0.48354322286074469 0 0.077348976776161121 -0.46443662624777088 0 0.057503398884302372 -0.48180981277180962 0 0.085815385158856478 -0.48017034412798792 0 0.10495764810838901 -0.46898431253418699 0 0.077348976776161121 -0.46443662624777088 0 0.073482986649123075 -0.48354322286074469 0 0.085815385158856478 -0.48017034412798792 0 0.077348976776161121 -0.46443662624777088 0 0.085815385158856478 -0.48017034412798792 0 0.077348976776161121 -0.46443662624777088 0 0.085815385158856478 -0.48017034412798792 0 0.094281793541551945 -0.49590406200820469 0 0.098503794595809796 -0.48257565346437808 0 0.085815385158856478 -0.48017034412798792 0 0.083266912202788812 -0.4916864643988722 0 0.094281793541551945 -0.49590406200820469 0 0.064669792573057938 -0.5 0 0.083266912202788812 -0.4916864643988722 0 0.091633564239897658 -0.5 0 0.085815385158856478 -0.48017034412798792 0 0.094281793541551945 -0.49590406200820469 0 0.073482986649123075 -0.48354322286074469 0 0.085815385158856478 -0.48017034412798792 0 0.083266912202788812 -0.4916864643988722 0 0.083266912202788812 -0.4916864643988722 0 0.091633564239897658 -0.5 0 0.094281793541551945 -0.49590406200820469 0 0.091633564239897658 -0.5 0 0.094281793541551945 -0.49590406200820469 0 0.1185973359067375 -0.5 0 0.094281793541551945 -0.49590406200820469 0 0.1089603515744418 -0.48524389518713251 0 0.1185973359067375 -0.5 0 0.094281793541551945 -0.49590406200820469 0 0.1089603515744418 -0.48524389518713251 0 0.098503794595809796 -0.48257565346437808 0 0.13256631944061689 -0.47353199882060321 0 0.1089603515744418 -0.48524389518713251 0 0.1185973359067375 -0.5 0 0.13256631944061689 -0.47353199882060321 0 0.1089603515744418 -0.48524389518713251 0 0.10495764810838901 -0.46898431253418699 0 0.13256631944061689 -0.47353199882060321 0 0.10495764810838901 -0.46898431253418699 0 0.085815385158856478 -0.48017034412798792 0 0.10495764810838901 -0.46898431253418699 0 0.098503794595809796 -0.48257565346437808 0 0.1089603515744418 -0.48524389518713251 0 0.10495764810838901 -0.46898431253418699 0 0.098503794595809796 -0.48257565346437808 0 0.10495764810838901 -0.46898431253418699 0 0.095521759526218553 -0.45477485806521839 0 0.1165120425055826 -0.45007748601683578 0 0.13256631944061689 -0.47353199882060321 0 0.10495764810838901 -0.46898431253418699 0 0.1165120425055826 -0.45007748601683578 0 0.095521759526218553 -0.45477485806521839 0 0.1165120425055826 -0.45007748601683578 0 0.096374452647536371 -0.44083359108276088 0 0.1165120425055826 -0.45007748601683578 0 0.096374452647536371 -0.44083359108276088 0 0.1127808571991455 -0.4296543799334604 0 0.096374452647536371 -0.44083359108276088 0 0.082415677593423609 -0.44954227444453743 0 0.081565946661028801 -0.43646236999440441 0 0.095521759526218553 -0.45477485806521839 0 0.096374452647536371 -0.44083359108276088 0 0.082415677593423609 -0.44954227444453743 0 0.10495764810838901 -0.46898431253418699 0 0.095521759526218553 -0.45477485806521839 0 0.077348976776161121 -0.46443662624777088 0 0.10495764810838901 -0.46898431253418699 0 0.077348976776161121 -0.46443662624777088 0 0.095521759526218553 -0.45477485806521839 0 0.082415677593423609 -0.44954227444453743 0 0.077348976776161121 -0.46443662624777088 0 0.077348976776161121 -0.46443662624777088 0 0.051242482520751517 -0.46013637780469779 0 0.077348976776161121 -0.46443662624777088 0 0.067388181241293699 -0.44592578437432112 0 0.057552540075833457 -0.4492743474086181 0 0.082415677593423609 -0.44954227444453743 0 0.077348976776161121 -0.46443662624777088 0 0.067388181241293699 -0.44592578437432112 0 0.077348976776161121 -0.46443662624777088 0 0.067388181241293699 -0.44592578437432112 0 0.067388181241293699 -0.44592578437432112 0 0.070672480071486549 -0.43138793844979301 0 0.081565946661028801 -0.43646236999440441 0 0.082415677593423609 -0.44954227444453743 0 0.067388181241293699 -0.44592578437432112 0 0.081565946661028801 -0.43646236999440441 0 0.067388181241293699 -0.44592578437432112 0 0.070672480071486549 -0.43138793844979301 0 0.057427385706426387 -0.42741494250087131 0 0.070672480071486549 -0.43138793844979301 0 0.069453759390988398 -0.42132800350128169 0 0.081058420200321543 -0.42205729375234818 0 0.070672480071486549 -0.43138793844979301 0 0.081058420200321543 -0.42205729375234818 0 0.081565946661028801 -0.43646236999440441 0 0.070672480071486549 -0.43138793844979301 0 0.069453759390988398 -0.42132800350128169 0 0.057427385706426387 -0.42741494250087131 0 0.069453759390988398 -0.42132800350128169 0 0.063197636832914461 -0.41168556435856762 0 0.057427385706426387 -0.42741494250087131 0 0.069453759390988398 -0.42132800350128169 0 0.063197636832914461 -0.41168556435856762 0 0.07537104025945629 -0.41127886957325749 0 0.063197636832914461 -0.41168556435856762 0 0.07537104025945629 -0.41127886957325749 0 0.065904144164286402 -0.40073968962640599 0 0.069453759390988398 -0.42132800350128169 0 0.07537104025945629 -0.41127886957325749 0 0.081058420200321543 -0.42205729375234818 0 0.087592263100537152 -0.41333200467089393 0 0.103276441771791 -0.41222420610713378 0 0.080323285112314208 -0.39783767840101419 0 0.07537104025945629 -0.41127886957325749 0 0.087592263100537152 -0.41333200467089393 0 0.081058420200321543 -0.42205729375234818 0 0.07537104025945629 -0.41127886957325749 0 0.087592263100537152 -0.41333200467089393 0 0.080323285112314208 -0.39783767840101419 0 0.087592263100537152 -0.41333200467089393 0 0.081058420200321543 -0.42205729375234818 0 0.094382988918007435 -0.42570981921973872 0 0.081058420200321543 -0.42205729375234818 0 0.081565946661028801 -0.43646236999440441 0 0.094382988918007435 -0.42570981921973872 0 0.096374452647536371 -0.44083359108276088 0 0.081565946661028801 -0.43646236999440441 0 0.094382988918007435 -0.42570981921973872 0 0.096374452647536371 -0.44083359108276088 0 0.094382988918007435 -0.42570981921973872 0 0.1127808571991455 -0.4296543799334604 0 0.094382988918007435 -0.42570981921973872 0 0.1127808571991455 -0.4296543799334604 0 0.103276441771791 -0.41222420610713378 0 0.1275392518666742 -0.41040709911348211 0 0.13236798474785899 -0.4320801020831036 0 0.1127808571991455 -0.4296543799334604 0 0.13236798474785899 -0.4320801020831036 0 0.1165120425055826 -0.45007748601683578 0 0.1127808571991455 -0.4296543799334604 0 0.1275392518666742 -0.41040709911348211 0 0.1127808571991455 -0.4296543799334604 0 0.103276441771791 -0.41222420610713378 0 0.1275392518666742 -0.41040709911348211 0 0.103276441771791 -0.41222420610713378 0 0.1146079743113428 -0.40063540382647722 0 0.087592263100537152 -0.41333200467089393 0 0.094382988918007435 -0.42570981921973872 0 0.103276441771791 -0.41222420610713378 0 0.11225135958835029 -0.38459949614894079 0 0.090121392588904878 -0.40264251335670831 0 0.103276441771791 -0.41222420610713378 0 0.1146079743113428 -0.40063540382647722 0 0.090121392588904878 -0.40264251335670831 0 0.1146079743113428 -0.40063540382647722 0 0.11225135958835029 -0.38459949614894079 0 0.090121392588904878 -0.40264251335670831 0 0.11225135958835029 -0.38459949614894079 0 0.090046346877513533 -0.39022311475335431 0 0.090121392588904878 -0.40264251335670831 0 0.13113203394749609 -0.38634306477909652 0 0.1275392518666742 -0.41040709911348211 0 0.1146079743113428 -0.40063540382647722 0 0.13113203394749609 -0.38634306477909652 0 0.1146079743113428 -0.40063540382647722 0 0.11225135958835029 -0.38459949614894079 0 0.11225135958835029 -0.38459949614894079 0 0.1164194778774393 -0.36846460229955258 0 0.10535563716808841 -0.37291171108179039 0 0.1343813265877957 -0.36655647894117332 0 0.11225135958835029 -0.38459949614894079 0 0.11225135958835029 -0.38459949614894079 0 0.094532604022814132 -0.38062266971243042 0 0.090046346877513533 -0.39022311475335431 0 0.11225135958835029 -0.38459949614894079 0 0.094532604022814132 -0.38062266971243042 0 0.10535563716808841 -0.37291171108179039 0 0.090046346877513533 -0.39022311475335431 0 0.080323285112314208 -0.39783767840101419 0 0.075348087539126807 -0.38027170932982612 0 0.094532604022814132 -0.38062266971243042 0 0.090046346877513533 -0.39022311475335431 0 0.075348087539126807 -0.38027170932982612 0 0.103276441771791 -0.41222420610713378 0 0.080323285112314208 -0.39783767840101419 0 0.103276441771791 -0.41222420610713378 0 0.090121392588904878 -0.40264251335670831 0 0.080323285112314208 -0.39783767840101419 0 0.090046346877513533 -0.39022311475335431 0 0.090121392588904878 -0.40264251335670831 0 0.080323285112314208 -0.39783767840101419 0 0.080323285112314208 -0.39783767840101419 0 0.057370128452837461 -0.38345115069489472 0 0.080323285112314208 -0.39783767840101419 0 0.065904144164286402 -0.40073968962640599 0 0.057370128452837461 -0.38345115069489472 0 0.07537104025945629 -0.41127886957325749 0 0.080323285112314208 -0.39783767840101419 0 0.065904144164286402 -0.40073968962640599 0 0.080323285112314208 -0.39783767840101419 0 0.075348087539126807 -0.38027170932982612 0 0.057370128452837461 -0.38345115069489472 0 0.075348087539126807 -0.38027170932982612 0 0.057370128452837461 -0.38345115069489472 0 0.054790370134846618 -0.36863202799171441 0 0.057370128452837461 -0.38345115069489472 0 0.053258630163909623 -0.39944518510429639 0 0.03648623183049516 -0.38634923032409763 0 0.065904144164286402 -0.40073968962640599 0 0.057370128452837461 -0.38345115069489472 0 0.053258630163909623 -0.39944518510429639 0 0.063197636832914461 -0.41168556435856762 0 0.065904144164286402 -0.40073968962640599 0 0.053258630163909623 -0.39944518510429639 0 0.037116576613720427 -0.4033599238575078 0 0.03648623183049516 -0.38634923032409763 0 0.024027326783822269 -0.40013115343717409 0 0.053258630163909623 -0.39944518510429639 0 0.037116576613720427 -0.4033599238575078 0 0.0484010307177948 -0.41220862853282919 0 0.053258630163909623 -0.39944518510429639 0 0.037116576613720427 -0.4033599238575078 0 0.03648623183049516 -0.38634923032409763 0 0.057370128452837461 -0.38345115069489472 0 0.03648623183049516 -0.38634923032409763 0 0.034416971793360729 -0.36906462298877513 0 0.057370128452837461 -0.38345115069489472 0 0.034416971793360729 -0.36906462298877513 0 0.03648623183049516 -0.38634923032409763 0 0.026928145752174171 -0.3780649163897768 0 0.034416971793360729 -0.36906462298877513 0 0.03648623183049516 -0.38634923032409763 0 0.026928145752174171 -0.3780649163897768 0 0.019877023345726368 -0.38645355421610189 0 0.026928145752174171 -0.3780649163897768 0 0.019877023345726368 -0.38645355421610189 0 0.01751032442041971 -0.37165764980072052 0 0.019877023345726368 -0.38645355421610189 0 0.0071643725519175668 -0.38188275708451119 0 0.01751032442041971 -0.37165764980072052 0 0.019877023345726368 -0.38645355421610189 0 0.0071643725519175668 -0.38188275708451119 0 0.0122958935085859 -0.39410727258189449 0 -0.0015159538051878281 -0.39394525353661852 0 0.0071643725519175668 -0.38188275708451119 0 0.0122958935085859 -0.39410727258189449 0 -0.0075572719349759621 -0.37649869444358169 0 0.0071643725519175668 -0.38188275708451119 0 0.0035412142629109009 -0.36697260963372241 0 -0.0015159538051878281 -0.39394525353661852 0 -0.0019778635458290168 -0.39713890466688878 0 0.0063834234806573811 -0.41675765137015403 0 -0.0015159538051878281 -0.39394525353661852 0 0.0063834234806573811 -0.41675765137015403 0 -0.0015159538051878281 -0.39394525353661852 0 0.013747007998759541 -0.40827574342650191 0 -0.0015159538051878281 -0.39394525353661852 0 0.0122958935085859 -0.39410727258189449 0 0.013747007998759541 -0.40827574342650191 0 0.03648623183049516 -0.38634923032409763 0 0.019877023345726368 -0.38645355421610189 0 0.024027326783822269 -0.40013115343717409 0 0.0122958935085859 -0.39410727258189449 0 0.024027326783822269 -0.40013115343717409 0 0.013747007998759541 -0.40827574342650191 0 0.019877023345726368 -0.38645355421610189 0 0.0122958935085859 -0.39410727258189449 0 0.024027326783822269 -0.40013115343717409 0 0.0063834234806573811 -0.41675765137015403 0 0.013747007998759541 -0.40827574342650191 0 0.029009969802707081 -0.42260623331638503 0 0.024027326783822269 -0.40013115343717409 0 0.013747007998759541 -0.40827574342650191 0 0.029009969802707081 -0.42260623331638503 0 0.037116576613720427 -0.4033599238575078 0 0.024027326783822269 -0.40013115343717409 0 0.029009969802707081 -0.42260623331638503 0 0.013747007998759541 -0.40827574342650191 0 0.029009969802707081 -0.42260623331638503 0 -0.0015159538051878281 -0.39394525353661852 0 0.0063834234806573811 -0.41675765137015403 0 0.013747007998759541 -0.40827574342650191 0 -0.0067188233582789816 -0.40739092672384841 0 0.0063834234806573811 -0.41675765137015403 0 0.0031016059069773122 -0.4294988458358488 0 0.0063834234806573811 -0.41675765137015403 0 0.014282800766502259 -0.43957004920368958 0 0.0063834234806573811 -0.41675765137015403 0 0.0031016059069773122 -0.4294988458358488 0 0.014282800766502259 -0.43957004920368958 0 0.029009969802707081 -0.42260623331638503 0 0.030798294916812938 -0.44344304005463281 0 0.014282800766502259 -0.43957004920368958 0 0.0063834234806573811 -0.41675765137015403 0 0.029009969802707081 -0.42260623331638503 0 0.014282800766502259 -0.43957004920368958 0 0.029009969802707081 -0.42260623331638503 0 0.044272931606654659 -0.43693672320626831 0 0.030798294916812938 -0.44344304005463281 0 0.029009969802707081 -0.42260623331638503 0 0.044272931606654659 -0.43693672320626831 0 0.029009969802707081 -0.42260623331638503 0 0.044272931606654659 -0.43693672320626831 0 0.044901460116357698 -0.42467534496416393 0 0.037116576613720427 -0.4033599238575078 0 0.029009969802707081 -0.42260623331638503 0 0.0484010307177948 -0.41220862853282919 0 0.029009969802707081 -0.42260623331638503 0 0.044901460116357698 -0.42467534496416393 0 0.0484010307177948 -0.41220862853282919 0 0.044901460116357698 -0.42467534496416393 0 0.0484010307177948 -0.41220862853282919 0 0.057427385706426387 -0.42741494250087131 0 0.063197636832914461 -0.41168556435856762 0 0.0484010307177948 -0.41220862853282919 0 0.057427385706426387 -0.42741494250087131 0 0.063197636832914461 -0.41168556435856762 0 0.053258630163909623 -0.39944518510429639 0 0.0484010307177948 -0.41220862853282919 0 0.067388181241293699 -0.44592578437432112 0 0.057427385706426387 -0.42741494250087131 0 0.044272931606654659 -0.43693672320626831 0 0.057427385706426387 -0.42741494250087131 0 0.054308803392388673 -0.44054641482204898 0 0.044272931606654659 -0.43693672320626831 0 0.044901460116357698 -0.42467534496416393 0 0.057427385706426387 -0.42741494250087131 0 0.067388181241293699 -0.44592578437432112 0 0.057427385706426387 -0.42741494250087131 0 0.054308803392388673 -0.44054641482204898 0 0.054308803392388673 -0.44054641482204898 0 0.057552540075833457 -0.4492743474086181 0 0.042871795413709279 -0.44755901876274728 0 0.044272931606654659 -0.43693672320626831 0 0.054308803392388673 -0.44054641482204898 0 0.042871795413709279 -0.44755901876274728 0 0.067388181241293699 -0.44592578437432112 0 0.054308803392388673 -0.44054641482204898 0 0.057552540075833457 -0.4492743474086181 0 0.057552540075833457 -0.4492743474086181 0 0.040507314002733323 -0.47156233619926391 0 0.057552540075833457 -0.4492743474086181 0 0.042871795413709279 -0.44755901876274728 0 0.040507314002733323 -0.47156233619926391 0 0.057552540075833457 -0.4492743474086181 0 0.051242482520751517 -0.46013637780469779 0 0.040507314002733323 -0.47156233619926391 0 0.077348976776161121 -0.46443662624777088 0 0.051242482520751517 -0.46013637780469779 0 0.051900068573295231 -0.47151025794443652 0 0.077348976776161121 -0.46443662624777088 0 0.057552540075833457 -0.4492743474086181 0 0.051242482520751517 -0.46013637780469779 0 0.051242482520751517 -0.46013637780469779 0 0.040507314002733323 -0.47156233619926391 0 0.051900068573295231 -0.47151025794443652 0 0.034089895596400903 -0.4562367105134672 0 0.042871795413709279 -0.44755901876274728 0 0.040507314002733323 -0.47156233619926391 0 0.042871795413709279 -0.44755901876274728 0 0.040507314002733323 -0.47156233619926391 0 0.034089895596400903 -0.4562367105134672 0 0.022182178052347099 -0.46238244703722498 0 0.040507314002733323 -0.47156233619926391 0 0.034089895596400903 -0.4562367105134672 0 0.042871795413709279 -0.44755901876274728 0 0.030798294916812938 -0.44344304005463281 0 0.044272931606654659 -0.43693672320626831 0 0.042871795413709279 -0.44755901876274728 0 0.030798294916812938 -0.44344304005463281 0 0.014282800766502259 -0.43957004920368958 0 0.022182178052347099 -0.46238244703722498 0 0.030798294916812938 -0.44344304005463281 0 0.014282800766502259 -0.43957004920368958 0 0.022182178052347099 -0.46238244703722498 0 0.014282800766502259 -0.43957004920368958 0 0.012922035172233601 -0.45160676494784918 0 0.022182178052347099 -0.46238244703722498 0 0.0031016059069773122 -0.4294988458358488 0 0.012922035172233601 -0.45160676494784918 0 -0.00085677679244291777 -0.44417084653599809 0 0.0031016059069773122 -0.4294988458358488 0 0.012922035172233601 -0.45160676494784918 0 0.0031016059069773122 -0.4294988458358488 0 0.014282800766502259 -0.43957004920368958 0 0.012922035172233601 -0.45160676494784918 0 -0.00085677679244291777 -0.44417084653599809 0 -0.00039121293316641458 -0.45646904567698232 0 0.012922035172233601 -0.45160676494784918 0 -0.00039121293316641458 -0.45646904567698232 0 -0.001756890738855816 -0.47423604232798888 0 0.0096642726156979334 -0.46444223232668352 0 -0.00039121293316641458 -0.45646904567698232 0 0.012922035172233601 -0.45160676494784918 0 0.0096642726156979334 -0.46444223232668352 0 0.012922035172233601 -0.45160676494784918 0 0.0096642726156979334 -0.46444223232668352 0 0.022182178052347099 -0.46238244703722498 0 0.034089895596400903 -0.4562367105134672 0 0.030798294916812938 -0.44344304005463281 0 0.022182178052347099 -0.46238244703722498 0 0.0096642726156979334 -0.46444223232668352 0 0.022182178052347099 -0.46238244703722498 0 0.0153652535259312 -0.47751686164337209 0 0.022182178052347099 -0.46238244703722498 0 0.030081555338192859 -0.48519484487076031 0 0.040507314002733323 -0.47156233619926391 0 0.022182178052347099 -0.46238244703722498 0 0.030081555338192859 -0.48519484487076031 0 0.022182178052347099 -0.46238244703722498 0 0.0153652535259312 -0.47751686164337209 0 0.030081555338192859 -0.48519484487076031 0 -0.001756890738855816 -0.47423604232798888 0 0.0096642726156979334 -0.46444223232668352 0 0.0153652535259312 -0.47751686164337209 0 -0.001756890738855816 -0.47423604232798888 0 0.0153652535259312 -0.47751686164337209 0 0.0055322331112882912 -0.48922459921452538 0 0.0153652535259312 -0.47751686164337209 0 0.0055322331112882912 -0.48922459921452538 0 0.018758989691036041 -0.49999999999999989 0 -0.0085657209220548203 -0.5 0 0.0055322331112882912 -0.48922459921452538 0 0.018758989691036041 -0.49999999999999989 0 0.018758989691036041 -0.49999999999999989 0 0.030081555338192859 -0.48519484487076031 0 0.03520821966319844 -0.49999999999998213 0 0.0153652535259312 -0.47751686164337209 0 0.018758989691036041 -0.49999999999999989 0 0.030081555338192859 -0.48519484487076031 0 0.018758989691036041 -0.49999999999999989 0 0.030081555338192859 -0.48519484487076031 0 0.030081555338192859 -0.48519484487076031 0 0.03520821966319844 -0.49999999999998213 0 0.037706020906218218 -0.50000000000000056 0 0.037706020906218218 -0.50000000000000056 0 0.040507314002733323 -0.47156233619926391 0 0.030081555338192859 -0.48519484487076031 0 0.03520821966319844 -0.49999999999998213 0 0.037706020906218218 -0.50000000000000056 0 0.040507314002733323 -0.47156233619926391 0 0.057503398884302372 -0.48180981277180962 0 0.030081555338192859 -0.48519484487076031 0 0.037706020906218218 -0.50000000000000056 0 0.040507314002733323 -0.47156233619926391 0 0.030081555338192859 -0.48519484487076031 0 0.040507314002733323 -0.47156233619926391 0 0.040507314002733323 -0.47156233619926391 0 0.057503398884302372 -0.48180981277180962 0 0.051900068573295231 -0.47151025794443652 0 0.077348976776161121 -0.46443662624777088 0 0.057503398884302372 -0.48180981277180962 0 0.051900068573295231 -0.47151025794443652 0 0.064669792573057938 -0.5 0 0.037706020906218218 -0.50000000000000056 0 0.057503398884302372 -0.48180981277180962 0 0.088841248054252309 -0.28754563057147142 0 0.08925946722801012 -0.30923058791549812 0 0.074452550344005067 -0.30256438433946481 0 0.08925946722801012 -0.30923058791549812 0 0.074452550344005067 -0.30256438433946481 0 0.074298928207023579 -0.31943810892174929 0 0.074452550344005067 -0.30256438433946481 0 0.074298928207023579 -0.31943810892174929 0 0.056927943826482377 -0.30860284715570968 0 0.074452550344005067 -0.30256438433946481 0 0.062935164404257019 -0.28800474713289559 0 0.056927943826482377 -0.30860284715570968 0 0.088841248054252309 -0.28754563057147142 0 0.062935164404257019 -0.28800474713289559 0 0.076267738980467875 -0.27175239557403241 0 0.088841248054252309 -0.28754563057147142 0 0.074452550344005067 -0.30256438433946481 0 0.062935164404257019 -0.28800474713289559 0 0.062935164404257019 -0.28800474713289559 0 0.076267738980467875 -0.27175239557403241 0 0.061800805684101831 -0.26335922054748051 0 0.061800805684101831 -0.26335922054748051 0 0.054694275298176727 -0.23988253662446871 0 0.073355428807057935 -0.2470476318814433 0 0.076267738980467875 -0.27175239557403241 0 0.061800805684101831 -0.26335922054748051 0 0.073355428807057935 -0.2470476318814433 0 0.091706975807796659 -0.26314261310895559 0 0.094572703561341426 -0.23873959564643979 0 0.076267738980467875 -0.27175239557403241 0 0.091706975807796659 -0.26314261310895559 0 0.073355428807057935 -0.2470476318814433 0 0.088841248054252309 -0.28754563057147142 0 0.091706975807796659 -0.26314261310895559 0 0.088841248054252309 -0.28754563057147142 0 0.076267738980467875 -0.27175239557403241 0 0.091706975807796659 -0.26314261310895559 0 0.088841248054252309 -0.28754563057147142 0 0.1017388855570915 -0.26880134509430298 0 0.10617772108193491 -0.27942947757764119 0 0.1017388855570915 -0.26880134509430298 0 0.10617772108193491 -0.27942947757764119 0 0.10919393787671119 -0.26002167221818628 0 0.10617772108193491 -0.27942947757764119 0 0.10919393787671119 -0.26002167221818628 0 0.088841248054252309 -0.28754563057147142 0 0.091706975807796659 -0.26314261310895559 0 0.1017388855570915 -0.26880134509430298 0 0.10919393787671119 -0.26002167221818628 0 0.110380179969193 -0.25238881383743428 0 0.094572703561341426 -0.23873959564643979 0 0.091706975807796659 -0.26314261310895559 0 0.1017388855570915 -0.26880134509430298 0 0.10919393787671119 -0.26002167221818628 0 0.091706975807796659 -0.26314261310895559 0 0.10919393787671119 -0.26002167221818628 0 0.094572703561341426 -0.23873959564643979 0 0.1216510438795569 -0.26534861800596082 0 0.12629816317163689 -0.23799161899509089 0 0.110380179969193 -0.25238881383743428 0 0.1216510438795569 -0.26534861800596082 0 0.12629816317163689 -0.23799161899509089 0 0.10919393787671119 -0.26002167221818628 0 0.110380179969193 -0.25238881383743428 0 0.10919393787671119 -0.26002167221818628 0 0.110380179969193 -0.25238881383743428 0 0.1216510438795569 -0.26534861800596082 0 0.110380179969193 -0.25238881383743428 0 0.1216510438795569 -0.26534861800596082 0 0.10919393787671119 -0.26002167221818628 0 0.11285594205942399 -0.27621036752166178 0 0.1199070558997665 -0.2756152529768921 0 0.10617772108193491 -0.27942947757764119 0 0.10919393787671119 -0.26002167221818628 0 0.11285594205942399 -0.27621036752166178 0 0.10617772108193491 -0.27942947757764119 0 0.11285594205942399 -0.27621036752166178 0 0.11181881576460539 -0.28502751746682842 0 0.11285594205942399 -0.27621036752166178 0 0.1192698027901965 -0.27936668081689109 0 0.11181881576460539 -0.28502751746682842 0 0.10919393787671119 -0.26002167221818628 0 0.1199070558997665 -0.2756152529768921 0 0.10919393787671119 -0.26002167221818628 0 0.1216510438795569 -0.26534861800596082 0 0.1199070558997665 -0.2756152529768921 0 0.12869775419521359 -0.27345127867594482 0 0.1216510438795569 -0.26534861800596082 0 0.1199070558997665 -0.2756152529768921 0 0.1216510438795569 -0.26534861800596082 0 0.1199070558997665 -0.2756152529768921 0 0.1192698027901965 -0.27936668081689109 0 0.1217119657739448 -0.27824240669857869 0 0.11181881576460539 -0.28502751746682842 0 0.12869775419521359 -0.27345127867594482 0 0.1199070558997665 -0.2756152529768921 0 0.1217119657739448 -0.27824240669857869 0 0.11285594205942399 -0.27621036752166178 0 0.1199070558997665 -0.2756152529768921 0 0.1192698027901965 -0.27936668081689109 0 0.1199070558997665 -0.2756152529768921 0 0.1217119657739448 -0.27824240669857869 0 0.1199070558997665 -0.2756152529768921 0 0.1192698027901965 -0.27936668081689109 0 0.1199070558997665 -0.2756152529768921 0 0.1192698027901965 -0.27936668081689109 0 0.1217119657739448 -0.27824240669857869 0 0.1217119657739448 -0.27824240669857869 0 0.1215480224228756 -0.29147622864376582 0 0.11181881576460539 -0.28502751746682842 0 0.12566154821000311 -0.30243398926056081 0 0.1215480224228756 -0.29147622864376582 0 0.1141427982532429 -0.29590201854204251 0 0.1215480224228756 -0.29147622864376582 0 0.1141427982532429 -0.29590201854204251 0 0.11181881576460539 -0.28502751746682842 0 0.1141427982532429 -0.29590201854204251 0 0.11181881576460539 -0.28502751746682842 0 0.1031615042871617 -0.29883728293709649 0 0.1217119657739448 -0.27824240669857869 0 0.11181881576460539 -0.28502751746682842 0 0.10617772108193491 -0.27942947757764119 0 0.11181881576460539 -0.28502751746682842 0 0.1031615042871617 -0.29883728293709649 0 0.088841248054252309 -0.28754563057147142 0 0.10617772108193491 -0.27942947757764119 0 0.1031615042871617 -0.29883728293709649 0 0.10617772108193491 -0.27942947757764119 0 0.1031615042871617 -0.29883728293709649 0 0.088841248054252309 -0.28754563057147142 0 0.08925946722801012 -0.30923058791549812 0 0.1031615042871617 -0.29883728293709649 0 0.1031615042871617 -0.29883728293709649 0 0.1173664027659666 -0.30604109350947462 0 0.1056722698941675 -0.31783682442199118 0 0.08925946722801012 -0.30923058791549812 0 0.1031615042871617 -0.29883728293709649 0 0.1056722698941675 -0.31783682442199118 0 0.1141427982532429 -0.29590201854204251 0 0.1031615042871617 -0.29883728293709649 0 0.1173664027659666 -0.30604109350947462 0 0.12566154821000311 -0.30243398926056081 0 0.1141427982532429 -0.29590201854204251 0 0.1173664027659666 -0.30604109350947462 0 0.1304157201778631 -0.31455018048044359 0 0.12566154821000311 -0.30243398926056081 0 0.1173664027659666 -0.30604109350947462 0 0.1304157201778631 -0.31455018048044359 0 0.1173664027659666 -0.30604109350947462 0 0.1196153766217003 -0.31834555168308359 0 0.1173664027659666 -0.30604109350947462 0 0.1196153766217003 -0.31834555168308359 0 0.1056722698941675 -0.31783682442199118 0 0.1196153766217003 -0.31834555168308359 0 0.1158473901860272 -0.32904281754962578 0 0.1056722698941675 -0.31783682442199118 0 0.12763385932923721 -0.32818683299039292 0 0.1196153766217003 -0.31834555168308359 0 0.1158473901860272 -0.32904281754962578 0 0.12763385932923721 -0.32818683299039292 0 0.1205498513969674 -0.34280919855657882 0 0.1158473901860272 -0.32904281754962578 0 0.1205498513969674 -0.34280919855657882 0 0.1158473901860272 -0.32904281754962578 0 0.1035710803367742 -0.33854656298411828 0 0.1158473901860272 -0.32904281754962578 0 0.1035710803367742 -0.33854656298411828 0 0.1056722698941675 -0.31783682442199118 0 0.08925946722801012 -0.30923058791549812 0 0.1056722698941675 -0.31783682442199118 0 0.091046253812183883 -0.32530781583322849 0 0.1035710803367742 -0.33854656298411828 0 0.1056722698941675 -0.31783682442199118 0 0.091046253812183883 -0.32530781583322849 0 0.12753577774158109 -0.35723144939643259 0 0.1164194778774393 -0.36846460229955258 0 0.098219107183749849 -0.35796007616623798 0 0.1343813265877957 -0.36655647894117332 0 0.11225135958835029 -0.38459949614894079 0 0.1164194778774393 -0.36846460229955258 0 0.12753577774158109 -0.35723144939643259 0 0.1205498513969674 -0.34280919855657882 0 0.098219107183749849 -0.35796007616623798 0 0.12753577774158109 -0.35723144939643259 0 0.098219107183749849 -0.35796007616623798 0 0.1205498513969674 -0.34280919855657882 0 0.1035710803367742 -0.33854656298411828 0 0.098219107183749849 -0.35796007616623798 0 0.1035710803367742 -0.33854656298411828 0 0.098219107183749849 -0.35796007616623798 0 0.082429523394943957 -0.34148699492278561 0 0.1164194778774393 -0.36846460229955258 0 0.098219107183749849 -0.35796007616623798 0 0.10535563716808841 -0.37291171108179039 0 0.094532604022814132 -0.38062266971243042 0 0.098219107183749849 -0.35796007616623798 0 0.10535563716808841 -0.37291171108179039 0 0.075348087539126807 -0.38027170932982612 0 0.098219107183749849 -0.35796007616623798 0 0.068902436625918551 -0.35868870293604349 0 0.094532604022814132 -0.38062266971243042 0 0.075348087539126807 -0.38027170932982612 0 0.098219107183749849 -0.35796007616623798 0 0.098219107183749849 -0.35796007616623798 0 0.068902436625918551 -0.35868870293604349 0 0.098219107183749849 -0.35796007616623798 0 0.068902436625918551 -0.35868870293604349 0 0.082429523394943957 -0.34148699492278561 0 0.068902436625918551 -0.35868870293604349 0 0.082429523394943957 -0.34148699492278561 0 0.058669042170628252 -0.34288247773910829 0 0.075348087539126807 -0.38027170932982612 0 0.068902436625918551 -0.35868870293604349 0 0.054790370134846618 -0.36863202799171441 0 0.08925946722801012 -0.30923058791549812 0 0.091046253812183883 -0.32530781583322849 0 0.074298928207023579 -0.31943810892174929 0 0.091046253812183883 -0.32530781583322849 0 0.082429523394943957 -0.34148699492278561 0 0.074298928207023579 -0.31943810892174929 0 0.1035710803367742 -0.33854656298411828 0 0.091046253812183883 -0.32530781583322849 0 0.082429523394943957 -0.34148699492278561 0 0.082429523394943957 -0.34148699492278561 0 0.074298928207023579 -0.31943810892174929 0 0.058669042170628252 -0.34288247773910829 0 0.074298928207023579 -0.31943810892174929 0 0.050538430793637713 -0.32830905795228038 0 0.056927943826482377 -0.30860284715570968 0 0.074298928207023579 -0.31943810892174929 0 0.050538430793637713 -0.32830905795228038 0 0.050538430793637713 -0.32830905795228038 0 0.041059604151233588 -0.31309427197840728 0 0.056927943826482377 -0.30860284715570968 0 0.050538430793637713 -0.32830905795228038 0 0.058669042170628252 -0.34288247773910829 0 0.040628219749842973 -0.34430896590540427 0 0.074298928207023579 -0.31943810892174929 0 0.050538430793637713 -0.32830905795228038 0 0.058669042170628252 -0.34288247773910829 0 0.050538430793637713 -0.32830905795228038 0 0.03096342670624504 -0.32111712144304833 0 0.02677793338025182 -0.33718000698281142 0 0.050538430793637713 -0.32830905795228038 0 0.040628219749842973 -0.34430896590540427 0 0.02677793338025182 -0.33718000698281142 0 0.050538430793637713 -0.32830905795228038 0 0.02677793338025182 -0.33718000698281142 0 0.041059604151233588 -0.31309427197840728 0 0.03096342670624504 -0.32111712144304833 0 0.0219646249896089 -0.30476809359963369 0 0.050538430793637713 -0.32830905795228038 0 0.041059604151233588 -0.31309427197840728 0 0.03096342670624504 -0.32111712144304833 0 0.068902436625918551 -0.35868870293604349 0 0.054790370134846618 -0.36863202799171441 0 0.039585766068087128 -0.35941732970584889 0 0.057370128452837461 -0.38345115069489472 0 0.054790370134846618 -0.36863202799171441 0 0.034416971793360729 -0.36906462298877513 0 0.068902436625918551 -0.35868870293604349 0 0.039585766068087128 -0.35941732970584889 0 0.068902436625918551 -0.35868870293604349 0 0.058669042170628252 -0.34288247773910829 0 0.039585766068087128 -0.35941732970584889 0 0.058669042170628252 -0.34288247773910829 0 0.040628219749842973 -0.34430896590540427 0 0.039585766068087128 -0.35941732970584889 0 0.040628219749842973 -0.34430896590540427 0 0.02939036459314508 -0.35140357960924867 0 0.02677793338025182 -0.33718000698281142 0 0.040628219749842973 -0.34430896590540427 0 0.039585766068087128 -0.35941732970584889 0 0.02939036459314508 -0.35140357960924867 0 0.039585766068087128 -0.35941732970584889 0 0.028714229397119231 -0.35864090689663197 0 0.02939036459314508 -0.35140357960924867 0 0.054790370134846618 -0.36863202799171441 0 0.039585766068087128 -0.35941732970584889 0 0.034416971793360729 -0.36906462298877513 0 0.039585766068087128 -0.35941732970584889 0 0.034416971793360729 -0.36906462298877513 0 0.028714229397119231 -0.35864090689663197 0 0.034416971793360729 -0.36906462298877513 0 0.01751032442041971 -0.37165764980072052 0 0.011463815133884 -0.35467809528265548 0 0.026928145752174171 -0.3780649163897768 0 0.034416971793360729 -0.36906462298877513 0 0.01751032442041971 -0.37165764980072052 0 0.034416971793360729 -0.36906462298877513 0 0.028714229397119231 -0.35864090689663197 0 0.011463815133884 -0.35467809528265548 0 0.034416971793360729 -0.36906462298877513 0 0.011463815133884 -0.35467809528265548 0 0.02939036459314508 -0.35140357960924867 0 0.011463815133884 -0.35467809528265548 0 0.02677793338025182 -0.33718000698281142 0 0.028714229397119231 -0.35864090689663197 0 0.02939036459314508 -0.35140357960924867 0 0.011463815133884 -0.35467809528265548 0 0.0024528653955408351 -0.34538775859553839 0 0.011463815133884 -0.35467809528265548 0 0.02677793338025182 -0.33718000698281142 0 0.0024528653955408351 -0.34538775859553839 0 0.001105968824724096 -0.3566884490700663 0 0.011463815133884 -0.35467809528265548 0 0.01751032442041971 -0.37165764980072052 0 0.011463815133884 -0.35467809528265548 0 0.0035412142629109009 -0.36697260963372241 0 0.001105968824724096 -0.3566884490700663 0 0.011463815133884 -0.35467809528265548 0 0.0035412142629109009 -0.36697260963372241 0 0.0071643725519175668 -0.38188275708451119 0 0.01751032442041971 -0.37165764980072052 0 0.0035412142629109009 -0.36697260963372241 0 0.03096342670624504 -0.32111712144304833 0 0.015877006255510279 -0.32223201669941293 0 0.0086824183207449973 -0.3400846283967997 0 0.03096342670624504 -0.32111712144304833 0 0.015877006255510279 -0.32223201669941293 0 0.0219646249896089 -0.30476809359963369 0 0.03096342670624504 -0.32111712144304833 0 0.0086824183207449973 -0.3400846283967997 0 0.03096342670624504 -0.32111712144304833 0 0.02677793338025182 -0.33718000698281142 0 0.0086824183207449973 -0.3400846283967997 0 0.0024528653955408351 -0.34538775859553839 0 0.02677793338025182 -0.33718000698281142 0 0.0086824183207449973 -0.3400846283967997 0 -0.0077483855274109387 -0.34116956604877502 0 0.0024528653955408351 -0.34538775859553839 0 0.0086824183207449973 -0.3400846283967997 0 0.015877006255510279 -0.32223201669941293 0 0.0086824183207449973 -0.3400846283967997 0 0.0070093699560254009 -0.32769731074853747 0 0.0024528653955408351 -0.34538775859553839 0 0.02677793338025182 -0.33718000698281142 0 0.0024528653955408351 -0.34538775859553839 0 0.0086824183207449973 -0.3400846283967997 0 -0.0044447892489900718 -0.32969051038175518 0 0.0086824183207449973 -0.3400846283967997 0 0.0070093699560254009 -0.32769731074853747 0 -0.0044447892489900718 -0.32969051038175518 0 0.0070093699560254009 -0.32769731074853747 0 0.0058723819768978468 -0.31694601211133538 0 0.015877006255510279 -0.32223201669941293 0 0.0058723819768978468 -0.31694601211133538 0 0.0219646249896089 -0.30476809359963369 0 0.015877006255510279 -0.32223201669941293 0 0.0070093699560254009 -0.32769731074853747 0 0.0058723819768978468 -0.31694601211133538 0 0.0058723819768978468 -0.31694601211133538 0 0.00031641118386317669 -0.3042045703593983 0 0.0219646249896089 -0.30476809359963369 0 0.00031641118386317669 -0.3042045703593983 0 0.0075055536791457074 -0.29233204768325283 0 0.0219646249896089 -0.30476809359963369 0 -0.0069447964901112672 -0.28563677671735072 0 0.0075055536791457074 -0.29233204768325283 0 0.0071700150999407094 -0.27189152047923321 0 0.0075055536791457074 -0.29233204768325283 0 0.017892289068430978 -0.28296126998593019 0 0.0071700150999407094 -0.27189152047923321 0 -0.0069447964901112672 -0.28563677671735072 0 0.00031641118386317669 -0.3042045703593983 0 0.0075055536791457074 -0.29233204768325283 0 0.017892289068430978 -0.28296126998593019 0 0.038875738718588529 -0.29752351937858962 0 0.03152599439290274 -0.27577596607295279 0 0.017892289068430978 -0.28296126998593019 0 0.0219646249896089 -0.30476809359963369 0 0.038875738718588529 -0.29752351937858962 0 0.0075055536791457074 -0.29233204768325283 0 0.017892289068430978 -0.28296126998593019 0 0.0219646249896089 -0.30476809359963369 0 0.041059604151233588 -0.31309427197840728 0 0.038875738718588529 -0.29752351937858962 0 0.056927943826482377 -0.30860284715570968 0 0.041059604151233588 -0.31309427197840728 0 0.0219646249896089 -0.30476809359963369 0 0.038875738718588529 -0.29752351937858962 0 0.038875738718588529 -0.29752351937858962 0 0.047540759087191103 -0.2803327611346671 0 0.03152599439290274 -0.27577596607295279 0 0.038875738718588529 -0.29752351937858962 0 0.03152599439290274 -0.27577596607295279 0 0.062935164404257019 -0.28800474713289559 0 0.038875738718588529 -0.29752351937858962 0 0.047540759087191103 -0.2803327611346671 0 0.062935164404257019 -0.28800474713289559 0 0.038875738718588529 -0.29752351937858962 0 0.056927943826482377 -0.30860284715570968 0 0.061800805684101831 -0.26335922054748051 0 0.042893672707619721 -0.25029392088765812 0 0.054694275298176727 -0.23988253662446871 0 0.061800805684101831 -0.26335922054748051 0 0.045072132210446487 -0.26584961867390428 0 0.042893672707619721 -0.25029392088765812 0 0.061800805684101831 -0.26335922054748051 0 0.042893672707619721 -0.25029392088765812 0 0.061800805684101831 -0.26335922054748051 0 0.047540759087191103 -0.2803327611346671 0 0.045072132210446487 -0.26584961867390428 0 0.062935164404257019 -0.28800474713289559 0 0.061800805684101831 -0.26335922054748051 0 0.047540759087191103 -0.2803327611346671 0 0.047540759087191103 -0.2803327611346671 0 0.045072132210446487 -0.26584961867390428 0 0.03152599439290274 -0.27577596607295279 0 0.045072132210446487 -0.26584961867390428 0 0.03152599439290274 -0.27577596607295279 0 0.032296795585815427 -0.25825762710925798 0 0.045072132210446487 -0.26584961867390428 0 0.032296795585815427 -0.25825762710925798 0 0.042893672707619721 -0.25029392088765812 0 0.03152599439290274 -0.27577596607295279 0 0.02417625006721693 -0.25402841276731608 0 0.01859067246521982 -0.26637988400692902 0 0.03152599439290274 -0.27577596607295279 0 0.032296795585815427 -0.25825762710925798 0 0.02417625006721693 -0.25402841276731608 0 0.03152599439290274 -0.27577596607295279 0 0.02417625006721693 -0.25402841276731608 0 0.02417625006721693 -0.25402841276731608 0 0.01859067246521982 -0.26637988400692902 0 0.01472545987435829 -0.25385091769452922 0 0.02417625006721693 -0.25402841276731608 0 0.01472545987435829 -0.25385091769452922 0 0.01496555629420095 -0.24481968116939309 0 0.017892289068430978 -0.28296126998593019 0 0.03152599439290274 -0.27577596607295279 0 0.01859067246521982 -0.26637988400692902 0 0.017892289068430978 -0.28296126998593019 0 0.01859067246521982 -0.26637988400692902 0 0.0071700150999407094 -0.27189152047923321 0 0.01859067246521982 -0.26637988400692902 0 0.0071700150999407094 -0.27189152047923321 0 0.006752191916760482 -0.25939899553165929 0 -0.0063989791616554503 -0.26667991422344189 0 0.0071700150999407094 -0.27189152047923321 0 0.006752191916760482 -0.25939899553165929 0 0.01472545987435829 -0.25385091769452922 0 0.006752191916760482 -0.25939899553165929 0 0.0057768166891493111 -0.24666274859870019 0 0.01859067246521982 -0.26637988400692902 0 0.01472545987435829 -0.25385091769452922 0 0.006752191916760482 -0.25939899553165929 0 -0.00368050083723665 -0.25337368755914491 0 0.006752191916760482 -0.25939899553165929 0 0.0057768166891493111 -0.24666274859870019 0 0.01472545987435829 -0.25385091769452922 0 0.0057768166891493111 -0.24666274859870019 0 0.01496555629420095 -0.24481968116939309 0 0.0057768166891493111 -0.24666274859870019 0 0.01496555629420095 -0.24481968116939309 0 0.009298115431778017 -0.23852775356654851 0 0.01496555629420095 -0.24481968116939309 0 0.009298115431778017 -0.23852775356654851 0 0.01682650574153215 -0.2322808594616789 0 0.0057768166891493111 -0.24666274859870019 0 0.009298115431778017 -0.23852775356654851 0 0.0023950332764032349 -0.23684412936952151 0 0.009298115431778017 -0.23852775356654851 0 0.0023950332764032349 -0.23684412936952151 0 0.0065266651576054574 -0.2320313492334484 0 0.01682650574153215 -0.2322808594616789 0 0.014415620519557649 -0.2130095213696887 0 0.0102979620918083 -0.21296320095016699 0 0.01682650574153215 -0.2322808594616789 0 0.0102979620918083 -0.21296320095016699 0 -0.0037859090678201679 -0.21803716759513511 0 0.01682650574153215 -0.2322808594616789 0 0.0102979620918083 -0.21296320095016699 0 0.0065266651576054574 -0.2320313492334484 0 0.00048648352289240582 -0.22285620972316481 0 0.01682650574153215 -0.2322808594616789 0 -0.0037859090678201679 -0.21803716759513511 0 0.00048648352289240582 -0.22285620972316481 0 0.01682650574153215 -0.2322808594616789 0 -2.7250177233395171e-05 -0.2298702989953533 0 0.0065266651576054574 -0.2320313492334484 0 0.00048648352289240582 -0.22285620972316481 0 -0.0037859090678201679 -0.21803716759513511 0 0.01682650574153215 -0.2322808594616789 0 -2.7250177233395171e-05 -0.2298702989953533 0 0.0023950332764032349 -0.23684412936952151 0 0.0065266651576054574 -0.2320313492334484 0 0.009298115431778017 -0.23852775356654851 0 0.0065266651576054574 -0.2320313492334484 0 0.01682650574153215 -0.2322808594616789 0 0.028026784272390928 -0.2253903284795723 0 0.023986539731139438 -0.237228621227833 0 0.039917031278054051 -0.23302410620693281 0 0.023986539731139438 -0.237228621227833 0 0.014415620519557649 -0.2130095213696887 0 0.028026784272390928 -0.2253903284795723 0 0.023986539731139438 -0.237228621227833 0 0.014415620519557649 -0.2130095213696887 0 0.028026784272390928 -0.2253903284795723 0 0.014415620519557649 -0.2130095213696887 0 0.0337879455608101 -0.21829906511383559 0 0.01682650574153215 -0.2322808594616789 0 0.023986539731139438 -0.237228621227833 0 0.014415620519557649 -0.2130095213696887 0 0.032296795585815427 -0.25825762710925798 0 0.02417625006721693 -0.25402841276731608 0 0.023986539731139438 -0.237228621227833 0 0.02417625006721693 -0.25402841276731608 0 0.01496555629420095 -0.24481968116939309 0 0.01682650574153215 -0.2322808594616789 0 0.032296795585815427 -0.25825762710925798 0 0.023986539731139438 -0.237228621227833 0 0.02417625006721693 -0.25402841276731608 0 0.01682650574153215 -0.2322808594616789 0 0.023986539731139438 -0.237228621227833 0 0.02417625006721693 -0.25402841276731608 0 0.01682650574153215 -0.2322808594616789 0 0.01682650574153215 -0.2322808594616789 0 0.023986539731139438 -0.237228621227833 0 0.0048447013079721286 -0.18879042151154579 0 0.014415620519557649 -0.2130095213696887 0 0.0048447013079721286 -0.18879042151154579 0 0.0037694184420872042 -0.19364554243865401 0 0.014415620519557649 -0.2130095213696887 0 0.0037694184420872042 -0.19364554243865401 0 0.003339012976851909 -0.19558891068873779 0 0.0102979620918083 -0.21296320095016699 0 0.0048447013079721286 -0.18879042151154579 0 0.014415620519557649 -0.2130095213696887 0 0.020316237143062809 -0.1933553786962933 0 -0.00081075560289291249 -0.18009301941494149 0 0.0048447013079721286 -0.18879042151154579 0 0.0037694184420872042 -0.19364554243865401 0 0.0048447013079721286 -0.18879042151154579 0 0.0037694184420872042 -0.19364554243865401 0 0.0037694184420872042 -0.19364554243865401 0 0.003339012976851909 -0.19558891068873779 0 -0.003630438674382177 -0.19797922234589849 0 0.003339012976851909 -0.19558891068873779 0 0.001691091907484308 -0.20325462213238549 0 -0.003630438674382177 -0.19797922234589849 0 0.0037694184420872042 -0.19364554243865401 0 0.003339012976851909 -0.19558891068873779 0 0.003339012976851909 -0.19558891068873779 0 0.001691091907484308 -0.20325462213238549 0 0.0102979620918083 -0.21296320095016699 0 0.0037694184420872042 -0.19364554243865401 0 0.0102979620918083 -0.21296320095016699 0 0.0037694184420872042 -0.19364554243865401 0 0.014415620519557649 -0.2130095213696887 0 0.0102979620918083 -0.21296320095016699 0 -0.003242168764340803 -0.2064871545447389 0 0.001691091907484308 -0.20325462213238549 0 0.0102979620918083 -0.21296320095016699 0 -0.0037859090678201679 -0.21803716759513511 0 -0.003242168764340803 -0.2064871545447389 0 0.0102979620918083 -0.21296320095016699 0 0.014415620519557649 -0.2130095213696887 0 0.033463822190299607 -0.20143408271977931 0 0.0337879455608101 -0.21829906511383559 0 0.020316237143062809 -0.1933553786962933 0 0.033463822190299607 -0.20143408271977931 0 0.03082115865331839 -0.18357243204218529 0 0.014415620519557649 -0.2130095213696887 0 0.020316237143062809 -0.1933553786962933 0 0.033463822190299607 -0.20143408271977931 0 0.033463822190299607 -0.20143408271977931 0 0.045842701811148683 -0.1869926903090659 0 0.03082115865331839 -0.18357243204218529 0 0.033463822190299607 -0.20143408271977931 0 0.047198878952829738 -0.20096965170932291 0 0.045842701811148683 -0.1869926903090659 0 0.033463822190299607 -0.20143408271977931 0 0.042690715276097198 -0.21048078979593091 0 0.0337879455608101 -0.21829906511383559 0 0.033463822190299607 -0.20143408271977931 0 0.042690715276097198 -0.21048078979593091 0 0.047198878952829738 -0.20096965170932291 0 0.042690715276097198 -0.21048078979593091 0 0.0337879455608101 -0.21829906511383559 0 0.045801328849237488 -0.221536765992107 0 0.053201600827309098 -0.21016438344460961 0 0.063926614450801292 -0.2124202196295234 0 0.062682219869886646 -0.19232109901391339 0 0.042690715276097198 -0.21048078979593091 0 0.053201600827309098 -0.21016438344460961 0 0.045801328849237488 -0.221536765992107 0 0.053201600827309098 -0.21016438344460961 0 0.045801328849237488 -0.221536765992107 0 0.057906575837822792 -0.2213594740201047 0 0.053201600827309098 -0.21016438344460961 0 0.057906575837822792 -0.2213594740201047 0 0.063926614450801292 -0.2124202196295234 0 0.042690715276097198 -0.21048078979593091 0 0.053201600827309098 -0.21016438344460961 0 0.047198878952829738 -0.20096965170932291 0 0.047198878952829738 -0.20096965170932291 0 0.062682219869886646 -0.19232109901391339 0 0.045842701811148683 -0.1869926903090659 0 0.053201600827309098 -0.21016438344460961 0 0.047198878952829738 -0.20096965170932291 0 0.062682219869886646 -0.19232109901391339 0 0.042893672707619721 -0.25029392088765812 0 0.023986539731139438 -0.237228621227833 0 0.032296795585815427 -0.25825762710925798 0 0.042893672707619721 -0.25029392088765812 0 0.023986539731139438 -0.237228621227833 0 0.042893672707619721 -0.25029392088765812 0 0.039917031278054051 -0.23302410620693281 0 0.054694275298176727 -0.23988253662446871 0 0.042893672707619721 -0.25029392088765812 0 0.023986539731139438 -0.237228621227833 0 0.039917031278054051 -0.23302410620693281 0 0.028026784272390928 -0.2253903284795723 0 0.0337879455608101 -0.21829906511383559 0 0.039917031278054051 -0.23302410620693281 0 0.0337879455608101 -0.21829906511383559 0 0.045801328849237488 -0.221536765992107 0 0.039917031278054051 -0.23302410620693281 0 0.045801328849237488 -0.221536765992107 0 0.039917031278054051 -0.23302410620693281 0 0.05255612438286586 -0.22926844999383819 0 0.039917031278054051 -0.23302410620693281 0 0.05255612438286586 -0.22926844999383819 0 0.054694275298176727 -0.23988253662446871 0 0.045801328849237488 -0.221536765992107 0 0.05255612438286586 -0.22926844999383819 0 0.057906575837822792 -0.2213594740201047 0 0.05255612438286586 -0.22926844999383819 0 0.054694275298176727 -0.23988253662446871 0 0.06446141065103822 -0.23053936712557779 0 0.05255612438286586 -0.22926844999383819 0 0.057906575837822792 -0.2213594740201047 0 0.06446141065103822 -0.23053936712557779 0 0.054694275298176727 -0.23988253662446871 0 0.073355428807057935 -0.2470476318814433 0 0.06446141065103822 -0.23053936712557779 0 0.073355428807057935 -0.2470476318814433 0 0.076546738645812074 -0.2309195086123752 0 0.06446141065103822 -0.23053936712557779 0 0.091706975807796659 -0.26314261310895559 0 0.073355428807057935 -0.2470476318814433 0 0.094572703561341426 -0.23873959564643979 0 0.073355428807057935 -0.2470476318814433 0 0.076546738645812074 -0.2309195086123752 0 0.094572703561341426 -0.23873959564643979 0 0.079764488481322421 -0.2171853574456008 0 0.094572703561341426 -0.23873959564643979 0 0.095041080245392581 -0.23475114824916399 0 0.079764488481322421 -0.2171853574456008 0 0.095041080245392581 -0.23475114824916399 0 0.079764488481322421 -0.2171853574456008 0 0.094572703561341426 -0.23873959564643979 0 0.076546738645812074 -0.2309195086123752 0 0.079764488481322421 -0.2171853574456008 0 0.094572703561341426 -0.23873959564643979 0 0.079764488481322421 -0.2171853574456008 0 0.089335051211168845 -0.21543057274668689 0 0.095041080245392581 -0.23475114824916399 0 0.070579661728299686 -0.22108559096281469 0 0.076546738645812074 -0.2309195086123752 0 0.079764488481322421 -0.2171853574456008 0 0.070579661728299686 -0.22108559096281469 0 0.076546738645812074 -0.2309195086123752 0 0.06446141065103822 -0.23053936712557779 0 0.057906575837822792 -0.2213594740201047 0 0.070579661728299686 -0.22108559096281469 0 0.06446141065103822 -0.23053936712557779 0 0.063926614450801292 -0.2124202196295234 0 0.062682219869886646 -0.19232109901391339 0 0.079764488481322421 -0.2171853574456008 0 0.070579661728299686 -0.22108559096281469 0 0.063926614450801292 -0.2124202196295234 0 0.079764488481322421 -0.2171853574456008 0 0.057906575837822792 -0.2213594740201047 0 0.070579661728299686 -0.22108559096281469 0 0.063926614450801292 -0.2124202196295234 0 0.062682219869886646 -0.19232109901391339 0 0.079764488481322421 -0.2171853574456008 0 0.062682219869886646 -0.19232109901391339 0 0.077978514039925742 -0.1955378737273043 0 0.079764488481322421 -0.2171853574456008 0 0.062682219869886646 -0.19232109901391339 0 0.077978514039925742 -0.1955378737273043 0 0.070098979012229556 -0.1747051148573284 0 0.086179228895686549 -0.20317818686841541 0 0.083050178899954016 -0.1816099499617341 0 0.086370710885636581 -0.20641501988028041 0 0.099007416483352692 -0.18467662584972411 0 0.086370710885636581 -0.20641501988028041 0 0.086179228895686549 -0.20317818686841541 0 0.099007416483352692 -0.18467662584972411 0 0.077978514039925742 -0.1955378737273043 0 0.086179228895686549 -0.20317818686841541 0 0.083050178899954016 -0.1816099499617341 0 0.086179228895686549 -0.20317818686841541 0 0.099007416483352692 -0.18467662584972411 0 0.083050178899954016 -0.1816099499617341 0 0.077978514039925742 -0.1955378737273043 0 0.086370710885636581 -0.20641501988028041 0 0.086179228895686549 -0.20317818686841541 0 0.077978514039925742 -0.1955378737273043 0 0.079764488481322421 -0.2171853574456008 0 0.086370710885636581 -0.20641501988028041 0 0.079764488481322421 -0.2171853574456008 0 0.086370710885636581 -0.20641501988028041 0 0.089335051211168845 -0.21543057274668689 0 0.086370710885636581 -0.20641501988028041 0 0.089335051211168845 -0.21543057274668689 0 0.098760338318595431 -0.20307991932808461 0 0.098760338318595431 -0.20307991932808461 0 0.096900709281993569 -0.2189155337886243 0 0.089335051211168845 -0.21543057274668689 0 0.098760338318595431 -0.20307991932808461 0 0.096900709281993569 -0.2189155337886243 0 0.10772936883607651 -0.2088709579612493 0 0.098760338318595431 -0.20307991932808461 0 0.096900709281993569 -0.2189155337886243 0 0.10772936883607651 -0.2088709579612493 0 0.1146927493013031 -0.22463964595872479 0 0.096900709281993569 -0.2189155337886243 0 0.098760338318595431 -0.20307991932808461 0 0.1070492909387311 -0.19398789945508271 0 0.099007416483352692 -0.18467662584972411 0 0.086370710885636581 -0.20641501988028041 0 0.098760338318595431 -0.20307991932808461 0 0.099007416483352692 -0.18467662584972411 0 0.10772936883607651 -0.2088709579612493 0 0.098760338318595431 -0.20307991932808461 0 0.1070492909387311 -0.19398789945508271 0 0.1070492909387311 -0.19398789945508271 0 0.1190053186334129 -0.19689047808001531 0 0.1120048072204176 -0.18152690908105909 0 0.10772936883607651 -0.2088709579612493 0 0.1070492909387311 -0.19398789945508271 0 0.1190053186334129 -0.19689047808001531 0 0.1190053186334129 -0.19689047808001531 0 0.1146927493013031 -0.22463964595872479 0 0.13094528246371709 -0.21063461998422089 0 0.10772936883607651 -0.2088709579612493 0 0.1190053186334129 -0.19689047808001531 0 0.1146927493013031 -0.22463964595872479 0 0.1190053186334129 -0.19689047808001531 0 0.1146927493013031 -0.22463964595872479 0 0.1146927493013031 -0.22463964595872479 0 0.12629816317163689 -0.23799161899509089 0 0.13094528246371709 -0.21063461998422089 0 0.110380179969193 -0.25238881383743428 0 0.1146927493013031 -0.22463964595872479 0 0.12629816317163689 -0.23799161899509089 0 0.110380179969193 -0.25238881383743428 0 0.1146927493013031 -0.22463964595872479 0 0.110380179969193 -0.25238881383743428 0 0.1146927493013031 -0.22463964595872479 0 0.095041080245392581 -0.23475114824916399 0 0.10919393787671119 -0.26002167221818628 0 0.094572703561341426 -0.23873959564643979 0 0.110380179969193 -0.25238881383743428 0 0.095041080245392581 -0.23475114824916399 0 0.110380179969193 -0.25238881383743428 0 0.094572703561341426 -0.23873959564643979 0 0.095041080245392581 -0.23475114824916399 0 0.094572703561341426 -0.23873959564643979 0 0.095041080245392581 -0.23475114824916399 0 0.095041080245392581 -0.23475114824916399 0 0.096900709281993569 -0.2189155337886243 0 0.089335051211168845 -0.21543057274668689 0 0.095041080245392581 -0.23475114824916399 0 0.096900709281993569 -0.2189155337886243 0 0.1146927493013031 -0.22463964595872479 0 0.095041080245392581 -0.23475114824916399 0 0.096900709281993569 -0.2189155337886243 0 0.10912736289249809 -0.14956684811215959 0 0.1000480485165005 -0.1542926658723687 0 0.10053645329363819 -0.13983665696849079 0 0.10912736289249809 -0.14956684811215959 0 0.1000480485165005 -0.1542926658723687 0 0.1116441220810688 -0.16293823181916769 0 0.1000480485165005 -0.1542926658723687 0 0.10053645329363819 -0.13983665696849079 0 0.088071136933161931 -0.1480285294017277 0 0.10053645329363819 -0.13983665696849079 0 0.087190185965280123 -0.125918119762925 0 0.1005301852280989 -0.1186869448293786 0 0.10053645329363819 -0.13983665696849079 0 0.1127857124475064 -0.1339502721789467 0 0.1005301852280989 -0.1186869448293786 0 0.10053645329363819 -0.13983665696849079 0 0.1127857124475064 -0.1339502721789467 0 0.1242808276787848 -0.14119983778861131 0 0.1127857124475064 -0.1339502721789467 0 0.1232567505869934 -0.1304402152193046 0 0.1204366334910684 -0.11458969706532871 0 0.10053645329363819 -0.13983665696849079 0 0.1242808276787848 -0.14119983778861131 0 0.1127857124475064 -0.1339502721789467 0 0.1232567505869934 -0.1304402152193046 0 0.1242808276787848 -0.14119983778861131 0 0.10912736289249809 -0.14956684811215959 0 0.1242808276787848 -0.14119983778861131 0 0.1116441220810688 -0.16293823181916769 0 0.10912736289249809 -0.14956684811215959 0 0.10053645329363819 -0.13983665696849079 0 0.1242808276787848 -0.14119983778861131 0 0.1242808276787848 -0.14119983778861131 0 0.1116441220810688 -0.16293823181916769 0 0.1233178879655227 -0.16914131020130571 0 0.1116441220810688 -0.16293823181916769 0 0.1120048072204176 -0.18152690908105909 0 0.1242808276787848 -0.14119983778861131 0 0.1233178879655227 -0.16914131020130571 0 0.1116441220810688 -0.16293823181916769 0 0.1190053186334129 -0.19689047808001531 0 0.1233178879655227 -0.16914131020130571 0 0.1120048072204176 -0.18152690908105909 0 0.1190053186334129 -0.19689047808001531 0 0.1233178879655227 -0.16914131020130571 0 0.1116441220810688 -0.16293823181916769 0 0.1120048072204176 -0.18152690908105909 0 0.099007416483352692 -0.18467662584972411 0 0.1116441220810688 -0.16293823181916769 0 0.099007416483352692 -0.18467662584972411 0 0.1070492909387311 -0.19398789945508271 0 0.1120048072204176 -0.18152690908105909 0 0.099007416483352692 -0.18467662584972411 0 0.1000480485165005 -0.1542926658723687 0 0.1116441220810688 -0.16293823181916769 0 0.095195640017623942 -0.16791870214178159 0 0.1116441220810688 -0.16293823181916769 0 0.099007416483352692 -0.18467662584972411 0 0.095195640017623942 -0.16791870214178159 0 0.1000480485165005 -0.1542926658723687 0 0.095195640017623942 -0.16791870214178159 0 0.07992112890422147 -0.16004171305505269 0 0.07992112890422147 -0.16004171305505269 0 0.083050178899954016 -0.1816099499617341 0 0.095195640017623942 -0.16791870214178159 0 0.07992112890422147 -0.16004171305505269 0 0.083050178899954016 -0.1816099499617341 0 0.099007416483352692 -0.18467662584972411 0 0.095195640017623942 -0.16791870214178159 0 0.083050178899954016 -0.1816099499617341 0 0.07992112890422147 -0.16004171305505269 0 0.083050178899954016 -0.1816099499617341 0 0.070098979012229556 -0.1747051148573284 0 0.077978514039925742 -0.1955378737273043 0 0.083050178899954016 -0.1816099499617341 0 0.070098979012229556 -0.1747051148573284 0 0.07992112890422147 -0.16004171305505269 0 0.070098979012229556 -0.1747051148573284 0 0.063153193631723337 -0.15350516145880491 0 0.070098979012229556 -0.1747051148573284 0 0.063153193631723337 -0.15350516145880491 0 0.054467971060053938 -0.17046485751943349 0 0.063153193631723337 -0.15350516145880491 0 0.076792078908491518 -0.13847347614837091 0 0.053614154914722649 -0.1371428156337568 0 0.07992112890422147 -0.16004171305505269 0 0.063153193631723337 -0.15350516145880491 0 0.076792078908491518 -0.13847347614837091 0 0.07992112890422147 -0.16004171305505269 0 0.076792078908491518 -0.13847347614837091 0 0.07992112890422147 -0.16004171305505269 0 0.088071136933161931 -0.1480285294017277 0 0.076792078908491518 -0.13847347614837091 0 0.10053645329363819 -0.13983665696849079 0 0.088071136933161931 -0.1480285294017277 0 0.076792078908491518 -0.13847347614837091 0 0.1000480485165005 -0.1542926658723687 0 0.07992112890422147 -0.16004171305505269 0 0.088071136933161931 -0.1480285294017277 0 0.087190185965280123 -0.125918119762925 0 0.076792078908491518 -0.13847347614837091 0 0.074411331828355326 -0.12206321836749801 0 0.10053645329363819 -0.13983665696849079 0 0.076792078908491518 -0.13847347614837091 0 0.10053645329363819 -0.13983665696849079 0 0.087190185965280123 -0.125918119762925 0 0.076792078908491518 -0.13847347614837091 0 0.076792078908491518 -0.13847347614837091 0 0.053614154914722649 -0.1371428156337568 0 0.074411331828355326 -0.12206321836749801 0 0.076792078908491518 -0.13847347614837091 0 0.074411331828355326 -0.12206321836749801 0 0.076792078908491518 -0.13847347614837091 0 0.053614154914722649 -0.1371428156337568 0 0.053614154914722649 -0.1371428156337568 0 0.058190044123433003 -0.1182809824343158 0 0.074411331828355326 -0.12206321836749801 0 0.053614154914722649 -0.1371428156337568 0 0.058190044123433003 -0.1182809824343158 0 0.044634177015720658 -0.121730150081427 0 0.063153193631723337 -0.15350516145880491 0 0.053614154914722649 -0.1371428156337568 0 0.042663144954146977 -0.15176300505795029 0 0.042663144954146977 -0.15176300505795029 0 0.033494773925408748 -0.13573274574826649 0 0.027755093245754439 -0.14774306046624611 0 0.053614154914722649 -0.1371428156337568 0 0.042663144954146977 -0.15176300505795029 0 0.033494773925408748 -0.13573274574826649 0 0.042663144954146977 -0.15176300505795029 0 0.02995266338704607 -0.15797792878173339 0 0.027755093245754439 -0.14774306046624611 0 0.053614154914722649 -0.1371428156337568 0 0.033494773925408748 -0.13573274574826649 0 0.044634177015720658 -0.121730150081427 0 0.033494773925408748 -0.13573274574826649 0 0.044634177015720658 -0.121730150081427 0 0.032864304160176647 -0.1230061487930927 0 0.062682219869886646 -0.19232109901391339 0 0.054467971060053938 -0.17046485751943349 0 0.045842701811148683 -0.1869926903090659 0 0.062682219869886646 -0.19232109901391339 0 0.070098979012229556 -0.1747051148573284 0 0.054467971060053938 -0.17046485751943349 0 0.063153193631723337 -0.15350516145880491 0 0.042663144954146977 -0.15176300505795029 0 0.054467971060053938 -0.17046485751943349 0 0.042663144954146977 -0.15176300505795029 0 0.037777169769078883 -0.1698990592451177 0 0.02995266338704607 -0.15797792878173339 0 0.042663144954146977 -0.15176300505795029 0 0.054467971060053938 -0.17046485751943349 0 0.037777169769078883 -0.1698990592451177 0 0.054467971060053938 -0.17046485751943349 0 0.037777169769078883 -0.1698990592451177 0 0.045842701811148683 -0.1869926903090659 0 0.037777169769078883 -0.1698990592451177 0 0.045842701811148683 -0.1869926903090659 0 0.03082115865331839 -0.18357243204218529 0 0.020316237143062809 -0.1933553786962933 0 0.018035883044165028 -0.1799704358382678 0 0.03082115865331839 -0.18357243204218529 0 0.037777169769078883 -0.1698990592451177 0 0.03082115865331839 -0.18357243204218529 0 0.02291537874875927 -0.168623441760338 0 0.018035883044165028 -0.1799704358382678 0 0.03082115865331839 -0.18357243204218529 0 0.02291537874875927 -0.168623441760338 0 0.018035883044165028 -0.1799704358382678 0 0.02291537874875927 -0.168623441760338 0 0.0098611223504359666 -0.16614025981433439 0 0.037777169769078883 -0.1698990592451177 0 0.02291537874875927 -0.168623441760338 0 0.02995266338704607 -0.15797792878173339 0 0.02291537874875927 -0.168623441760338 0 0.02995266338704607 -0.15797792878173339 0 0.020693708916995131 -0.15646112995526451 0 0.02291537874875927 -0.168623441760338 0 0.020693708916995131 -0.15646112995526451 0 0.0098611223504359666 -0.16614025981433439 0 -0.0041202026161358679 -0.16610483629692269 0 0.0098611223504359666 -0.16614025981433439 0 0.00087706121465781501 -0.15101584360234341 0 -0.0041202026161358679 -0.16610483629692269 0 0.0048447013079721286 -0.18879042151154579 0 0.0098611223504359666 -0.16614025981433439 0 0.0048447013079721286 -0.18879042151154579 0 0.018035883044165028 -0.1799704358382678 0 0.0098611223504359666 -0.16614025981433439 0 -0.0041202026161358679 -0.16610483629692269 0 0.0048447013079721286 -0.18879042151154579 0 0.0048447013079721286 -0.18879042151154579 0 0.0098611223504359666 -0.16614025981433439 0 -0.00081075560289291249 -0.18009301941494149 0 0.0037694184420872042 -0.19364554243865401 0 0.0048447013079721286 -0.18879042151154579 0 0.020316237143062809 -0.1933553786962933 0 0.018035883044165028 -0.1799704358382678 0 0.033494773925408748 -0.13573274574826649 0 0.01487754339290139 -0.14349009811712329 0 0.019893964435366809 -0.1208399364199122 0 0.01487754339290139 -0.14349009811712329 0 0.019893964435366809 -0.1208399364199122 0 0.033494773925408748 -0.13573274574826649 0 0.019893964435366809 -0.1208399364199122 0 0.032864304160176647 -0.1230061487930927 0 0.033494773925408748 -0.13573274574826649 0 0.027755093245754439 -0.14774306046624611 0 0.01487754339290139 -0.14349009811712329 0 0.02995266338704607 -0.15797792878173339 0 0.020693708916995131 -0.15646112995526451 0 0.027755093245754439 -0.14774306046624611 0 0.020693708916995131 -0.15646112995526451 0 0.027755093245754439 -0.14774306046624611 0 0.01487754339290139 -0.14349009811712329 0 0.020693708916995131 -0.15646112995526451 0 0.0098611223504359666 -0.16614025981433439 0 0.01487754339290139 -0.14349009811712329 0 0.0098611223504359666 -0.16614025981433439 0 0.01487754339290139 -0.14349009811712329 0 0.0098611223504359666 -0.16614025981433439 0 0.01487754339290139 -0.14349009811712329 0 0.00087706121465781501 -0.15101584360234341 0 -0.0013770698620868551 -0.13723339320632019 0 0.00087706121465781501 -0.15101584360234341 0 0.0062625114863385659 -0.14087044396738099 0 0.01487754339290139 -0.14349009811712329 0 0.00087706121465781501 -0.15101584360234341 0 0.0062625114863385659 -0.14087044396738099 0 -0.0013770698620868551 -0.13723339320632019 0 0.0062625114863385659 -0.14087044396738099 0 0.01067251119988191 -0.13174244094373699 0 0.01487754339290139 -0.14349009811712329 0 0.01067251119988191 -0.13174244094373699 0 0.019893964435366809 -0.1208399364199122 0 0.01487754339290139 -0.14349009811712329 0 0.0062625114863385659 -0.14087044396738099 0 0.01067251119988191 -0.13174244094373699 0 -0.001032237097351958 -0.12600845422236731 0 -0.0013770698620868551 -0.13723339320632019 0 0.01067251119988191 -0.13174244094373699 0 -3.9213425708454218e-05 -0.11342232087091821 0 -0.001032237097351958 -0.12600845422236731 0 0.01067251119988191 -0.13174244094373699 0 0.01067251119988191 -0.13174244094373699 0 0.019893964435366809 -0.1208399364199122 0 0.01262142490491849 -0.1022245905738612 0 0.01067251119988191 -0.13174244094373699 0 0.01262142490491849 -0.1022245905738612 0 -3.9213425708454218e-05 -0.11342232087091821 0 0.01067251119988191 -0.13174244094373699 0 0.01262142490491849 -0.1022245905738612 0 0.019893964435366809 -0.1208399364199122 0 0.024910385477832201 -0.098189774722701267 0 0.019893964435366809 -0.1208399364199122 0 0.024910385477832201 -0.098189774722701267 0 0.03548832894955771 -0.11241309793852571 0 0.019893964435366809 -0.1208399364199122 0 0.032864304160176647 -0.1230061487930927 0 0.03548832894955771 -0.11241309793852571 0 0.019893964435366809 -0.1208399364199122 0 0.024910385477832201 -0.098189774722701267 0 0.01262142490491849 -0.1022245905738612 0 0.024910385477832201 -0.098189774722701267 0 0.01262142490491849 -0.1022245905738612 0 0.027976688530554791 -0.082106269215096297 0 -3.9213425708454218e-05 -0.11342232087091821 0 0.01262142490491849 -0.1022245905738612 0 0.0011414087804533441 -0.1004826700100202 0 0.01262142490491849 -0.1022245905738612 0 0.0011414087804533441 -0.1004826700100202 0 0.001299515704678544 -0.086653798805751595 0 0.01262142490491849 -0.1022245905738612 0 0.001299515704678544 -0.086653798805751595 0 0.014570338609954631 -0.072706740203985182 0 0.01262142490491849 -0.1022245905738612 0 0.014570338609954631 -0.072706740203985182 0 -0.01179734475313645 -0.0672691826140355 0 0.001299515704678544 -0.086653798805751595 0 0.014570338609954631 -0.072706740203985182 0 -0.01179734475313645 -0.0672691826140355 0 0.014570338609954631 -0.072706740203985182 0 0.014570338609954631 -0.072706740203985182 0 0.027976688530554791 -0.082106269215096297 0 0.044007901642658581 -0.078777370000850333 0 0.014570338609954631 -0.072706740203985182 0 0.044007901642658581 -0.078777370000850333 0 0.014570338609954631 -0.072706740203985182 0 0.045009670328786333 -0.070415063253793264 0 0.03077342196011984 -0.056666260540822723 0 0.01262142490491849 -0.1022245905738612 0 0.014570338609954631 -0.072706740203985182 0 0.027976688530554791 -0.082106269215096297 0 0.024910385477832201 -0.098189774722701267 0 0.027976688530554791 -0.082106269215096297 0 0.037310237186613943 -0.091823667599089498 0 0.027976688530554791 -0.082106269215096297 0 0.038280226256671997 -0.085248455398252723 0 0.044007901642658581 -0.078777370000850333 0 0.027976688530554791 -0.082106269215096297 0 0.037310237186613943 -0.091823667599089498 0 0.038280226256671997 -0.085248455398252723 0 0.038280226256671997 -0.085248455398252723 0 0.044007901642658581 -0.078777370000850333 0 0.04382607766686071 -0.088286514777974723 0 0.037310237186613943 -0.091823667599089498 0 0.04382607766686071 -0.088286514777974723 0 0.045330910227649172 -0.095634511634168806 0 0.037310237186613943 -0.091823667599089498 0 0.038280226256671997 -0.085248455398252723 0 0.04382607766686071 -0.088286514777974723 0 0.014570338609954631 -0.072706740203985182 0 0.044007901642658581 -0.078777370000850333 0 0.045009670328786333 -0.070415063253793264 0 0.045009670328786333 -0.070415063253793264 0 0.03077342196011984 -0.056666260540822723 0 0.044007901642658581 -0.078777370000850333 0 0.052138184082363988 -0.065391103396265277 0 0.06597107904927571 -0.068246918006435509 0 0.044007901642658581 -0.078777370000850333 0 0.073445464675363378 -0.084847999797712362 0 0.06597107904927571 -0.068246918006435509 0 0.045009670328786333 -0.070415063253793264 0 0.052138184082363988 -0.065391103396265277 0 0.044725350410868919 -0.059555219490673689 0 0.044007901642658581 -0.078777370000850333 0 0.045009670328786333 -0.070415063253793264 0 0.052138184082363988 -0.065391103396265277 0 0.052138184082363988 -0.065391103396265277 0 0.060086532191056759 -0.056919675338558809 0 0.06597107904927571 -0.068246918006435509 0 0.044007901642658581 -0.078777370000850333 0 0.053488133239616542 -0.090558259141097899 0 0.073445464675363378 -0.084847999797712362 0 0.044007901642658581 -0.078777370000850333 0 0.073445464675363378 -0.084847999797712362 0 0.04382607766686071 -0.088286514777974723 0 0.053488133239616542 -0.090558259141097899 0 0.045330910227649172 -0.095634511634168806 0 0.044007901642658581 -0.078777370000850333 0 0.04382607766686071 -0.088286514777974723 0 0.053488133239616542 -0.090558259141097899 0 0.053488133239616542 -0.090558259141097899 0 0.051848377231874292 -0.1055907353277359 0 0.066442179626492029 -0.104877992761161 0 0.053488133239616542 -0.090558259141097899 0 0.051848377231874292 -0.1055907353277359 0 0.045330910227649172 -0.095634511634168806 0 0.051848377231874292 -0.1055907353277359 0 0.058190044123433003 -0.1182809824343158 0 0.066442179626492029 -0.104877992761161 0 0.051848377231874292 -0.1055907353277359 0 0.058190044123433003 -0.1182809824343158 0 0.044634177015720658 -0.121730150081427 0 0.051848377231874292 -0.1055907353277359 0 0.044634177015720658 -0.121730150081427 0 0.03548832894955771 -0.11241309793852571 0 0.044634177015720658 -0.121730150081427 0 0.032864304160176647 -0.1230061487930927 0 0.03548832894955771 -0.11241309793852571 0 0.051848377231874292 -0.1055907353277359 0 0.03548832894955771 -0.11241309793852571 0 0.040181725813280389 -0.101913381324946 0 0.024910385477832201 -0.098189774722701267 0 0.03548832894955771 -0.11241309793852571 0 0.040181725813280389 -0.101913381324946 0 0.024910385477832201 -0.098189774722701267 0 0.037310237186613943 -0.091823667599089498 0 0.040181725813280389 -0.101913381324946 0 0.037310237186613943 -0.091823667599089498 0 0.045330910227649172 -0.095634511634168806 0 0.040181725813280389 -0.101913381324946 0 0.051848377231874292 -0.1055907353277359 0 0.045330910227649172 -0.095634511634168806 0 0.040181725813280389 -0.101913381324946 0 0.01620101191740685 -0.005863954678361951 0 0.01897977349908089 -0.0059223366993240243 0 0.017627044619874299 -0.026410493021598279 0 0.01961088504268934 0.0036363503081079051 0 0.01897977349908089 -0.0059223366993240243 0 0.044873334150910438 -0.0064663626462446496 0 0.02924851791195112 -0.01559747658398725 0 0.01897977349908089 -0.0059223366993240243 0 0.044873334150910438 -0.0064663626462446496 0 0.01961088504268934 0.0036363503081079051 0 0.01897977349908089 -0.0059223366993240243 0 0.01620101191740685 -0.005863954678361951 0 0.01897977349908089 -0.0059223366993240243 0 0.013660132337261601 -0.00098361484742467715 0 0.01961088504268934 0.0036363503081079051 0 0.01897977349908089 -0.0059223366993240243 0 0.013660132337261601 -0.00098361484742467715 0 0.01620101191740685 -0.005863954678361951 0 0.01897977349908089 -0.0059223366993240243 0 0.01620101191740685 -0.005863954678361951 0 0.013660132337261601 -0.00098361484742467715 0 0.011631299832560791 -0.0040748149572228448 0 0.01620101191740685 -0.005863954678361951 0 0.0086927237787187001 -0.0076866814712522203 0 0.011631299832560791 -0.0040748149572228448 0 0.0086927237787187001 -0.0076866814712522203 0 0.011631299832560791 -0.0040748149572228448 0 0.0079713312968560067 -0.00176500883185253 0 0.013660132337261601 -0.00098361484742467715 0 0.011631299832560791 -0.0040748149572228448 0 0.0079713312968560067 -0.00176500883185253 0 -0.001512727700102235 -0.0051413579262706288 0 0.0086927237787187001 -0.0076866814712522203 0 0.0079713312968560067 -0.00176500883185253 0 -0.001512727700102235 -0.0051413579262706288 0 0.0086927237787187001 -0.0076866814712522203 0 0.0069150557203328591 -0.01602128171007006 0 0.01620101191740685 -0.005863954678361951 0 0.0086927237787187001 -0.0076866814712522203 0 0.0069150557203328591 -0.01602128171007006 0 0.0069150557203328591 -0.01602128171007006 0 0.0019964281064309948 -0.028874583905178532 0 0.017627044619874299 -0.026410493021598279 0 0.01620101191740685 -0.005863954678361951 0 0.0069150557203328591 -0.01602128171007006 0 0.017627044619874299 -0.026410493021598279 0 0.0019964281064309948 -0.028874583905178532 0 0.017627044619874299 -0.026410493021598279 0 0.017627044619874299 -0.026410493021598279 0 0.031743473237520053 -0.038725337652929327 0 0.035513919377938047 -0.023590713968782359 0 0.02924851791195112 -0.01559747658398725 0 0.01897977349908089 -0.0059223366993240243 0 0.017627044619874299 -0.026410493021598279 0 0.02924851791195112 -0.01559747658398725 0 0.017627044619874299 -0.026410493021598279 0 0.035513919377938047 -0.023590713968782359 0 0.017627044619874299 -0.026410493021598279 0 0.035513919377938047 -0.023590713968782359 0 0.01897977349908089 -0.0059223366993240243 0 0.017627044619874299 -0.026410493021598279 0 0.017627044619874299 -0.026410493021598279 0 0.016537173591452389 -0.04291745782785325 0 0.016537173591452389 -0.04291745782785325 0 0.03077342196011984 -0.056666260540822723 0 0.031743473237520053 -0.038725337652929327 0 0.017627044619874299 -0.026410493021598279 0 0.016537173591452389 -0.04291745782785325 0 0.031743473237520053 -0.038725337652929327 0 0.0019964281064309948 -0.028874583905178532 0 0.017627044619874299 -0.026410493021598279 0 0.016537173591452389 -0.04291745782785325 0 0.0019964281064309948 -0.028874583905178532 0 0.016537173591452389 -0.04291745782785325 0 -0.0034815090737861992 -0.048909686183370257 0 0.0019964281064309948 -0.028874583905178532 0 0.016537173591452389 -0.04291745782785325 0 -0.0034815090737861992 -0.048909686183370257 0 0.014570338609954631 -0.072706740203985182 0 0.016537173591452389 -0.04291745782785325 0 0.014570338609954631 -0.072706740203985182 0 0.016537173591452389 -0.04291745782785325 0 0.014570338609954631 -0.072706740203985182 0 0.016537173591452389 -0.04291745782785325 0 0.03077342196011984 -0.056666260540822723 0 0.016537173591452389 -0.04291745782785325 0 0.03077342196011984 -0.056666260540822723 0 0.03077342196011984 -0.056666260540822723 0 0.04406885675934695 -0.049490713676163492 0 0.031743473237520053 -0.038725337652929327 0 0.04406885675934695 -0.049490713676163492 0 0.044725350410868919 -0.059555219490673689 0 0.051636618923727513 -0.055812956586323743 0 0.03077342196011984 -0.056666260540822723 0 0.04406885675934695 -0.049490713676163492 0 0.044725350410868919 -0.059555219490673689 0 0.045009670328786333 -0.070415063253793264 0 0.03077342196011984 -0.056666260540822723 0 0.044725350410868919 -0.059555219490673689 0 0.052138184082363988 -0.065391103396265277 0 0.051636618923727513 -0.055812956586323743 0 0.060086532191056759 -0.056919675338558809 0 0.052138184082363988 -0.065391103396265277 0 0.044725350410868919 -0.059555219490673689 0 0.051636618923727513 -0.055812956586323743 0 0.060086532191056759 -0.056919675338558809 0 0.054942894042352627 -0.047505658410766649 0 0.065061576595261419 -0.047936255629070307 0 0.051636618923727513 -0.055812956586323743 0 0.060086532191056759 -0.056919675338558809 0 0.054942894042352627 -0.047505658410766649 0 0.04406885675934695 -0.049490713676163492 0 0.051636618923727513 -0.055812956586323743 0 0.054942894042352627 -0.047505658410766649 0 0.054942894042352627 -0.047505658410766649 0 0.060723676270108953 -0.039265858679977728 0 0.048080103514614198 -0.035608490554505823 0 0.04406885675934695 -0.049490713676163492 0 0.054942894042352627 -0.047505658410766649 0 0.048080103514614198 -0.035608490554505823 0 0.054942894042352627 -0.047505658410766649 0 0.060723676270108953 -0.039265858679977728 0 0.065061576595261419 -0.047936255629070307 0 0.060723676270108953 -0.039265858679977728 0 0.058146766499644911 -0.030535695524282921 0 0.067051713870754134 -0.033296695395918792 0 0.060723676270108953 -0.039265858679977728 0 0.048080103514614198 -0.035608490554505823 0 0.058146766499644911 -0.030535695524282921 0 0.04406885675934695 -0.049490713676163492 0 0.048080103514614198 -0.035608490554505823 0 0.031743473237520053 -0.038725337652929327 0 0.048080103514614198 -0.035608490554505823 0 0.031743473237520053 -0.038725337652929327 0 0.035513919377938047 -0.023590713968782359 0 0.035513919377938047 -0.023590713968782359 0 0.053400794136002273 -0.020770934915969319 0 0.044873334150910438 -0.0064663626462446496 0 0.048080103514614198 -0.035608490554505823 0 0.035513919377938047 -0.023590713968782359 0 0.053400794136002273 -0.020770934915969319 0 0.035513919377938047 -0.023590713968782359 0 0.053400794136002273 -0.020770934915969319 0 0.048080103514614198 -0.035608490554505823 0 0.058146766499644911 -0.030535695524282921 0 0.053400794136002273 -0.020770934915969319 0 0.058146766499644911 -0.030535695524282921 0 0.053400794136002273 -0.020770934915969319 0 0.067234251816264051 -0.02593743282758296 0 0.057745946190224183 0.001898109140009354 0 0.044873334150910438 -0.0064663626462446496 0 0.072691673245487184 -0.0070508283545811876 0 0.044873334150910438 -0.0064663626462446496 0 0.069030844051445342 -0.016127199058878539 0 0.053400794136002273 -0.020770934915969319 0 0.044873334150910438 -0.0064663626462446496 0 0.069030844051445342 -0.016127199058878539 0 0.044873334150910438 -0.0064663626462446496 0 0.072691673245487184 -0.0070508283545811876 0 0.069030844051445342 -0.016127199058878539 0 0.044873334150910438 -0.0064663626462446496 0 0.072691673245487184 -0.0070508283545811876 0 0.01897977349908089 -0.0059223366993240243 0 0.044873334150910438 -0.0064663626462446496 0 0.02924851791195112 -0.01559747658398725 0 0.035513919377938047 -0.023590713968782359 0 0.044873334150910438 -0.0064663626462446496 0 0.01961088504268934 0.0036363503081079051 0 0.044873334150910438 -0.0064663626462446496 0 0.093341217572086521 -0.01529677513752243 0 0.072691673245487184 -0.0070508283545811876 0 0.082912375158499932 -0.01644966567633737 0 0.089359132644354328 -0.001804303285622382 0 0.072691673245487184 -0.0070508283545811876 0 0.10051001234006381 -0.0076352940629173284 0 0.093341217572086521 -0.01529677513752243 0 0.072691673245487184 -0.0070508283545811876 0 0.10051001234006381 -0.0076352940629173284 0 0.072691673245487184 -0.0070508283545811876 0 0.10051001234006381 -0.0076352940629173284 0 0.084129674216321226 0.0019910490799615529 0 0.089359132644354328 -0.001804303285622382 0 0.072691673245487184 -0.0070508283545811876 0 0.077943423036168427 0.00064813052460827719 0 0.084129674216321226 0.0019910490799615529 0 0.072691673245487184 -0.0070508283545811876 0 0.06785690118007047 0.001541904395658605 0 0.077943423036168427 0.00064813052460827719 0 0.072691673245487184 -0.0070508283545811876 0 0.057745946190224183 0.001898109140009354 0 0.06785690118007047 0.001541904395658605 0 0.072691673245487184 -0.0070508283545811876 0 0.072691673245487184 -0.0070508283545811876 0 0.069030844051445342 -0.016127199058878539 0 0.082912375158499932 -0.01644966567633737 0 0.053400794136002273 -0.020770934915969319 0 0.069030844051445342 -0.016127199058878539 0 0.067234251816264051 -0.02593743282758296 0 0.069030844051445342 -0.016127199058878539 0 0.067234251816264051 -0.02593743282758296 0 0.080435517436250825 -0.022563152333149809 0 0.058146766499644911 -0.030535695524282921 0 0.067234251816264051 -0.02593743282758296 0 0.067051713870754134 -0.033296695395918792 0 0.067234251816264051 -0.02593743282758296 0 0.076539188884636747 -0.032789447810744249 0 0.067051713870754134 -0.033296695395918792 0 0.067234251816264051 -0.02593743282758296 0 0.080435517436250825 -0.022563152333149809 0 0.076539188884636747 -0.032789447810744249 0 0.069030844051445342 -0.016127199058878539 0 0.093188353951980107 -0.02578803547151284 0 0.080435517436250825 -0.022563152333149809 0 0.088596984341141799 -0.034568913322296932 0 0.076539188884636747 -0.032789447810744249 0 0.069030844051445342 -0.016127199058878539 0 0.082912375158499932 -0.01644966567633737 0 0.093188353951980107 -0.02578803547151284 0 0.069030844051445342 -0.016127199058878539 0 0.080435517436250825 -0.022563152333149809 0 0.093188353951980107 -0.02578803547151284 0 0.093341217572086521 -0.01529677513752243 0 0.082912375158499932 -0.01644966567633737 0 0.093188353951980107 -0.02578803547151284 0 0.080435517436250825 -0.022563152333149809 0 0.093188353951980107 -0.02578803547151284 0 0.080435517436250825 -0.022563152333149809 0 0.093188353951980107 -0.02578803547151284 0 0.088596984341141799 -0.034568913322296932 0 0.093188353951980107 -0.02578803547151284 0 0.088596984341141799 -0.034568913322296932 0 0.099086462097617678 -0.033911178969503179 0 0.088596984341141799 -0.034568913322296932 0 0.090049920066160208 -0.044765573457085442 0 0.080991894970131345 -0.040982603337094081 0 0.088596984341141799 -0.034568913322296932 0 0.090049920066160208 -0.044765573457085442 0 0.098269556141807546 -0.042784502051215277 0 0.090049920066160208 -0.044765573457085442 0 0.080991894970131345 -0.040982603337094081 0 0.076566564848546376 -0.053080417602820527 0 0.088596984341141799 -0.034568913322296932 0 0.080991894970131345 -0.040982603337094081 0 0.076539188884636747 -0.032789447810744249 0 0.080991894970131345 -0.040982603337094081 0 0.076539188884636747 -0.032789447810744249 0 0.071138990560107723 -0.040719943518765143 0 0.076539188884636747 -0.032789447810744249 0 0.067051713870754134 -0.033296695395918792 0 0.071138990560107723 -0.040719943518765143 0 0.060723676270108953 -0.039265858679977728 0 0.067051713870754134 -0.033296695395918792 0 0.071138990560107723 -0.040719943518765143 0 0.060723676270108953 -0.039265858679977728 0 0.071138990560107723 -0.040719943518765143 0 0.065061576595261419 -0.047936255629070307 0 0.080991894970131345 -0.040982603337094081 0 0.071138990560107723 -0.040719943518765143 0 0.076566564848546376 -0.053080417602820527 0 0.060086532191056759 -0.056919675338558809 0 0.076566564848546376 -0.053080417602820527 0 0.065061576595261419 -0.047936255629070307 0 0.060086532191056759 -0.056919675338558809 0 0.076566564848546376 -0.053080417602820527 0 0.06597107904927571 -0.068246918006435509 0 0.071138990560107723 -0.040719943518765143 0 0.076566564848546376 -0.053080417602820527 0 0.065061576595261419 -0.047936255629070307 0 0.090049920066160208 -0.044765573457085442 0 0.076566564848546376 -0.053080417602820527 0 0.09321287231739675 -0.055439752479539008 0 0.076566564848546376 -0.053080417602820527 0 0.09321287231739675 -0.055439752479539008 0 0.086393332310987794 -0.069919428166578229 0 0.09321287231739675 -0.055439752479539008 0 0.1040994108154657 -0.052616059468415792 0 0.1062809852672765 -0.066982851518387648 0 0.090049920066160208 -0.044765573457085442 0 0.09321287231739675 -0.055439752479539008 0 0.098269556141807546 -0.042784502051215277 0 0.09321287231739675 -0.055439752479539008 0 0.1040994108154657 -0.052616059468415792 0 0.098269556141807546 -0.042784502051215277 0 0.1040994108154657 -0.052616059468415792 0 0.11423266487093379 -0.054620539539163328 0 0.108500975479914 -0.043252651753773713 0 0.1040994108154657 -0.052616059468415792 0 0.11423266487093379 -0.054620539539163328 0 0.1062809852672765 -0.066982851518387648 0 0.11423266487093379 -0.054620539539163328 0 0.1062809852672765 -0.066982851518387648 0 0.1230356126977307 -0.063836101017439834 0 0.11423266487093379 -0.054620539539163328 0 0.1230356126977307 -0.063836101017439834 0 0.12629659349330241 -0.051203577688934 0 0.11423266487093379 -0.054620539539163328 0 0.1187476952086513 -0.043330431164904523 0 0.12629659349330241 -0.051203577688934 0 0.11423266487093379 -0.054620539539163328 0 0.1187476952086513 -0.043330431164904523 0 0.108500975479914 -0.043252651753773713 0 0.1155848749014519 -0.0314515725739343 0 0.111910618978312 -0.033275261615187943 0 0.13063288400464379 -0.04076248775886309 0 0.1187476952086513 -0.043330431164904523 0 0.111910618978312 -0.033275261615187943 0 0.13063288400464379 -0.04076248775886309 0 0.1121715033875044 -0.039282207771399472 0 0.1187476952086513 -0.043330431164904523 0 0.108500975479914 -0.043252651753773713 0 0.111910618978312 -0.033275261615187943 0 0.13063288400464379 -0.04076248775886309 0 0.1121715033875044 -0.039282207771399472 0 0.1094916354917293 -0.037611439408685762 0 0.108500975479914 -0.043252651753773713 0 0.1121715033875044 -0.039282207771399472 0 0.1187476952086513 -0.043330431164904523 0 0.111910618978312 -0.033275261615187943 0 0.1121715033875044 -0.039282207771399472 0 0.1094916354917293 -0.037611439408685762 0 0.111910618978312 -0.033275261615187943 0 0.111910618978312 -0.033275261615187943 0 0.1051386675027028 -0.037014123624493439 0 0.099086462097617678 -0.033911178969503179 0 0.1094916354917293 -0.037611439408685762 0 0.111910618978312 -0.033275261615187943 0 0.1051386675027028 -0.037014123624493439 0 0.1051386675027028 -0.037014123624493439 0 0.108500975479914 -0.043252651753773713 0 0.098269556141807546 -0.042784502051215277 0 0.1040994108154657 -0.052616059468415792 0 0.108500975479914 -0.043252651753773713 0 0.098269556141807546 -0.042784502051215277 0 0.1094916354917293 -0.037611439408685762 0 0.1051386675027028 -0.037014123624493439 0 0.108500975479914 -0.043252651753773713 0 0.088596984341141799 -0.034568913322296932 0 0.098269556141807546 -0.042784502051215277 0 0.099086462097617678 -0.033911178969503179 0 0.1051386675027028 -0.037014123624493439 0 0.098269556141807546 -0.042784502051215277 0 0.099086462097617678 -0.033911178969503179 0 0.093188353951980107 -0.02578803547151284 0 0.111910618978312 -0.033275261615187943 0 0.093188353951980107 -0.02578803547151284 0 0.1155848749014519 -0.0314515725739343 0 0.1053264495221815 -0.018428955283299669 0 0.093188353951980107 -0.02578803547151284 0 0.1155848749014519 -0.0314515725739343 0 0.093188353951980107 -0.02578803547151284 0 0.111910618978312 -0.033275261615187943 0 0.099086462097617678 -0.033911178969503179 0 0.093188353951980107 -0.02578803547151284 0 0.1155848749014519 -0.0314515725739343 0 0.111910618978312 -0.033275261615187943 0 0.093341217572086521 -0.01529677513752243 0 0.093188353951980107 -0.02578803547151284 0 0.1053264495221815 -0.018428955283299669 0 0.1162917284828737 -0.018917419837376489 0 0.12099230233569511 -0.0076438222115242128 0 0.12880516403761089 -0.026287206120285001 0 0.1155848749014519 -0.0314515725739343 0 0.1162917284828737 -0.018917419837376489 0 0.12880516403761089 -0.026287206120285001 0 0.1155848749014519 -0.0314515725739343 0 0.1053264495221815 -0.018428955283299669 0 0.1162917284828737 -0.018917419837376489 0 0.1001060251130647 0.0054739366344950186 0 0.12099230233569511 -0.0076438222115242128 0 0.1053264495221815 -0.018428955283299669 0 0.1162917284828737 -0.018917419837376489 0 0.1086453035587758 -0.0094303109521247427 0 0.1001060251130647 0.0054739366344950186 0 0.12099230233569511 -0.0076438222115242128 0 0.1086453035587758 -0.0094303109521247427 0 0.1162917284828737 -0.018917419837376489 0 0.12099230233569511 -0.0076438222115242128 0 0.1086453035587758 -0.0094303109521247427 0 0.1001060251130647 0.0054739366344950186 0 0.1086453035587758 -0.0094303109521247427 0 0.10051001234006381 -0.0076352940629173284 0 0.1053264495221815 -0.018428955283299669 0 0.1086453035587758 -0.0094303109521247427 0 0.10051001234006381 -0.0076352940629173284 0 0.093341217572086521 -0.01529677513752243 0 0.1053264495221815 -0.018428955283299669 0 0.10051001234006381 -0.0076352940629173284 0 0.1001060251130647 0.0054739366344950186 0 0.089359132644354328 -0.001804303285622382 0 0.10051001234006381 -0.0076352940629173284 0 0.084150395838609643 -0.1078854841855415 0 0.073445464675363378 -0.084847999797712362 0 0.10288302770806811 -0.090918629594574391 0 0.087190185965280123 -0.125918119762925 0 0.084150395838609643 -0.1078854841855415 0 0.1005301852280989 -0.1186869448293786 0 0.087190185965280123 -0.125918119762925 0 0.084150395838609643 -0.1078854841855415 0 0.074411331828355326 -0.12206321836749801 0 0.084150395838609643 -0.1078854841855415 0 0.074411331828355326 -0.12206321836749801 0 0.066442179626492029 -0.104877992761161 0 0.058190044123433003 -0.1182809824343158 0 0.074411331828355326 -0.12206321836749801 0 0.066442179626492029 -0.104877992761161 0 0.084150395838609643 -0.1078854841855415 0 0.066442179626492029 -0.104877992761161 0 0.073445464675363378 -0.084847999797712362 0 0.053488133239616542 -0.090558259141097899 0 0.066442179626492029 -0.104877992761161 0 0.073445464675363378 -0.084847999797712362 0 0.073445464675363378 -0.084847999797712362 0 0.06597107904927571 -0.068246918006435509 0 0.086393332310987794 -0.069919428166578229 0 0.076566564848546376 -0.053080417602820527 0 0.06597107904927571 -0.068246918006435509 0 0.086393332310987794 -0.069919428166578229 0 0.073445464675363378 -0.084847999797712362 0 0.10288302770806811 -0.090918629594574391 0 0.073445464675363378 -0.084847999797712362 0 0.086393332310987794 -0.069919428166578229 0 0.10288302770806811 -0.090918629594574391 0 0.09321287231739675 -0.055439752479539008 0 0.086393332310987794 -0.069919428166578229 0 0.1062809852672765 -0.066982851518387648 0 0.086393332310987794 -0.069919428166578229 0 0.10288302770806811 -0.090918629594574391 0 0.1062809852672765 -0.066982851518387648 0 0.1062809852672765 -0.066982851518387648 0 0.1230356126977307 -0.063836101017439834 0 0.1218509512382029 -0.079832352704623202 0 0.10288302770806811 -0.090918629594574391 0 0.1062809852672765 -0.066982851518387648 0 0.1218509512382029 -0.079832352704623202 0 0.10288302770806811 -0.090918629594574391 0 0.1218509512382029 -0.079832352704623202 0 0.1323205907407729 -0.096989259391436392 0 0.10288302770806811 -0.090918629594574391 0 0.1204366334910684 -0.11458969706532871 0 0.1323205907407729 -0.096989259391436392 0 0.10288302770806811 -0.090918629594574391 0 0.1323205907407729 -0.096989259391436392 0 0.10288302770806811 -0.090918629594574391 0 0.1005301852280989 -0.1186869448293786 0 0.1204366334910684 -0.11458969706532871 0 0.084150395838609643 -0.1078854841855415 0 0.10288302770806811 -0.090918629594574391 0 0.1005301852280989 -0.1186869448293786 0 0.1127857124475064 -0.1339502721789467 0 0.1005301852280989 -0.1186869448293786 0 0.1204366334910684 -0.11458969706532871 0 0.1232567505869934 -0.1304402152193046 0 0.1204366334910684 -0.11458969706532871 0 0.1306570999542464 -0.1219172518989441 0 0.1204366334910684 -0.11458969706532871 0 0.1306570999542464 -0.1219172518989441 0 0.13921430273599911 -0.1117248800560196 0 0.1306570999542464 -0.1219172518989441 0 0.13921430273599911 -0.1117248800560196 0 0.15089903572043001 -0.12206830273609059 0 0.13921430273599911 -0.1117248800560196 0 0.15089903572043001 -0.12206830273609059 0 0.1617581537734776 -0.10305988918829841 0 0.13921430273599911 -0.1117248800560196 0 0.1323205907407729 -0.096989259391436392 0 0.1617581537734776 -0.10305988918829841 0 0.1323205907407729 -0.096989259391436392 0 0.15569564125717791 -0.087386572034546944 0 0.1617581537734776 -0.10305988918829841 0 0.1323205907407729 -0.096989259391436392 0 0.1617581537734776 -0.10305988918829841 0 0.1204366334910684 -0.11458969706532871 0 0.13921430273599911 -0.1117248800560196 0 0.1323205907407729 -0.096989259391436392 0 0.1218509512382029 -0.079832352704623202 0 0.1323205907407729 -0.096989259391436392 0 0.138535063686792 -0.081790363999744931 0 0.1218509512382029 -0.079832352704623202 0 0.138535063686792 -0.081790363999744931 0 0.1352540066800263 -0.070808032965003667 0 0.1230356126977307 -0.063836101017439834 0 0.1218509512382029 -0.079832352704623202 0 0.1352540066800263 -0.070808032965003667 0 0.1230356126977307 -0.063836101017439834 0 0.1352540066800263 -0.070808032965003667 0 0.13624333327007471 -0.057314466824286453 0 0.138535063686792 -0.081790363999744931 0 0.1352540066800263 -0.070808032965003667 0 0.14755412851778019 -0.073935602903114489 0 0.1352540066800263 -0.070808032965003667 0 0.13624333327007471 -0.057314466824286453 0 0.1465778942704504 -0.062484784213405052 0 0.14755412851778019 -0.073935602903114489 0 0.15569564125717791 -0.087386572034546944 0 0.16472175238112449 -0.059281341708267182 0 0.14755412851778019 -0.073935602903114489 0 0.1465778942704504 -0.062484784213405052 0 0.16472175238112449 -0.059281341708267182 0 0.1352540066800263 -0.070808032965003667 0 0.14755412851778019 -0.073935602903114489 0 0.1465778942704504 -0.062484784213405052 0 0.1323205907407729 -0.096989259391436392 0 0.138535063686792 -0.081790363999744931 0 0.15569564125717791 -0.087386572034546944 0 0.138535063686792 -0.081790363999744931 0 0.14755412851778019 -0.073935602903114489 0 0.15569564125717791 -0.087386572034546944 0 0.15569564125717791 -0.087386572034546944 0 0.170008727048647 -0.09060646598873523 0 0.1617581537734776 -0.10305988918829841 0 0.15569564125717791 -0.087386572034546944 0 0.170008727048647 -0.09060646598873523 0 0.17126682048254571 -0.076409693361986955 0 0.15569564125717791 -0.087386572034546944 0 0.17126682048254571 -0.076409693361986955 0 0.16472175238112449 -0.059281341708267182 0 0.15569564125717791 -0.087386572034546944 0 0.16472175238112449 -0.059281341708267182 0 0.17126682048254571 -0.076409693361986955 0 0.18265413992086571 -0.063209171797065242 0 0.18347981951830081 -0.081224605947527853 0 0.17126682048254571 -0.076409693361986955 0 0.18265413992086571 -0.063209171797065242 0 0.16472175238112449 -0.059281341708267182 0 0.170008727048647 -0.09060646598873523 0 0.18347981951830081 -0.081224605947527853 0 0.18105389156354509 -0.1001164543967946 0 0.170008727048647 -0.09060646598873523 0 0.17126682048254571 -0.076409693361986955 0 0.18347981951830081 -0.081224605947527853 0 0.18105389156354509 -0.1001164543967946 0 0.18117976340425249 -0.1196349958770024 0 0.1617581537734776 -0.10305988918829841 0 0.18105389156354509 -0.1001164543967946 0 0.18117976340425249 -0.1196349958770024 0 0.19804855879643121 -0.1116310472679948 0 0.18117976340425249 -0.1196349958770024 0 0.1617581537734776 -0.10305988918829841 0 0.16613174880043041 -0.12802153277750519 0 0.15089903572043001 -0.12206830273609059 0 0.1617581537734776 -0.10305988918829841 0 0.16613174880043041 -0.12802153277750519 0 0.170008727048647 -0.09060646598873523 0 0.18105389156354509 -0.1001164543967946 0 0.1617581537734776 -0.10305988918829841 0 0.15576031611683741 -0.0031135672654528379 0 0.1418785795583247 -0.02076158105754471 0 0.16463899084453079 -0.016523126177867709 0 0.15576031611683741 -0.0031135672654528379 0 0.1383395857447301 -0.0021895860680983272 0 0.1418785795583247 -0.02076158105754471 0 0.12099230233569511 -0.0076438222115242128 0 0.1418785795583247 -0.02076158105754471 0 0.12099230233569511 -0.0076438222115242128 0 0.1383395857447301 -0.0021895860680983272 0 0.1418785795583247 -0.02076158105754471 0 0.12099230233569511 -0.0076438222115242128 0 0.12880516403761089 -0.026287206120285001 0 0.1418785795583247 -0.02076158105754471 0 0.12880516403761089 -0.026287206120285001 0 0.13702479147036489 -0.028920422127857479 0 0.1418785795583247 -0.02076158105754471 0 0.12880516403761089 -0.026287206120285001 0 0.13702479147036489 -0.028920422127857479 0 0.1379813958509237 -0.037115109676355729 0 0.13702479147036489 -0.028920422127857479 0 0.14175621289780491 -0.030024756865932731 0 0.1418785795583247 -0.02076158105754471 0 0.1418785795583247 -0.02076158105754471 0 0.14924508780806159 -0.032851540300987123 0 0.1627648567809544 -0.033879339903565238 0 0.14175621289780491 -0.030024756865932731 0 0.1418785795583247 -0.02076158105754471 0 0.14924508780806159 -0.032851540300987123 0 0.1418785795583247 -0.02076158105754471 0 0.1627648567809544 -0.033879339903565238 0 0.1379813958509237 -0.037115109676355729 0 0.16037791680039551 -0.042778646778777137 0 0.1379813958509237 -0.037115109676355729 0 0.14935514903097569 -0.048249713902538252 0 0.16037791680039551 -0.042778646778777137 0 0.14924508780806159 -0.032851540300987123 0 0.1379813958509237 -0.037115109676355729 0 0.16037791680039551 -0.042778646778777137 0 0.14175621289780491 -0.030024756865932731 0 0.14924508780806159 -0.032851540300987123 0 0.1379813958509237 -0.037115109676355729 0 0.13063288400464379 -0.04076248775886309 0 0.13563198994974909 -0.049382561543655452 0 0.14935514903097569 -0.048249713902538252 0 0.13702479147036489 -0.028920422127857479 0 0.14175621289780491 -0.030024756865932731 0 0.1379813958509237 -0.037115109676355729 0 0.1155848749014519 -0.0314515725739343 0 0.12880516403761089 -0.026287206120285001 0 0.1379813958509237 -0.037115109676355729 0 0.1379813958509237 -0.037115109676355729 0 0.13063288400464379 -0.04076248775886309 0 0.14935514903097569 -0.048249713902538252 0 0.1155848749014519 -0.0314515725739343 0 0.1379813958509237 -0.037115109676355729 0 0.13063288400464379 -0.04076248775886309 0 0.1155848749014519 -0.0314515725739343 0 0.1379813958509237 -0.037115109676355729 0 0.13063288400464379 -0.04076248775886309 0 0.14935514903097569 -0.048249713902538252 0 0.1187476952086513 -0.043330431164904523 0 0.13063288400464379 -0.04076248775886309 0 0.12629659349330241 -0.051203577688934 0 0.13563198994974909 -0.049382561543655452 0 0.13624333327007471 -0.057314466824286453 0 0.14935514903097569 -0.048249713902538252 0 0.13063288400464379 -0.04076248775886309 0 0.13563198994974909 -0.049382561543655452 0 0.12629659349330241 -0.051203577688934 0 0.13563198994974909 -0.049382561543655452 0 0.12629659349330241 -0.051203577688934 0 0.13624333327007471 -0.057314466824286453 0 0.1230356126977307 -0.063836101017439834 0 0.12629659349330241 -0.051203577688934 0 0.13624333327007471 -0.057314466824286453 0 0.1465778942704504 -0.062484784213405052 0 0.14935514903097569 -0.048249713902538252 0 0.16472175238112449 -0.059281341708267182 0 0.13624333327007471 -0.057314466824286453 0 0.1465778942704504 -0.062484784213405052 0 0.14935514903097569 -0.048249713902538252 0 0.14935514903097569 -0.048249713902538252 0 0.16472175238112449 -0.059281341708267182 0 0.16037791680039551 -0.042778646778777137 0 0.18265413992086571 -0.063209171797065242 0 0.16472175238112449 -0.059281341708267182 0 0.17721723597264649 -0.048119666857815428 0 0.18265413992086571 -0.063209171797065242 0 0.1872012439579154 -0.050495101891165663 0 0.17721723597264649 -0.048119666857815428 0 0.17721723597264649 -0.048119666857815428 0 0.18232954346238989 -0.03944288021488971 0 0.17374786350507129 -0.03117611138198732 0 0.16472175238112449 -0.059281341708267182 0 0.17721723597264649 -0.048119666857815428 0 0.17374786350507129 -0.03117611138198732 0 0.1872012439579154 -0.050495101891165663 0 0.18232954346238989 -0.03944288021488971 0 0.18974557171305609 -0.039197820185349598 0 0.1872012439579154 -0.050495101891165663 0 0.17721723597264649 -0.048119666857815428 0 0.18232954346238989 -0.03944288021488971 0 0.18232954346238989 -0.03944288021488971 0 0.17374786350507129 -0.03117611138198732 0 0.18792482954308889 -0.031030272314535982 0 0.18232954346238989 -0.03944288021488971 0 0.18792482954308889 -0.031030272314535982 0 0.18974557171305609 -0.039197820185349598 0 0.16472175238112449 -0.059281341708267182 0 0.17374786350507129 -0.03117611138198732 0 0.16037791680039551 -0.042778646778777137 0 0.1627648567809544 -0.033879339903565238 0 0.17374786350507129 -0.03117611138198732 0 0.16472175238112449 -0.059281341708267182 0 0.16037791680039551 -0.042778646778777137 0 0.17374786350507129 -0.03117611138198732 0 0.14924508780806159 -0.032851540300987123 0 0.16037791680039551 -0.042778646778777137 0 0.1627648567809544 -0.033879339903565238 0 0.1418785795583247 -0.02076158105754471 0 0.1627648567809544 -0.033879339903565238 0 0.16662636630948741 -0.025905187780742508 0 0.1418785795583247 -0.02076158105754471 0 0.16463899084453079 -0.016523126177867709 0 0.16662636630948741 -0.025905187780742508 0 0.1627648567809544 -0.033879339903565238 0 0.16662636630948741 -0.025905187780742508 0 0.17374786350507129 -0.03117611138198732 0 0.16463899084453079 -0.016523126177867709 0 0.16662636630948741 -0.025905187780742508 0 0.17374786350507129 -0.03117611138198732 0 0.16463899084453079 -0.016523126177867709 0 0.17374786350507129 -0.03117611138198732 0 0.18277397462901801 -0.003070881055707454 0 0.17374786350507129 -0.03117611138198732 0 0.18661503547493849 -0.020213840946792339 0 0.18277397462901801 -0.003070881055707454 0 0.17374786350507129 -0.03117611138198732 0 0.18277397462901801 -0.003070881055707454 0 0.17374786350507129 -0.03117611138198732 0 0.18661503547493849 -0.020213840946792339 0 0.18792482954308889 -0.031030272314535982 0 0.16463899084453079 -0.016523126177867709 0 0.18277397462901801 -0.003070881055707454 0 0.1692383706313218 -0.0029367958741170052 0 0.15576031611683741 -0.0031135672654528379 0 0.16463899084453079 -0.016523126177867709 0 0.1692383706313218 -0.0029367958741170052 0 0.21641397312626279 0.0016274957474366101 0 0.2124127348350375 -0.010721438541432159 0 0.22145249104330941 -0.0062056516354621859 0 0.21641397312626279 0.0016274957474366101 0 0.2124127348350375 -0.010721438541432159 0 0.20607483203477139 -3.5438949451973201e-05 0 0.2124127348350375 -0.010721438541432159 0 0.20237768692611061 -0.0092756276077179973 0 0.20450668936656241 -0.016621933374531651 0 0.2124127348350375 -0.010721438541432159 0 0.20607483203477139 -3.5438949451973201e-05 0 0.20237768692611061 -0.0092756276077179973 0 0.18661503547493849 -0.020213840946792339 0 0.18277397462901801 -0.003070881055707454 0 0.19494229688671941 -0.012840184605972549 0 0.20607483203477139 -3.5438949451973201e-05 0 0.1968784915338824 -0.0032127247611820108 0 0.20237768692611061 -0.0092756276077179973 0 0.18277397462901801 -0.003070881055707454 0 0.1968784915338824 -0.0032127247611820108 0 0.19494229688671941 -0.012840184605972549 0 0.1968784915338824 -0.0032127247611820108 0 0.19494229688671941 -0.012840184605972549 0 0.20237768692611061 -0.0092756276077179973 0 0.19494229688671941 -0.012840184605972549 0 0.20237768692611061 -0.0092756276077179973 0 0.20450668936656241 -0.016621933374531651 0 0.19494229688671941 -0.012840184605972549 0 0.1986355422042804 -0.02366689082583863 0 0.20450668936656241 -0.016621933374531651 0 0.18661503547493849 -0.020213840946792339 0 0.19494229688671941 -0.012840184605972549 0 0.1986355422042804 -0.02366689082583863 0 0.18661503547493849 -0.020213840946792339 0 0.18792482954308889 -0.031030272314535982 0 0.1986355422042804 -0.02366689082583863 0 0.18792482954308889 -0.031030272314535982 0 0.1986355422042804 -0.02366689082583863 0 0.20035579015766289 -0.0341761546817336 0 0.1986355422042804 -0.02366689082583863 0 0.21236190727371909 -0.023434678707727589 0 0.20035579015766289 -0.0341761546817336 0 0.21236190727371909 -0.023434678707727589 0 0.21325127535602431 -0.034981661637147998 0 0.20035579015766289 -0.0341761546817336 0 0.1986355422042804 -0.02366689082583863 0 0.20450668936656241 -0.016621933374531651 0 0.21236190727371909 -0.023434678707727589 0 0.2124127348350375 -0.010721438541432159 0 0.20450668936656241 -0.016621933374531651 0 0.21236190727371909 -0.023434678707727589 0 0.2124127348350375 -0.010721438541432159 0 0.21236190727371909 -0.023434678707727589 0 0.22270366035609471 -0.014406103866121791 0 0.21236190727371909 -0.023434678707727589 0 0.21325127535602431 -0.034981661637147998 0 0.22338632524053381 -0.031615707309332337 0 0.21325127535602431 -0.034981661637147998 0 0.20719699954713439 -0.043703917571327022 0 0.22313855182560111 -0.04688114134729407 0 0.21325127535602431 -0.034981661637147998 0 0.20719699954713439 -0.043703917571327022 0 0.20035579015766289 -0.0341761546817336 0 0.18792482954308889 -0.031030272314535982 0 0.20035579015766289 -0.0341761546817336 0 0.18974557171305609 -0.039197820185349598 0 0.1872012439579154 -0.050495101891165663 0 0.18974557171305609 -0.039197820185349598 0 0.1970872797675628 -0.04431634318481182 0 0.20719699954713439 -0.043703917571327022 0 0.20035579015766289 -0.0341761546817336 0 0.1970872797675628 -0.04431634318481182 0 0.20035579015766289 -0.0341761546817336 0 0.18974557171305609 -0.039197820185349598 0 0.1970872797675628 -0.04431634318481182 0 0.20719699954713439 -0.043703917571327022 0 0.1970872797675628 -0.04431634318481182 0 0.1983617508783691 -0.054582964905123342 0 0.18265413992086571 -0.063209171797065242 0 0.1872012439579154 -0.050495101891165663 0 0.1983617508783691 -0.054582964905123342 0 0.1872012439579154 -0.050495101891165663 0 0.1970872797675628 -0.04431634318481182 0 0.1983617508783691 -0.054582964905123342 0 0.20719699954713439 -0.043703917571327022 0 0.1983617508783691 -0.054582964905123342 0 0.21305653649432049 -0.060612641229596448 0 0.20719699954713439 -0.043703917571327022 0 0.21305653649432049 -0.060612641229596448 0 0.22313855182560111 -0.04688114134729407 0 0.21305653649432049 -0.060612641229596448 0 0.22313855182560111 -0.04688114134729407 0 0.23128904129147659 -0.068719023116612335 0 0.22313855182560111 -0.04688114134729407 0 0.23697767947362269 -0.052383735573807128 0 0.23128904129147659 -0.068719023116612335 0 0.25203211719755469 -0.064864740168063206 0 0.23697767947362269 -0.052383735573807128 0 0.23128904129147659 -0.068719023116612335 0 0.25203211719755469 -0.064864740168063206 0 0.25000706599388611 -0.051970212916489379 0 0.23697767947362269 -0.052383735573807128 0 0.25000706599388611 -0.051970212916489379 0 0.25057940684032642 -0.039708976576940939 0 0.23697767947362269 -0.052383735573807128 0 0.25057940684032642 -0.039708976576940939 0 0.23697767947362269 -0.052383735573807128 0 0.2341133090130586 -0.038273198807539641 0 0.25057940684032642 -0.039708976576940939 0 0.2341133090130586 -0.038273198807539641 0 0.2397842340106007 -0.02772285238779167 0 0.25057940684032642 -0.039708976576940939 0 0.2397842340106007 -0.02772285238779167 0 0.24807984005970191 -0.028253642934939888 0 0.2341133090130586 -0.038273198807539641 0 0.23125314063493141 -0.028270207708141058 0 0.2397842340106007 -0.02772285238779167 0 0.2341133090130586 -0.038273198807539641 0 0.22338632524053381 -0.031615707309332337 0 0.23125314063493141 -0.028270207708141058 0 0.22313855182560111 -0.04688114134729407 0 0.2341133090130586 -0.038273198807539641 0 0.22338632524053381 -0.031615707309332337 0 0.22313855182560111 -0.04688114134729407 0 0.23697767947362269 -0.052383735573807128 0 0.2341133090130586 -0.038273198807539641 0 0.21325127535602431 -0.034981661637147998 0 0.22313855182560111 -0.04688114134729407 0 0.22338632524053381 -0.031615707309332337 0 0.21236190727371909 -0.023434678707727589 0 0.22338632524053381 -0.031615707309332337 0 0.2245611559324758 -0.022950762927601929 0 0.22338632524053381 -0.031615707309332337 0 0.2245611559324758 -0.022950762927601929 0 0.23125314063493141 -0.028270207708141058 0 0.2245611559324758 -0.022950762927601929 0 0.23175336187214621 -0.020080036691759371 0 0.22270366035609471 -0.014406103866121791 0 0.21236190727371909 -0.023434678707727589 0 0.2245611559324758 -0.022950762927601929 0 0.22270366035609471 -0.014406103866121791 0 0.23175336187214621 -0.020080036691759371 0 0.23929534332247451 -0.01779829999263639 0 0.23101493684282351 -0.01098437103982372 0 0.23175336187214621 -0.020080036691759371 0 0.23125314063493141 -0.028270207708141058 0 0.2397842340106007 -0.02772285238779167 0 0.2245611559324758 -0.022950762927601929 0 0.23175336187214621 -0.020080036691759371 0 0.23125314063493141 -0.028270207708141058 0 0.2397842340106007 -0.02772285238779167 0 0.24807984005970191 -0.028253642934939888 0 0.2465187985406741 -0.02114865632870299 0 0.2550806638953147 -0.025735556707865509 0 0.24807984005970191 -0.028253642934939888 0 0.2465187985406741 -0.02114865632870299 0 0.2465187985406741 -0.02114865632870299 0 0.23929534332247451 -0.01779829999263639 0 0.24633606395767821 -0.012292533897267661 0 0.25179701251938408 -0.017694226939863441 0 0.2465187985406741 -0.02114865632870299 0 0.24633606395767821 -0.012292533897267661 0 0.23175336187214621 -0.020080036691759371 0 0.2397842340106007 -0.02772285238779167 0 0.23929534332247451 -0.01779829999263639 0 0.2397842340106007 -0.02772285238779167 0 0.2465187985406741 -0.02114865632870299 0 0.23929534332247451 -0.01779829999263639 0 0.23929534332247451 -0.01779829999263639 0 0.23961623316352029 -0.010535604923312489 0 0.23101493684282351 -0.01098437103982372 0 0.23929534332247451 -0.01779829999263639 0 0.23961623316352029 -0.010535604923312489 0 0.24633606395767821 -0.012292533897267661 0 0.23961623316352029 -0.010535604923312489 0 0.24633606395767821 -0.012292533897267661 0 0.24435127403383339 -0.0061107394433980323 0 0.25120190602382952 -0.0052095755072275214 0 0.24633606395767821 -0.012292533897267661 0 0.24435127403383339 -0.0061107394433980323 0 0.24717639833345989 6.4481204013932397e-05 0 0.24435127403383339 -0.0061107394433980323 0 0.23812321768071351 -0.0016894971423481739 0 0.24717639833345989 6.4481204013932397e-05 0 0.25120190602382952 -0.0052095755072275214 0 0.24435127403383339 -0.0061107394433980323 0 0.23961623316352029 -0.010535604923312489 0 0.23812321768071351 -0.0016894971423481739 0 0.23101493684282351 -0.01098437103982372 0 0.23961623316352029 -0.010535604923312489 0 0.24435127403383339 -0.0061107394433980323 0 0.23812321768071351 -0.0016894971423481739 0 0.22731638315620431 0.0017916248146374911 0 0.23101493684282351 -0.01098437103982372 0 0.22145249104330941 -0.0062056516354621859 0 0.22731638315620431 0.0017916248146374911 0 0.23812321768071351 -0.0016894971423481739 0 0.23101493684282351 -0.01098437103982372 0 0.23175336187214621 -0.020080036691759371 0 0.23101493684282351 -0.01098437103982372 0 0.22270366035609471 -0.014406103866121791 0 0.23101493684282351 -0.01098437103982372 0 0.22270366035609471 -0.014406103866121791 0 0.22145249104330941 -0.0062056516354621859 0 0.2124127348350375 -0.010721438541432159 0 0.22270366035609471 -0.014406103866121791 0 0.22145249104330941 -0.0062056516354621859 0 0.22731638315620431 0.0017916248146374911 0 0.21641397312626279 0.0016274957474366101 0 0.22145249104330941 -0.0062056516354621859 0 0.20424669569066989 -0.093010712511760157 0 0.23095809472586509 -0.094903297564178341 0 0.21905942397718861 -0.11487809005607499 0 0.19804855879643121 -0.1116310472679948 0 0.20424669569066989 -0.093010712511760157 0 0.21905942397718861 -0.11487809005607499 0 0.19804855879643121 -0.1116310472679948 0 0.21905942397718861 -0.11487809005607499 0 0.20470301934649979 -0.13051498349834209 0 0.18117976340425249 -0.1196349958770024 0 0.19804855879643121 -0.1116310472679948 0 0.20470301934649979 -0.13051498349834209 0 0.18105389156354509 -0.1001164543967946 0 0.19804855879643121 -0.1116310472679948 0 0.20424669569066989 -0.093010712511760157 0 0.18347981951830081 -0.081224605947527853 0 0.19992615683143489 -0.072569187140887476 0 0.20424669569066989 -0.093010712511760157 0 0.18347981951830081 -0.081224605947527853 0 0.18105389156354509 -0.1001164543967946 0 0.20424669569066989 -0.093010712511760157 0 0.18265413992086571 -0.063209171797065242 0 0.18347981951830081 -0.081224605947527853 0 0.19992615683143489 -0.072569187140887476 0 0.18265413992086571 -0.063209171797065242 0 0.1983617508783691 -0.054582964905123342 0 0.19992615683143489 -0.072569187140887476 0 0.21305653649432049 -0.060612641229596448 0 0.19992615683143489 -0.072569187140887476 0 0.2156535154995646 -0.077681492123032048 0 0.1983617508783691 -0.054582964905123342 0 0.21305653649432049 -0.060612641229596448 0 0.19992615683143489 -0.072569187140887476 0 0.2156535154995646 -0.077681492123032048 0 0.20424669569066989 -0.093010712511760157 0 0.23095809472586509 -0.094903297564178341 0 0.19992615683143489 -0.072569187140887476 0 0.2156535154995646 -0.077681492123032048 0 0.20424669569066989 -0.093010712511760157 0 0.2156535154995646 -0.077681492123032048 0 0.23128904129147659 -0.068719023116612335 0 0.23095809472586509 -0.094903297564178341 0 0.21305653649432049 -0.060612641229596448 0 0.2156535154995646 -0.077681492123032048 0 0.23128904129147659 -0.068719023116612335 0 0.25203211719755469 -0.064864740168063206 0 0.23128904129147659 -0.068719023116612335 0 0.24720679382380811 -0.083706113810315161 0 0.23128904129147659 -0.068719023116612335 0 0.24720679382380811 -0.083706113810315161 0 0.23095809472586509 -0.094903297564178341 0 0.25248068696964349 -0.10451247860643401 0 0.23095809472586509 -0.094903297564178341 0 0.24073824683074749 -0.11898309597363541 0 0.25248068696964349 -0.10451247860643401 0 0.24720679382380811 -0.083706113810315161 0 0.23095809472586509 -0.094903297564178341 0 0.23095809472586509 -0.094903297564178341 0 0.21905942397718861 -0.11487809005607499 0 0.24073824683074749 -0.11898309597363541 0 0.21905942397718861 -0.11487809005607499 0 0.24073824683074749 -0.11898309597363541 0 0.228339489367056 -0.13603105781785901 0 0.25297455976986188 -0.13670752837950159 0 0.2461275228407423 -0.14899868001382041 0 0.228339489367056 -0.13603105781785901 0 0.25297455976986188 -0.13670752837950159 0 0.24073824683074749 -0.11898309597363541 0 0.228339489367056 -0.13603105781785901 0 0.2461275228407423 -0.14899868001382041 0 0.22371765673075619 -0.15755341882589449 0 0.228339489367056 -0.13603105781785901 0 0.20989406078965001 -0.14769326198551 0 0.22371765673075619 -0.15755341882589449 0 0.2461275228407423 -0.14899868001382041 0 0.228339489367056 -0.13603105781785901 0 0.22371765673075619 -0.15755341882589449 0 0.21905942397718861 -0.11487809005607499 0 0.228339489367056 -0.13603105781785901 0 0.20470301934649979 -0.13051498349834209 0 0.228339489367056 -0.13603105781785901 0 0.20470301934649979 -0.13051498349834209 0 0.20989406078965001 -0.14769326198551 0 0.20470301934649979 -0.13051498349834209 0 0.20989406078965001 -0.14769326198551 0 0.19140234788316829 -0.14825869214748591 0 0.20989406078965001 -0.14769326198551 0 0.19140234788316829 -0.14825869214748591 0 0.20130779062077001 -0.16610815763796871 0 0.18117976340425249 -0.1196349958770024 0 0.20470301934649979 -0.13051498349834209 0 0.19140234788316829 -0.14825869214748591 0 0.20130779062077001 -0.16610815763796871 0 0.21209924517184561 -0.19169772880878011 0 0.19124100147729961 -0.18939310784996261 0 0.20130779062077001 -0.16610815763796871 0 0.19124100147729961 -0.18939310784996261 0 0.17889792451078379 -0.17466289645004279 0 0.20130779062077001 -0.16610815763796871 0 0.17889792451078379 -0.17466289645004279 0 0.19140234788316829 -0.14825869214748591 0 0.20130779062077001 -0.16610815763796871 0 0.17889792451078379 -0.17466289645004279 0 0.20130779062077001 -0.16610815763796871 0 0.22340943526861329 -0.17649741424432741 0 0.22371765673075619 -0.15755341882589449 0 0.20989406078965001 -0.14769326198551 0 0.20130779062077001 -0.16610815763796871 0 0.22371765673075619 -0.15755341882589449 0 0.20130779062077001 -0.16610815763796871 0 0.22371765673075619 -0.15755341882589449 0 0.20130779062077001 -0.16610815763796871 0 0.22340943526861329 -0.17649741424432741 0 0.21209924517184561 -0.19169772880878011 0 0.22340943526861329 -0.17649741424432741 0 0.24368847620589321 -0.17005331356982009 0 0.23371033073555489 -0.19680947082035069 0 0.22340943526861329 -0.17649741424432741 0 0.22371765673075619 -0.15755341882589449 0 0.24368847620589321 -0.17005331356982009 0 0.2461275228407423 -0.14899868001382041 0 0.22371765673075619 -0.15755341882589449 0 0.24368847620589321 -0.17005331356982009 0 0.2593630558311944 -0.15522840324506251 0 0.2461275228407423 -0.14899868001382041 0 0.24368847620589321 -0.17005331356982009 0 0.25763777960625811 -0.1905340692105793 0 0.24368847620589321 -0.17005331356982009 0 0.23371033073555489 -0.19680947082035069 0 0.25763777960625811 -0.1905340692105793 0 0.24621464331876661 -0.21430126791017801 0 0.23371033073555489 -0.19680947082035069 0 0.24621464331876661 -0.21430126791017801 0 0.2315908603181053 -0.21381136247675281 0 0.23371033073555489 -0.19680947082035069 0 0.24621464331876661 -0.21430126791017801 0 0.2315908603181053 -0.21381136247675281 0 0.23548395107769551 -0.22336724572734509 0 0.23371033073555489 -0.19680947082035069 0 0.2176511443524026 -0.21598299943752619 0 0.23371033073555489 -0.19680947082035069 0 0.21130221668779819 -0.2068890715702239 0 0.2176511443524026 -0.21598299943752619 0 0.2315908603181053 -0.21381136247675281 0 0.23371033073555489 -0.19680947082035069 0 0.2176511443524026 -0.21598299943752619 0 0.2315908603181053 -0.21381136247675281 0 0.23548395107769551 -0.22336724572734509 0 0.22409439849438709 -0.21896820190110461 0 0.2315908603181053 -0.21381136247675281 0 0.22409439849438709 -0.21896820190110461 0 0.2176511443524026 -0.21598299943752619 0 0.22340943526861329 -0.17649741424432741 0 0.23371033073555489 -0.19680947082035069 0 0.21209924517184561 -0.19169772880878011 0 0.23371033073555489 -0.19680947082035069 0 0.21209924517184561 -0.19169772880878011 0 0.21130221668779819 -0.2068890715702239 0 0.24621464331876661 -0.21430126791017801 0 0.24630189157149271 -0.23862719373273489 0 0.23548395107769551 -0.22336724572734509 0 0.22409439849438709 -0.21896820190110461 0 0.21785392573041409 -0.23641888406417749 0 0.2176511443524026 -0.21598299943752619 0 0.24630189157149271 -0.23862719373273489 0 0.23548395107769551 -0.22336724572734509 0 0.21785392573041409 -0.23641888406417749 0 0.22409439849438709 -0.21896820190110461 0 0.21785392573041409 -0.23641888406417749 0 0.23548395107769551 -0.22336724572734509 0 0.22409439849438709 -0.21896820190110461 0 0.21785392573041409 -0.23641888406417749 0 0.22539995833197279 -0.25439694151812092 0 0.24630189157149271 -0.23862719373273489 0 0.21785392573041409 -0.23641888406417749 0 0.24630189157149271 -0.23862719373273489 0 0.21785392573041409 -0.23641888406417749 0 0.2011585879306918 -0.25009629578211662 0 0.21785392573041409 -0.23641888406417749 0 0.20159195796925031 -0.2351565280547018 0 0.21785392573041409 -0.23641888406417749 0 0.20159195796925031 -0.2351565280547018 0 0.20839792567908169 -0.26286137611100968 0 0.21785392573041409 -0.23641888406417749 0 0.20839792567908169 -0.26286137611100968 0 0.2011585879306918 -0.25009629578211662 0 0.21785392573041409 -0.23641888406417749 0 0.20159195796925031 -0.2351565280547018 0 0.2176511443524026 -0.21598299943752619 0 0.20512216916870521 -0.2278805250815514 0 0.20159195796925031 -0.2351565280547018 0 0.2176511443524026 -0.21598299943752619 0 0.21785392573041409 -0.23641888406417749 0 0.20159195796925031 -0.2351565280547018 0 0.2176511443524026 -0.21598299943752619 0 0.20512216916870521 -0.2278805250815514 0 0.20159195796925031 -0.2351565280547018 0 0.20512216916870521 -0.2278805250815514 0 0.20030767657713899 -0.22213255022427639 0 0.20711053644147431 -0.21610162008186751 0 0.20512216916870521 -0.2278805250815514 0 0.2176511443524026 -0.21598299943752619 0 0.20711053644147431 -0.21610162008186751 0 0.20030767657713899 -0.22213255022427639 0 0.18843438840053089 -0.22429703839327381 0 0.19478163809190921 -0.2284030752495009 0 0.18843438840053089 -0.22429703839327381 0 0.19478163809190921 -0.2284030752495009 0 0.18684633826248009 -0.23357069629916619 0 0.19478163809190921 -0.2284030752495009 0 0.1965713687692737 -0.2323596290916792 0 0.18684633826248009 -0.23357069629916619 0 0.20512216916870521 -0.2278805250815514 0 0.20030767657713899 -0.22213255022427639 0 0.20093119683563099 -0.23027237288877769 0 0.20030767657713899 -0.22213255022427639 0 0.19478163809190921 -0.2284030752495009 0 0.20093119683563099 -0.23027237288877769 0 0.1965713687692737 -0.2323596290916792 0 0.20093119683563099 -0.23027237288877769 0 0.19965478479677759 -0.23319614450000781 0 0.19478163809190921 -0.2284030752495009 0 0.1965713687692737 -0.2323596290916792 0 0.20093119683563099 -0.23027237288877769 0 0.20093119683563099 -0.23027237288877769 0 0.19965478479677759 -0.23319614450000781 0 0.20159195796925031 -0.2351565280547018 0 0.1965713687692737 -0.2323596290916792 0 0.19965478479677759 -0.23319614450000781 0 0.20159195796925031 -0.2351565280547018 0 0.20512216916870521 -0.2278805250815514 0 0.20093119683563099 -0.23027237288877769 0 0.20159195796925031 -0.2351565280547018 0 0.18788263882716169 -0.25679145815736337 0 0.2011585879306918 -0.25009629578211662 0 0.198785433941357 -0.2385073185293709 0 0.18788263882716169 -0.25679145815736337 0 0.198785433941357 -0.2385073185293709 0 0.18152387782089699 -0.25911639126544889 0 0.198785433941357 -0.2385073185293709 0 0.2011585879306918 -0.25009629578211662 0 0.20159195796925031 -0.2351565280547018 0 0.198785433941357 -0.2385073185293709 0 0.20159195796925031 -0.2351565280547018 0 0.198785433941357 -0.2385073185293709 0 0.1965713687692737 -0.2323596290916792 0 0.20159195796925031 -0.2351565280547018 0 0.198785433941357 -0.2385073185293709 0 0.1965713687692737 -0.2323596290916792 0 0.198785433941357 -0.2385073185293709 0 0.18684633826248009 -0.23357069629916619 0 0.21209924517184561 -0.19169772880878011 0 0.21130221668779819 -0.2068890715702239 0 0.2002668167861883 -0.2079973836010269 0 0.21209924517184561 -0.19169772880878011 0 0.2002668167861883 -0.2079973836010269 0 0.21130221668779819 -0.2068890715702239 0 0.2176511443524026 -0.21598299943752619 0 0.20711053644147431 -0.21610162008186751 0 0.21130221668779819 -0.2068890715702239 0 0.20711053644147431 -0.21610162008186751 0 0.2002668167861883 -0.2079973836010269 0 0.18843438840053089 -0.22429703839327381 0 0.2002668167861883 -0.2079973836010269 0 0.180016103686264 -0.2162986932733435 0 0.20030767657713899 -0.22213255022427639 0 0.18843438840053089 -0.22429703839327381 0 0.2002668167861883 -0.2079973836010269 0 0.18843438840053089 -0.22429703839327381 0 0.2002668167861883 -0.2079973836010269 0 0.20030767657713899 -0.22213255022427639 0 0.20711053644147431 -0.21610162008186751 0 0.2002668167861883 -0.2079973836010269 0 0.21209924517184561 -0.19169772880878011 0 0.2002668167861883 -0.2079973836010269 0 0.19124100147729961 -0.18939310784996261 0 0.2002668167861883 -0.2079973836010269 0 0.19124100147729961 -0.18939310784996261 0 0.1800858015089348 -0.20404122918650869 0 0.19124100147729961 -0.18939310784996261 0 0.17300839484359959 -0.19032515620154181 0 0.1800858015089348 -0.20404122918650869 0 0.17300839484359959 -0.19032515620154181 0 0.1800858015089348 -0.20404122918650869 0 0.16511688276789979 -0.2037422734579345 0 0.2002668167861883 -0.2079973836010269 0 0.1800858015089348 -0.20404122918650869 0 0.180016103686264 -0.2162986932733435 0 0.180016103686264 -0.2162986932733435 0 0.17158712606925181 -0.21317965921763191 0 0.17245955861392881 -0.22544357065373899 0 0.1800858015089348 -0.20404122918650869 0 0.180016103686264 -0.2162986932733435 0 0.17158712606925181 -0.21317965921763191 0 0.1800858015089348 -0.20404122918650869 0 0.16511688276789979 -0.2037422734579345 0 0.17158712606925181 -0.21317965921763191 0 0.16511688276789979 -0.2037422734579345 0 0.1602572837692316 -0.2163725295166338 0 0.14923355453419229 -0.2049748746529709 0 0.16511688276789979 -0.2037422734579345 0 0.17158712606925181 -0.21317965921763191 0 0.1602572837692316 -0.2163725295166338 0 0.17158712606925181 -0.21317965921763191 0 0.1602572837692316 -0.2163725295166338 0 0.17245955861392881 -0.22544357065373899 0 0.16511688276789979 -0.2037422734579345 0 0.1580161072334256 -0.19051013192350971 0 0.14923355453419229 -0.2049748746529709 0 0.17300839484359959 -0.19032515620154181 0 0.16511688276789979 -0.2037422734579345 0 0.1580161072334256 -0.19051013192350971 0 0.198785433941357 -0.2385073185293709 0 0.17660196001487369 -0.24059669318552079 0 0.18684633826248009 -0.23357069629916619 0 0.18152387782089699 -0.25911639126544889 0 0.198785433941357 -0.2385073185293709 0 0.17660196001487369 -0.24059669318552079 0 0.17660196001487369 -0.24059669318552079 0 0.18684633826248009 -0.23357069629916619 0 0.18843438840053089 -0.22429703839327381 0 0.17660196001487369 -0.24059669318552079 0 0.18843438840053089 -0.22429703839327381 0 0.17660196001487369 -0.24059669318552079 0 0.17245955861392881 -0.22544357065373899 0 0.18843438840053089 -0.22429703839327381 0 0.180016103686264 -0.2162986932733435 0 0.17245955861392881 -0.22544357065373899 0 0.18843438840053089 -0.22429703839327381 0 0.17660196001487369 -0.24059669318552079 0 0.18684633826248009 -0.23357069629916619 0 0.1602572837692316 -0.2163725295166338 0 0.17245955861392881 -0.22544357065373899 0 0.1565386742983306 -0.23081333914389149 0 0.17245955861392881 -0.22544357065373899 0 0.1565386742983306 -0.23081333914389149 0 0.16577419905364421 -0.23763837501405671 0 0.1574966032874438 -0.25369989707307561 0 0.1565386742983306 -0.23081333914389149 0 0.16577419905364421 -0.23763837501405671 0 0.16074166857342259 -0.25327435041196428 0 0.1574966032874438 -0.25369989707307561 0 0.17660196001487369 -0.24059669318552079 0 0.1574966032874438 -0.25369989707307561 0 0.17660196001487369 -0.24059669318552079 0 0.1574966032874438 -0.25369989707307561 0 0.17660196001487369 -0.24059669318552079 0 0.16577419905364421 -0.23763837501405671 0 0.17660196001487369 -0.24059669318552079 0 0.17245955861392881 -0.22544357065373899 0 0.16577419905364421 -0.23763837501405671 0 0.13307923001982941 -0.25143477649120521 0 0.1574966032874438 -0.25369989707307561 0 0.14601890215067431 -0.2422933982639863 0 0.1574966032874438 -0.25369989707307561 0 0.1565386742983306 -0.23081333914389149 0 0.14601890215067431 -0.2422933982639863 0 0.14601890215067431 -0.2422933982639863 0 0.1429593770560329 -0.22674864940972381 0 0.13708891809954329 -0.2396171107900015 0 0.1565386742983306 -0.23081333914389149 0 0.14601890215067431 -0.2422933982639863 0 0.1429593770560329 -0.22674864940972381 0 0.1565386742983306 -0.23081333914389149 0 0.1429593770560329 -0.22674864940972381 0 0.1484190403351289 -0.21651349676145201 0 0.1602572837692316 -0.2163725295166338 0 0.1565386742983306 -0.23081333914389149 0 0.1484190403351289 -0.21651349676145201 0 0.1429593770560329 -0.22674864940972381 0 0.12629816317163689 -0.23799161899509089 0 0.13094528246371709 -0.21063461998422089 0 0.12629816317163689 -0.23799161899509089 0 0.13094528246371709 -0.21063461998422089 0 0.1429593770560329 -0.22674864940972381 0 0.13708891809954329 -0.2396171107900015 0 0.12629816317163689 -0.23799161899509089 0 0.13307923001982941 -0.25143477649120521 0 0.13708891809954329 -0.2396171107900015 0 0.12629816317163689 -0.23799161899509089 0 0.13307923001982941 -0.25143477649120521 0 0.14601890215067431 -0.2422933982639863 0 0.13708891809954329 -0.2396171107900015 0 0.1447355385180974 -0.1926706049944433 0 0.14923355453419229 -0.2049748746529709 0 0.13094528246371709 -0.21063461998422089 0 0.1580161072334256 -0.19051013192350971 0 0.1447355385180974 -0.1926706049944433 0 0.14923355453419229 -0.2049748746529709 0 0.14923355453419229 -0.2049748746529709 0 0.1484190403351289 -0.21651349676145201 0 0.13094528246371709 -0.21063461998422089 0 0.1429593770560329 -0.22674864940972381 0 0.1484190403351289 -0.21651349676145201 0 0.13094528246371709 -0.21063461998422089 0 0.1602572837692316 -0.2163725295166338 0 0.14923355453419229 -0.2049748746529709 0 0.1484190403351289 -0.21651349676145201 0 0.1447355385180974 -0.1926706049944433 0 0.13094528246371709 -0.21063461998422089 0 0.13559240175579729 -0.18327762097335101 0 0.13094528246371709 -0.21063461998422089 0 0.13559240175579729 -0.18327762097335101 0 0.1190053186334129 -0.19689047808001531 0 0.13094528246371709 -0.21063461998422089 0 0.13559240175579729 -0.18327762097335101 0 0.1190053186334129 -0.19689047808001531 0 0.1233178879655227 -0.16914131020130571 0 0.13559240175579729 -0.18327762097335101 0 0.1233178879655227 -0.16914131020130571 0 0.13559240175579729 -0.18327762097335101 0 0.136681100487822 -0.17063515695626749 0 0.1580161072334256 -0.19051013192350971 0 0.1447355385180974 -0.1926706049944433 0 0.1498903466033549 -0.17395577743816421 0 0.1447355385180974 -0.1926706049944433 0 0.13559240175579729 -0.18327762097335101 0 0.1498903466033549 -0.17395577743816421 0 0.13559240175579729 -0.18327762097335101 0 0.1498903466033549 -0.17395577743816421 0 0.136681100487822 -0.17063515695626749 0 0.1498903466033549 -0.17395577743816421 0 0.15410569600938631 -0.15673255941578301 0 0.13913183779343499 -0.1578048223199392 0 0.1498903466033549 -0.17395577743816421 0 0.13913183779343499 -0.1578048223199392 0 0.136681100487822 -0.17063515695626749 0 0.1233178879655227 -0.16914131020130571 0 0.13913183779343499 -0.1578048223199392 0 0.136681100487822 -0.17063515695626749 0 0.1233178879655227 -0.16914131020130571 0 0.13913183779343499 -0.1578048223199392 0 0.1276304572976372 -0.14139214232259689 0 0.1276304572976372 -0.14139214232259689 0 0.15064362674143381 -0.14271334416548909 0 0.13913183779343499 -0.1578048223199392 0 0.1276304572976372 -0.14139214232259689 0 0.15064362674143381 -0.14271334416548909 0 0.1242808276787848 -0.14119983778861131 0 0.1233178879655227 -0.16914131020130571 0 0.1276304572976372 -0.14139214232259689 0 0.1233178879655227 -0.16914131020130571 0 0.1276304572976372 -0.14139214232259689 0 0.1242808276787848 -0.14119983778861131 0 0.1276304572976372 -0.14139214232259689 0 0.1232567505869934 -0.1304402152193046 0 0.1306570999542464 -0.1219172518989441 0 0.1276304572976372 -0.14139214232259689 0 0.1306570999542464 -0.1219172518989441 0 0.1276304572976372 -0.14139214232259689 0 0.1306570999542464 -0.1219172518989441 0 0.1276304572976372 -0.14139214232259689 0 0.13995755492843681 -0.13202276028078019 0 0.1276304572976372 -0.14139214232259689 0 0.13995755492843681 -0.13202276028078019 0 0.15064362674143381 -0.14271334416548909 0 0.1306570999542464 -0.1219172518989441 0 0.15089903572043001 -0.12206830273609059 0 0.13995755492843681 -0.13202276028078019 0 0.1232567505869934 -0.1304402152193046 0 0.1242808276787848 -0.14119983778861131 0 0.1276304572976372 -0.14139214232259689 0 0.15089903572043001 -0.12206830273609059 0 0.15064362674143381 -0.14271334416548909 0 0.16613174880043041 -0.12802153277750519 0 0.15089903572043001 -0.12206830273609059 0 0.13995755492843681 -0.13202276028078019 0 0.15064362674143381 -0.14271334416548909 0 0.15410569600938631 -0.15673255941578301 0 0.13913183779343499 -0.1578048223199392 0 0.15064362674143381 -0.14271334416548909 0 0.15410569600938631 -0.15673255941578301 0 0.17365679618523039 -0.14403454600838081 0 0.1672409944588979 -0.16089502563472269 0 0.15064362674143381 -0.14271334416548909 0 0.17365679618523039 -0.14403454600838081 0 0.15410569600938631 -0.15673255941578301 0 0.15064362674143381 -0.14271334416548909 0 0.17365679618523039 -0.14403454600838081 0 0.15064362674143381 -0.14271334416548909 0 0.16613174880043041 -0.12802153277750519 0 0.17365679618523039 -0.14403454600838081 0 0.18117976340425249 -0.1196349958770024 0 0.19140234788316829 -0.14825869214748591 0 0.17365679618523039 -0.14403454600838081 0 0.18117976340425249 -0.1196349958770024 0 0.16613174880043041 -0.12802153277750519 0 0.17365679618523039 -0.14403454600838081 0 0.19140234788316829 -0.14825869214748591 0 0.17365679618523039 -0.14403454600838081 0 0.1672409944588979 -0.16089502563472269 0 0.19140234788316829 -0.14825869214748591 0 0.17889792451078379 -0.17466289645004279 0 0.1672409944588979 -0.16089502563472269 0 0.19124100147729961 -0.18939310784996261 0 0.17300839484359959 -0.19032515620154181 0 0.17889792451078379 -0.17466289645004279 0 0.17300839484359959 -0.19032515620154181 0 0.17889792451078379 -0.17466289645004279 0 0.16520558153951009 -0.17850736919008101 0 0.1580161072334256 -0.19051013192350971 0 0.1498903466033549 -0.17395577743816421 0 0.16520558153951009 -0.17850736919008101 0 0.17300839484359959 -0.19032515620154181 0 0.1580161072334256 -0.19051013192350971 0 0.16520558153951009 -0.17850736919008101 0 0.1498903466033549 -0.17395577743816421 0 0.16520558153951009 -0.17850736919008101 0 0.1672409944588979 -0.16089502563472269 0 0.17889792451078379 -0.17466289645004279 0 0.16520558153951009 -0.17850736919008101 0 0.1672409944588979 -0.16089502563472269 0 0.1498903466033549 -0.17395577743816421 0 0.15410569600938631 -0.15673255941578301 0 0.1672409944588979 -0.16089502563472269 0 
</DataArray>
</Points>
<Cells>
<DataArray type="UInt32" Name="connectivity" format="ascii">
0 1 2 3 4 5 6 7 8 9 10 11 12 13 14 15 16 17 18 19 20 21 22 23 24 25 26 27 28 29 30 31 32 33 34 35 36 37 38 39 40 41 42 43 44 45 46 47 48 49 50 51 52 53 54 55 56 57 58 59 60 61 62 63 64 65 66 67 68 69 70 71 72 73 74 75 76 77 78 79 80 81 82 83 84 85 86 87 88 89 90 91 92 93 94 95 96 97 98 99 100 101 102 103 104 105 106 107 108 109 110 111 112 113 114 115 116 117 118 119 120 121 122 123 124 125 126 127 128 129 130 131 132 133 134 135 136 137 138 139 140 141 142 143 144 145 146 147 148 149 150 151 152 153 154 155 156 157 158 159 160 161 162 163 164 165 166 167 168 169 170 171 172 173 174 175 176 177 178 179 180 181 182 183 184 185 186 187 188 189 190 191 192 193 194 195 196 197 198 199 200 201 202 203 204 205 206 207 208 209 210 211 212 213 214 215 216 217 218 219 220 221 222 223 224 225 226 227 228 229 230 231 232 233 234 235 236 237 238 239 240 241 242 243 244 245 246 247 248 249 250 251 252 253 254 255 256 257 258 259 260 261 262 263 264 265 266 267 268 269 270 271 272 273 274 275 276 277 278 279 280 281 282 283 284 285 286 287 288 289 290 291 292 293 294 295 296 297 298 299 300 301 302 303 304 305 306 307 308 309 310 311 312 313 314 315 316 317 318 319 320 321 322 323 324 325 326 327 328 329 330 331 332 333 334 335 336 337 338 339 340 341 342 343 344 345 346 347 348 349 350 351 352 353 354 355 356 357 358 359 360 361 362 363 364 365 366 367 368 369 370 371 372 373 374 375 376 377 378 379 380 381 382 383 384 385 386 387 388 389 390 391 392 393 394 395 396 397 398 399 400 401 402 403 404 405 406 407 408 409 410 411 412 413 414 415 416 417 418 419 420 421 422 423 424 425 426 427 428 429 430 431 432 433 434 435 436 437 438 439 440 441 442 443 444 445 446 447 448 449 450 451 452 453 454 455 456 457 458 459 460 461 462 463 464 465 466 467 468 469 470 471 472 473 474 475 476 477 478 479 480 481 482 483 484 485 486 487 488 489 490 491 492 493 494 495 496 497 498 499 500 501 502 503 504 505 506 507 508 509 510 511 512 513 514 515 516 517 518 519 520 521 522 523 524 525 526 527 528 529 530 531 532 533 534 535 536 537 538 539 540 541 542 543 544 545 546 547 548 549 550 551 552 553 554 555 556 557 558 559 560 561 562 563 564 565 566 567 568 569 570 571 572 573 574 575 576 577 578 579 580 581 582 583 584 585 586 587 588 589 590 591 592 593 594 595 596 597 598 599 600 601 602 603 604 605 606 607 608 609 610 611 612 613 614 615 616 617 618 619 620 621 622 623 624 625 626 627 628 629 630 631 632 633 634 635 636 637 638 639 640 641 642 643 644 645 646 647 648 649 650 651 652 653 654 655 656 657 658 659 660 661 662 663 664 665 666 667 668 669 670 671 672 673 674 675 676 677 678 679 680 681 682 683 684 685 686 687 688 689 690 691 692 693 694 695 696 697 698 699 700 701 702 703 704 705 706 707 708 709 710 711 712 713 714 715 716 717 718 719 720 721 722 723 724 725 726 727 728 729 730 731 732 733 734 735 736 737 738 739 740 741 742 743 744 745 746 747 748 749 750 751 752 753 754 755 756 757 758 759 760 761 762 763 764 765 766 767 768 769 770 771 772 773 774 775 776 777 778 779 780 781 782 783 784 785 786 787 788 789 790 791 792 793 794 795 796 797 798 799 800 801 802 803 804 805 806 807 808 809 810 811 812 813 814 815 816 817 818 819 820 821 822 823 824 825 826 827 828 829 830 831 832 833 834 835 836 837 838 839 840 841 842 843 844 845 846 847 848 849 850 851 852 853 854 855 856 857 858 859 860 861 862 863 864 865 866 867 868 869 870 871 872 873 874 875 876 877 878 879 880 881 882 883 884 885 886 887 888 889 890 891 892 893 894 895 896 897 898 899 900 901 902 903 904 905 906 907 908 909 910 911 912 913 914 915 916 917 918 919 920 921 922 923 924 925 926 927 928 929 930 931 932 933 934 935 936 937 938 939 940 941 942 943 944 945 946 947 948 949 950 951 952 953 954 955 956 957 958 959 960 961 962 963 964 965 966 967 968 969 970 971 972 973 974 975 976 977 978 979 980 981 982 983 984 985 986 987 988 989 990 991 992 993 994 995 996 997 998 999 1000 1001 1002 1003 1004 1005 1006 1007 1008 1009 1010 1011 1012 1013 1014 1015 1016 1017 1018 1019 1020 1021 1022 1023 1024 1025 1026 1027 1028 1029 1030 1031 1032 1033 1034 1035 1036 1037 1038 1039 1040 1041 1042 1043 1044 1045 1046 1047 1048 1049 1050 1051 1052 1053 1054 1055 1056 1057 1058 1059 1060 1061 1062 1063 1064 1065 1066 1067 1068 1069 1070 1071 1072 1073 1074 1075 1076 1077 1078 1079 1080 1081 1082 1083 1084 1085 1086 1087 1088 1089 1090 1091 1092 1093 1094 1095 1096 1097 1098 1099 1100 1101 1102 1103 1104 1105 1106 1107 1108 1109 1110 1111 1112 1113 1114 1115 1116 1117 1118 1119 1120 1121 1122 1123 1124 1125 1126 1127 1128 1129 1130 1131 1132 1133 1134 1135 1136 1137 1138 1139 1140 1141 1142 1143 1144 1145 1146 1147 1148 1149 1150 1151 1152 1153 1154 1155 1156 1157 1158 1159 1160 1161 1162 1163 1164 1165 1166 1167 1168 1169 1170 1171 1172 1173 1174 1175 1176 1177 1178 1179 1180 1181 1182 1183 1184 1185 1186 1187 1188 1189 1190 1191 1192 1193 1194 1195 1196 1197 1198 1199 1200 1201 1202 1203 1204 1205 1206 1207 1208 1209 1210 1211 1212 1213 1214 1215 1216 1217 1218 1219 1220 1221 1222 1223 1224 1225 1226 1227 1228 1229 1230 1231 1232 1233 1234 1235 1236 1237 1238 1239 1240 1241 1242 1243 1244 1245 1246 1247 1248 1249 1250 1251 1252 1253 1254 1255 1256 1257 1258 1259 1260 1261 1262 1263 1264 1265 1266 1267 1268 1269 1270 1271 1272 1273 1274 1275 1276 1277 1278 1279 1280 1281 1282 1283 1284 1285 1286 1287 1288 1289 1290 1291 1292 1293 1294 1295 1296 1297 1298 1299 1300 1301 1302 1303 1304 1305 1306 1307 1308 1309 1310 1311 1312 1313 1314 1315 1316 1317 1318 1319 1320 1321 1322 1323 1324 1325 1326 1327 1328 1329 1330 1331 1332 1333 1334 1335 1336 1337 1338 1339 1340 1341 1342 1343 1344 1345 1346 1347 1348 1349 1350 1351 1352 1353 1354 1355 1356 1357 1358 1359 1360 1361 1362 1363 1364 1365 1366 1367 1368 1369 1370 1371 1372 1373 1374 1375 1376 1377 1378 1379 1380 1381 1382 1383 1384 1385 1386 1387 1388 1389 1390 1391 1392 1393 1394 1395 1396 1397 1398 1399 1400 1401 1402 1403 1404 1405 1406 1407 1408 1409 1410 1411 1412 1413 1414 1415 1416 1417 1418 1419 1420 1421 1422 1423 1424 1425 1426 1427 1428 1429 1430 1431 1432 1433 1434 1435 1436 1437 1438 1439 1440 1441 1442 1443 1444 1445 1446 1447 1448 1449 1450 1451 1452 1453 1454 1455 1456 1457 1458 1459 1460 1461 1462 1463 1464 1465 1466 1467 1468 1469 1470 1471 1472 1473 1474 1475 1476 1477 1478 1479 1480 1481 1482 1483 1484 1485 1486 1487 1488 1489 1490 1491 1492 1493 1494 1495 1496 1497 1498 1499 1500 1501 1502 1503 1504 1505 1506 1507 1508 1509 1510 1511 1512 1513 1514 1515 1516 1517 1518 1519 1520 1521 1522 1523 1524 1525 1526 1527 1528 1529 1530 1531 1532 1533 1534 1535 1536 1537 1538 1539 1540 1541 1542 1543 1544 1545 1546 1547 1548 1549 1550 1551 1552 1553 1554 1555 1556 1557 1558 1559 1560 1561 1562 1563 1564 1565 1566 1567 1568 1569 1570 1571 1572 1573 1574 1575 1576 1577 1578 1579 1580 1581 1582 1583 1584 1585 1586 1587 1588 1589 1590 1591 1592 1593 1594 1595 1596 1597 1598 1599 1600 1601 1602 1603 1604 1605 1606 1607 1608 1609 1610 1611 1612 1613 1614 1615 1616 1617 1618 1619 1620 1621 1622 1623 1624 1625 1626 1627 1628 1629 1630 1631 1632 1633 1634 1635 1636 1637 1638 1639 1640 1641 1642 1643 1644 1645 1646 1647 1648 1649 1650 1651 1652 1653 1654 1655 1656 1657 1658 1659 1660 1661 1662 1663 1664 1665 1666 1667 1668 1669 1670 1671 1672 1673 1674 1675 1676 1677 1678 1679 1680 1681 1682 1683 1684 1685 1686 1687 1688 1689 1690 1691 1692 1693 1694 1695 1696 1697 1698 1699 1700 1701 1702 1703 1704 1705 1706 1707 1708 1709 1710 1711 1712 1713 1714 1715 1716 1717 1718 1719 1720 1721 1722 1723 1724 1725 1726 1727 1728 1729 1730 1731 1732 1733 1734 1735 1736 1737 1738 1739 1740 1741 1742 1743 1744 1745 1746 1747 1748 1749 1750 1751 1752 1753 1754 1755 1756 1757 1758 1759 1760 1761 1762 1763 1764 1765 1766 1767 1768 1769 1770 1771 1772 1773 1774 1775 1776 1777 1778 1779 1780 1781 1782 1783 1784 1785 1786 1787 1788 1789 1790 1791 1792 1793 1794 1795 1796 1797 1798 1799 1800 1801 1802 1803 1804 1805 1806 1807 1808 1809 1810 1811 1812 1813 1814 1815 1816 1817 1818 1819 1820 1821 1822 1823 1824 1825 1826 1827 1828 1829 1830 1831 1832 1833 1834 1835 1836 1837 1838 1839 1840 1841 1842 1843 1844 1845 1846 1847 1848 1849 1850 1851 1852 1853 1854 1855 1856 1857 1858 1859 1860 1861 1862 1863 1864 1865 1866 1867 1868 1869 1870 1871 1872 1873 1874 1875 1876 1877 1878 1879 1880 1881 1882 1883 1884 1885 1886 1887 1888 1889 1890 1891 1892 1893 1894 1895 1896 1897 1898 1899 1900 1901 1902 1903 1904 1905 1906 1907 1908 1909 1910 1911 1912 1913 1914 1915 1916 1917 1918 1919 1920 1921 1922 1923 1924 1925 1926 1927 1928 1929 1930 1931 1932 1933 1934 1935 1936 1937 1938 1939 1940 1941 1942 1943 1944 1945 1946 1947 1948 1949 1950 1951 1952 1953 1954 1955 1956 1957 1958 1959 1960 1961 1962 1963 1964 1965 1966 1967 1968 1969 1970 1971 1972 1973 1974 1975 1976 1977 1978 1979 1980 1981 1982 1983 1984 1985 1986 1987 1988 1989 1990 1991 1992 1993 1994 1995 1996 1997 1998 1999 2000 2001 2002 2003 2004 2005 2006 2007 2008 2009 2010 2011 2012 2013 2014 2015 2016 2017 2018 2019 2020 2021 2022 2023 2024 2025 2026 2027 2028 2029 2030 2031 2032 2033 2034 2035 2036 2037 2038 2039 2040 2041 2042 2043 2044 2045 2046 2047 2048 2049 2050 2051 2052 2053 2054 2055 2056 2057 2058 2059 2060 2061 2062 2063 2064 2065 2066 2067 2068 2069 2070 2071 2072 2073 2074 2075 2076 2077 2078 2079 2080 2081 2082 2083 2084 2085 2086 2087 2088 2089 2090 2091 2092 2093 2094 2095 2096 2097 2098 2099 2100 2101 2102 2103 2104 2105 2106 2107 2108 2109 2110 2111 2112 2113 2114 2115 2116 2117 2118 2119 2120 2121 2122 2123 2124 2125 2126 2127 2128 2129 2130 2131 2132 2133 2134 2135 2136 2137 2138 2139 2140 2141 2142 2143 2144 2145 2146 2147 2148 2149 2150 2151 2152 2153 2154 2155 2156 2157 2158 2159 2160 2161 2162 2163 2164 2165 2166 2167 2168 2169 2170 2171 2172 2173 2174 2175 2176 2177 2178 2179 2180 2181 2182 2183 2184 2185 2186 2187 2188 2189 2190 2191 2192 2193 2194 2195 2196 2197 2198 2199 2200 2201 2202 2203 2204 2205 2206 2207 2208 2209 2210 2211 2212 2213 2214 2215 2216 2217 2218 2219 2220 2221 2222 2223 2224 2225 2226 2227 2228 2229 2230 2231 2232 2233 2234 2235 2236 2237 2238 2239 2240 2241 2242 2243 2244 2245 2246 2247 2248 2249 2250 2251 2252 2253 2254 2255 2256 2257 2258 2259 2260 2261 2262 2263 2264 2265 2266 2267 2268 2269 2270 2271 2272 2273 2274 2275 2276 2277 2278 2279 2280 2281 2282 2283 2284 2285 2286 2287 2288 2289 2290 2291 2292 2293 2294 2295 2296 2297 2298 2299 2300 2301 2302 2303 2304 2305 2306 2307 2308 2309 2310 2311 2312 2313 2314 2315 2316 2317 2318 2319 2320 2321 2322 2323 2324 2325 2326 2327 2328 2329 2330 2331 2332 2333 2334 2335 2336 2337 2338 2339 2340 2341 2342 2343 2344 2345 2346 2347 2348 2349 2350 2351 2352 2353 2354 2355 2356 2357 2358 2359 2360 2361 2362 2363 2364 2365 2366 2367 2368 2369 2370 2371 2372 2373 2374 2375 2376 2377 2378 2379 2380 2381 2382 2383 2384 2385 2386 2387 2388 2389 2390 2391 2392 2393 2394 2395 2396 2397 2398 2399 2400 2401 2402 2403 2404 2405 2406 2407 2408 2409 2410 2411 2412 2413 2414 2415 2416 2417 2418 2419 2420 2421 2422 2423 2424 2425 2426 2427 2428 2429 2430 2431 2432 2433 2434 2435 2436 2437 2438 2439 2440 2441 2442 2443 2444 2445 2446 2447 2448 2449 2450 2451 2452 2453 2454 2455 2456 2457 2458 2459 2460 2461 2462 2463 2464 2465 2466 2467 2468 2469 2470 2471 2472 2473 2474 2475 2476 2477 2478 2479 2480 2481 2482 2483 2484 2485 2486 2487 2488 2489 2490 2491 2492 2493 2494 2495 2496 2497 2498 2499 2500 2501 2502 2503 2504 2505 2506 2507 2508 2509 2510 2511 2512 2513 2514 2515 2516 2517 2518 2519 2520 2521 2522 2523 2524 2525 2526 2527 2528 2529 2530 2531 2532 2533 2534 2535 2536 2537 2538 2539 2540 2541 2542 2543 2544 2545 2546 2547 2548 2549 2550 2551 2552 2553 2554 2555 2556 2557 2558 2559 2560 2561 2562 2563 2564 2565 2566 2567 2568 2569 2570 2571 2572 2573 2574 2575 2576 2577 2578 2579 2580 2581 2582 2583 2584 2585 2586 2587 2588 2589 2590 2591 2592 2593 2594 2595 2596 2597 2598 2599 2600 2601 2602 2603 2604 2605 2606 2607 2608 2609 2610 2611 2612 2613 2614 2615 2616 2617 2618 2619 2620 2621 2622 2623 2624 2625 2626 2627 2628 2629 2630 2631 2632 2633 2634 2635 2636 2637 2638 2639 2640 2641 2642 2643 2644 2645 2646 2647 2648 2649 2650 2651 2652 2653 2654 2655 2656 2657 2658 2659 2660 2661 2662 2663 2664 2665 2666 2667 2668 2669 2670 2671 2672 2673 2674 2675 2676 2677 2678 2679 2680 2681 2682 2683 2684 2685 2686 2687 2688 2689 2690 2691 2692 2693 2694 2695 2696 2697 2698 2699 2700 2701 2702 2703 2704 2705 2706 2707 2708 2709 2710 2711 2712 2713 2714 2715 2716 2717 2718 2719 2720 2721 2722 2723 2724 2725 2726 2727 2728 2729 2730 2731 2732 2733 2734 2735 2736 2737 2738 2739 2740 2741 2742 2743 2744 2745 2746 2747 2748 2749 2750 2751 2752 2753 2754 2755 2756 2757 2758 2759 2760 2761 2762 2763 2764 2765 2766 2767 2768 2769 2770 2771 2772 2773 2774 2775 2776 2777 2778 2779 2780 2781 2782 2783 2784 2785 2786 2787 2788 2789 2790 2791 2792 2793 2794 2795 2796 2797 2798 2799 2800 2801 2802 2803 2804 2805 2806 2807 2808 2809 2810 2811 2812 2813 2814 2815 2816 2817 2818 2819 2820 2821 2822 2823 2824 2825 2826 2827 2828 2829 2830 2831 2832 2833 2834 2835 2836 2837 2838 2839 2840 2841 2842 2843 2844 2845 2846 2847 2848 2849 2850 2851 2852 2853 2854 2855 2856 2857 2858 2859 2860 2861 2862 2863 2864 2865 2866 2867 2868 2869 2870 2871 2872 2873 2874 2875 2876 2877 2878 2879 2880 2881 2882 2883 2884 2885 2886 2887 2888 2889 2890 2891 2892 2893 2894 2895 2896 2897 2898 2899 2900 2901 2902 2903 2904 2905 2906 2907 2908 2909 2910 2911 2912 2913 2914 2915 2916 2917 2918 2919 2920 2921 2922 2923 2924 2925 2926 2927 2928 2929 2930 2931 2932 2933 2934 2935 2936 2937 2938 2939 2940 2941 2942 2943 2944 2945 2946 2947 2948 2949 2950 2951 2952 2953 2954 2955 2956 2957 2958 2959 2960 2961 2962 2963 2964 2965 2966 2967 2968 2969 2970 2971 2972 2973 2974 2975 2976 2977 2978 2979 2980 2981 2982 2983 2984 2985 2986 2987 2988 2989 2990 2991 2992 2993 2994 2995 2996 2997 2998 2999 3000 3001 3002 3003 3004 3005 3006 3007 3008 3009 3010 3011 3012 3013 3014 3015 3016 3017 3018 3019 3020 3021 3022 3023 3024 3025 3026 3027 3028 3029 3030 3031 3032 3033 3034 3035 3036 3037 3038 3039 3040 3041 3042 3043 3044 3045 3046 3047 3048 3049 3050 3051 3052 3053 3054 3055 3056 3057 3058 3059 3060 3061 3062 3063 3064 3065 3066 3067 3068 3069 3070 3071 3072 3073 3074 3075 3076 3077 3078 3079 3080 3081 3082 3083 3084 3085 3086 3087 3088 3089 3090 3091 3092 3093 3094 3095 3096 3097 3098 3099 3100 3101 3102 3103 3104 3105 3106 3107 3108 3109 3110 3111 3112 3113 3114 3115 3116 3117 3118 3119 3120 3121 3122 3123 3124 3125 3126 3127 3128 3129 3130 3131 3132 3133 3134 3135 3136 3137 3138 3139 3140 3141 3142 3143 3144 3145 3146 3147 3148 3149 3150 3151 3152 3153 3154 3155 3156 3157 3158 3159 3160 3161 3162 3163 3164 3165 3166 3167 3168 3169 3170 3171 3172 3173 3174 3175 3176 3177 3178 3179 3180 3181 3182 3183 3184 3185 3186 3187 3188 3189 3190 3191 3192 3193 3194 3195 3196 3197 3198 3199 3200 3201 3202 3203 3204 3205 3206 3207 3208 3209 3210 3211 3212 3213 3214 3215 3216 3217 3218 3219 3220 3221 3222 3223 3224 3225 3226 3227 3228 3229 3230 3231 3232 3233 3234 3235 3236 3237 3238 3239 3240 3241 3242 3243 3244 3245 3246 3247 3248 3249 3250 3251 3252 3253 3254 3255 3256 3257 3258 3259 3260 3261 3262 3263 3264 3265 3266 3267 3268 3269 3270 3271 3272 3273 3274 3275 3276 3277 3278 3279 3280 3281 3282 3283 3284 3285 3286 3287 3288 3289 3290 3291 3292 3293 3294 3295 3296 3297 3298 3299 3300 3301 3302 3303 3304 3305 3306 3307 3308 3309 3310 3311 3312 3313 3314 3315 3316 3317 3318 3319 3320 3321 3322 3323 3324 3325 3326 3327 3328 3329 3330 3331 3332 3333 3334 3335 3336 3337 3338 3339 3340 3341 3342 3343 3344 3345 3346 3347 3348 3349 3350 3351 3352 3353 3354 3355 3356 3357 3358 3359 3360 3361 3362 3363 3364 3365 3366 3367 3368 3369 3370 3371 3372 3373 3374 3375 3376 3377 3378 3379 3380 3381 3382 3383 3384 3385 3386 3387 3388 3389 3390 3391 3392 3393 3394 3395 3396 3397 3398 3399 3400 3401 3402 3403 3404 3405 3406 3407 3408 3409 3410 3411 3412 3413 3414 3415 3416 3417 3418 3419 3420 3421 3422 3423 3424 3425 3426 3427 3428 3429 3430 3431 3432 3433 3434 3435 3436 3437 3438 3439 3440 3441 3442 3443 3444 3445 3446 3447 3448 3449 3450 3451 3452 3453 3454 3455 3456 3457 3458 3459 3460 3461 3462 3463 3464 3465 3466 3467 3468 3469 3470 3471 3472 3473 3474 3475 3476 3477 3478 3479 3480 3481 3482 3483 3484 3485 3486 3487 3488 3489 3490 3491 3492 3493 3494 3495 3496 3497 3498 3499 3500 3501 3502 3503 3504 3505 3506 3507 3508 3509 3510 3511 3512 3513 3514 3515 3516 3517 3518 3519 3520 3521 3522 3523 3524 3525 3526 3527 3528 3529 3530 3531 3532 3533 3534 3535 3536 3537 3538 3539 3540 3541 3542 3543 3544 3545 3546 3547 3548 3549 3550 3551 3552 3553 3554 3555 3556 3557 3558 3559 3560 3561 3562 3563 3564 3565 3566 3567 3568 3569 3570 3571 3572 3573 3574 3575 3576 3577 3578 3579 3580 3581 3582 3583 3584 3585 3586 3587 3588 3589 3590 3591 3592 3593 3594 3595 3596 3597 3598 3599 3600 3601 3602 3603 3604 3605 3606 3607 3608 3609 3610 3611 3612 3613 3614 3615 3616 3617 3618 3619 3620 3621 3622 3623 3624 3625 3626 3627 3628 3629 3630 3631 3632 3633 3634 3635 3636 3637 3638 3639 3640 3641 3642 3643 3644 3645 3646 3647 3648 3649 3650 3651 3652 3653 3654 3655 3656 3657 3658 3659 3660 3661 3662 3663 3664 3665 3666 3667 3668 3669 3670 3671 3672 3673 3674 3675 3676 3677 3678 3679 3680 3681 3682 3683 3684 3685 3686 3687 3688 3689 3690 3691 3692 3693 3694 3695 3696 3697 3698 3699 3700 3701 3702 3703 3704 3705 3706 3707 3708 3709 3710 3711 3712 3713 3714 3715 3716 3717 3718 3719 3720 3721 3722 3723 3724 3725 3726 3727 3728 3729 3730 3731 3732 3733 3734 3735 3736 3737 3738 3739 3740 3741 3742 3743 3744 3745 3746 3747 3748 3749 3750 3751 3752 3753 3754 3755 3756 3757 3758 3759 3760 3761 3762 3763 3764 3765 3766 3767 3768 3769 3770 3771 3772 3773 3774 3775 3776 3777 3778 3779 3780 3781 3782 3783 3784 3785 3786 3787 3788 3789 3790 3791 3792 3793 3794 3795 3796 3797 3798 3799 3800 3801 3802 3803 3804 3805 3806 3807 3808 3809 3810 3811 3812 3813 3814 3815 3816 3817 3818 3819 3820 3821 3822 3823 3824 3825 3826 3827 3828 3829 3830 3831 3832 3833 3834 3835 3836 3837 3838 3839 3840 3841 3842 3843 3844 3845 3846 3847 3848 3849 3850 3851 3852 3853 3854 3855 3856 3857 3858 3859 3860 3861 3862 3863 3864 3865 3866 3867 3868 3869 3870 3871 3872 3873 3874 3875 3876 3877 3878 3879 3880 3881 3882 3883 3884 3885 3886 3887 3888 3889 3890 3891 3892 3893 3894 3895 3896 3897 3898 3899 3900 3901 3902 3903 3904 3905 3906 3907 3908 3909 3910 3911 3912 3913 3914 3915 3916 3917 3918 3919 3920 3921 3922 3923 3924 3925 3926 3927 3928 3929 3930 3931 3932 3933 3934 3935 3936 3937 3938 3939 3940 3941 3942 3943 3944 3945 3946 3947 3948 3949 3950 3951 3952 3953 3954 3955 3956 3957 3958 3959 3960 3961 3962 3963 3964 3965 3966 3967 3968 3969 3970 3971 3972 3973 3974 3975 3976 3977 3978 3979 3980 3981 3982 3983 3984 3985 3986 3987 3988 3989 3990 3991 3992 3993 3994 3995 3996 3997 3998 3999 4000 4001 4002 4003 4004 4005 4006 4007 4008 4009 4010 4011 4012 4013 4014 4015 4016 4017 4018 4019 4020 4021 4022 4023 4024 4025 4026 4027 4028 4029 4030 4031 4032 4033 4034 4035 4036 4037 4038 4039 4040 4041 4042 4043 4044 4045 4046 4047 4048 4049 4050 4051 4052 4053 4054 4055 4056 4057 4058 4059 4060 4061 4062 4063 4064 4065 4066 4067 4068 4069 4070 4071 4072 4073 4074 4075 4076 4077 4078 4079 4080 4081 4082 4083 4084 4085 4086 4087 4088 4089 4090 4091 4092 4093 4094 4095 4096 4097 4098 4099 4100 4101 4102 4103 4104 4105 4106 4107 4108 4109 4110 4111 4112 4113 4114 4115 4116 4117 4118 4119 4120 4121 4122 4123 4124 4125 4126 4127 4128 4129 4130 4131 4132 4133 4134 4135 4136 4137 4138 4139 4140 4141 4142 4143 4144 4145 4146 4147 4148 4149 4150 4151 4152 4153 4154 4155 4156 4157 4158 4159 4160 4161 4162 4163 4164 4165 4166 4167 4168 4169 4170 4171 4172 4173 4174 4175 4176 4177 4178 4179 4180 4181 4182 4183 4184 4185 4186 4187 4188 4189 4190 4191 4192 4193 4194 4195 4196 4197 4198 4199 4200 4201 4202 4203 4204 4205 4206 4207 4208 4209 4210 4211 4212 4213 4214 4215 4216 4217 4218 4219 4220 4221 4222 4223 4224 4225 4226 4227 4228 4229 4230 4231 4232 4233 4234 4235 4236 4237 4238 4239 4240 4241 4242 4243 4244 4245 4246 4247 4248 4249 4250 4251 4252 4253 4254 4255 4256 4257 4258 4259 4260 4261 4262 4263 4264 4265 4266 4267 4268 4269 4270 4271 4272 4273 4274 4275 4276 4277 4278 4279 4280 4281 4282 4283 4284 4285 4286 4287 4288 4289 4290 4291 4292 4293 4294 4295 4296 4297 4298 4299 4300 4301 4302 4303 4304 4305 4306 4307 4308 4309 4310 4311 4312 4313 4314 4315 4316 4317 4318 4319 4320 4321 4322 4323 4324 4325 4326 4327 4328 4329 4330 4331 4332 4333 4334 4335 4336 4337 4338 4339 4340 4341 4342 4343 4344 4345 4346 4347 4348 4349 4350 4351 4352 4353 4354 4355 4356 4357 4358 4359 4360 4361 4362 4363 4364 4365 4366 4367 4368 4369 4370 4371 4372 4373 4374 4375 4376 4377 4378 4379 4380 4381 4382 4383 4384 4385 4386 4387 4388 4389 4390 4391 4392 4393 4394 4395 4396 4397 4398 4399 4400 4401 4402 4403 4404 4405 4406 4407 4408 4409 4410 4411 4412 4413 4414 4415 4416 4417 4418 4419 4420 4421 4422 4423 4424 4425 4426 4427 4428 4429 4430 4431 4432 4433 4434 4435 4436 4437 4438 4439 4440 4441 4442 4443 4444 4445 4446 4447 4448 4449 4450 4451 4452 4453 4454 4455 4456 4457 4458 4459 4460 4461 4462 4463 4464 4465 4466 4467 4468 4469 4470 4471 4472 4473 4474 4475 4476 4477 4478 4479 4480 4481 4482 4483 4484 4485 4486 4487 4488 4489 4490 4491 4492 4493 4494 4495 4496 4497 4498 4499 4500 4501 4502 4503 4504 4505 4506 4507 4508 4509 4510 4511 4512 4513 4514 4515 4516 4517 4518 4519 4520 4521 4522 4523 4524 4525 4526 4527 4528 4529 4530 4531 4532 4533 4534 4535 4536 4537 4538 4539 4540 4541 4542 4543 4544 4545 4546 4547 4548 4549 4550 4551 4552 4553 4554 4555 4556 4557 4558 4559 4560 4561 4562 4563 4564 4565 4566 4567 4568 4569 4570 4571 4572 4573 4574 4575 4576 4577 4578 4579 4580 4581 4582 4583 4584 4585 4586 4587 4588 4589 4590 4591 4592 4593 4594 4595 4596 4597 4598 4599 4600 4601 4602 4603 4604 4605 4606 4607 4608 4609 4610 4611 4612 4613 4614 4615 4616 4617 4618 4619 4620 4621 4622 4623 4624 4625 4626 4627 4628 4629 4630 4631 4632 4633 4634 4635 4636 4637 4638 4639 4640 4641 4642 4643 4644 4645 4646 4647 4648 4649 4650 4651 4652 4653 4654 4655 4656 4657 4658 4659 4660 4661 4662 4663 4664 4665 4666 4667 4668 4669 4670 4671 4672 4673 4674 4675 4676 4677 4678 4679 4680 4681 4682 4683 4684 4685 4686 4687 4688 4689 4690 4691 4692 4693 4694 4695 4696 4697 4698 4699 4700 4701 4702 4703 4704 4705 4706 4707 4708 4709 4710 4711 4712 4713 4714 4715 4716 4717 4718 4719 4720 4721 4722 4723 4724 4725 4726 4727 4728 4729 4730 4731 4732 4733 4734 4735 4736 4737 4738 4739 4740 4741 4742 4743 4744 4745 4746 4747 4748 4749 4750 4751 4752 4753 4754 4755 4756 4757 4758 4759 4760 4761 4762 4763 4764 4765 4766 4767 4768 4769 4770 4771 4772 4773 4774 4775 4776 4777 4778 4779 4780 4781 4782 4783 4784 4785 4786 4787 4788 4789 4790 4791 4792 4793 4794 4795 4796 4797 4798 4799 4800 4801 4802 4803 4804 4805 4806 4807 4808 4809 4810 4811 4812 4813 4814 4815 4816 4817 4818 4819 4820 4821 4822 4823 4824 4825 4826 4827 4828 4829 4830 4831 4832 4833 4834 4835 4836 4837 4838 4839 4840 4841 4842 4843 4844 4845 4846 4847 4848 4849 4850 4851 4852 4853 4854 4855 4856 4857 4858 4859 4860 4861 4862 4863 4864 4865 4866 4867 4868 4869 4870 4871 4872 4873 4874 4875 4876 4877 4878 4879 4880 4881 4882 4883 4884 4885 4886 4887 4888 4889 4890 4891 4892 4893 4894 4895 4896 4897 4898 4899 4900 4901 4902 4903 4904 4905 4906 4907 4908 4909 4910 4911 4912 4913 4914 4915 4916 4917 4918 4919 4920 4921 4922 4923 4924 4925 4926 4927 4928 4929 4930 4931 4932 4933 4934 4935 4936 4937 4938 4939 4940 4941 4942 4943 4944 4945 4946 4947 4948 4949 4950 4951 4952 4953 4954 4955 4956 4957 4958 4959 4960 4961 4962 4963 4964 4965 4966 4967 4968 4969 4970 4971 4972 4973 4974 4975 4976 4977 4978 4979 4980 4981 4982 4983 4984 4985 4986 4987 4988 4989 4990 4991 4992 4993 4994 4995 4996 4997 4998 4999 5000 5001 5002 5003 5004 5005 5006 5007 5008 5009 5010 5011 5012 5013 5014 5015 5016 5017 5018 5019 5020 5021 5022 5023 5024 5025 5026 5027 5028 5029 5030 5031 5032 5033 5034 5035 5036 5037 5038 5039 5040 5041 5042 5043 5044 5045 5046 5047 5048 5049 5050 5051 5052 5053 5054 5055 5056 5057 5058 5059 5060 5061 5062 5063 5064 5065 5066 5067 5068 5069 5070 5071 5072 5073 5074 5075 5076 5077 5078 5079 5080 5081 5082 5083 5084 5085 5086 5087 5088 5089 5090 5091 5092 5093 5094 5095 5096 5097 5098 5099 5100 5101 5102 5103 5104 5105 5106 5107 5108 5109 5110 5111 5112 5113 5114 5115 5116 5117 5118 5119 5120 5121 5122 5123 5124 5125 5126 5127 5128 5129 5130 5131 5132 5133 5134 5135 5136 5137 5138 5139 5140 5141 5142 5143 5144 5145 5146 5147 5148 5149 5150 5151 5152 5153 5154 5155 5156 5157 5158 5159 5160 5161 5162 5163 5164 5165 5166 5167 5168 5169 5170 5171 5172 5173 5174 5175 5176 5177 5178 5179 5180 5181 5182 5183 5184 5185 5186 5187 5188 5189 5190 5191 5192 5193 5194 5195 5196 5197 5198 5199 5200 5201 5202 5203 5204 5205 5206 5207 5208 5209 5210 5211 5212 5213 5214 5215 5216 5217 5218 5219 5220 5221 5222 5223 5224 5225 5226 5227 5228 5229 5230 5231 5232 5233 5234 5235 5236 5237 5238 5239 5240 5241 5242 5243 5244 5245 5246 5247 5248 5249 5250 5251 5252 5253 5254 5255 5256 5257 5258 5259 5260 5261 5262 5263 5264 5265 5266 5267 5268 5269 5270 5271 5272 5273 5274 5275 5276 5277 5278 5279 5280 5281 5282 5283 5284 5285 5286 5287 5288 5289 5290 5291 5292 5293 5294 5295 5296 5297 5298 5299 5300 5301 5302 5303 5304 5305 5306 5307 5308 5309 5310 5311 5312 5313 5314 5315 5316 5317 5318 5319 5320 5321 5322 5323 5324 5325 5326 5327 5328 5329 5330 5331 5332 5333 5334 5335 5336 5337 5338 5339 5340 5341 5342 5343 5344 5345 5346 5347 5348 5349 5350 5351 5352 5353 5354 5355 5356 5357 5358 5359 5360 5361 5362 5363 5364 5365 5366 5367 5368 5369 5370 5371 5372 5373 5374 5375 5376 5377 5378 5379 5380 5381 5382 5383 5384 5385 5386 5387 5388 5389 5390 5391 5392 5393 5394 5395 5396 5397 5398 5399 5400 5401 5402 5403 5404 5405 5406 5407 5408 5409 5410 5411 5412 5413 5414 5415 5416 5417 5418 5419 5420 5421 5422 5423 5424 5425 5426 5427 5428 5429 5430 5431 5432 5433 5434 5435 5436 5437 5438 5439 5440 5441 5442 5443 5444 5445 5446 5447 5448 5449 5450 5451 5452 5453 5454 5455 5456 5457 5458 5459 5460 5461 5462 5463 5464 5465 5466 5467 5468 5469 5470 5471 5472 5473 5474 5475 5476 5477 5478 5479 5480 5481 5482 5483 5484 5485 5486 5487 5488 5489 5490 5491 5492 5493 5494 5495 5496 5497 5498 5499 5500 5501 5502 5503 5504 5505 5506 5507 5508 5509 5510 5511 5512 5513 5514 5515 5516 5517 5518 5519 5520 5521 5522 5523 5524 5525 5526 5527 5528 5529 5530 5531 5532 5533 5534 5535 5536 5537 5538 5539 5540 5541 5542 5543 5544 5545 5546 5547 5548 5549 5550 5551 5552 5553 5554 5555 5556 5557 5558 5559 5560 5561 5562 5563 5564 5565 5566 5567 5568 5569 5570 5571 5572 5573 5574 5575 5576 5577 5578 5579 5580 5581 5582 5583 5584 5585 5586 5587 5588 5589 5590 5591 5592 5593 5594 5595 5596 5597 5598 5599 5600 5601 5602 5603 5604 5605 5606 5607 5608 5609 5610 5611 5612 5613 5614 5615 5616 5617 5618 5619 5620 5621 5622 5623 5624 5625 5626 5627 5628 5629 5630 5631 5632 5633 5634 5635 5636 5637 5638 5639 5640 5641 5642 5643 5644 5645 5646 5647 5648 5649 5650 5651 5652 5653 5654 5655 5656 5657 5658 5659 5660 5661 5662 5663 5664 5665 5666 5667 5668 5669 5670 5671 5672 5673 5674 5675 5676 5677 5678 5679 5680 5681 5682 5683 5684 5685 5686 5687 5688 5689 5690 5691 5692 5693 5694 5695 5696 5697 5698 5699 5700 5701 5702 5703 5704 5705 5706 5707 5708 5709 5710 5711 5712 5713 5714 5715 5716 5717 5718 5719 5720 5721 5722 5723 5724 5725 5726 5727 5728 5729 5730 5731 5732 5733 5734 5735 5736 5737 5738 5739 5740 5741 5742 5743 5744 5745 5746 5747 5748 5749 5750 5751 5752 5753 5754 5755 5756 5757 5758 5759 5760 5761 5762 5763 5764 5765 5766 5767 5768 5769 5770 5771 5772 5773 5774 5775 5776 5777 5778 5779 5780 5781 5782 5783 5784 5785 5786 5787 5788 5789 5790 5791 5792 5793 5794 5795 5796 5797 5798 5799 5800 5801 5802 5803 5804 5805 5806 5807 5808 5809 5810 5811 5812 5813 5814 5815 5816 5817 5818 5819 5820 5821 5822 5823 5824 5825 5826 5827 5828 5829 5830 5831 5832 5833 5834 5835 5836 5837 5838 5839 5840 5841 5842 5843 5844 5845 5846 5847 5848 5849 5850 5851 5852 5853 5854 5855 5856 5857 5858 5859 5860 5861 5862 5863 5864 5865 5866 5867 5868 5869 5870 5871 5872 5873 5874 5875 5876 5877 5878 5879 5880 5881 5882 5883 5884 5885 5886 5887 5888 5889 5890 5891 5892 5893 5894 5895 5896 5897 5898 5899 5900 5901 5902 5903 5904 5905 5906 5907 5908 5909 5910 5911 5912 5913 5914 5915 5916 5917 5918 5919 5920 5921 5922 5923 5924 5925 5926 5927 5928 5929 5930 5931 5932 5933 5934 5935 5936 5937 5938 5939 5940 5941 5942 5943 5944 5945 5946 5947 5948 5949 5950 5951 5952 5953 5954 5955 5956 5957 5958 5959 5960 5961 5962 5963 5964 5965 5966 5967 5968 5969 5970 5971 5972 5973 5974 5975 5976 5977 5978 5979 5980 5981 5982 5983 5984 5985 5986 5987 5988 5989 5990 5991 5992 5993 5994 5995 5996 5997 5998 5999 6000 6001 6002 6003 6004 6005 6006 6007 6008 6009 6010 6011 6012 6013 6014 6015 6016 6017 6018 6019 6020 6021 6022 6023 6024 6025 6026 6027 6028 6029 6030 6031 6032 6033 6034 6035 6036 6037 6038 6039 6040 6041 6042 6043 6044 6045 6046 6047 6048 6049 6050 6051 6052 6053 6054 6055 6056 6057 6058 6059 6060 6061 6062 6063 6064 6065 6066 6067 6068 6069 6070 6071 6072 6073 6074 6075 6076 6077 6078 6079 6080 6081 6082 6083 6084 6085 6086 6087 6088 6089 6090 6091 6092 6093 6094 6095 6096 6097 6098 6099 6100 6101 6102 6103 6104 6105 6106 6107 6108 6109 6110 6111 6112 6113 6114 6115 6116 6117 6118 6119 6120 6121 6122 6123 6124 6125 6126 6127 6128 6129 6130 6131 6132 6133 6134 6135 6136 6137 6138 6139 6140 6141 6142 6143 6144 6145 6146 6147 6148 6149 6150 6151 6152 6153 6154 6155 6156 6157 6158 6159 6160 6161 6162 6163 6164 6165 6166 6167 6168 6169 6170 6171 6172 6173 6174 6175 6176 6177 6178 6179 6180 6181 6182 6183 6184 6185 6186 6187 6188 6189 6190 6191 6192 6193 6194 6195 6196 6197 6198 6199 6200 6201 6202 6203 6204 6205 6206 6207 6208 6209 6210 6211 6212 6213 6214 6215 6216 6217 6218 6219 6220 6221 6222 6223 6224 6225 6226 6227 6228 6229 6230 6231 6232 6233 6234 6235 6236 6237 6238 6239 6240 6241 6242 6243 6244 6245 6246 6247 6248 6249 6250 6251 6252 6253 6254 6255 6256 6257 6258 6259 6260 6261 6262 6263 6264 6265 6266 6267 6268 6269 6270 6271 6272 6273 6274 6275 6276 6277 6278 6279 6280 6281 6282 6283 6284 6285 6286 6287 6288 6289 6290 6291 6292 6293 6294 6295 6296 6297 6298 6299 6300 6301 6302 6303 6304 6305 6306 6307 6308 6309 6310 6311 6312 6313 6314 6315 6316 6317 6318 6319 6320 6321 6322 6323 6324 6325 6326 6327 6328 6329 6330 6331 6332 6333 6334 6335 6336 6337 6338 6339 6340 6341 6342 6343 6344 6345 6346 6347 6348 6349 6350 6351 6352 6353 6354 6355 6356 6357 6358 6359 6360 6361 6362 6363 6364 6365 6366 6367 6368 6369 6370 6371 6372 6373 6374 6375 6376 6377 6378 6379 6380 6381 6382 6383 6384 6385 6386 6387 6388 6389 6390 6391 6392 6393 6394 6395 6396 6397 6398 6399 6400 6401 6402 6403 6404 6405 6406 6407 6408 6409 6410 6411 6412 6413 6414 6415 6416 6417 6418 6419 6420 6421 6422 6423 6424 6425 6426 6427 6428 6429 6430 6431 6432 6433 6434 6435 6436 6437 6438 6439 6440 6441 6442 6443 6444 6445 6446 6447 6448 6449 6450 6451 6452 6453 6454 6455 6456 6457 6458 6459 6460 6461 6462 6463 6464 6465 6466 6467 6468 6469 6470 6471 6472 6473 6474 6475 6476 6477 6478 6479 6480 6481 6482 6483 6484 6485 6486 6487 6488 6489 6490 6491 6492 6493 6494 6495 6496 6497 6498 6499 6500 6501 6502 6503 6504 6505 6506 6507 6508 6509 6510 6511 6512 6513 6514 6515 6516 6517 6518 6519 6520 6521 6522 6523 6524 6525 6526 6527 6528 6529 6530 6531 6532 6533 6534 6535 6536 6537 6538 6539 6540 6541 6542 6543 6544 6545 6546 6547 6548 6549 6550 6551 6552 6553 6554 6555 6556 6557 6558 6559 6560 6561 6562 6563 6564 6565 6566 6567 6568 6569 6570 6571 6572 6573 6574 6575 6576 6577 6578 6579 6580 6581 6582 6583 6584 6585 6586 6587 6588 6589 6590 6591 6592 6593 6594 6595 6596 6597 6598 6599 6600 6601 6602 6603 6604 6605 6606 6607 6608 6609 6610 6611 6612 6613 6614 6615 6616 6617 6618 6619 6620 6621 6622 6623 6624 6625 6626 6627 6628 6629 6630 6631 6632 6633 6634 6635 6636 6637 6638 6639 6640 6641 6642 6643 6644 6645 6646 6647 6648 6649 6650 6651 6652 6653 6654 6655 6656 6657 6658 6659 6660 6661 6662 6663 6664 6665 6666 6667 6668 6669 6670 6671 6672 6673 6674 6675 6676 6677 6678 6679 6680 6681 6682 6683 6684 6685 6686 6687 6688 6689 6690 6691 6692 6693 6694 6695 6696 6697 6698 6699 6700 6701 6702 6703 6704 6705 6706 6707 6708 6709 6710 6711 6712 6713 6714 6715 6716 6717 6718 6719 6720 6721 6722 6723 6724 6725 6726 6727 6728 6729 6730 6731 6732 6733 6734 6735 6736 6737 6738 6739 6740 6741 6742 6743 6744 6745 6746 6747 6748 6749 6750 6751 6752 6753 6754 6755 6756 6757 6758 6759 6760 6761 6762 6763 6764 6765 6766 6767 6768 6769 6770 6771 6772 6773 6774 6775 6776 6777 6778 6779 6780 6781 6782 6783 6784 6785 6786 6787 6788 6789 6790 6791 6792 6793 6794 6795 6796 6797 6798 6799 6800 6801 6802 6803 6804 6805 6806 6807 6808 6809 6810 6811 6812 6813 6814 6815 6816 6817 6818 6819 6820 6821 6822 6823 6824 6825 6826 6827 6828 6829 6830 6831 6832 6833 6834 6835 6836 6837 6838 6839 6840 6841 6842 6843 6844 6845 6846 6847 6848 6849 6850 6851 6852 6853 6854 6855 6856 6857 6858 6859 6860 6861 6862 6863 6864 6865 6866 6867 6868 6869 6870 6871 6872 6873 6874 6875 6876 6877 6878 6879 6880 6881 6882 6883 6884 6885 6886 6887 6888 6889 6890 6891 6892 6893 6894 6895 6896 6897 6898 6899 6900 6901 6902 6903 6904 6905 6906 6907 6908 6909 6910 6911 6912 6913 6914 6915 6916 6917 6918 6919 6920 6921 6922 6923 6924 6925 6926 6927 6928 6929 6930 6931 6932 6933 6934 6935 6936 6937 6938 6939 6940 6941 6942 6943 6944 6945 6946 6947 6948 6949 6950 6951 6952 6953 6954 6955 6956 6957 6958 6959 6960 6961 6962 6963 6964 6965 6966 6967 6968 6969 6970 6971 6972 6973 6974 6975 6976 6977 6978 6979 6980 6981 6982 6983 6984 6985 6986 6987 6988 6989 6990 6991 6992 6993 6994 6995 6996 6997 6998 6999 7000 7001 7002 7003 7004 7005 7006 7007 7008 7009 7010 7011 7012 7013 7014 7015 7016 7017 7018 7019 7020 7021 7022 7023 7024 7025 7026 7027 7028 7029 7030 7031 7032 7033 7034 7035 7036 7037 7038 7039 7040 7041 7042 7043 7044 7045 7046 7047 7048 7049 7050 7051 7052 7053 7054 7055 7056 7057 7058 7059 7060 7061 7062 7063 7064 7065 7066 7067 7068 7069 7070 7071 7072 7073 7074 7075 7076 7077 7078 7079 7080 7081 7082 7083 7084 7085 7086 7087 7088 7089 7090 7091 7092 7093 7094 7095 7096 7097 7098 7099 7100 7101 7102 7103 7104 7105 7106 7107 7108 7109 7110 7111 7112 7113 7114 7115 7116 7117 7118 7119 7120 7121 7122 7123 7124 7125 7126 7127 7128 7129 7130 7131 7132 7133 7134 7135 7136 7137 7138 7139 7140 7141 7142 7143 7144 7145 7146 7147 7148 7149 7150 7151 7152 7153 7154 7155 7156 7157 7158 7159 7160 7161 7162 7163 7164 7165 7166 7167 7168 7169 7170 7171 7172 7173 7174 7175 7176 7177 7178 7179 7180 7181 7182 7183 7184 7185 7186 7187 7188 7189 7190 7191 7192 7193 7194 7195 7196 7197 7198 7199 7200 7201 7202 7203 7204 7205 7206 7207 7208 7209 7210 7211 7212 7213 7214 7215 7216 7217 7218 7219 7220 7221 7222 7223 7224 7225 7226 7227 7228 7229 7230 7231 7232 7233 7234 7235 7236 7237 7238 7239 7240 7241 7242 7243 7244 7245 7246 7247 7248 7249 7250 7251 7252 7253 7254 7255 7256 7257 7258 7259 7260 7261 7262 7263 7264 7265 7266 7267 7268 7269 7270 7271 7272 7273 7274 7275 7276 7277 7278 7279 7280 7281 7282 7283 7284 7285 7286 7287 7288 7289 7290 7291 7292 7293 7294 7295 7296 7297 7298 7299 7300 7301 7302 7303 7304 7305 7306 7307 7308 7309 7310 7311 7312 7313 7314 7315 7316 7317 7318 7319 7320 7321 7322 7323 7324 7325 7326 7327 7328 7329 7330 7331 7332 7333 7334 7335 7336 7337 7338 7339 7340 7341 7342 7343 7344 7345 7346 7347 7348 7349 7350 7351 7352 7353 7354 7355 7356 7357 7358 7359 7360 7361 7362 7363 7364 7365 7366 7367 7368 7369 7370 7371 7372 7373 7374 7375 7376 7377 7378 7379 7380 7381 7382 7383 7384 7385 7386 7387 7388 7389 7390 7391 7392 7393 7394 7395 7396 7397 7398 7399 7400 7401 7402 7403 7404 7405 7406 7407 7408 7409 7410 7411 7412 7413 7414 7415 7416 7417 7418 7419 7420 7421 7422 7423 7424 7425 7426 7427 7428 7429 7430 7431 7432 7433 7434 7435 7436 7437 7438 7439 7440 7441 7442 7443 7444 7445 7446 7447 7448 7449 7450 7451 7452 7453 7454 7455 7456 7457 7458 7459 7460 7461 7462 7463 7464 7465 7466 7467 7468 7469 7470 7471 7472 7473 7474 7475 7476 7477 7478 7479 7480 7481 7482 7483 7484 7485 7486 7487 7488 7489 7490 7491 7492 7493 7494 7495 7496 7497 7498 7499 7500 7501 7502 7503 7504 7505 7506 7507 7508 7509 7510 7511 7512 7513 7514 7515 7516 7517 7518 7519 7520 7521 7522 7523 7524 7525 7526 7527 7528 7529 7530 7531 7532 7533 7534 7535 7536 7537 7538 7539 7540 7541 7542 7543 7544 7545 7546 7547 7548 7549 7550 7551 7552 7553 7554 7555 7556 7557 7558 7559 7560 7561 7562 7563 7564 7565 7566 7567 7568 7569 7570 7571 7572 7573 7574 7575 7576 7577 7578 7579 7580 7581 7582 7583 7584 7585 7586 7587 7588 7589 7590 7591 7592 7593 7594 7595 7596 7597 7598 7599 7600 7601 7602 7603 7604 7605 7606 7607 7608 7609 7610 7611 7612 7613 7614 7615 7616 7617 7618 7619 7620 7621 7622 7623 7624 7625 7626 7627 7628 7629 7630 7631 7632 7633 7634 7635 7636 7637 7638 7639 7640 7641 7642 7643 7644 7645 7646 7647 7648 7649 7650 7651 7652 7653 7654 7655 7656 7657 7658 7659 7660 7661 7662 7663 7664 7665 7666 7667 7668 7669 7670 7671 7672 7673 7674 7675 7676 7677 7678 7679 7680 7681 7682 7683 7684 7685 7686 7687 7688 7689 7690 7691 7692 7693 7694 7695 7696 7697 7698 7699 7700 7701 7702 7703 7704 7705 7706 7707 7708 7709 7710 7711 7712 7713 7714 7715 7716 7717 7718 7719 7720 7721 7722 7723 7724 7725 7726 7727 7728 7729 7730 7731 7732 7733 7734 7735 7736 7737 7738 7739 7740 7741 7742 7743 7744 7745 7746 7747 7748 7749 7750 7751 7752 7753 7754 7755 7756 7757 7758 7759 7760 7761 7762 7763 7764 7765 7766 7767 7768 7769 7770 7771 7772 7773 7774 7775 7776 7777 7778 7779 7780 7781 7782 7783 7784 7785 7786 7787 7788 7789 7790 7791 7792 7793 7794 7795 7796 7797 7798 7799 7800 7801 7802 7803 7804 7805 7806 7807 7808 7809 7810 7811 7812 7813 7814 7815 7816 7817 7818 7819 7820 7821 7822 7823 7824 7825 7826 7827 7828 7829 7830 7831 7832 7833 7834 7835 7836 7837 7838 7839 7840 7841 7842 7843 7844 7845 7846 7847 7848 7849 7850 7851 7852 7853 7854 7855 7856 7857 7858 7859 7860 7861 7862 7863 7864 7865 7866 7867 7868 7869 7870 7871 7872 7873 7874 7875 7876 7877 7878 7879 7880 7881 7882 7883 7884 7885 7886 7887 7888 7889 7890 7891 7892 7893 7894 7895 7896 7897 7898 7899 7900 7901 7902 7903 7904 7905 7906 7907 7908 7909 7910 7911 7912 7913 7914 7915 7916 7917 7918 7919 7920 7921 7922 7923 7924 7925 7926 7927 7928 7929 7930 7931 7932 7933 7934 7935 7936 7937 7938 7939 7940 7941 7942 7943 7944 7945 7946 7947 7948 7949 7950 7951 7952 7953 7954 7955 7956 7957 7958 7959 7960 7961 7962 7963 7964 7965 7966 7967 7968 7969 7970 7971 7972 7973 7974 7975 7976 7977 7978 7979 7980 7981 7982 7983 7984 7985 7986 7987 7988 7989 7990 7991 7992 7993 7994 7995 7996 7997 7998 7999 8000 8001 8002 8003 8004 8005 8006 8007 8008 8009 8010 8011 8012 8013 8014 8015 8016 8017 8018 8019 8020 8021 8022 8023 8024 8025 8026 8027 8028 8029 8030 8031 8032 8033 8034 8035 8036 8037 8038 8039 8040 8041 8042 8043 8044 8045 8046 8047 8048 8049 8050 8051 8052 8053 8054 8055 8056 8057 8058 8059 8060 8061 8062 8063 8064 8065 8066 8067 8068 8069 8070 8071 8072 8073 8074 8075 8076 8077 8078 8079 8080 8081 8082 8083 8084 8085 8086 8087 8088 8089 8090 8091 8092 8093 8094 8095 8096 8097 8098 8099 8100 8101 8102 8103 8104 8105 8106 8107 8108 8109 8110 8111 8112 8113 8114 8115 8116 8117 8118 8119 8120 8121 8122 8123 8124 8125 8126 8127 8128 8129 8130 8131 8132 8133 8134 8135 8136 8137 8138 8139 8140 8141 8142 8143 8144 8145 8146 8147 8148 8149 8150 8151 8152 8153 8154 8155 8156 8157 8158 8159 8160 8161 8162 8163 8164 8165 8166 8167 8168 8169 8170 8171 8172 8173 8174 8175 8176 8177 8178 8179 8180 8181 8182 8183 8184 8185 8186 8187 8188 8189 8190 8191 8192 8193 8194 8195 8196 8197 8198 8199 8200 8201 8202 8203 8204 8205 8206 8207 8208 8209 8210 8211 8212 8213 8214 8215 8216 8217 8218 8219 8220 8221 8222 8223 8224 8225 8226 8227 8228 8229 8230 8231 8232 8233 8234 8235 8236 8237 8238 8239 8240 8241 8242 8243 8244 8245 8246 8247 8248 8249 8250 8251 8252 8253 8254 8255 8256 8257 8258 8259 8260 8261 8262 8263 8264 8265 8266 8267 8268 8269 8270 8271 8272 8273 8274 8275 8276 8277 8278 8279 8280 8281 8282 8283 8284 8285 8286 8287 8288 8289 8290 8291 8292 8293 8294 8295 8296 8297 8298 8299 8300 8301 8302 8303 8304 8305 8306 8307 8308 8309 8310 8311 8312 8313 8314 8315 8316 8317 8318 8319 8320 8321 8322 8323 8324 8325 8326 8327 8328 8329 8330 8331 8332 8333 8334 8335 8336 8337 8338 8339 8340 8341 8342 8343 8344 8345 8346 8347 8348 8349 8350 8351 8352 8353 8354 8355 8356 8357 8358 8359 8360 8361 8362 8363 8364 8365 8366 8367 8368 8369 8370 8371 8372 8373 8374 8375 8376 8377 8378 8379 8380 8381 8382 8383 8384 8385 8386 8387 8388 8389 8390 8391 8392 8393 8394 8395 8396 8397 8398 8399 8400 8401 8402 8403 8404 8405 8406 8407 8408 8409 8410 8411 8412 8413 8414 8415 8416 8417 8418 8419 8420 8421 8422 8423 8424 8425 8426 8427 8428 8429 8430 8431 8432 8433 8434 8435 8436 8437 8438 8439 8440 8441 8442 8443 8444 8445 8446 8447 8448 8449 8450 8451 8452 8453 8454 8455 8456 8457 8458 8459 8460 8461 8462 8463 8464 8465 8466 8467 8468 8469 8470 8471 8472 8473 8474 8475 8476 8477 8478 8479 8480 8481 8482 8483 8484 8485 8486 8487 8488 8489 8490 8491 8492 8493 8494 8495 8496 8497 8498 8499 8500 8501 8502 8503 8504 8505 8506 8507 8508 8509 8510 8511 8512 8513 8514 8515 8516 8517 8518 8519 8520 8521 8522 8523 8524 8525 8526 8527 8528 8529 8530 8531 8532 8533 8534 8535 8536 8537 8538 8539 8540 8541 8542 8543 8544 8545 8546 8547 8548 8549 8550 8551 8552 8553 8554 8555 8556 8557 8558 8559 8560 8561 8562 8563 8564 8565 8566 8567 8568 8569 8570 8571 8572 8573 8574 8575 8576 8577 8578 8579 8580 8581 8582 8583 8584 8585 8586 8587 8588 8589 8590 8591 8592 8593 8594 8595 8596 8597 8598 8599 8600 8601 8602 8603 8604 8605 8606 8607 8608 8609 8610 8611 8612 8613 8614 8615 8616 8617 8618 8619 8620 8621 8622 8623 8624 8625 8626 8627 8628 8629 8630 8631 8632 8633 8634 8635 8636 8637 8638 8639 8640 8641 8642 8643 8644 8645 8646 8647 8648 8649 8650 8651 8652 8653 8654 8655 8656 8657 8658 8659 8660 8661 8662 8663 8664 8665 8666 8667 8668 8669 8670 8671 8672 8673 8674 8675 8676 8677 8678 8679 8680 8681 8682 8683 8684 8685 8686 8687 8688 8689 8690 8691 8692 8693 8694 8695 8696 8697 8698 8699 8700 8701 8702 8703 8704 8705 8706 8707 8708 8709 8710 8711 8712 8713 8714 8715 8716 8717 8718 8719 8720 8721 8722 8723 8724 8725 8726 8727 8728 8729 8730 8731 8732 8733 8734 8735 8736 8737 8738 8739 8740 8741 8742 8743 8744 8745 8746 8747 8748 8749 8750 8751 8752 8753 8754 8755 8756 8757 8758 8759 8760 8761 8762 8763 8764 8765 8766 8767 8768 8769 8770 8771 8772 8773 8774 8775 8776 8777 8778 8779 8780 8781 8782 8783 8784 8785 8786 8787 8788 8789 8790 8791 8792 8793 8794 8795 8796 8797 8798 8799 8800 8801 8802 8803 8804 8805 8806 8807 8808 8809 8810 8811 8812 8813 8814 8815 8816 8817 8818 8819 8820 8821 8822 8823 8824 8825 8826 8827 8828 8829 8830 8831 8832 8833 8834 8835 8836 8837 8838 8839 8840 8841 8842 8843 8844 8845 8846 8847 8848 8849 8850 8851 8852 8853 8854 8855 8856 8857 8858 8859 8860 8861 8862 8863 8864 8865 8866 8867 8868 8869 8870 8871 8872 8873 8874 8875 8876 8877 8878 8879 8880 8881 8882 8883 8884 8885 8886 8887 8888 8889 8890 8891 8892 8893 8894 8895 8896 8897 8898 8899 8900 8901 8902 8903 8904 8905 8906 8907 8908 8909 8910 8911 8912 8913 8914 8915 8916 8917 8918 8919 8920 8921 8922 8923 8924 8925 8926 8927 8928 8929 8930 8931 8932 8933 8934 8935 8936 8937 8938 8939 8940 8941 8942 8943 8944 8945 8946 8947 8948 8949 8950 8951 8952 8953 8954 8955 8956 8957 8958 8959 8960 8961 8962 8963 8964 8965 8966 8967 8968 8969 8970 8971 8972 8973 8974 8975 8976 8977 8978 8979 8980 8981 8982 8983 8984 8985 8986 8987 8988 8989 8990 8991 8992 8993 8994 8995 8996 8997 8998 8999 9000 9001 9002 9003 9004 9005 9006 9007 9008 9009 9010 9011 9012 9013 9014 9015 9016 9017 9018 9019 9020 9021 9022 9023 9024 9025 9026 9027 9028 9029 9030 9031 9032 9033 9034 9035 9036 9037 9038 9039 9040 9041 9042 9043 9044 9045 9046 9047 9048 9049 9050 9051 9052 9053 9054 9055 9056 9057 9058 9059 9060 9061 9062 9063 9064 9065 9066 9067 9068 9069 9070 9071 9072 9073 9074 9075 9076 9077 9078 9079 9080 9081 9082 9083 9084 9085 9086 9087 9088 9089 9090 9091 9092 9093 9094 9095 9096 9097 9098 9099 9100 9101 9102 9103 9104 9105 9106 9107 9108 9109 9110 9111 9112 9113 9114 9115 9116 9117 9118 9119 9120 9121 9122 9123 9124 9125 9126 9127 9128 9129 9130 9131 9132 9133 9134 9135 9136 9137 9138 9139 9140 9141 9142 9143 9144 9145 9146 9147 9148 9149 9150 9151 9152 9153 9154 9155 9156 9157 9158 9159 9160 9161 9162 9163 9164 9165 9166 9167 9168 9169 9170 9171 9172 9173 9174 9175 9176 9177 9178 9179 9180 9181 9182 9183 9184 9185 9186 9187 9188 9189 9190 9191 9192 9193 9194 9195 9196 9197 9198 9199 9200 9201 9202 9203 9204 9205 9206 9207 9208 9209 9210 9211 9212 9213 9214 9215 9216 9217 9218 9219 9220 9221 9222 9223 9224 9225 9226 9227 9228 9229 9230 9231 9232 9233 9234 9235 9236 9237 9238 9239 9240 9241 9242 9243 9244 9245 9246 9247 9248 9249 9250 9251 9252 9253 9254 9255 9256 9257 9258 9259 9260 9261 9262 9263 9264 9265 9266 9267 9268 9269 9270 9271 9272 9273 9274 9275 9276 9277 9278 9279 9280 9281 9282 9283 9284 9285 9286 9287 9288 9289 9290 9291 9292 9293 9294 9295 9296 9297 9298 9299 9300 9301 9302 9303 9304 9305 9306 9307 9308 9309 9310 9311 9312 9313 9314 9315 9316 9317 9318 9319 9320 9321 9322 9323 9324 9325 9326 9327 9328 9329 9330 9331 9332 9333 9334 9335 9336 9337 9338 9339 9340 9341 9342 9343 9344 9345 9346 9347 9348 9349 9350 9351 9352 9353 9354 9355 9356 9357 9358 9359 9360 9361 9362 9363 9364 9365 9366 9367 9368 9369 9370 9371 9372 9373 9374 9375 9376 9377 9378 9379 9380 9381 9382 9383 9384 9385 9386 9387 9388 9389 9390 9391 9392 9393 9394 9395 9396 9397 9398 9399 9400 9401 9402 9403 9404 9405 9406 9407 9408 9409 9410 9411 9412 9413 9414 9415 9416 9417 9418 9419 9420 9421 9422 9423 9424 9425 9426 9427 9428 9429 9430 9431 9432 9433 9434 9435 9436 9437 9438 9439 9440 9441 9442 9443 9444 9445 9446 9447 9448 9449 9450 9451 9452 9453 9454 9455 9456 9457 9458 9459 9460 9461 9462 9463 9464 9465 9466 9467 9468 9469 9470 9471 9472 9473 9474 9475 9476 9477 9478 9479 9480 9481 9482 9483 9484 9485 9486 9487 9488 9489 9490 9491 9492 9493 9494 9495 9496 9497 9498 9499 9500 9501 9502 9503 9504 9505 9506 9507 9508 9509 9510 9511 9512 9513 9514 9515 9516 9517 9518 9519 9520 9521 9522 9523 9524 9525 9526 9527 9528 9529 9530 9531 9532 9533 9534 9535 9536 9537 9538 9539 9540 9541 9542 9543 9544 9545 9546 9547 9548 9549 9550 9551 9552 9553 9554 9555 9556 9557 9558 9559 9560 9561 9562 9563 9564 9565 9566 9567 9568 9569 9570 9571 9572 9573 9574 9575 9576 9577 9578 9579 9580 9581 9582 9583 9584 9585 9586 9587 9588 9589 9590 9591 9592 9593 9594 9595 9596 9597 9598 9599 9600 9601 9602 9603 9604 9605 9606 9607 9608 9609 9610 9611 9612 9613 9614 9615 9616 9617 9618 9619 9620 9621 9622 9623 9624 9625 9626 9627 9628 9629 9630 9631 9632 9633 9634 9635 9636 9637 9638 9639 9640 9641 9642 9643 9644 9645 9646 9647 9648 9649 9650 9651 9652 9653 9654 9655 9656 9657 9658 9659 9660 9661 9662 9663 9664 9665 9666 9667 9668 9669 9670 9671 9672 9673 9674 9675 9676 9677 9678 9679 9680 9681 9682 9683 9684 9685 9686 9687 9688 9689 9690 9691 9692 9693 9694 9695 9696 9697 9698 9699 9700 9701 9702 9703 9704 9705 9706 9707 9708 9709 9710 9711 9712 9713 9714 9715 9716 9717 9718 9719 9720 9721 9722 9723 9724 9725 9726 9727 9728 9729 9730 9731 9732 9733 9734 9735 9736 9737 9738 9739 9740 9741 9742 9743 9744 9745 9746 9747 9748 9749 9750 9751 9752 9753 9754 9755 9756 9757 9758 9759 9760 9761 9762 9763 9764 9765 9766 9767 9768 9769 9770 9771 9772 9773 9774 9775 9776 9777 9778 9779 9780 9781 9782 9783 9784 9785 9786 9787 9788 9789 9790 9791 9792 9793 9794 9795 9796 9797 9798 9799 9800 9801 9802 9803 9804 9805 9806 9807 9808 9809 9810 9811 9812 9813 9814 9815 9816 9817 9818 9819 9820 9821 9822 9823 9824 9825 9826 9827 9828 9829 9830 9831 9832 9833 9834 9835 9836 9837 9838 9839 9840 9841 9842 9843 9844 9845 9846 9847 9848 9849 9850 9851 9852 9853 9854 9855 9856 9857 9858 9859 9860 9861 9862 9863 9864 9865 9866 9867 9868 9869 9870 9871 9872 9873 9874 9875 9876 9877 9878 9879 9880 9881 9882 9883 9884 9885 9886 9887 9888 9889 9890 9891 9892 9893 9894 9895 9896 9897 9898 9899 9900 9901 9902 9903 9904 9905 9906 9907 9908 9909 9910 9911 9912 9913 9914 9915 9916 9917 9918 9919 9920 9921 9922 9923 9924 9925 9926 9927 9928 9929 9930 9931 9932 9933 9934 9935 9936 9937 9938 9939 9940 9941 9942 9943 9944 9945 9946 9947 9948 9949 9950 9951 9952 9953 9954 9955 9956 9957 9958 9959 9960 9961 9962 9963 9964 9965 9966 9967 9968 9969 9970 9971 9972 9973 9974 9975 9976 9977 9978 9979 9980 9981 9982 9983 9984 9985 9986 9987 9988 9989 9990 9991 9992 9993 9994 9995 9996 9997 9998 9999 10000 10001 10002 10003 10004 10005 10006 10007 10008 10009 10010 10011 10012 10013 10014 10015 10016 10017 10018 10019 10020 10021 10022 10023 10024 10025 10026 10027 10028 10029 10030 10031 10032 10033 10034 10035 10036 10037 10038 10039 10040 10041 10042 10043 10044 10045 10046 10047 10048 10049 10050 10051 10052 10053 10054 10055 10056 10057 10058 10059 10060 10061 10062 10063 10064 10065 10066 10067 10068 10069 10070 10071 10072 10073 10074 10075 10076 10077 10078 10079 10080 10081 10082 10083 10084 10085 10086 10087 10088 10089 10090 10091 10092 10093 10094 10095 10096 10097 10098 10099 10100 10101 10102 10103 10104 10105 10106 10107 10108 10109 10110 10111 10112 10113 10114 10115 10116 10117 10118 10119 10120 10121 10122 10123 10124 10125 10126 10127 10128 10129 10130 10131 10132 10133 10134 10135 10136 10137 10138 10139 10140 10141 10142 10143 10144 10145 10146 10147 10148 10149 10150 10151 10152 10153 10154 10155 10156 10157 10158 10159 10160 10161 10162 10163 10164 10165 10166 10167 10168 10169 10170 10171 10172 10173 10174 10175 10176 10177 10178 10179 10180 10181 10182 10183 10184 10185 10186 10187 10188 10189 10190 10191 10192 10193 10194 10195 10196 10197 10198 10199 10200 10201 10202 10203 10204 10205 10206 10207 10208 10209 10210 10211 10212 10213 10214 10215 10216 10217 10218 10219 10220 10221 10222 10223 10224 10225 10226 10227 10228 10229 10230 10231 10232 10233 10234 10235 10236 10237 10238 10239 10240 10241 10242 10243 10244 10245 10246 10247 10248 10249 10250 10251 10252 10253 10254 10255 10256 10257 10258 10259 10260 10261 10262 10263 10264 10265 10266 10267 10268 10269 10270 10271 10272 10273 10274 10275 10276 10277 10278 10279 10280 10281 10282 10283 10284 10285 10286 10287 10288 10289 10290 10291 10292 10293 10294 10295 10296 10297 10298 10299 10300 10301 10302 10303 10304 10305 10306 10307 10308 10309 10310 10311 10312 10313 10314 10315 10316 10317 10318 10319 10320 10321 10322 10323 10324 10325 10326 10327 10328 10329 10330 10331 10332 10333 10334 10335 10336 10337 10338 10339 10340 10341 10342 10343 10344 10345 10346 10347 10348 10349 10350 10351 10352 10353 10354 10355 10356 10357 10358 10359 10360 10361 10362 10363 10364 10365 10366 10367 10368 10369 10370 10371 10372 10373 10374 10375 10376 10377 10378 10379 10380 10381 10382 10383 10384 10385 10386 10387 10388 10389 10390 10391 10392 10393 10394 10395 10396 10397 10398 10399 10400 10401 10402 10403 10404 10405 10406 10407 10408 10409 10410 10411 10412 10413 10414 10415 10416 10417 10418 10419 10420 10421 10422 10423 10424 10425 10426 10427 10428 10429 10430 10431 10432 10433 10434 10435 10436 10437 10438 10439 10440 10441 10442 10443 10444 10445 10446 10447 10448 10449 10450 10451 10452 10453 10454 10455 10456 10457 10458 10459 10460 10461 10462 10463 10464 10465 10466 10467 10468 10469 10470 10471 10472 10473 10474 10475 10476 10477 10478 10479 10480 10481 10482 10483 10484 10485 10486 10487 10488 10489 10490 10491 10492 10493 10494 10495 10496 10497 10498 10499 10500 10501 10502 10503 10504 10505 10506 10507 10508 10509 10510 10511 10512 10513 10514 10515 10516 10517 10518 10519 10520 10521 10522 10523 10524 10525 10526 10527 10528 10529 10530 10531 10532 10533 10534 10535 10536 10537 10538 10539 10540 10541 10542 10543 10544 10545 10546 10547 10548 10549 10550 10551 10552 10553 10554 10555 10556 10557 10558 10559 10560 10561 10562 10563 10564 10565 10566 10567 10568 10569 10570 10571 10572 10573 10574 10575 10576 10577 10578 10579 10580 10581 10582 10583 10584 10585 10586 10587 10588 10589 10590 10591 10592 10593 10594 10595 10596 10597 10598 10599 10600 10601 10602 10603 10604 10605 10606 10607 10608 10609 10610 10611 10612 10613 10614 10615 10616 10617 10618 10619 10620 10621 10622 10623 10624 10625 10626 10627 10628 10629 10630 10631 10632 10633 10634 10635 10636 10637 10638 10639 10640 10641 10642 10643 10644 10645 10646 10647 10648 10649 10650 10651 10652 10653 10654 10655 10656 10657 10658 10659 10660 10661 10662 10663 10664 10665 10666 10667 10668 10669 10670 10671 10672 10673 10674 10675 10676 10677 10678 10679 10680 10681 10682 10683 10684 10685 10686 10687 10688 10689 10690 10691 10692 10693 10694 10695 10696 10697 10698 10699 10700 10701 10702 10703 10704 10705 10706 10707 10708 10709 10710 10711 10712 10713 10714 10715 10716 10717 10718 10719 10720 10721 10722 10723 10724 10725 10726 10727 10728 10729 10730 10731 10732 10733 10734 10735 10736 10737 10738 10739 10740 10741 10742 10743 10744 10745 10746 10747 10748 10749 10750 10751 10752 10753 10754 10755 10756 10757 10758 10759 10760 10761 10762 10763 10764 10765 10766 10767 10768 10769 10770 10771 10772 10773 10774 10775 10776 10777 10778 10779 10780 10781 10782 10783 10784 10785 10786 10787 10788 10789 10790 10791 10792 10793 10794 10795 10796 10797 10798 10799 10800 10801 10802 10803 10804 10805 10806 10807 10808 10809 10810 10811 10812 10813 10814 10815 10816 10817 10818 10819 10820 10821 10822 10823 10824 10825 10826 10827 10828 10829 10830 10831 10832 10833 10834 10835 10836 10837 10838 10839 10840 10841 10842 10843 10844 10845 10846 10847 10848 10849 10850 10851 10852 10853 10854 10855 10856 10857 10858 10859 10860 10861 10862 10863 10864 10865 10866 10867 10868 10869 10870 10871 10872 10873 10874 10875 10876 10877 10878 10879 10880 10881 10882 10883 10884 10885 10886 10887 10888 10889 10890 10891 10892 10893 10894 10895 10896 10897 10898 10899 10900 10901 10902 10903 10904 10905 10906 10907 10908 10909 10910 10911 10912 10913 10914 10915 10916 10917 10918 10919 10920 10921 10922 10923 10924 10925 10926 10927 10928 10929 10930 10931 10932 10933 10934 10935 10936 10937 10938 10939 10940 10941 10942 10943 10944 10945 10946 10947 10948 10949 10950 10951 10952 10953 10954 10955 10956 10957 10958 10959 10960 10961 10962 10963 10964 10965 10966 10967 10968 10969 10970 10971 10972 10973 10974 10975 10976 10977 10978 10979 10980 10981 10982 10983 10984 10985 10986 10987 10988 10989 10990 10991 10992 10993 10994 10995 10996 10997 10998 10999 11000 11001 11002 11003 11004 11005 11006 11007 11008 11009 11010 11011 11012 11013 11014 11015 11016 11017 11018 11019 11020 11021 11022 11023 11024 11025 11026 11027 11028 11029 11030 11031 11032 11033 11034 11035 11036 11037 11038 11039 11040 11041 11042 11043 11044 11045 11046 11047 11048 11049 11050 11051 11052 11053 11054 11055 11056 11057 11058 11059 11060 11061 11062 11063 11064 11065 11066 11067 11068 11069 11070 11071 11072 11073 11074 11075 11076 11077 11078 11079 11080 11081 11082 11083 11084 11085 11086 11087 11088 11089 11090 11091 11092 11093 11094 11095 11096 11097 11098 11099 11100 11101 11102 11103 11104 11105 11106 11107 11108 11109 11110 11111 11112 11113 11114 11115 11116 11117 11118 11119 11120 11121 11122 11123 11124 11125 11126 11127 11128 11129 11130 11131 11132 11133 11134 11135 11136 11137 11138 11139 11140 11141 11142 11143 11144 11145 11146 11147 11148 11149 11150 11151 11152 11153 11154 11155 11156 11157 11158 11159 11160 11161 11162 11163 11164 11165 11166 11167 11168 11169 11170 11171 11172 11173 11174 11175 11176 11177 11178 11179 11180 11181 11182 11183 11184 11185 11186 11187 11188 11189 11190 11191 11192 11193 11194 11195 11196 11197 11198 11199 11200 11201 11202 11203 11204 11205 11206 11207 11208 11209 11210 11211 11212 11213 11214 11215 11216 11217 11218 11219 11220 11221 11222 11223 11224 11225 11226 11227 11228 11229 11230 11231 11232 11233 11234 11235 11236 11237 11238 11239 11240 11241 11242 11243 11244 11245 11246 11247 11248 11249 11250 11251 11252 11253 11254 11255 11256 11257 11258 11259 11260 11261 11262 11263 11264 11265 11266 11267 11268 11269 11270 11271 11272 11273 11274 11275 11276 11277 11278 11279 11280 11281 11282 11283 11284 11285 11286 11287 11288 11289 11290 11291 11292 11293 11294 11295 11296 11297 11298 11299 11300 11301 11302 11303 11304 11305 11306 11307 11308 11309 11310 11311 11312 11313 11314 11315 11316 11317 11318 11319 11320 11321 11322 11323 11324 11325 11326 11327 11328 11329 11330 11331 11332 11333 11334 11335 11336 11337 11338 11339 11340 11341 11342 11343 11344 11345 11346 11347 11348 11349 11350 11351 11352 11353 11354 11355 11356 11357 11358 11359 11360 11361 11362 11363 11364 11365 11366 11367 11368 11369 11370 11371 11372 11373 11374 11375 11376 11377 11378 11379 11380 11381 11382 11383 11384 11385 11386 11387 11388 11389 11390 11391 11392 11393 11394 11395 11396 11397 11398 11399 11400 11401 11402 11403 11404 11405 11406 11407 11408 11409 11410 11411 11412 11413 11414 11415 11416 11417 11418 11419 11420 11421 11422 11423 11424 11425 11426 11427 11428 11429 11430 11431 11432 11433 11434 11435 11436 11437 11438 11439 11440 11441 11442 11443 11444 11445 11446 11447 11448 11449 11450 11451 11452 11453 11454 11455 11456 11457 11458 11459 11460 11461 11462 11463 11464 11465 11466 11467 11468 11469 11470 11471 11472 11473 11474 11475 11476 11477 11478 11479 11480 11481 11482 11483 11484 11485 11486 11487 11488 11489 11490 11491 11492 11493 11494 11495 11496 11497 11498 11499 11500 11501 11502 11503 11504 11505 11506 11507 11508 11509 11510 11511 11512 11513 11514 11515 11516 11517 11518 11519 11520 11521 11522 11523 11524 11525 11526 11527 11528 11529 11530 11531 11532 11533 11534 11535 11536 11537 11538 11539 11540 11541 11542 11543 11544 11545 11546 11547 11548 11549 11550 11551 11552 11553 11554 11555 11556 11557 11558 11559 11560 11561 11562 11563 11564 11565 11566 11567 11568 11569 11570 11571 11572 11573 11574 11575 11576 11577 11578 11579 11580 11581 11582 11583 11584 11585 11586 11587 11588 11589 11590 11591 11592 11593 11594 11595 11596 11597 11598 11599 11600 11601 11602 11603 11604 11605 11606 11607 11608 11609 11610 11611 11612 11613 11614 11615 11616 11617 11618 11619 11620 11621 11622 11623 11624 11625 11626 11627 11628 11629 11630 11631 11632 11633 11634 11635 11636 11637 11638 11639 11640 11641 11642 11643 11644 11645 11646 11647 11648 11649 11650 11651 11652 11653 11654 11655 11656 11657 11658 11659 11660 11661 11662 11663 11664 11665 11666 11667 11668 11669 11670 11671 11672 11673 11674 11675 11676 11677 11678 11679 11680 11681 11682 11683 11684 11685 11686 11687 11688 11689 11690 11691 11692 11693 11694 11695 11696 11697 11698 11699 11700 11701 11702 11703 11704 11705 11706 11707 11708 11709 11710 11711 11712 11713 11714 11715 11716 11717 11718 11719 11720 11721 11722 11723 11724 11725 11726 11727 11728 11729 11730 11731 11732 11733 11734 11735 11736 11737 11738 11739 11740 11741 11742 11743 11744 11745 11746 11747 11748 11749 11750 11751 11752 11753 11754 11755 11756 11757 11758 11759 11760 11761 11762 11763 11764 11765 11766 11767 11768 11769 11770 11771 11772 11773 11774 11775 11776 11777 11778 11779 11780 11781 11782 11783 11784 11785 11786 11787 11788 11789 11790 11791 11792 11793 11794 11795 11796 11797 11798 11799 11800 11801 11802 11803 11804 11805 11806 11807 11808 11809 11810 11811 11812 11813 11814 11815 11816 11817 11818 11819 11820 11821 11822 11823 11824 11825 11826 11827 11828 11829 11830 11831 11832 11833 11834 11835 11836 11837 11838 11839 11840 11841 11842 11843 11844 11845 11846 11847 11848 11849 11850 11851 11852 11853 11854 11855 11856 11857 11858 11859 11860 11861 11862 11863 11864 11865 11866 11867 11868 11869 11870 11871 11872 11873 11874 11875 11876 11877 11878 11879 11880 11881 11882 11883 11884 11885 11886 11887 11888 11889 11890 11891 11892 11893 11894 11895 11896 11897 11898 11899 11900 11901 11902 11903 11904 11905 11906 11907 11908 11909 11910 11911 11912 11913 11914 11915 11916 11917 11918 11919 11920 11921 11922 11923 11924 11925 11926 11927 11928 11929 11930 11931 11932 11933 11934 11935 11936 11937 11938 11939 11940 11941 11942 11943 11944 11945 11946 11947 11948 11949 11950 11951 11952 11953 11954 11955 11956 11957 11958 11959 11960 11961 11962 11963 11964 11965 11966 11967 11968 11969 11970 11971 11972 11973 11974 11975 11976 11977 11978 11979 11980 11981 11982 11983 11984 11985 11986 11987 11988 11989 11990 11991 11992 11993 11994 11995 11996 11997 11998 11999 12000 12001 12002 12003 12004 12005 12006 12007 12008 12009 12010 12011 12012 12013 12014 12015 12016 12017 12018 12019 12020 12021 12022 12023 12024 12025 12026 12027 12028 12029 12030 12031 12032 12033 12034 12035 12036 12037 12038 12039 12040 12041 12042 12043 12044 12045 12046 12047 12048 12049 12050 12051 12052 12053 12054 12055 12056 12057 12058 12059 12060 12061 12062 12063 12064 12065 12066 12067 12068 12069 12070 12071 12072 12073 12074 12075 12076 12077 12078 12079 12080 12081 12082 12083 12084 12085 12086 12087 12088 12089 12090 12091 12092 12093 12094 12095 12096 12097 12098 12099 12100 12101 12102 12103 12104 12105 12106 12107 12108 12109 12110 12111 12112 12113 12114 12115 12116 12117 12118 12119 12120 12121 12122 12123 12124 12125 12126 12127 12128 12129 12130 12131 12132 12133 12134 12135 12136 12137 12138 12139 12140 12141 12142 12143 12144 12145 12146 12147 12148 12149 12150 12151 12152 12153 12154 12155 12156 12157 12158 12159 12160 12161 12162 12163 12164 12165 12166 12167 12168 12169 12170 12171 12172 12173 12174 12175 12176 12177 12178 12179 12180 12181 12182 12183 12184 12185 12186 12187 12188 12189 12190 12191 12192 12193 12194 12195 12196 12197 12198 12199 12200 12201 12202 12203 12204 12205 12206 12207 12208 12209 12210 12211 12212 12213 12214 12215 12216 12217 12218 12219 12220 12221 12222 12223 12224 12225 12226 12227 12228 12229 12230 12231 12232 12233 12234 12235 12236 12237 12238 12239 12240 12241 12242 12243 12244 12245 12246 12247 12248 12249 12250 12251 12252 12253 12254 12255 12256 12257 12258 12259 12260 12261 12262 12263 12264 12265 12266 12267 12268 12269 12270 12271 12272 12273 12274 12275 12276 12277 12278 12279 12280 12281 12282 12283 12284 12285 12286 12287 12288 12289 12290 12291 12292 12293 12294 12295 12296 12297 12298 12299 12300 12301 12302 12303 12304 12305 12306 12307 12308 12309 12310 12311 12312 12313 12314 12315 12316 12317 12318 12319 12320 12321 12322 12323 12324 12325 12326 12327 12328 12329 12330 12331 12332 12333 12334 12335 12336 12337 12338 12339 12340 12341 12342 12343 12344 12345 12346 12347 12348 12349 12350 12351 12352 12353 12354 12355 12356 12357 12358 12359 12360 12361 12362 12363 12364 12365 12366 12367 12368 12369 12370 12371 12372 12373 12374 12375 12376 12377 12378 12379 12380 12381 12382 12383 12384 12385 12386 12387 12388 12389 12390 12391 12392 12393 12394 12395 12396 12397 12398 12399 12400 12401 12402 12403 12404 12405 12406 12407 12408 12409 12410 12411 12412 12413 12414 12415 12416 12417 12418 12419 12420 12421 12422 12423 12424 12425 12426 12427 12428 12429 12430 12431 12432 12433 12434 12435 12436 12437 12438 12439 12440 12441 12442 12443 12444 12445 12446 12447 12448 12449 12450 12451 12452 12453 12454 12455 12456 12457 12458 12459 12460 12461 12462 12463 12464 12465 12466 12467 12468 12469 12470 12471 12472 12473 12474 12475 12476 12477 12478 12479 12480 12481 12482 12483 12484 12485 12486 12487 12488 12489 12490 12491 12492 12493 12494 12495 12496 12497 12498 12499 12500 12501 12502 12503 12504 12505 12506 12507 12508 12509 12510 12511 12512 12513 12514 12515 12516 12517 12518 12519 12520 12521 12522 12523 12524 12525 12526 12527 12528 12529 12530 12531 12532 12533 12534 12535 12536 12537 12538 12539 12540 12541 12542 12543 12544 12545 12546 12547 12548 12549 12550 12551 12552 12553 12554 12555 12556 12557 12558 12559 12560 12561 12562 12563 12564 12565 12566 12567 12568 12569 12570 12571 12572 12573 12574 12575 12576 12577 12578 12579 12580 12581 12582 12583 12584 12585 12586 12587 12588 12589 12590 12591 12592 12593 12594 12595 12596 12597 12598 12599 12600 12601 12602 12603 12604 12605 12606 12607 12608 12609 12610 12611 12612 12613 12614 12615 12616 12617 12618 12619 12620 12621 12622 12623 12624 12625 12626 12627 12628 12629 12630 12631 12632 12633 12634 12635 12636 12637 12638 12639 12640 12641 12642 12643 12644 12645 12646 12647 12648 12649 12650 12651 12652 12653 12654 12655 12656 12657 12658 12659 12660 12661 12662 12663 12664 12665 12666 12667 12668 12669 12670 12671 12672 12673 12674 12675 12676 12677 12678 12679 12680 12681 12682 12683 12684 12685 12686 12687 12688 12689 12690 12691 12692 12693 12694 12695 12696 12697 12698 12699 12700 12701 12702 12703 12704 12705 12706 12707 12708 12709 12710 12711 12712 12713 12714 12715 12716 12717 12718 12719 12720 12721 12722 12723 12724 12725 12726 12727 12728 12729 12730 12731 12732 12733 12734 12735 12736 12737 12738 12739 12740 12741 12742 12743 12744 12745 12746 12747 12748 12749 12750 12751 12752 12753 12754 12755 12756 12757 12758 12759 12760 12761 12762 12763 12764 12765 12766 12767 12768 12769 12770 12771 12772 12773 12774 12775 12776 12777 12778 12779 12780 12781 12782 12783 12784 12785 12786 12787 12788 12789 12790 12791 12792 12793 12794 12795 12796 12797 12798 12799 12800 12801 12802 12803 12804 12805 12806 12807 12808 12809 12810 12811 12812 12813 12814 12815 12816 12817 12818 12819 12820 12821 12822 12823 12824 12825 12826 12827 12828 12829 12830 12831 12832 12833 12834 12835 12836 12837 12838 12839 12840 12841 12842 12843 12844 12845 12846 12847 12848 12849 12850 12851 12852 12853 12854 12855 12856 12857 12858 12859 12860 12861 12862 12863 12864 12865 12866 12867 12868 12869 12870 12871 12872 12873 12874 12875 12876 12877 12878 12879 12880 12881 12882 12883 12884 12885 12886 12887 12888 12889 12890 12891 12892 12893 12894 12895 12896 12897 12898 12899 12900 12901 12902 12903 12904 12905 12906 12907 12908 12909 12910 12911 12912 12913 12914 12915 12916 12917 12918 12919 12920 12921 12922 12923 12924 12925 12926 12927 12928 12929 12930 12931 12932 12933 12934 12935 12936 12937 12938 12939 12940 12941 12942 12943 12944 12945 12946 12947 12948 12949 12950 12951 12952 12953 12954 12955 12956 12957 12958 12959 12960 12961 12962 12963 12964 12965 12966 12967 12968 12969 12970 12971 12972 12973 12974 12975 12976 12977 12978 12979 12980 12981 12982 12983 12984 12985 12986 12987 12988 12989 12990 12991 12992 12993 12994 12995 12996 12997 12998 12999 13000 13001 13002 13003 13004 13005 13006 13007 13008 13009 13010 13011 13012 13013 13014 13015 13016 13017 13018 13019 13020 13021 13022 13023 13024 13025 13026 13027 13028 13029 13030 13031 13032 13033 13034 13035 13036 13037 13038 13039 13040 13041 13042 13043 13044 13045 13046 13047 13048 13049 13050 13051 13052 13053 13054 13055 13056 13057 13058 13059 13060 13061 13062 13063 13064 13065 13066 13067 13068 13069 13070 13071 13072 13073 13074 13075 13076 13077 13078 13079 13080 13081 13082 13083 13084 13085 13086 13087 13088 13089 13090 13091 13092 13093 13094 13095 13096 13097 13098 13099 13100 13101 13102 13103 13104 13105 13106 13107 13108 13109 13110 13111 13112 13113 13114 13115 13116 13117 13118 13119 13120 13121 13122 13123 13124 13125 13126 13127 13128 13129 13130 13131 13132 13133 13134 13135 13136 13137 13138 13139 13140 13141 13142 13143 13144 13145 13146 13147 13148 13149 13150 13151 13152 13153 13154 13155 13156 13157 13158 13159 13160 13161 13162 13163 13164 13165 13166 13167 13168 13169 13170 13171 13172 13173 13174 13175 13176 13177 13178 13179 13180 13181 13182 13183 13184 13185 13186 13187 13188 13189 13190 13191 13192 13193 13194 13195 13196 13197 13198 13199 13200 13201 13202 13203 13204 13205 13206 13207 13208 13209 13210 13211 13212 13213 13214 13215 13216 13217 13218 13219 13220 13221 13222 13223 13224 13225 13226 13227 13228 13229 13230 13231 13232 13233 13234 13235 13236 13237 13238 13239 13240 13241 13242 13243 13244 13245 13246 13247 13248 13249 13250 13251 13252 13253 13254 13255 13256 13257 13258 13259 13260 13261 13262 13263 13264 13265 13266 13267 13268 13269 13270 13271 13272 13273 13274 13275 13276 13277 13278 13279 13280 13281 13282 13283 13284 13285 13286 13287 13288 13289 13290 13291 13292 13293 13294 13295 13296 13297 13298 13299 13300 13301 13302 13303 13304 13305 13306 13307 13308 13309 13310 13311 13312 13313 13314 13315 13316 13317 13318 13319 13320 13321 13322 13323 13324 13325 13326 13327 13328 13329 13330 13331 13332 13333 13334 13335 13336 13337 13338 13339 13340 13341 13342 13343 13344 13345 13346 13347 13348 13349 13350 13351 13352 13353 13354 13355 13356 13357 13358 13359 13360 13361 13362 13363 13364 13365 13366 13367 13368 13369 13370 13371 13372 13373 13374 13375 13376 13377 13378 13379 13380 13381 13382 13383 13384 13385 13386 13387 13388 13389 13390 13391 13392 13393 13394 13395 13396 13397 13398 13399 13400 13401 13402 13403 13404 13405 13406 13407 13408 13409 13410 13411 13412 13413 13414 13415 13416 13417 13418 13419 13420 13421 13422 13423 13424 13425 13426 13427 13428 13429 13430 13431 13432 13433 13434 13435 13436 13437 13438 13439 13440 13441 13442 13443 13444 13445 13446 13447 13448 13449 13450 13451 13452 13453 13454 13455 13456 13457 13458 13459 13460 13461 13462 13463 13464 13465 13466 13467 13468 13469 13470 13471 13472 13473 13474 13475 13476 13477 13478 13479 13480 13481 13482 13483 13484 13485 13486 13487 13488 13489 13490 13491 13492 13493 13494 13495 13496 13497 13498 13499 13500 13501 13502 13503 13504 13505 13506 13507 13508 13509 13510 13511 13512 13513 13514 13515 13516 13517 13518 13519 13520 13521 13522 13523 13524 13525 13526 13527 13528 13529 13530 13531 13532 13533 13534 13535 13536 13537 13538 13539 13540 13541 13542 13543 13544 13545 13546 13547 13548 13549 13550 13551 13552 13553 13554 13555 13556 13557 13558 13559 13560 13561 13562 13563 13564 13565 13566 13567 13568 13569 13570 13571 13572 13573 13574 13575 13576 13577 13578 13579 13580 13581 13582 13583 13584 13585 13586 13587 13588 13589 13590 13591 13592 13593 13594 13595 13596 13597 13598 13599 13600 13601 13602 13603 13604 13605 13606 13607 13608 13609 13610 13611 13612 13613 13614 13615 13616 13617 13618 13619 13620 13621 13622 13623 13624 13625 13626 13627 13628 13629 13630 13631 13632 13633 13634 13635 13636 13637 13638 13639 13640 13641 13642 13643 13644 13645 13646 13647 13648 13649 13650 13651 13652 13653 13654 13655 13656 13657 13658 13659 13660 13661 13662 13663 13664 13665 13666 13667 13668 13669 13670 13671 13672 13673 13674 13675 13676 13677 13678 13679 13680 13681 13682 13683 13684 13685 13686 13687 13688 13689 13690 13691 13692 13693 13694 13695 13696 13697 13698 13699 13700 13701 13702 13703 13704 13705 13706 13707 13708 13709 13710 13711 13712 13713 13714 13715 13716 13717 13718 13719 13720 13721 13722 13723 13724 13725 13726 13727 13728 13729 13730 13731 13732 13733 13734 13735 13736 13737 13738 13739 13740 13741 13742 13743 13744 13745 13746 13747 13748 13749 13750 13751 13752 13753 13754 13755 13756 13757 13758 13759 13760 13761 13762 13763 13764 13765 13766 13767 13768 13769 13770 13771 13772 13773 13774 13775 13776 13777 13778 13779 13780 13781 13782 13783 13784 13785 13786 13787 13788 13789 13790 13791 13792 13793 13794 13795 13796 13797 13798 13799 13800 13801 13802 13803 13804 13805 13806 13807 13808 13809 13810 13811 13812 13813 13814 13815 13816 13817 13818 13819 13820 13821 13822 13823 13824 13825 13826 13827 13828 13829 13830 13831 13832 13833 13834 13835 13836 13837 13838 13839 13840 13841 13842 13843 13844 13845 13846 13847 13848 13849 13850 13851 13852 13853 13854 13855 13856 13857 13858 13859 13860 13861 13862 13863 13864 13865 13866 13867 13868 13869 13870 13871 13872 13873 13874 13875 13876 13877 13878 13879 13880 13881 13882 13883 13884 13885 13886 13887 13888 13889 13890 13891 13892 13893 13894 13895 13896 13897 13898 13899 13900 13901 13902 13903 13904 13905 13906 13907 13908 13909 13910 13911 13912 13913 13914 13915 13916 13917 13918 13919 13920 13921 13922 13923 13924 13925 13926 13927 13928 13929 13930 13931 13932 13933 13934 13935 13936 13937 13938 13939 13940 13941 13942 13943 13944 13945 13946 13947 13948 13949 13950 13951 13952 13953 13954 13955 13956 13957 13958 13959 13960 13961 13962 13963 13964 13965 13966 13967 13968 13969 13970 13971 13972 13973 13974 13975 13976 13977 13978 13979 13980 13981 13982 13983 13984 13985 13986 13987 13988 13989 13990 13991 13992 13993 13994 13995 13996 13997 13998 13999 14000 14001 14002 14003 14004 14005 14006 14007 14008 14009 14010 14011 14012 14013 14014 14015 14016 14017 14018 14019 14020 14021 14022 14023 14024 14025 14026 14027 14028 14029 14030 14031 14032 14033 14034 14035 14036 14037 14038 14039 14040 14041 14042 14043 14044 14045 14046 14047 14048 14049 14050 14051 14052 14053 14054 14055 14056 14057 14058 14059 14060 14061 14062 14063 14064 14065 14066 14067 14068 14069 14070 14071 14072 14073 14074 14075 14076 14077 14078 14079 14080 14081 14082 14083 14084 14085 14086 14087 14088 14089 14090 14091 14092 14093 14094 14095 14096 14097 14098 14099 14100 14101 14102 14103 14104 14105 14106 14107 14108 14109 14110 14111 14112 14113 14114 14115 14116 14117 14118 14119 14120 14121 14122 14123 14124 14125 14126 14127 14128 14129 14130 14131 14132 14133 14134 14135 14136 14137 14138 14139 14140 14141 14142 14143 14144 14145 14146 14147 14148 14149 14150 14151 14152 14153 14154 14155 14156 14157 14158 14159 14160 14161 14162 14163 14164 14165 14166 14167 14168 14169 14170 14171 14172 14173 14174 14175 14176 14177 14178 14179 14180 14181 14182 14183 14184 14185 14186 14187 14188 14189 14190 14191 14192 14193 14194 14195 14196 14197 14198 14199 14200 14201 14202 14203 14204 14205 14206 14207 14208 14209 14210 14211 14212 14213 14214 14215 14216 14217 14218 14219 14220 14221 14222 14223 14224 14225 14226 14227 14228 14229 14230 14231 14232 14233 14234 14235 14236 14237 14238 14239 14240 14241 14242 14243 14244 14245 14246 14247 14248 14249 14250 14251 14252 14253 14254 14255 14256 14257 14258 14259 14260 14261 14262 14263 14264 14265 14266 14267 14268 14269 14270 14271 14272 14273 14274 14275 14276 14277 14278 14279 14280 14281 14282 14283 14284 14285 14286 14287 14288 14289 14290 14291 14292 14293 14294 14295 14296 14297 14298 14299 14300 14301 14302 14303 14304 14305 14306 14307 14308 14309 14310 14311 14312 14313 14314 14315 14316 14317 14318 14319 14320 14321 14322 14323 14324 14325 14326 14327 14328 14329 14330 14331 14332 14333 14334 14335 14336 14337 14338 14339 14340 14341 14342 14343 14344 14345 14346 14347 14348 14349 14350 14351 14352 14353 14354 14355 14356 14357 14358 14359 14360 14361 14362 14363 14364 14365 14366 14367 14368 14369 14370 14371 14372 14373 14374 14375 14376 14377 14378 14379 14380 14381 14382 14383 14384 14385 14386 14387 14388 14389 14390 14391 14392 14393 14394 14395 14396 14397 14398 14399 14400 14401 14402 14403 14404 14405 14406 14407 14408 14409 14410 14411 14412 14413 14414 14415 14416 14417 14418 14419 14420 14421 14422 14423 14424 14425 14426 14427 14428 14429 14430 14431 14432 14433 14434 14435 14436 14437 14438 14439 14440 14441 14442 14443 14444 14445 14446 14447 14448 14449 14450 14451 14452 14453 14454 14455 14456 14457 14458 14459 14460 14461 14462 14463 14464 14465 14466 14467 14468 14469 14470 14471 14472 14473 14474 14475 14476 14477 14478 14479 14480 14481 14482 14483 14484 14485 14486 14487 14488 14489 14490 14491 14492 14493 14494 14495 14496 14497 14498 14499 14500 14501 14502 14503 14504 14505 14506 14507 14508 14509 14510 14511 14512 14513 14514 14515 14516 14517 14518 14519 14520 14521 14522 14523 14524 14525 14526 14527 14528 14529 14530 14531 14532 14533 14534 14535 14536 14537 14538 14539 14540 14541 14542 14543 14544 14545 14546 14547 14548 14549 14550 14551 14552 14553 14554 14555 14556 14557 14558 14559 14560 14561 14562 14563 14564 14565 14566 14567 14568 14569 14570 14571 14572 14573 14574 14575 14576 14577 14578 14579 14580 14581 14582 14583 14584 14585 14586 14587 14588 14589 14590 14591 14592 14593 14594 14595 14596 14597 14598 14599 14600 14601 14602 14603 14604 14605 14606 14607 14608 14609 14610 14611 14612 14613 14614 14615 14616 14617 14618 14619 14620 14621 14622 14623 14624 14625 14626 14627 14628 14629 14630 14631 14632 14633 14634 14635 14636 14637 14638 14639 14640 14641 14642 14643 14644 14645 14646 14647 14648 14649 14650 14651 14652 14653 14654 14655 14656 14657 14658 14659 14660 14661 14662 14663 14664 14665 14666 14667 14668 14669 14670 14671 14672 14673 14674 14675 14676 14677 14678 14679 14680 14681 14682 14683 14684 14685 14686 14687 14688 14689 14690 14691 14692 14693 14694 14695 14696 14697 14698 14699 14700 14701 14702 14703 14704 14705 14706 14707 14708 14709 14710 14711 14712 14713 14714 14715 14716 14717 14718 14719 14720 14721 14722 14723 14724 14725 14726 14727 14728 14729 14730 14731 14732 14733 14734 14735 14736 14737 14738 14739 14740 14741 14742 14743 14744 14745 14746 14747 14748 14749 14750 14751 14752 14753 14754 14755 14756 14757 14758 14759 14760 14761 14762 14763 14764 14765 14766 14767 14768 14769 14770 14771 14772 14773 14774 14775 14776 14777 14778 14779 14780 14781 14782 14783 14784 14785 14786 14787 14788 14789 14790 14791 14792 14793 14794 14795 14796 14797 14798 14799 14800 14801 14802 14803 14804 14805 14806 14807 14808 14809 14810 14811 14812 14813 14814 14815 14816 14817 14818 14819 14820 14821 14822 14823 14824 14825 14826 14827 14828 14829 14830 14831 14832 14833 14834 14835 14836 14837 14838 14839 14840 14841 14842 14843 14844 14845 14846 14847 14848 14849 14850 14851 14852 14853 14854 14855 14856 14857 14858 14859 14860 14861 14862 14863 14864 14865 14866 14867 14868 14869 14870 14871 14872 14873 14874 14875 14876 14877 14878 14879 14880 14881 14882 14883 14884 14885 14886 14887 14888 14889 14890 14891 14892 14893 14894 14895 14896 14897 14898 14899 14900 14901 14902 14903 14904 14905 14906 14907 14908 14909 14910 14911 14912 14913 14914 14915 14916 14917 14918 14919 14920 14921 14922 14923 14924 14925 14926 14927 14928 14929 14930 14931 14932 14933 14934 14935 14936 14937 14938 14939 14940 14941 14942 14943 14944 14945 14946 14947 14948 14949 14950 14951 14952 14953 14954 14955 14956 14957 14958 14959 14960 14961 14962 14963 14964 14965 14966 14967 14968 14969 14970 14971 14972 14973 14974 14975 14976 14977 14978 14979 14980 14981 14982 14983 14984 14985 14986 14987 14988 14989 14990 14991 14992 14993 14994 14995 14996 14997 14998 14999 15000 15001 15002 15003 15004 15005 15006 15007 15008 15009 15010 15011 15012 15013 15014 15015 15016 15017 15018 15019 15020 15021 15022 15023 15024 15025 15026 15027 15028 15029 15030 15031 15032 15033 15034 15035 15036 15037 15038 15039 15040 15041 15042 15043 15044 15045 15046 15047 15048 15049 15050 15051 15052 15053 15054 15055 15056 15057 15058 15059 15060 15061 15062 15063 15064 15065 15066 15067 15068 15069 15070 15071 15072 15073 15074 15075 15076 15077 15078 15079 15080 15081 15082 15083 15084 15085 15086 15087 15088 15089 15090 15091 15092 15093 15094 15095 15096 15097 15098 15099 15100 15101 15102 15103 15104 15105 15106 15107 15108 15109 15110 15111 15112 15113 15114 15115 15116 15117 15118 15119 15120 15121 15122 15123 15124 15125 15126 15127 15128 15129 15130 15131 15132 15133 15134 15135 15136 15137 15138 15139 15140 15141 15142 15143 15144 15145 15146 15147 15148 15149 15150 15151 15152 15153 15154 15155 15156 15157 15158 15159 15160 15161 15162 15163 15164 15165 15166 15167 15168 15169 15170 15171 15172 15173 15174 15175 15176 15177 15178 15179 15180 15181 15182 15183 15184 15185 15186 15187 15188 15189 15190 15191 15192 15193 15194 15195 15196 15197 15198 15199 15200 15201 15202 15203 15204 15205 15206 15207 15208 15209 15210 15211 15212 15213 15214 15215 15216 15217 15218 15219 15220 15221 15222 15223 15224 15225 15226 15227 15228 15229 15230 15231 15232 15233 15234 15235 15236 15237 15238 15239 15240 15241 15242 15243 15244 15245 15246 15247 15248 15249 15250 15251 15252 15253 15254 15255 15256 15257 15258 15259 15260 15261 15262 15263 15264 15265 15266 15267 15268 15269 15270 15271 15272 15273 15274 15275 15276 15277 15278 15279 15280 15281 15282 15283 15284 15285 15286 15287 15288 15289 15290 15291 15292 15293 15294 15295 15296 15297 15298 15299 15300 15301 15302 15303 15304 15305 15306 15307 15308 15309 15310 15311 15312 15313 15314 15315 15316 15317 15318 15319 15320 15321 15322 15323 15324 15325 15326 15327 15328 15329 15330 15331 15332 15333 15334 15335 15336 15337 15338 15339 15340 15341 15342 15343 15344 15345 15346 15347 15348 15349 15350 15351 15352 15353 15354 15355 15356 15357 15358 15359 15360 15361 15362 15363 15364 15365 15366 15367 15368 15369 15370 15371 15372 15373 15374 15375 15376 15377 15378 15379 15380 15381 15382 15383 15384 15385 15386 15387 15388 15389 15390 15391 15392 15393 15394 15395 15396 15397 15398 15399 15400 15401 15402 15403 15404 15405 15406 15407 15408 15409 15410 15411 15412 15413 15414 15415 15416 15417 15418 15419 15420 15421 15422 15423 15424 15425 15426 15427 15428 15429 15430 15431 15432 15433 15434 15435 15436 15437 15438 15439 15440 15441 15442 15443 15444 15445 15446 15447 15448 15449 15450 15451 15452 15453 15454 15455 15456 15457 15458 15459 15460 15461 15462 15463 15464 15465 15466 15467 15468 15469 15470 15471 15472 15473 15474 15475 15476 15477 15478 15479 15480 15481 15482 15483 15484 15485 15486 15487 15488 15489 15490 15491 15492 15493 15494 15495 15496 15497 15498 15499 15500 15501 15502 15503 15504 15505 15506 15507 15508 15509 15510 15511 15512 15513 15514 15515 15516 15517 15518 15519 15520 15521 15522 15523 15524 15525 15526 15527 15528 15529 15530 15531 15532 15533 15534 15535 15536 15537 15538 15539 15540 15541 15542 15543 15544 15545 15546 15547 15548 15549 15550 15551 15552 15553 15554 15555 15556 15557 15558 15559 15560 15561 15562 15563 15564 15565 15566 15567 15568 15569 15570 15571 15572 15573 15574 15575 15576 15577 15578 15579 15580 15581 15582 15583 15584 15585 15586 15587 15588 15589 15590 15591 15592 15593 15594 15595 15596 15597 15598 15599 15600 15601 15602 15603 15604 15605 15606 15607 15608 15609 15610 15611 15612 15613 15614 15615 15616 15617 15618 15619 15620 15621 15622 15623 15624 15625 15626 15627 15628 15629 15630 15631 15632 15633 15634 15635 15636 15637 15638 15639 15640 15641 15642 15643 15644 15645 15646 15647 15648 15649 15650 15651 15652 15653 15654 15655 15656 15657 15658 15659 15660 15661 15662 15663 15664 15665 15666 15667 15668 15669 15670 15671 15672 15673 15674 15675 15676 15677 15678 15679 15680 15681 15682 15683 15684 15685 15686 15687 15688 15689 15690 15691 15692 15693 15694 15695 15696 15697 15698 15699 15700 15701 15702 15703 15704 15705 15706 15707 15708 15709 15710 15711 15712 15713 15714 15715 15716 15717 15718 15719 15720 15721 15722 15723 15724 15725 15726 15727 15728 15729 15730 15731 15732 15733 15734 15735 15736 15737 15738 15739 15740 15741 15742 15743 15744 15745 15746 15747 15748 15749 15750 15751 15752 15753 15754 15755 15756 15757 15758 15759 15760 15761 15762 15763 15764 15765 15766 15767 15768 15769 15770 15771 15772 15773 15774 15775 15776 15777 15778 15779 15780 15781 15782 15783 15784 15785 15786 15787 15788 15789 15790 15791 15792 15793 15794 15795 15796 15797 15798 15799 15800 15801 15802 15803 15804 15805 15806 15807 15808 15809 15810 15811 15812 15813 15814 15815 15816 15817 15818 15819 15820 15821 15822 15823 15824 15825 15826 15827 15828 15829 15830 15831 15832 15833 15834 15835 15836 15837 15838 15839 15840 15841 15842 15843 15844 15845 15846 15847 15848 15849 15850 15851 15852 15853 15854 15855 15856 15857 15858 15859 15860 15861 15862 15863 15864 15865 15866 15867 15868 15869 15870 15871 15872 15873 15874 15875 15876 15877 15878 15879 15880 15881 15882 15883 15884 15885 15886 15887 15888 15889 15890 15891 15892 15893 15894 15895 15896 15897 15898 15899 15900 15901 15902 15903 15904 15905 15906 15907 15908 15909 15910 15911 15912 15913 15914 15915 15916 15917 15918 15919 15920 15921 15922 15923 15924 15925 15926 15927 15928 15929 15930 15931 15932 15933 15934 15935 15936 15937 15938 15939 15940 15941 15942 15943 15944 15945 15946 15947 15948 15949 15950 15951 15952 15953 15954 15955 15956 15957 15958 15959 15960 15961 15962 15963 15964 15965 15966 15967 15968 15969 15970 15971 15972 15973 15974 15975 15976 15977 15978 15979 15980 15981 15982 15983 15984 15985 15986 15987 15988 15989 15990 15991 15992 15993 15994 15995 15996 15997 15998 15999 16000 16001 16002 16003 16004 16005 16006 16007 16008 16009 16010 16011 16012 16013 16014 16015 16016 16017 16018 16019 16020 16021 16022 16023 16024 16025 16026 16027 16028 16029 16030 16031 16032 16033 16034 16035 16036 16037 16038 16039 16040 16041 16042 16043 16044 16045 16046 16047 16048 16049 16050 16051 16052 16053 16054 16055 16056 16057 16058 16059 16060 16061 16062 16063 16064 16065 16066 16067 16068 16069 16070 16071 16072 16073 16074 16075 16076 16077 16078 16079 16080 16081 16082 16083 16084 16085 16086 16087 16088 16089 16090 16091 16092 16093 16094 16095 16096 16097 16098 16099 16100 16101 16102 16103 16104 16105 16106 16107 16108 16109 16110 16111 16112 16113 16114 16115 16116 16117 16118 16119 16120 16121 16122 16123 16124 16125 16126 16127 16128 16129 16130 16131 16132 16133 16134 16135 16136 16137 16138 16139 16140 16141 16142 16143 16144 16145 16146 16147 16148 16149 16150 16151 16152 16153 16154 16155 16156 16157 16158 16159 16160 16161 16162 16163 16164 16165 16166 16167 16168 16169 16170 16171 16172 16173 16174 16175 16176 16177 16178 16179 16180 16181 16182 16183 16184 16185 16186 16187 16188 16189 16190 16191 16192 16193 16194 16195 16196 16197 16198 16199 16200 16201 16202 16203 16204 16205 16206 16207 16208 16209 16210 16211 16212 16213 16214 16215 16216 16217 16218 16219 16220 16221 16222 16223 16224 16225 16226 16227 16228 16229 16230 16231 16232 16233 16234 16235 16236 16237 16238 16239 16240 16241 16242 16243 16244 16245 16246 16247 16248 16249 16250 16251 16252 16253 16254 16255 16256 16257 16258 16259 16260 16261 16262 16263 16264 16265 16266 16267 16268 16269 16270 16271 16272 16273 16274 16275 16276 16277 16278 16279 16280 16281 16282 16283 16284 16285 16286 16287 16288 16289 16290 16291 16292 16293 16294 16295 16296 16297 16298 16299 16300 16301 16302 16303 16304 16305 16306 16307 16308 16309 16310 16311 16312 16313 16314 16315 16316 16317 16318 16319 16320 16321 16322 16323 16324 16325 16326 16327 16328 16329 16330 16331 16332 16333 16334 16335 16336 16337 16338 16339 16340 16341 16342 16343 16344 16345 16346 16347 16348 16349 16350 16351 16352 16353 16354 16355 16356 16357 16358 16359 16360 16361 16362 16363 16364 16365 16366 16367 16368 16369 16370 16371 16372 16373 16374 16375 16376 16377 16378 16379 16380 16381 16382 16383 16384 16385 16386 16387 16388 16389 16390 16391 16392 16393 16394 16395 16396 16397 16398 16399 16400 16401 16402 16403 16404 16405 16406 16407 16408 16409 16410 16411 16412 16413 16414 16415 16416 16417 16418 16419 16420 16421 16422 16423 16424 16425 16426 16427 16428 16429 16430 16431 16432 16433 16434 16435 16436 16437 16438 16439 16440 16441 16442 16443 16444 16445 16446 16447 16448 16449 16450 16451 16452 16453 16454 16455 16456 16457 16458 16459 16460 16461 16462 16463 16464 16465 16466 16467 16468 16469 16470 16471 16472 16473 16474 16475 16476 16477 16478 16479 16480 16481 16482 16483 16484 16485 16486 16487 16488 16489 16490 16491 16492 16493 16494 16495 16496 16497 16498 16499 16500 16501 16502 16503 16504 16505 16506 16507 16508 16509 16510 16511 16512 16513 16514 16515 16516 16517 16518 16519 16520 16521 16522 16523 16524 16525 16526 16527 16528 16529 16530 16531 16532 16533 16534 16535 16536 16537 16538 16539 16540 16541 16542 16543 16544 16545 16546 16547 16548 16549 16550 16551 16552 16553 16554 16555 16556 16557 16558 16559 16560 16561 16562 16563 16564 16565 16566 16567 16568 16569 16570 16571 16572 16573 16574 16575 16576 16577 16578 16579 16580 16581 16582 16583 16584 16585 16586 16587 16588 16589 16590 16591 16592 16593 16594 16595 16596 16597 16598 16599 16600 16601 16602 16603 16604 16605 16606 16607 16608 16609 16610 16611 16612 16613 16614 16615 16616 16617 16618 16619 16620 16621 16622 16623 16624 16625 16626 16627 16628 16629 16630 16631 16632 16633 16634 16635 16636 16637 16638 16639 16640 16641 16642 16643 16644 16645 16646 16647 16648 16649 16650 16651 16652 16653 16654 16655 16656 16657 16658 16659 16660 16661 16662 16663 16664 16665 16666 16667 16668 16669 16670 16671 16672 16673 16674 16675 16676 16677 16678 16679 16680 16681 16682 16683 16684 16685 16686 16687 16688 16689 16690 16691 16692 16693 16694 16695 16696 16697 16698 16699 16700 16701 16702 16703 16704 16705 16706 16707 16708 16709 16710 16711 16712 16713 16714 16715 16716 16717 16718 16719 16720 16721 16722 16723 16724 16725 16726 16727 16728 16729 16730 16731 16732 16733 16734 16735 16736 16737 16738 16739 16740 16741 16742 16743 16744 16745 16746 16747 16748 16749 16750 16751 16752 16753 16754 16755 16756 16757 16758 16759 16760 16761 16762 16763 16764 16765 16766 16767 16768 16769 16770 16771 16772 16773 16774 16775 16776 16777 16778 16779 16780 16781 16782 16783 16784 16785 16786 16787 16788 16789 16790 16791 16792 16793 16794 16795 16796 16797 16798 16799 16800 16801 16802 16803 16804 16805 16806 16807 16808 16809 16810 16811 16812 16813 16814 16815 16816 16817 16818 16819 16820 16821 16822 16823 16824 16825 16826 16827 16828 16829 16830 16831 16832 16833 16834 16835 16836 16837 16838 16839 16840 16841 16842 16843 16844 16845 16846 16847 16848 16849 16850 16851 16852 16853 16854 16855 16856 16857 16858 16859 16860 16861 16862 16863 16864 16865 16866 16867 16868 16869 16870 16871 16872 16873 16874 16875 16876 16877 16878 16879 16880 16881 16882 16883 16884 16885 16886 16887 16888 16889 16890 16891 16892 16893 16894 16895 16896 16897 16898 16899 16900 16901 16902 16903 16904 16905 16906 16907 16908 16909 16910 16911 16912 16913 16914 16915 16916 16917 16918 16919 16920 16921 16922 16923 16924 16925 16926 16927 16928 16929 16930 16931 16932 16933 16934 16935 16936 16937 16938 16939 16940 16941 16942 16943 16944 16945 16946 16947 16948 16949 16950 16951 16952 16953 16954 16955 16956 16957 16958 16959 16960 16961 16962 16963 16964 16965 16966 16967 16968 16969 16970 16971 16972 16973 16974 16975 16976 16977 16978 16979 16980 16981 16982 16983 16984 16985 16986 16987 16988 16989 16990 16991 16992 16993 16994 16995 16996 16997 16998 16999 17000 17001 17002 17003 17004 17005 17006 17007 17008 17009 17010 17011 17012 17013 17014 17015 17016 17017 17018 17019 17020 17021 17022 17023 17024 17025 17026 17027 17028 17029 17030 17031 17032 17033 17034 17035 17036 17037 17038 17039 17040 17041 17042 17043 17044 17045 17046 17047 17048 17049 17050 17051 17052 17053 17054 17055 17056 17057 17058 17059 17060 17061 17062 17063 17064 17065 17066 17067 17068 17069 17070 17071 17072 17073 17074 17075 17076 17077 17078 17079 17080 17081 17082 17083 17084 17085 17086 17087 17088 17089 17090 17091 17092 17093 17094 17095 17096 17097 17098 17099 17100 17101 17102 17103 17104 17105 17106 17107 17108 17109 17110 17111 17112 17113 17114 17115 17116 17117 17118 17119 17120 17121 17122 17123 17124 17125 17126 17127 17128 17129 17130 17131 17132 17133 17134 17135 17136 17137 17138 17139 17140 17141 17142 17143 17144 17145 17146 17147 17148 17149 17150 17151 17152 17153 17154 17155 17156 17157 17158 17159 17160 17161 17162 17163 17164 17165 17166 17167 17168 17169 17170 17171 17172 17173 17174 17175 17176 17177 17178 17179 17180 17181 17182 17183 17184 17185 17186 17187 17188 17189 17190 17191 17192 17193 17194 17195 17196 17197 17198 17199 17200 17201 17202 17203 17204 17205 17206 17207 17208 17209 17210 17211 17212 17213 17214 17215 17216 17217 17218 17219 17220 17221 17222 17223 17224 17225 17226 17227 17228 17229 17230 17231 17232 17233 17234 17235 17236 17237 17238 17239 17240 17241 17242 17243 17244 17245 17246 17247 17248 17249 17250 17251 17252 17253 17254 17255 17256 17257 17258 17259 17260 17261 17262 17263 17264 17265 17266 17267 17268 17269 17270 17271 17272 17273 17274 17275 17276 17277 17278 17279 17280 17281 17282 17283 17284 17285 17286 17287 17288 17289 17290 17291 17292 17293 17294 17295 17296 17297 17298 17299 17300 17301 17302 17303 17304 17305 17306 17307 17308 17309 17310 17311 17312 17313 17314 17315 17316 17317 17318 17319 17320 17321 17322 17323 17324 17325 17326 17327 17328 17329 17330 17331 17332 17333 17334 17335 17336 17337 17338 17339 17340 17341 17342 17343 17344 17345 17346 17347 17348 17349 17350 17351 17352 17353 17354 17355 17356 17357 17358 17359 17360 17361 17362 17363 17364 17365 17366 17367 17368 17369 17370 17371 17372 17373 17374 17375 17376 17377 17378 17379 17380 17381 17382 17383 17384 17385 17386 17387 17388 17389 17390 17391 17392 17393 17394 17395 17396 17397 17398 17399 17400 17401 17402 17403 17404 17405 17406 17407 17408 17409 17410 17411 17412 17413 17414 17415 17416 17417 17418 17419 17420 17421 17422 17423 17424 17425 17426 17427 17428 17429 17430 17431 17432 17433 17434 17435 17436 17437 17438 17439 17440 17441 17442 17443 17444 17445 17446 17447 17448 17449 17450 17451 17452 17453 17454 17455 17456 17457 17458 17459 17460 17461 17462 17463 17464 17465 17466 17467 17468 17469 17470 17471 17472 17473 17474 17475 17476 17477 17478 17479 17480 17481 17482 17483 17484 17485 17486 17487 17488 17489 17490 17491 17492 17493 17494 17495 17496 17497 17498 17499 17500 17501 17502 17503 17504 17505 17506 17507 17508 17509 17510 17511 17512 17513 17514 17515 17516 17517 17518 17519 17520 17521 17522 17523 17524 17525 17526 17527 17528 17529 17530 17531 17532 17533 17534 17535 17536 17537 17538 17539 17540 17541 17542 17543 17544 17545 17546 17547 17548 17549 17550 17551 17552 17553 17554 17555 17556 17557 17558 17559 17560 17561 17562 17563 17564 17565 17566 17567 17568 17569 17570 17571 17572 17573 17574 17575 17576 17577 17578 17579 17580 17581 17582 17583 17584 17585 17586 17587 17588 17589 17590 17591 17592 17593 17594 17595 17596 17597 17598 17599 17600 17601 17602 17603 17604 17605 17606 17607 17608 17609 17610 17611 17612 17613 17614 17615 17616 17617 17618 17619 17620 17621 17622 17623 17624 17625 17626 17627 17628 17629 17630 17631 17632 17633 17634 17635 17636 17637 17638 17639 17640 17641 17642 17643 17644 17645 17646 17647 17648 17649 17650 17651 17652 17653 17654 17655 17656 17657 17658 17659 17660 17661 17662 17663 17664 17665 17666 17667 17668 17669 17670 17671 17672 17673 17674 17675 17676 17677 17678 17679 17680 17681 17682 17683 17684 17685 17686 17687 17688 17689 17690 17691 17692 17693 17694 17695 17696 17697 17698 17699 17700 17701 17702 17703 17704 17705 17706 17707 17708 17709 17710 17711 17712 17713 17714 17715 17716 17717 17718 17719 17720 17721 17722 17723 17724 17725 17726 17727 17728 17729 17730 17731 17732 17733 17734 17735 17736 17737 17738 17739 17740 17741 17742 17743 17744 17745 17746 17747 17748 17749 17750 17751 17752 17753 17754 17755 17756 17757 17758 17759 17760 17761 17762 17763 17764 17765 17766 17767 17768 17769 17770 17771 17772 17773 17774 17775 17776 17777 17778 17779 17780 17781 17782 17783 17784 17785 17786 17787 17788 17789 17790 17791 17792 17793 17794 17795 17796 17797 17798 17799 17800 17801 17802 17803 17804 17805 17806 17807 17808 17809 17810 17811 17812 17813 17814 17815 17816 17817 17818 17819 17820 17821 17822 17823 17824 17825 17826 17827 17828 17829 17830 17831 17832 17833 17834 17835 17836 17837 17838 17839 17840 17841 17842 17843 17844 17845 17846 17847 17848 17849 17850 17851 17852 17853 17854 17855 17856 17857 17858 17859 17860 17861 17862 17863 17864 17865 17866 17867 17868 17869 17870 17871 17872 17873 17874 17875 17876 17877 17878 17879 17880 17881 17882 17883 17884 17885 17886 17887 17888 17889 17890 17891 17892 17893 17894 17895 17896 17897 17898 17899 17900 17901 17902 17903 17904 17905 17906 17907 17908 17909 17910 17911 17912 17913 17914 17915 17916 17917 17918 17919 17920 17921 17922 17923 17924 17925 17926 17927 17928 17929 17930 17931 17932 17933 17934 17935 17936 17937 17938 17939 17940 17941 17942 17943 17944 17945 17946 17947 17948 17949 17950 17951 17952 17953 17954 17955 17956 17957 17958 17959 17960 17961 17962 17963 17964 17965 17966 17967 17968 17969 17970 17971 17972 17973 17974 17975 17976 17977 17978 17979 17980 17981 17982 17983 17984 17985 17986 17987 17988 17989 17990 17991 17992 17993 17994 17995 17996 17997 17998 17999 18000 18001 18002 18003 18004 18005 18006 18007 18008 18009 18010 18011 18012 18013 18014 18015 18016 18017 18018 18019 18020 18021 18022 18023 18024 18025 18026 18027 18028 18029 18030 18031 18032 18033 18034 18035 18036 18037 18038 18039 18040 18041 18042 18043 18044 18045 18046 18047 18048 18049 18050 18051 18052 18053 18054 18055 18056 18057 18058 18059 18060 18061 18062 18063 18064 18065 18066 18067 18068 18069 18070 18071 18072 18073 18074 18075 18076 18077 18078 18079 18080 18081 18082 18083 18084 18085 18086 18087 18088 18089 18090 18091 18092 18093 18094 18095 18096 18097 18098 18099 18100 18101 18102 18103 18104 18105 18106 18107 18108 18109 18110 18111 18112 18113 18114 18115 18116 18117 18118 18119 18120 18121 18122 18123 18124 18125 18126 18127 18128 18129 18130 18131 18132 18133 18134 18135 18136 18137 18138 18139 18140 18141 18142 18143 18144 18145 18146 18147 18148 18149 18150 18151 18152 18153 18154 18155 18156 18157 18158 18159 18160 18161 18162 18163 18164 18165 18166 18167 18168 18169 18170 18171 18172 18173 18174 18175 18176 18177 18178 18179 18180 18181 18182 18183 18184 18185 18186 18187 18188 18189 18190 18191 18192 18193 18194 18195 18196 18197 18198 18199 18200 18201 18202 18203 18204 18205 18206 18207 18208 18209 18210 18211 18212 18213 18214 18215 18216 18217 18218 18219 18220 18221 18222 18223 18224 18225 18226 18227 18228 18229 18230 18231 18232 18233 18234 18235 18236 18237 18238 18239 18240 18241 18242 18243 18244 18245 18246 18247 18248 18249 18250 18251 18252 18253 18254 18255 18256 18257 18258 18259 18260 18261 18262 18263 18264 18265 18266 18267 18268 18269 18270 18271 18272 18273 18274 18275 18276 18277 18278 18279 18280 18281 18282 18283 18284 18285 18286 18287 18288 18289 18290 18291 18292 18293 18294 18295 18296 18297 18298 18299 18300 18301 18302 18303 18304 18305 18306 18307 18308 18309 18310 18311 18312 18313 18314 18315 18316 18317 18318 18319 18320 18321 18322 18323 18324 18325 18326 18327 18328 18329 18330 18331 18332 18333 18334 18335 18336 18337 18338 18339 18340 18341 18342 18343 18344 18345 18346 18347 18348 18349 18350 18351 18352 18353 18354 18355 18356 18357 18358 18359 18360 18361 18362 18363 18364 18365 18366 18367 18368 18369 18370 18371 18372 18373 18374 18375 18376 18377 18378 18379 18380 18381 18382 18383 18384 18385 18386 18387 18388 18389 18390 18391 18392 18393 18394 18395 18396 18397 18398 18399 18400 18401 18402 18403 18404 18405 18406 18407 18408 18409 18410 18411 18412 18413 18414 18415 18416 18417 18418 18419 18420 18421 18422 18423 18424 18425 18426 18427 18428 18429 18430 18431 18432 18433 18434 18435 18436 18437 18438 18439 18440 18441 18442 18443 18444 18445 18446 18447 18448 18449 18450 18451 18452 18453 18454 18455 18456 18457 18458 18459 18460 18461 18462 18463 18464 18465 18466 18467 18468 18469 18470 18471 18472 18473 18474 18475 18476 18477 18478 18479 18480 18481 18482 18483 18484 18485 18486 18487 18488 18489 18490 18491 18492 18493 18494 18495 18496 18497 18498 18499 18500 18501 18502 18503 18504 18505 18506 18507 18508 18509 18510 18511 18512 18513 18514 18515 18516 18517 18518 18519 18520 18521 18522 18523 18524 18525 18526 18527 18528 18529 18530 18531 18532 18533 18534 18535 18536 18537 18538 18539 18540 18541 18542 18543 18544 18545 18546 18547 18548 18549 18550 18551 18552 18553 18554 18555 18556 18557 18558 18559 18560 18561 18562 18563 18564 18565 18566 18567 18568 18569 18570 18571 18572 18573 18574 18575 18576 18577 18578 18579 18580 18581 18582 18583 18584 18585 18586 18587 18588 18589 18590 18591 18592 18593 18594 18595 18596 18597 18598 18599 18600 18601 18602 18603 18604 18605 18606 18607 18608 18609 18610 18611 18612 18613 18614 18615 18616 18617 18618 18619 18620 18621 18622 18623 18624 18625 18626 18627 18628 18629 18630 18631 18632 18633 18634 18635 18636 18637 18638 18639 18640 18641 18642 18643 18644 18645 18646 18647 18648 18649 18650 18651 18652 18653 18654 18655 18656 18657 18658 18659 18660 18661 18662 18663 18664 18665 18666 18667 18668 18669 18670 18671 18672 18673 18674 18675 18676 18677 18678 18679 18680 18681 18682 18683 18684 18685 18686 18687 18688 18689 18690 18691 18692 18693 18694 18695 18696 18697 18698 18699 18700 18701 18702 18703 18704 18705 18706 18707 18708 18709 18710 18711 18712 18713 18714 18715 18716 18717 18718 18719 18720 18721 18722 18723 18724 18725 18726 18727 18728 18729 18730 18731 18732 18733 18734 18735 18736 18737 18738 18739 18740 18741 18742 18743 18744 18745 18746 18747 18748 18749 18750 18751 18752 18753 18754 18755 18756 18757 18758 18759 18760 18761 18762 18763 18764 18765 18766 18767 18768 18769 18770 18771 18772 18773 18774 18775 18776 18777 18778 18779 18780 18781 18782 18783 18784 18785 18786 18787 18788 18789 18790 18791 18792 18793 18794 18795 18796 18797 18798 18799 18800 18801 18802 18803 18804 18805 18806 18807 18808 18809 18810 18811 18812 18813 18814 18815 18816 18817 18818 18819 18820 18821 18822 18823 18824 18825 18826 18827 18828 18829 18830 18831 18832 18833 18834 18835 18836 18837 18838 18839 18840 18841 18842 18843 18844 18845 18846 18847 18848 18849 18850 18851 18852 18853 18854 18855 18856 18857 18858 18859 18860 18861 18862 18863 18864 18865 18866 18867 18868 18869 18870 18871 18872 18873 18874 18875 18876 18877 18878 18879 18880 18881 18882 18883 18884 18885 18886 18887 18888 18889 18890 18891 18892 18893 18894 18895 18896 18897 18898 18899 18900 18901 18902 18903 18904 18905 18906 18907 18908 18909 18910 18911 18912 18913 18914 18915 18916 18917 18918 18919 18920 18921 18922 18923 18924 18925 18926 18927 18928 18929 18930 18931 18932 18933 18934 18935 18936 18937 18938 18939 18940 18941 18942 18943 18944 18945 18946 18947 18948 18949 18950 18951 18952 18953 18954 18955 18956 18957 18958 18959 18960 18961 18962 18963 18964 18965 18966 18967 18968 18969 18970 18971 18972 18973 18974 18975 18976 18977 18978 18979 18980 18981 18982 18983 18984 18985 18986 18987 18988 18989 18990 18991 18992 18993 18994 18995 18996 18997 18998 18999 19000 19001 19002 19003 19004 19005 19006 19007 19008 19009 19010 19011 19012 19013 19014 19015 19016 19017 19018 19019 19020 19021 19022 19023 19024 19025 19026 19027 19028 19029 19030 19031 19032 19033 19034 19035 19036 19037 19038 19039 19040 19041 19042 19043 19044 19045 19046 19047 19048 19049 19050 19051 19052 19053 19054 19055 19056 19057 19058 19059 19060 19061 19062 19063 19064 19065 19066 19067 19068 19069 19070 19071 19072 19073 19074 19075 19076 19077 19078 19079 19080 19081 19082 19083 19084 19085 19086 19087 19088 19089 19090 19091 19092 19093 19094 19095 19096 19097 19098 19099 19100 19101 19102 19103 19104 19105 19106 19107 19108 19109 19110 19111 19112 19113 19114 19115 19116 19117 19118 19119 19120 19121 19122 19123 19124 19125 19126 19127 19128 19129 19130 19131 19132 19133 19134 19135 19136 19137 19138 19139 19140 19141 19142 19143 19144 19145 19146 19147 19148 19149 19150 19151 19152 19153 19154 19155 19156 19157 19158 19159 19160 19161 19162 19163 19164 19165 19166 19167 19168 19169 19170 19171 19172 19173 19174 19175 19176 19177 19178 19179 19180 19181 19182 19183 19184 19185 19186 19187 19188 19189 19190 19191 19192 19193 19194 19195 19196 19197 19198 19199 19200 19201 19202 19203 19204 19205 19206 19207 19208 19209 19210 19211 19212 19213 19214 19215 19216 19217 19218 19219 19220 19221 19222 19223 19224 19225 19226 19227 19228 19229 19230 19231 19232 19233 19234 19235 19236 19237 19238 19239 19240 19241 19242 19243 19244 19245 19246 19247 19248 19249 19250 19251 19252 19253 19254 19255 19256 19257 19258 19259 19260 19261 19262 19263 19264 19265 19266 19267 19268 19269 19270 19271 19272 19273 19274 19275 19276 19277 19278 19279 19280 19281 19282 19283 19284 19285 19286 19287 19288 19289 19290 19291 19292 19293 19294 19295 19296 19297 19298 19299 19300 19301 19302 19303 19304 19305 19306 19307 19308 19309 19310 19311 19312 19313 19314 19315 19316 19317 19318 19319 19320 19321 19322 19323 19324 19325 19326 19327 19328 19329 19330 19331 19332 19333 19334 19335 19336 19337 19338 19339 19340 19341 19342 19343 19344 19345 19346 19347 19348 19349 19350 19351 19352 19353 19354 19355 19356 19357 19358 19359 19360 19361 19362 19363 19364 19365 19366 19367 19368 19369 19370 19371 19372 19373 19374 19375 19376 19377 19378 19379 19380 19381 19382 19383 19384 19385 19386 19387 19388 19389 19390 19391 19392 19393 19394 19395 19396 19397 19398 19399 19400 19401 19402 19403 19404 19405 19406 19407 19408 19409 19410 19411 19412 19413 19414 19415 19416 19417 19418 19419 19420 19421 19422 19423 19424 19425 19426 19427 19428 19429 19430 19431 19432 19433 19434 19435 19436 19437 19438 19439 19440 19441 19442 19443 19444 19445 19446 19447 19448 19449 19450 19451 19452 19453 19454 19455 19456 19457 19458 19459 19460 19461 19462 19463 19464 19465 19466 19467 19468 19469 19470 19471 19472 19473 19474 19475 19476 19477 19478 19479 19480 19481 19482 19483 19484 19485 19486 19487 19488 19489 19490 19491 19492 19493 19494 19495 19496 19497 19498 19499 19500 19501 19502 19503 19504 19505 19506 19507 19508 19509 19510 19511 19512 19513 19514 19515 19516 19517 19518 19519 19520 19521 19522 19523 19524 19525 19526 19527 19528 19529 19530 19531 19532 19533 19534 19535 19536 19537 19538 19539 19540 19541 19542 19543 19544 19545 19546 19547 19548 19549 19550 19551 19552 19553 19554 19555 19556 19557 19558 19559 19560 19561 19562 19563 19564 19565 19566 19567 19568 19569 19570 19571 19572 19573 19574 19575 19576 19577 19578 19579 19580 19581 19582 19583 19584 19585 19586 19587 19588 19589 19590 19591 19592 19593 19594 19595 19596 19597 19598 19599 19600 19601 19602 19603 19604 19605 19606 19607 19608 19609 19610 19611 19612 19613 19614 19615 19616 19617 19618 19619 19620 19621 19622 19623 19624 19625 19626 19627 19628 19629 19630 19631 19632 19633 19634 19635 19636 19637 19638 19639 19640 19641 19642 19643 19644 19645 19646 19647 19648 19649 19650 19651 19652 19653 19654 19655 19656 19657 19658 19659 19660 19661 19662 19663 19664 19665 19666 19667 19668 19669 19670 19671 19672 19673 19674 19675 19676 19677 19678 19679 19680 19681 19682 19683 19684 19685 19686 19687 19688 19689 19690 19691 19692 19693 19694 19695 19696 19697 19698 19699 19700 19701 19702 19703 19704 19705 19706 19707 19708 19709 19710 19711 19712 19713 19714 19715 19716 19717 19718 19719 19720 19721 19722 19723 19724 19725 19726 19727 19728 19729 19730 19731 19732 19733 19734 19735 19736 19737 19738 19739 19740 19741 19742 19743 19744 19745 19746 19747 19748 19749 19750 19751 19752 19753 19754 19755 19756 19757 19758 19759 19760 19761 19762 19763 19764 19765 19766 19767 19768 19769 19770 19771 19772 19773 19774 19775 19776 19777 19778 19779 19780 19781 19782 19783 19784 19785 19786 19787 19788 19789 19790 19791 19792 19793 19794 19795 19796 19797 19798 19799 19800 19801 19802 19803 19804 19805 19806 19807 19808 19809 19810 19811 19812 19813 19814 19815 19816 19817 19818 19819 19820 19821 19822 19823 19824 19825 19826 19827 19828 19829 19830 19831 19832 19833 19834 19835 19836 19837 19838 19839 19840 19841 19842 19843 19844 19845 19846 19847 19848 19849 19850 19851 19852 19853 19854 19855 19856 19857 19858 19859 19860 19861 19862 19863 19864 19865 19866 19867 19868 19869 19870 19871 19872 19873 19874 19875 19876 19877 19878 19879 19880 19881 19882 19883 19884 19885 19886 19887 19888 19889 19890 19891 19892 19893 19894 19895 19896 19897 19898 19899 19900 19901 19902 19903 19904 19905 19906 19907 19908 19909 19910 19911 19912 19913 19914 19915 19916 19917 19918 19919 19920 19921 19922 19923 19924 19925 19926 19927 19928 19929 19930 19931 19932 19933 19934 19935 19936 19937 19938 19939 19940 19941 19942 19943 19944 19945 19946 19947 19948 19949 19950 19951 19952 19953 19954 19955 19956 19957 19958 19959 19960 19961 19962 19963 19964 19965 19966 19967 19968 19969 19970 19971 19972 19973 19974 19975 19976 19977 19978 19979 19980 19981 19982 19983 19984 19985 19986 19987 19988 19989 19990 19991 19992 19993 19994 19995 19996 19997 19998 19999 20000 20001 20002 20003 20004 20005 20006 20007 20008 20009 20010 20011 20012 20013 20014 20015 20016 20017 20018 20019 20020 20021 20022 20023 20024 20025 20026 20027 20028 20029 20030 20031 20032 20033 20034 20035 20036 20037 20038 20039 20040 20041 20042 20043 20044 20045 20046 20047 20048 20049 20050 20051 20052 20053 20054 20055 20056 20057 20058 20059 20060 20061 20062 20063 20064 20065 20066 20067 20068 20069 20070 20071 20072 20073 20074 20075 20076 20077 20078 20079 20080 20081 20082 20083 20084 20085 20086 20087 20088 20089 20090 20091 20092 20093 20094 20095 20096 20097 20098 20099 20100 20101 20102 20103 20104 20105 20106 20107 20108 20109 20110 20111 20112 20113 20114 20115 20116 20117 20118 20119 20120 20121 20122 20123 20124 20125 20126 20127 20128 20129 20130 20131 20132 20133 20134 20135 20136 20137 20138 20139 20140 20141 20142 20143 20144 20145 20146 20147 20148 20149 20150 20151 20152 20153 20154 20155 20156 20157 20158 20159 20160 20161 20162 20163 20164 20165 20166 20167 20168 20169 20170 20171 20172 20173 20174 20175 20176 20177 20178 20179 20180 20181 20182 20183 20184 20185 20186 20187 20188 20189 20190 20191 20192 20193 20194 20195 20196 20197 20198 20199 20200 20201 20202 20203 20204 20205 20206 20207 20208 20209 20210 20211 20212 20213 20214 20215 20216 20217 20218 20219 20220 20221 20222 20223 20224 20225 20226 20227 20228 20229 20230 20231 20232 20233 20234 20235 20236 20237 20238 20239 20240 20241 20242 20243 20244 20245 20246 20247 20248 20249 20250 20251 20252 20253 20254 20255 20256 20257 20258 20259 20260 20261 20262 20263 20264 20265 20266 20267 20268 20269 20270 20271 20272 20273 20274 20275 20276 20277 20278 20279 20280 20281 20282 20283 20284 20285 20286 20287 20288 20289 20290 20291 20292 20293 20294 20295 20296 20297 20298 20299 20300 20301 20302 20303 20304 20305 20306 20307 20308 20309 20310 20311 20312 20313 20314 20315 20316 20317 20318 20319 20320 20321 20322 20323 20324 20325 20326 20327 20328 20329 20330 20331 20332 20333 20334 20335 20336 20337 20338 20339 20340 20341 20342 20343 20344 20345 20346 20347 20348 20349 20350 20351 20352 20353 20354 20355 20356 20357 20358 20359 20360 20361 20362 20363 20364 20365 20366 20367 20368 20369 20370 20371 20372 20373 20374 20375 20376 20377 20378 20379 20380 20381 20382 20383 20384 20385 20386 20387 20388 20389 20390 20391 20392 20393 20394 20395 20396 20397 20398 20399 20400 20401 20402 20403 20404 20405 20406 20407 20408 20409 20410 20411 20412 20413 20414 20415 20416 20417 20418 20419 20420 20421 20422 20423 20424 20425 20426 20427 20428 20429 20430 20431 20432 20433 20434 20435 20436 20437 20438 20439 20440 20441 20442 20443 20444 20445 20446 20447 20448 20449 20450 20451 20452 20453 20454 20455 20456 20457 20458 20459 20460 20461 20462 20463 20464 20465 20466 20467 20468 20469 20470 20471 20472 20473 20474 20475 20476 20477 20478 20479 20480 20481 20482 20483 20484 20485 20486 20487 20488 20489 20490 20491 20492 20493 20494 20495 20496 20497 20498 20499 20500 20501 20502 20503 20504 20505 20506 20507 20508 20509 20510 20511 20512 20513 20514 20515 20516 20517 20518 20519 20520 20521 20522 20523 20524 20525 20526 20527 20528 20529 20530 20531 20532 20533 20534 20535 20536 20537 20538 20539 20540 20541 20542 20543 20544 20545 20546 20547 20548 20549 20550 20551 20552 20553 20554 20555 20556 20557 20558 20559 20560 20561 20562 20563 20564 20565 20566 20567 20568 20569 20570 20571 20572 20573 20574 20575 20576 20577 20578 20579 20580 20581 20582 20583 20584 20585 20586 20587 20588 20589 20590 20591 20592 20593 20594 20595 20596 20597 20598 20599 20600 20601 20602 20603 20604 20605 20606 20607 20608 20609 20610 20611 20612 20613 20614 20615 20616 20617 20618 20619 20620 20621 20622 20623 20624 20625 20626 20627 20628 20629 20630 20631 20632 20633 20634 20635 20636 20637 20638 20639 20640 20641 20642 20643 20644 20645 20646 20647 20648 20649 20650 20651 20652 20653 20654 20655 20656 20657 20658 20659 20660 20661 20662 20663 20664 20665 20666 20667 20668 20669 20670 20671 20672 20673 20674 20675 20676 20677 20678 20679 20680 20681 20682 20683 20684 20685 20686 20687 20688 20689 20690 20691 20692 20693 20694 20695 20696 20697 20698 20699 20700 20701 20702 20703 20704 20705 20706 20707 20708 20709 20710 20711 20712 20713 20714 20715 20716 20717 20718 20719 20720 20721 20722 20723 20724 20725 20726 20727 20728 20729 20730 20731 20732 20733 20734 20735 20736 20737 20738 20739 20740 20741 20742 20743 20744 20745 20746 20747 20748 20749 20750 20751 20752 20753 20754 20755 20756 20757 20758 20759 20760 20761 20762 20763 20764 20765 20766 20767 20768 20769 20770 20771 20772 20773 20774 20775 20776 20777 20778 20779 20780 20781 20782 20783 20784 20785 20786 20787 20788 20789 20790 20791 20792 20793 20794 20795 20796 20797 20798 20799 20800 20801 20802 20803 20804 20805 20806 20807 20808 20809 20810 20811 20812 20813 20814 20815 20816 20817 20818 20819 20820 20821 20822 20823 20824 20825 20826 20827 20828 20829 20830 20831 20832 20833 20834 20835 20836 20837 20838 20839 20840 20841 20842 20843 20844 20845 20846 20847 20848 20849 20850 20851 20852 20853 20854 20855 20856 20857 20858 20859 20860 20861 20862 20863 20864 20865 20866 20867 20868 20869 20870 20871 20872 20873 20874 20875 20876 20877 20878 20879 20880 20881 20882 20883 20884 20885 20886 20887 20888 20889 20890 20891 20892 20893 20894 20895 20896 20897 20898 20899 20900 20901 20902 20903 20904 20905 20906 20907 20908 20909 20910 20911 20912 20913 20914 20915 20916 20917 20918 20919 20920 20921 20922 20923 20924 20925 20926 20927 20928 20929 20930 20931 20932 20933 20934 20935 20936 20937 20938 20939 20940 20941 20942 20943 20944 20945 20946 20947 20948 20949 20950 20951 20952 20953 20954 20955 20956 20957 20958 20959 20960 20961 20962 20963 20964 20965 20966 20967 20968 20969 20970 20971 20972 20973 20974 20975 20976 20977 20978 20979 20980 20981 20982 20983 20984 20985 20986 20987 20988 20989 20990 20991 20992 20993 20994 20995 20996 20997 20998 20999 21000 21001 21002 21003 21004 21005 21006 21007 21008 21009 21010 21011 21012 21013 21014 21015 21016 21017 21018 21019 21020 21021 21022 21023 21024 21025 21026 21027 21028 21029 21030 21031 21032 21033 21034 21035 21036 21037 21038 21039 21040 21041 21042 21043 21044 21045 21046 21047 21048 21049 21050 21051 21052 21053 21054 21055 21056 21057 21058 21059 21060 21061 21062 21063 21064 21065 21066 21067 21068 21069 21070 21071 21072 21073 21074 21075 21076 21077 21078 21079 21080 21081 21082 21083 21084 21085 21086 21087 21088 21089 21090 21091 21092 21093 21094 21095 21096 21097 21098 21099 21100 21101 21102 21103 21104 21105 21106 21107 21108 21109 21110 21111 21112 21113 21114 21115 21116 21117 21118 21119 21120 21121 21122 21123 21124 21125 21126 21127 21128 21129 21130 21131 21132 21133 21134 21135 21136 21137 21138 21139 21140 21141 21142 21143 21144 21145 21146 21147 21148 21149 21150 21151 21152 21153 21154 21155 21156 21157 21158 21159 21160 21161 21162 21163 21164 21165 21166 21167 21168 21169 21170 21171 21172 21173 21174 21175 21176 21177 21178 21179 21180 21181 21182 21183 21184 21185 21186 21187 21188 21189 21190 21191 21192 21193 21194 21195 21196 21197 21198 21199 21200 21201 21202 21203 21204 21205 21206 21207 21208 21209 21210 21211 21212 21213 21214 21215 21216 21217 21218 21219 21220 21221 21222 21223 21224 21225 21226 21227 21228 21229 21230 21231 21232 21233 21234 21235 21236 21237 21238 21239 21240 21241 21242 21243 21244 21245 21246 21247 21248 21249 21250 21251 21252 21253 21254 21255 21256 21257 21258 21259 21260 21261 21262 21263 21264 21265 21266 21267 21268 21269 21270 21271 21272 21273 21274 21275 21276 21277 21278 21279 21280 21281 21282 21283 21284 21285 21286 21287 21288 21289 21290 21291 21292 21293 21294 21295 21296 21297 21298 21299 21300 21301 21302 21303 21304 21305 21306 21307 21308 21309 21310 21311 21312 21313 21314 21315 21316 21317 21318 21319 21320 21321 21322 21323 21324 21325 21326 21327 21328 21329 21330 21331 21332 21333 21334 21335 21336 21337 21338 21339 21340 21341 21342 21343 21344 21345 21346 21347 21348 21349 21350 21351 21352 21353 21354 21355 21356 21357 21358 21359 21360 21361 21362 21363 21364 21365 21366 21367 21368 21369 21370 21371 21372 21373 21374 21375 21376 21377 21378 21379 21380 21381 21382 21383 21384 21385 21386 21387 21388 21389 21390 21391 21392 21393 21394 21395 21396 21397 21398 21399 21400 21401 21402 21403 21404 21405 21406 21407 21408 21409 21410 21411 21412 21413 21414 21415 21416 21417 21418 21419 21420 21421 21422 21423 21424 21425 21426 21427 21428 21429 21430 21431 21432 21433 21434 21435 21436 21437 21438 21439 21440 21441 21442 21443 21444 21445 21446 21447 21448 21449 21450 21451 21452 21453 21454 21455 21456 21457 21458 21459 21460 21461 21462 21463 21464 21465 21466 21467 21468 21469 21470 21471 21472 21473 21474 21475 21476 21477 21478 21479 21480 21481 21482 21483 21484 21485 21486 21487 21488 21489 21490 21491 21492 21493 21494 21495 21496 21497 21498 21499 21500 21501 21502 21503 21504 21505 21506 21507 21508 21509 21510 21511 21512 21513 21514 21515 21516 21517 21518 21519 21520 21521 21522 21523 21524 21525 21526 21527 21528 21529 21530 21531 21532 21533 21534 21535 21536 21537 21538 21539 21540 21541 21542 21543 21544 21545 21546 21547 21548 21549 21550 21551 21552 21553 21554 21555 21556 21557 21558 21559 21560 21561 21562 21563 21564 21565 21566 21567 21568 21569 21570 21571 21572 21573 21574 21575 21576 21577 21578 21579 21580 21581 21582 21583 21584 21585 21586 21587 21588 21589 21590 21591 21592 21593 21594 21595 21596 21597 21598 21599 21600 21601 21602 21603 21604 21605 21606 21607 21608 21609 21610 21611 21612 21613 21614 21615 21616 21617 21618 21619 21620 21621 21622 21623 21624 21625 21626 21627 21628 21629 21630 21631 21632 21633 21634 21635 21636 21637 21638 21639 21640 21641 21642 21643 21644 21645 21646 21647 21648 21649 21650 21651 21652 21653 21654 21655 21656 21657 21658 21659 21660 21661 21662 21663 21664 21665 21666 21667 21668 21669 21670 21671 21672 21673 21674 21675 21676 21677 21678 21679 21680 21681 21682 21683 21684 21685 21686 21687 21688 21689 21690 21691 21692 21693 21694 21695 21696 21697 21698 21699 21700 21701 21702 21703 21704 21705 21706 21707 21708 21709 21710 21711 21712 21713 21714 21715 21716 21717 21718 21719 21720 21721 21722 21723 21724 21725 21726 21727 21728 21729 21730 21731 21732 21733 21734 21735 21736 21737 21738 21739 21740 21741 21742 21743 21744 21745 21746 21747 21748 21749 21750 21751 21752 21753 21754 21755 21756 21757 21758 21759 21760 21761 21762 21763 21764 21765 21766 21767 21768 21769 21770 21771 21772 21773 21774 21775 21776 21777 21778 21779 21780 21781 21782 21783 21784 21785 21786 21787 21788 21789 21790 21791 21792 21793 21794 21795 21796 21797 21798 21799 21800 21801 21802 21803 21804 21805 21806 21807 21808 21809 21810 21811 21812 21813 21814 21815 21816 21817 21818 21819 21820 21821 21822 21823 21824 21825 21826 21827 21828 21829 21830 21831 21832 21833 21834 21835 21836 21837 21838 21839 21840 21841 21842 21843 21844 21845 21846 21847 21848 21849 21850 21851 21852 21853 21854 21855 21856 21857 21858 21859 21860 21861 21862 21863 21864 21865 21866 21867 21868 21869 21870 21871 21872 21873 21874 21875 21876 21877 21878 21879 21880 21881 21882 21883 21884 21885 21886 21887 21888 21889 21890 21891 21892 21893 21894 21895 21896 21897 21898 21899 21900 21901 21902 21903 21904 21905 21906 21907 21908 21909 21910 21911 21912 21913 21914 21915 21916 21917 21918 21919 21920 21921 21922 21923 21924 21925 21926 21927 21928 21929 21930 21931 21932 21933 21934 21935 21936 21937 21938 21939 21940 21941 21942 21943 21944 21945 21946 21947 21948 21949 21950 21951 21952 21953 21954 21955 21956 21957 21958 21959 21960 21961 21962 21963 21964 21965 21966 21967 21968 21969 21970 21971 21972 21973 21974 21975 21976 21977 21978 21979 21980 21981 21982 21983 21984 21985 21986 21987 21988 21989 21990 21991 21992 21993 21994 21995 21996 21997 21998 21999 22000 22001 22002 22003 22004 22005 22006 22007 22008 22009 22010 22011 22012 22013 22014 22015 22016 22017 22018 22019 22020 22021 22022 22023 22024 22025 22026 22027 22028 22029 22030 22031 22032 22033 22034 22035 22036 22037 22038 22039 22040 22041 22042 22043 22044 22045 22046 22047 22048 22049 22050 22051 22052 22053 22054 22055 22056 22057 22058 22059 22060 22061 22062 22063 22064 22065 22066 22067 22068 22069 22070 22071 22072 22073 22074 22075 22076 22077 22078 22079 22080 22081 22082 22083 22084 22085 22086 22087 22088 22089 22090 22091 22092 22093 22094 22095 22096 22097 22098 22099 22100 22101 22102 22103 22104 22105 22106 22107 22108 22109 22110 22111 22112 22113 22114 22115 22116 22117 22118 22119 22120 22121 22122 22123 22124 22125 22126 22127 22128 22129 22130 22131 22132 22133 22134 22135 22136 22137 22138 22139 22140 22141 22142 22143 22144 22145 22146 22147 22148 22149 22150 22151 22152 22153 22154 22155 22156 22157 22158 22159 22160 22161 22162 22163 22164 22165 22166 22167 22168 22169 22170 22171 22172 22173 22174 22175 22176 22177 22178 22179 22180 22181 22182 22183 22184 22185 22186 22187 22188 22189 22190 22191 22192 22193 22194 22195 22196 22197 22198 22199 22200 22201 22202 22203 22204 22205 22206 22207 22208 22209 22210 22211 22212 22213 22214 22215 22216 22217 22218 22219 22220 22221 22222 22223 22224 22225 22226 22227 22228 22229 22230 22231 22232 22233 22234 22235 22236 22237 22238 22239 22240 22241 22242 22243 22244 22245 22246 22247 22248 22249 22250 22251 22252 22253 22254 22255 22256 22257 22258 22259 22260 22261 22262 22263 22264 22265 22266 22267 22268 22269 22270 22271 22272 22273 22274 22275 22276 22277 22278 22279 22280 22281 22282 22283 22284 22285 22286 22287 22288 22289 22290 22291 22292 22293 22294 22295 22296 22297 22298 22299 22300 22301 22302 22303 22304 22305 22306 22307 22308 22309 22310 22311 22312 22313 22314 22315 22316 22317 22318 22319 22320 22321 22322 22323 22324 22325 22326 22327 22328 22329 22330 22331 22332 22333 22334 22335 22336 22337 22338 22339 22340 22341 22342 22343 22344 22345 22346 22347 22348 22349 22350 22351 22352 22353 22354 22355 22356 22357 22358 22359 22360 22361 22362 22363 22364 22365 22366 22367 22368 22369 22370 22371 22372 22373 22374 22375 22376 22377 22378 22379 22380 22381 22382 22383 22384 22385 22386 22387 22388 22389 22390 22391 22392 22393 22394 22395 22396 22397 22398 22399 22400 22401 22402 22403 22404 22405 22406 22407 22408 22409 22410 22411 22412 22413 22414 22415 22416 22417 22418 22419 22420 22421 22422 22423 22424 22425 22426 22427 22428 22429 22430 22431 22432 22433 22434 22435 22436 22437 22438 22439 22440 22441 22442 22443 22444 22445 22446 22447 22448 22449 22450 22451 22452 22453 22454 22455 22456 22457 22458 22459 22460 22461 22462 22463 22464 22465 22466 22467 22468 22469 22470 22471 22472 22473 22474 22475 22476 22477 22478 22479 22480 22481 22482 22483 22484 22485 22486 22487 22488 22489 22490 22491 22492 22493 22494 22495 22496 22497 22498 22499 22500 22501 22502 22503 22504 22505 22506 22507 22508 22509 22510 22511 22512 22513 22514 22515 22516 22517 22518 22519 22520 22521 22522 22523 22524 22525 22526 22527 22528 22529 22530 22531 22532 22533 22534 22535 22536 22537 22538 22539 22540 22541 22542 22543 22544 22545 22546 22547 22548 22549 22550 22551 22552 22553 22554 22555 22556 22557 22558 22559 22560 22561 22562 22563 22564 22565 22566 22567 22568 22569 22570 22571 22572 22573 22574 22575 22576 22577 22578 22579 22580 22581 22582 22583 22584 22585 22586 22587 22588 22589 22590 22591 22592 22593 22594 22595 22596 22597 22598 22599 22600 22601 22602 22603 22604 22605 22606 22607 22608 22609 22610 22611 22612 22613 22614 22615 22616 22617 22618 22619 22620 22621 22622 22623 22624 22625 22626 22627 22628 22629 22630 22631 22632 22633 22634 22635 22636 22637 22638 22639 22640 22641 22642 22643 22644 22645 22646 22647 22648 22649 22650 22651 22652 22653 22654 22655 22656 22657 22658 22659 22660 22661 22662 22663 22664 22665 22666 22667 22668 22669 22670 22671 22672 22673 22674 22675 22676 22677 22678 22679 22680 22681 22682 22683 22684 22685 22686 22687 22688 22689 22690 22691 22692 22693 22694 22695 22696 22697 22698 22699 22700 22701 22702 22703 22704 22705 22706 22707 22708 22709 22710 22711 22712 22713 22714 22715 22716 22717 22718 22719 22720 22721 22722 22723 22724 22725 22726 22727 22728 22729 22730 22731 22732 22733 22734 22735 22736 22737 22738 22739 22740 22741 22742 22743 22744 22745 22746 22747 22748 22749 22750 22751 22752 22753 22754 22755 22756 22757 22758 22759 22760 22761 22762 22763 22764 22765 22766 22767 22768 22769 22770 22771 22772 22773 22774 22775 22776 22777 22778 22779 22780 22781 22782 22783 22784 22785 22786 22787 22788 22789 22790 22791 22792 22793 22794 22795 22796 22797 22798 22799 22800 22801 22802 22803 22804 22805 22806 22807 22808 22809 22810 22811 22812 22813 22814 22815 22816 22817 22818 22819 22820 22821 22822 22823 22824 22825 22826 22827 22828 22829 22830 22831 22832 22833 22834 22835 22836 22837 22838 22839 22840 22841 22842 22843 22844 22845 22846 22847 22848 22849 22850 22851 22852 22853 22854 22855 22856 22857 22858 22859 22860 22861 22862 22863 22864 22865 22866 22867 22868 22869 22870 22871 22872 22873 22874 22875 22876 22877 22878 22879 22880 22881 22882 22883 22884 22885 22886 22887 22888 22889 22890 22891 22892 22893 22894 22895 22896 22897 22898 22899 22900 22901 22902 22903 22904 22905 22906 22907 22908 22909 22910 22911 22912 22913 22914 22915 22916 22917 22918 22919 22920 22921 22922 22923 22924 22925 22926 22927 22928 22929 22930 22931 22932 22933 22934 22935 22936 22937 22938 22939 22940 22941 22942 22943 22944 22945 22946 22947 22948 22949 22950 22951 22952 22953 22954 22955 22956 22957 22958 22959 22960 22961 22962 22963 22964 22965 22966 22967 22968 22969 22970 22971 22972 22973 22974 22975 22976 22977 22978 22979 22980 22981 22982 22983 22984 22985 22986 22987 22988 22989 22990 22991 22992 22993 22994 22995 22996 22997 22998 22999 23000 23001 23002 23003 23004 23005 23006 23007 23008 23009 23010 23011 23012 23013 23014 23015 23016 23017 23018 23019 23020 23021 23022 23023 23024 23025 23026 23027 23028 23029 23030 23031 23032 23033 23034 23035 23036 23037 23038 23039 23040 23041 23042 23043 23044 23045 23046 23047 23048 23049 23050 23051 23052 23053 23054 23055 23056 23057 23058 23059 23060 23061 23062 23063 23064 23065 23066 23067 23068 23069 23070 23071 23072 23073 23074 23075 23076 23077 23078 23079 23080 23081 23082 23083 23084 23085 23086 23087 23088 23089 23090 23091 23092 23093 23094 23095 23096 23097 23098 23099 23100 23101 23102 23103 23104 23105 23106 23107 23108 23109 23110 23111 23112 23113 23114 23115 23116 23117 23118 23119 23120 23121 23122 23123 23124 23125 23126 23127 23128 23129 23130 23131 23132 23133 23134 23135 23136 23137 23138 23139 23140 23141 23142 23143 23144 23145 23146 23147 23148 23149 23150 23151 23152 23153 23154 23155 23156 23157 23158 23159 23160 23161 23162 23163 23164 23165 23166 23167 23168 23169 23170 23171 23172 23173 23174 23175 23176 23177 23178 23179 23180 23181 23182 23183 23184 23185 23186 23187 23188 23189 23190 23191 23192 23193 23194 23195 23196 23197 23198 23199 23200 23201 23202 23203 23204 23205 23206 23207 23208 23209 23210 23211 23212 23213 23214 23215 23216 23217 23218 23219 23220 23221 23222 23223 23224 23225 23226 23227 23228 23229 23230 23231 23232 23233 23234 23235 23236 23237 23238 23239 23240 23241 23242 23243 23244 23245 23246 23247 23248 23249 23250 23251 23252 23253 23254 23255 23256 23257 23258 23259 23260 23261 23262 23263 23264 23265 23266 23267 23268 23269 23270 23271 23272 23273 23274 23275 23276 23277 23278 23279 23280 23281 23282 23283 23284 23285 23286 23287 23288 23289 23290 23291 23292 23293 23294 23295 23296 23297 23298 23299 23300 23301 23302 23303 23304 23305 23306 23307 23308 23309 23310 23311 23312 23313 23314 23315 23316 23317 23318 23319 23320 23321 23322 23323 23324 23325 23326 23327 23328 23329 23330 23331 23332 23333 23334 23335 23336 23337 23338 23339 23340 23341 23342 23343 23344 23345 23346 23347 23348 23349 23350 23351 23352 23353 23354 23355 23356 23357 23358 23359 23360 23361 23362 23363 23364 23365 23366 23367 23368 23369 23370 23371 23372 23373 23374 23375 23376 23377 23378 23379 23380 23381 23382 23383 23384 23385 23386 23387 23388 23389 23390 23391 23392 23393 23394 23395 23396 23397 23398 23399 23400 23401 23402 23403 23404 23405 23406 23407 23408 23409 23410 23411 23412 23413 23414 23415 23416 23417 23418 23419 23420 23421 23422 23423 23424 23425 23426 23427 23428 23429 23430 23431 23432 23433 23434 23435 23436 23437 23438 23439 23440 23441 23442 23443 23444 23445 23446 23447 23448 23449 23450 23451 23452 23453 23454 23455 23456 23457 23458 23459 23460 23461 23462 23463 23464 23465 23466 23467 23468 23469 23470 23471 23472 23473 23474 23475 23476 23477 23478 23479 23480 23481 23482 23483 23484 23485 23486 23487 23488 23489 23490 23491 23492 23493 23494 23495 23496 23497 23498 23499 23500 23501 23502 23503 23504 23505 23506 23507 23508 23509 23510 23511 23512 23513 23514 23515 23516 23517 23518 23519 23520 23521 23522 23523 23524 23525 23526 23527 23528 23529 23530 23531 23532 23533 23534 23535 23536 23537 23538 23539 23540 23541 23542 23543 23544 23545 23546 23547 23548 23549 23550 23551 23552 23553 23554 23555 23556 23557 23558 23559 23560 23561 23562 23563 23564 23565 23566 23567 23568 23569 23570 23571 23572 23573 23574 23575 23576 23577 23578 23579 23580 23581 23582 23583 23584 23585 23586 23587 23588 23589 23590 23591 23592 23593 23594 23595 23596 23597 23598 23599 23600 23601 23602 23603 23604 23605 23606 23607 23608 23609 23610 23611 23612 23613 23614 23615 23616 23617 23618 23619 23620 23621 23622 23623 23624 23625 23626 23627 23628 23629 23630 23631 23632 23633 23634 23635 23636 23637 23638 23639 23640 23641 23642 23643 23644 23645 23646 23647 23648 23649 23650 23651 23652 23653 23654 23655 23656 23657 23658 23659 23660 23661 23662 23663 23664 23665 23666 23667 23668 23669 23670 23671 23672 23673 23674 23675 23676 23677 23678 23679 23680 23681 23682 23683 23684 23685 23686 23687 23688 23689 23690 23691 23692 23693 23694 23695 23696 23697 23698 23699 23700 23701 23702 23703 23704 23705 23706 23707 23708 23709 23710 23711 23712 23713 23714 23715 23716 23717 23718 23719 23720 23721 23722 23723 23724 23725 23726 23727 23728 23729 23730 23731 23732 23733 23734 23735 23736 23737 23738 23739 23740 23741 23742 23743 23744 23745 23746 23747 23748 23749 23750 23751 23752 23753 23754 23755 23756 23757 23758 23759 23760 23761 23762 23763 23764 23765 23766 23767 23768 23769 23770 23771 23772 23773 23774 23775 23776 23777 23778 23779 23780 23781 23782 23783 23784 23785 23786 23787 23788 23789 23790 23791 23792 23793 23794 23795 23796 23797 23798 23799 23800 23801 23802 23803 23804 23805 23806 23807 23808 23809 23810 23811 23812 23813 23814 23815 23816 23817 23818 23819 23820 23821 23822 23823 23824 23825 23826 23827 23828 23829 23830 23831 23832 23833 23834 23835 23836 23837 23838 23839 23840 23841 23842 23843 23844 23845 23846 23847 23848 23849 23850 23851 23852 23853 23854 23855 23856 23857 23858 23859 23860 23861 23862 23863 23864 23865 23866 23867 23868 23869 23870 23871 23872 23873 23874 23875 23876 23877 23878 23879 23880 23881 23882 23883 23884 23885 23886 23887 23888 23889 23890 23891 23892 23893 23894 23895 23896 23897 23898 23899 23900 23901 23902 23903 23904 23905 23906 23907 23908 23909 23910 23911 23912 23913 23914 23915 23916 23917 23918 23919 23920 23921 23922 23923 23924 23925 23926 23927 23928 23929 23930 23931 23932 23933 23934 23935 23936 23937 23938 23939 23940 23941 23942 23943 23944 23945 23946 23947 23948 23949 23950 23951 23952 23953 23954 23955 23956 23957 23958 23959 23960 23961 23962 23963 23964 23965 23966 23967 23968 23969 23970 23971 23972 23973 23974 23975 23976 23977 23978 23979 23980 23981 23982 23983 23984 23985 23986 23987 23988 23989 23990 23991 23992 23993 23994 23995 23996 23997 23998 23999 24000 24001 24002 24003 24004 24005 24006 24007 24008 24009 24010 24011 24012 24013 24014 24015 24016 24017 24018 24019 24020 24021 24022 24023 24024 24025 24026 24027 24028 24029 24030 24031 24032 24033 24034 24035 24036 24037 24038 24039 24040 24041 24042 24043 24044 24045 24046 24047 24048 24049 24050 24051 24052 24053 24054 24055 24056 24057 24058 24059 24060 24061 24062 24063 24064 24065 24066 24067 24068 24069 24070 24071 24072 24073 24074 24075 24076 24077 24078 24079 24080 24081 24082 24083 24084 24085 24086 24087 24088 24089 24090 24091 24092 24093 24094 24095 24096 24097 24098 24099 24100 24101 24102 24103 24104 24105 24106 24107 24108 24109 24110 24111 24112 24113 24114 24115 24116 24117 24118 24119 24120 24121 24122 24123 24124 24125 24126 24127 24128 24129 24130 24131 24132 24133 24134 24135 24136 24137 24138 24139 24140 24141 24142 24143 24144 24145 24146 24147 24148 24149 24150 24151 24152 24153 24154 24155 24156 24157 24158 24159 24160 24161 24162 24163 24164 24165 24166 24167 24168 24169 24170 24171 24172 24173 24174 24175 24176 24177 24178 24179 24180 24181 24182 24183 24184 24185 24186 24187 24188 24189 24190 24191 24192 24193 24194 24195 24196 24197 24198 24199 24200 24201 24202 24203 24204 24205 24206 24207 24208 24209 24210 24211 24212 24213 24214 24215 24216 24217 24218 24219 24220 24221 24222 24223 24224 24225 24226 24227 24228 24229 24230 24231 24232 24233 24234 24235 24236 24237 24238 24239 24240 24241 24242 24243 24244 24245 24246 24247 24248 24249 24250 24251 24252 24253 24254 24255 24256 24257 24258 24259 24260 24261 24262 24263 24264 24265 24266 24267 24268 24269 24270 24271 24272 24273 24274 24275 24276 24277 24278 24279 24280 24281 24282 24283 24284 24285 24286 24287 24288 24289 24290 24291 24292 24293 24294 24295 24296 24297 24298 24299 24300 24301 24302 24303 24304 24305 24306 24307 24308 24309 24310 24311 24312 24313 24314 24315 24316 24317 24318 24319 24320 24321 24322 24323 24324 24325 24326 24327 24328 24329 24330 24331 24332 24333 24334 24335 24336 24337 24338 24339 24340 24341 24342 24343 24344 24345 24346 24347 24348 24349 24350 24351 24352 24353 24354 24355 24356 24357 24358 24359 24360 24361 24362 24363 24364 24365 24366 24367 24368 24369 24370 24371 24372 24373 24374 24375 24376 24377 24378 24379 24380 24381 24382 24383 24384 24385 24386 24387 24388 24389 24390 24391 24392 24393 24394 24395 24396 24397 24398 24399 24400 24401 24402 24403 24404 24405 24406 24407 24408 24409 24410 24411 24412 24413 24414 24415 24416 24417 24418 24419 24420 24421 24422 24423 24424 24425 24426 24427 24428 24429 24430 24431 24432 24433 24434 24435 24436 24437 24438 24439 24440 24441 24442 24443 24444 24445 24446 24447 24448 24449 24450 24451 24452 24453 24454 24455 24456 24457 24458 24459 24460 24461 24462 24463 24464 24465 24466 24467 24468 24469 24470 24471 24472 24473 24474 24475 24476 24477 24478 24479 24480 24481 24482 24483 24484 24485 24486 24487 24488 24489 24490 24491 24492 24493 24494 24495 24496 24497 24498 24499 24500 24501 24502 24503 24504 24505 24506 24507 24508 24509 24510 24511 24512 24513 24514 24515 24516 24517 24518 24519 24520 24521 24522 24523 24524 24525 24526 24527 24528 24529 24530 24531 24532 24533 24534 24535 24536 24537 24538 24539 24540 24541 24542 24543 24544 24545 24546 24547 24548 24549 24550 24551 24552 24553 24554 24555 24556 24557 24558 24559 24560 24561 24562 24563 24564 24565 24566 24567 24568 24569 24570 24571 24572 24573 24574 24575 24576 24577 24578 24579 24580 24581 24582 24583 24584 24585 24586 24587 24588 24589 24590 24591 24592 24593 24594 24595 24596 24597 24598 24599 24600 24601 24602 24603 24604 24605 24606 24607 24608 24609 24610 24611 24612 24613 24614 24615 24616 24617 24618 24619 24620 24621 24622 24623 24624 24625 24626 24627 24628 24629 24630 24631 24632 24633 24634 24635 24636 24637 24638 24639 24640 24641 24642 24643 24644 24645 24646 24647 24648 24649 24650 24651 24652 24653 24654 24655 24656 24657 24658 24659 24660 24661 24662 24663 24664 24665 24666 24667 24668 24669 24670 24671 24672 24673 24674 24675 24676 24677 24678 24679 24680 24681 24682 24683 24684 24685 24686 24687 24688 24689 24690 24691 24692 24693 24694 24695 24696 24697 24698 24699 24700 24701 24702 24703 24704 24705 24706 24707 24708 24709 24710 24711 24712 24713 24714 24715 24716 24717 24718 24719 24720 24721 24722 24723 24724 24725 24726 24727 24728 24729 24730 24731 24732 24733 24734 24735 24736 24737 24738 24739 24740 24741 24742 24743 24744 24745 24746 24747 24748 24749 24750 24751 24752 24753 24754 24755 24756 24757 24758 24759 24760 24761 24762 24763 24764 24765 24766 24767 24768 24769 24770 24771 24772 24773 24774 24775 24776 24777 24778 24779 24780 24781 24782 24783 24784 24785 24786 24787 24788 24789 24790 24791 24792 24793 24794 24795 24796 24797 24798 24799 24800 24801 24802 24803 24804 24805 24806 24807 24808 24809 24810 24811 24812 24813 24814 24815 24816 24817 24818 24819 24820 24821 24822 24823 24824 24825 24826 24827 24828 24829 24830 24831 24832 24833 24834 24835 24836 24837 24838 24839 24840 24841 24842 24843 24844 24845 24846 24847 24848 24849 24850 24851 24852 24853 24854 24855 24856 24857 24858 24859 24860 24861 24862 24863 24864 24865 24866 24867 24868 24869 24870 24871 24872 24873 24874 24875 24876 24877 24878 24879 24880 24881 24882 24883 24884 24885 24886 24887 24888 24889 24890 24891 24892 24893 24894 24895 24896 24897 24898 24899 24900 24901 24902 24903 24904 24905 24906 24907 24908 24909 24910 24911 24912 24913 24914 24915 24916 24917 24918 24919 24920 24921 24922 24923 24924 24925 24926 24927 24928 24929 24930 24931 24932 24933 24934 24935 24936 24937 24938 24939 24940 24941 24942 24943 24944 24945 24946 24947 24948 24949 24950 24951 24952 24953 24954 24955 24956 24957 24958 24959 24960 24961 24962 24963 24964 24965 24966 24967 24968 24969 24970 24971 24972 24973 24974 24975 24976 24977 24978 24979 24980 24981 24982 24983 24984 24985 24986 24987 24988 24989 24990 24991 24992 24993 24994 24995 24996 24997 24998 24999 25000 25001 25002 25003 25004 25005 25006 25007 25008 25009 25010 25011 25012 25013 25014 25015 25016 25017 25018 25019 25020 25021 25022 25023 25024 25025 25026 25027 25028 25029 25030 25031 25032 25033 25034 25035 25036 25037 25038 25039 25040 25041 25042 25043 25044 25045 25046 25047 25048 25049 25050 25051 25052 25053 25054 25055 25056 25057 25058 25059 25060 25061 25062 25063 25064 25065 25066 25067 25068 25069 25070 25071 25072 25073 25074 25075 25076 25077 25078 25079 25080 25081 25082 25083 25084 25085 25086 25087 25088 25089 25090 25091 25092 25093 25094 25095 25096 25097 25098 25099 25100 25101 25102 25103 25104 25105 25106 25107 25108 25109 25110 25111 25112 25113 25114 25115 25116 25117 25118 25119 25120 25121 25122 25123 25124 25125 25126 25127 25128 25129 25130 25131 25132 25133 25134 25135 25136 25137 25138 25139 25140 25141 25142 25143 25144 25145 25146 25147 25148 25149 25150 25151 25152 25153 25154 25155 25156 25157 25158 25159 25160 25161 25162 25163 25164 25165 25166 25167 25168 25169 25170 25171 25172 25173 25174 25175 25176 25177 25178 25179 25180 25181 25182 25183 25184 25185 25186 25187 25188 25189 25190 25191 25192 25193 25194 25195 25196 25197 25198 25199 25200 25201 25202 25203 25204 25205 25206 25207 25208 25209 25210 25211 25212 25213 25214 25215 25216 25217 25218 25219 25220 25221 25222 25223 25224 25225 25226 25227 25228 25229 25230 25231 25232 25233 25234 25235 25236 25237 25238 25239 25240 25241 25242 25243 25244 25245 25246 25247 25248 25249 25250 25251 25252 25253 25254 25255 25256 25257 25258 25259 25260 25261 25262 25263 25264 25265 25266 25267 25268 25269 25270 25271 25272 25273 25274 25275 25276 25277 25278 25279 25280 25281 25282 25283 25284 25285 25286 25287 25288 25289 25290 25291 25292 25293 25294 25295 25296 25297 25298 25299 25300 25301 25302 25303 25304 25305 25306 25307 25308 25309 25310 25311 25312 25313 25314 25315 25316 25317 25318 25319 25320 25321 25322 25323 25324 25325 25326 25327 25328 25329 25330 25331 25332 25333 25334 25335 25336 25337 25338 25339 25340 25341 25342 25343 25344 25345 25346 25347 25348 25349 25350 25351 25352 25353 25354 25355 25356 25357 25358 25359 25360 25361 25362 25363 25364 25365 25366 25367 25368 25369 25370 25371 25372 25373 25374 25375 25376 25377 25378 25379 25380 25381 25382 25383 25384 25385 25386 25387 25388 25389 25390 25391 25392 25393 25394 25395 25396 25397 25398 25399 25400 25401 25402 25403 25404 25405 25406 25407 25408 25409 25410 25411 25412 25413 25414 25415 25416 25417 25418 25419 25420 25421 25422 25423 25424 25425 25426 25427 25428 25429 25430 25431 25432 25433 25434 25435 25436 25437 25438 25439 25440 25441 25442 25443 25444 25445 25446 25447 25448 25449 25450 25451 25452 25453 25454 25455 25456 25457 25458 25459 25460 25461 25462 25463 25464 25465 25466 25467 25468 25469 25470 25471 25472 25473 25474 25475 25476 25477 25478 25479 25480 25481 25482 25483 25484 25485 25486 25487 25488 25489 25490 25491 25492 25493 25494 25495 25496 25497 25498 25499 25500 25501 25502 25503 25504 25505 25506 25507 25508 25509 25510 25511 25512 25513 25514 25515 25516 25517 25518 25519 25520 25521 25522 25523 25524 25525 25526 25527 25528 25529 25530 25531 25532 25533 25534 25535 25536 25537 25538 25539 25540 25541 25542 25543 25544 25545 25546 25547 25548 25549 25550 25551 25552 25553 25554 25555 25556 25557 25558 25559 25560 25561 25562 25563 25564 25565 25566 25567 25568 25569 25570 25571 25572 25573 25574 25575 25576 25577 25578 25579 25580 25581 25582 25583 25584 25585 25586 25587 25588 25589 25590 25591 25592 25593 25594 25595 25596 25597 25598 25599 25600 25601 25602 25603 25604 25605 25606 25607 25608 25609 25610 25611 25612 25613 25614 25615 25616 25617 25618 25619 25620 25621 25622 25623 25624 25625 25626 25627 25628 25629 25630 25631 25632 25633 25634 25635 25636 25637 25638 25639 25640 25641 25642 25643 25644 25645 25646 25647 25648 25649 25650 25651 25652 25653 25654 25655 25656 25657 25658 25659 25660 25661 25662 25663 25664 25665 25666 25667 25668 25669 25670 25671 25672 25673 25674 25675 25676 25677 25678 25679 25680 25681 25682 25683 25684 25685 25686 25687 25688 25689 25690 25691 25692 25693 25694 25695 25696 25697 25698 25699 25700 25701 25702 25703 25704 25705 25706 25707 25708 25709 25710 25711 25712 25713 25714 25715 25716 25717 25718 25719 25720 25721 25722 25723 25724 25725 25726 25727 25728 25729 25730 25731 25732 25733 25734 25735 25736 25737 25738 25739 25740 25741 25742 25743 25744 25745 25746 25747 25748 25749 25750 25751 25752 25753 25754 25755 25756 25757 25758 25759 25760 25761 25762 25763 25764 25765 25766 25767 25768 25769 25770 25771 25772 25773 25774 25775 25776 25777 25778 25779 25780 25781 25782 25783 25784 25785 25786 25787 25788 25789 25790 25791 25792 25793 25794 25795 25796 25797 25798 25799 25800 25801 25802 25803 25804 25805 25806 25807 25808 25809 25810 25811 25812 25813 25814 25815 25816 25817 25818 25819 25820 25821 25822 25823 25824 25825 25826 25827 25828 25829 25830 25831 25832 25833 25834 25835 25836 25837 25838 25839 25840 25841 25842 25843 25844 25845 25846 25847 25848 25849 25850 25851 25852 25853 25854 25855 25856 25857 25858 25859 25860 25861 25862 25863 25864 25865 25866 25867 25868 25869 25870 25871 25872 25873 25874 25875 25876 25877 25878 25879 25880 25881 25882 25883 25884 25885 25886 25887 25888 25889 25890 25891 25892 25893 25894 25895 25896 25897 25898 25899 25900 25901 25902 25903 25904 25905 25906 25907 25908 25909 25910 25911 25912 25913 25914 25915 25916 25917 25918 25919 25920 25921 25922 25923 25924 25925 25926 25927 25928 25929 25930 25931 25932 25933 25934 25935 25936 25937 25938 25939 25940 25941 25942 25943 25944 25945 25946 25947 25948 25949 25950 25951 25952 25953 25954 25955 25956 25957 25958 25959 25960 25961 25962 25963 25964 25965 25966 25967 25968 25969 25970 25971 25972 25973 25974 25975 25976 25977 25978 25979 25980 25981 25982 25983 25984 25985 25986 25987 25988 25989 25990 25991 25992 25993 25994 25995 25996 25997 25998 25999 26000 26001 26002 26003 26004 26005 26006 26007 26008 26009 26010 26011 26012 26013 26014 26015 26016 26017 26018 26019 26020 26021 26022 26023 26024 26025 26026 26027 26028 26029 26030 26031 26032 26033 26034 26035 26036 26037 26038 26039 26040 26041 26042 26043 26044 26045 26046 26047 26048 26049 26050 26051 26052 26053 26054 26055 26056 26057 26058 26059 26060 26061 26062 26063 26064 26065 26066 26067 26068 26069 26070 26071 26072 26073 26074 26075 26076 26077 26078 26079 26080 26081 26082 26083 26084 26085 26086 26087 26088 26089 26090 26091 26092 26093 26094 26095 26096 26097 26098 26099 26100 26101 26102 26103 26104 26105 26106 26107 26108 26109 26110 26111 26112 26113 26114 26115 26116 26117 26118 26119 26120 26121 26122 26123 26124 26125 26126 26127 26128 26129 26130 26131 26132 26133 26134 26135 26136 26137 26138 26139 26140 26141 26142 26143 26144 26145 26146 26147 26148 26149 26150 26151 26152 26153 26154 26155 26156 26157 26158 26159 26160 26161 26162 26163 26164 26165 26166 26167 26168 26169 26170 26171 26172 26173 26174 26175 26176 26177 26178 26179 26180 26181 26182 26183 26184 26185 26186 26187 26188 26189 26190 26191 26192 26193 26194 26195 26196 26197 26198 26199 26200 26201 26202 26203 26204 26205 26206 26207 26208 26209 26210 26211 26212 26213 26214 26215 26216 26217 26218 26219 26220 26221 26222 26223 26224 26225 26226 26227 26228 26229 26230 26231 26232 26233 26234 26235 26236 26237 26238 26239 26240 26241 26242 26243 26244 26245 26246 26247 26248 26249 26250 26251 26252 26253 26254 26255 26256 26257 26258 26259 26260 26261 26262 26263 26264 26265 26266 26267 26268 26269 26270 26271 26272 26273 26274 26275 26276 26277 26278 26279 26280 26281 26282 26283 26284 26285 26286 26287 26288 26289 26290 26291 26292 26293 26294 26295 26296 26297 26298 26299 26300 26301 26302 26303 26304 26305 26306 26307 26308 26309 26310 26311 26312 26313 26314 26315 26316 26317 26318 26319 26320 26321 26322 26323 26324 26325 26326 26327 26328 26329 26330 26331 26332 26333 26334 26335 26336 26337 26338 26339 26340 26341 26342 26343 26344 26345 26346 26347 26348 26349 26350 26351 26352 26353 26354 26355 26356 26357 26358 26359 26360 26361 26362 26363 26364 26365 26366 26367 26368 26369 26370 26371 26372 26373 26374 26375 26376 26377 26378 26379 26380 26381 26382 26383 26384 26385 26386 26387 26388 26389 26390 26391 26392 26393 26394 26395 26396 26397 26398 26399 26400 26401 26402 26403 26404 26405 26406 26407 26408 26409 26410 26411 26412 26413 26414 26415 26416 26417 26418 26419 26420 26421 26422 26423 26424 26425 26426 26427 26428 26429 26430 26431 26432 26433 26434 26435 26436 26437 26438 26439 26440 26441 26442 26443 26444 26445 26446 26447 26448 26449 26450 26451 26452 26453 26454 26455 26456 26457 26458 26459 26460 26461 26462 26463 26464 26465 26466 26467 26468 26469 26470 26471 26472 26473 26474 26475 26476 26477 26478 26479 26480 26481 26482 26483 26484 26485 26486 26487 26488 26489 26490 26491 26492 26493 26494 26495 26496 26497 26498 26499 26500 26501 26502 26503 26504 26505 26506 26507 26508 26509 26510 26511 26512 26513 26514 26515 26516 26517 26518 26519 26520 26521 26522 26523 26524 26525 26526 26527 26528 26529 26530 26531 26532 26533 26534 26535 26536 26537 26538 26539 26540 26541 26542 26543 26544 26545 26546 26547 26548 26549 26550 26551 26552 26553 26554 26555 26556 26557 26558 26559 26560 26561 26562 26563 26564 26565 26566 26567 26568 26569 26570 26571 26572 26573 26574 26575 26576 26577 26578 26579 26580 26581 26582 26583 26584 26585 26586 26587 26588 26589 26590 26591 26592 26593 26594 26595 26596 26597 26598 26599 26600 26601 26602 26603 26604 26605 26606 26607 26608 26609 26610 26611 26612 26613 26614 26615 26616 26617 26618 26619 26620 26621 26622 26623 26624 26625 26626 26627 26628 26629 26630 26631 26632 26633 26634 26635 26636 26637 26638 26639 26640 26641 26642 26643 26644 26645 26646 26647 26648 26649 26650 26651 26652 26653 26654 26655 26656 26657 26658 26659 26660 26661 26662 26663 26664 26665 26666 26667 26668 26669 26670 26671 26672 26673 26674 26675 26676 26677 26678 26679 26680 26681 26682 26683 26684 26685 26686 26687 26688 26689 26690 26691 26692 26693 26694 26695 26696 26697 26698 26699 26700 26701 26702 26703 26704 26705 26706 26707 26708 26709 26710 26711 26712 26713 26714 26715 26716 26717 26718 26719 26720 26721 26722 26723 26724 26725 26726 26727 26728 26729 26730 26731 26732 26733 26734 26735 26736 26737 26738 26739 26740 26741 26742 26743 26744 26745 26746 26747 26748 26749 26750 26751 26752 26753 26754 26755 26756 26757 26758 26759 26760 26761 26762 26763 26764 26765 26766 26767 26768 26769 26770 26771 26772 26773 26774 26775 26776 26777 26778 26779 26780 26781 26782 26783 26784 26785 26786 26787 26788 26789 26790 26791 26792 26793 26794 26795 26796 26797 26798 26799 26800 26801 26802 26803 26804 26805 26806 26807 26808 26809 26810 26811 26812 26813 26814 26815 26816 26817 26818 26819 26820 26821 26822 26823 26824 26825 26826 26827 26828 26829 26830 26831 26832 26833 26834 26835 26836 26837 26838 26839 26840 26841 26842 26843 26844 26845 26846 26847 26848 26849 26850 26851 26852 26853 26854 26855 26856 26857 26858 26859 26860 26861 26862 26863 26864 26865 26866 26867 26868 26869 26870 26871 26872 26873 26874 26875 26876 26877 26878 26879 26880 26881 26882 26883 26884 26885 26886 26887 26888 26889 26890 26891 26892 26893 26894 26895 26896 26897 26898 26899 26900 26901 26902 26903 26904 26905 26906 26907 26908 26909 26910 26911 26912 26913 26914 26915 26916 26917 26918 26919 26920 26921 26922 26923 26924 26925 26926 26927 26928 26929 26930 26931 26932 26933 26934 26935 26936 26937 26938 26939 26940 26941 26942 26943 26944 26945 26946 26947 26948 26949 26950 26951 26952 26953 26954 26955 26956 26957 26958 26959 26960 26961 26962 26963 26964 26965 26966 26967 26968 26969 26970 26971 26972 26973 26974 26975 26976 26977 26978 26979 26980 26981 26982 26983 26984 26985 26986 26987 26988 26989 26990 26991 26992 26993 26994 26995 26996 26997 26998 26999 27000 27001 27002 27003 27004 27005 27006 27007 27008 27009 27010 27011 27012 27013 27014 27015 27016 27017 27018 27019 27020 27021 27022 27023 27024 27025 27026 27027 27028 27029 27030 27031 27032 27033 27034 27035 27036 27037 27038 27039 27040 27041 27042 27043 27044 27045 27046 27047 27048 27049 27050 27051 27052 27053 27054 27055 27056 27057 27058 27059 27060 27061 27062 27063 27064 27065 27066 27067 27068 27069 27070 27071 27072 27073 27074 27075 27076 27077 27078 27079 27080 27081 27082 27083 27084 27085 27086 27087 27088 27089 27090 27091 27092 27093 27094 27095 27096 27097 27098 27099 27100 27101 27102 27103 27104 27105 27106 27107 27108 27109 27110 27111 27112 27113 27114 27115 27116 27117 27118 27119 27120 27121 27122 27123 27124 27125 27126 27127 27128 27129 27130 27131 27132 27133 27134 27135 27136 27137 27138 27139 27140 27141 27142 27143 27144 27145 27146 27147 27148 27149 27150 27151 27152 27153 27154 27155 27156 27157 27158 27159 27160 27161 27162 27163 27164 27165 27166 27167 27168 27169 27170 27171 27172 27173 27174 27175 27176 27177 27178 27179 27180 27181 27182 27183 27184 27185 27186 27187 27188 27189 27190 27191 27192 27193 27194 27195 27196 27197 27198 27199 27200 27201 27202 27203 27204 27205 27206 27207 27208 27209 27210 27211 27212 27213 27214 27215 27216 27217 27218 27219 27220 27221 27222 27223 27224 27225 27226 27227 27228 27229 27230 27231 27232 27233 27234 27235 27236 27237 27238 27239 27240 27241 27242 27243 27244 27245 27246 27247 27248 27249 27250 27251 27252 27253 27254 27255 27256 27257 27258 27259 27260 27261 27262 27263 27264 27265 27266 27267 27268 27269 27270 27271 27272 27273 27274 27275 27276 27277 27278 27279 27280 27281 27282 27283 27284 27285 27286 27287 27288 27289 27290 27291 27292 27293 27294 27295 27296 27297 27298 27299 27300 27301 27302 27303 27304 27305 27306 27307 27308 27309 27310 27311 27312 27313 27314 27315 27316 27317 27318 27319 27320 27321 27322 27323 27324 27325 27326 27327 27328 27329 27330 27331 27332 27333 27334 27335 27336 27337 27338 27339 27340 27341 27342 27343 27344 27345 27346 27347 27348 27349 27350 27351 27352 27353 27354 27355 27356 27357 27358 27359 27360 27361 27362 27363 27364 27365 27366 27367 27368 27369 27370 27371 27372 27373 27374 27375 27376 27377 27378 27379 27380 27381 27382 27383 27384 27385 27386 27387 27388 27389 27390 27391 27392 27393 27394 27395 27396 27397 27398 27399 27400 27401 27402 27403 27404 27405 27406 27407 27408 27409 27410 27411 27412 27413 27414 27415 27416 27417 27418 27419 27420 27421 27422 27423 27424 27425 27426 27427 27428 27429 27430 27431 27432 27433 27434 27435 27436 27437 27438 27439 27440 27441 27442 27443 27444 27445 27446 27447 27448 27449 27450 27451 27452 27453 27454 27455 27456 27457 27458 27459 27460 27461 27462 27463 27464 27465 27466 27467 27468 27469 27470 27471 27472 27473 27474 27475 27476 27477 27478 27479 27480 27481 27482 27483 27484 27485 27486 27487 27488 27489 27490 27491 27492 27493 27494 27495 27496 27497 27498 27499 27500 27501 27502 27503 27504 27505 27506 27507 27508 27509 27510 27511 27512 27513 27514 27515 27516 27517 27518 27519 27520 27521 27522 27523 27524 27525 27526 27527 27528 27529 27530 27531 27532 27533 27534 27535 27536 27537 27538 27539 27540 27541 27542 27543 27544 27545 27546 27547 27548 27549 27550 27551 27552 27553 27554 27555 27556 27557 27558 27559 27560 27561 27562 27563 27564 27565 27566 27567 27568 27569 27570 27571 27572 27573 27574 27575 27576 27577 27578 27579 27580 27581 27582 27583 27584 27585 27586 27587 27588 27589 27590 27591 27592 27593 27594 27595 27596 27597 27598 27599 27600 27601 27602 27603 27604 27605 27606 27607 27608 27609 27610 27611 27612 27613 27614 27615 27616 27617 27618 27619 27620 27621 27622 27623 27624 27625 27626 27627 27628 27629 27630 27631 27632 27633 27634 27635 27636 27637 27638 27639 27640 27641 27642 27643 27644 27645 27646 27647 27648 27649 27650 27651 27652 27653 27654 27655 27656 27657 27658 27659 27660 27661 27662 27663 27664 27665 27666 27667 27668 27669 27670 27671 27672 27673 27674 27675 27676 27677 27678 27679 27680 27681 27682 27683 27684 27685 27686 27687 27688 27689 27690 27691 27692 27693 27694 27695 27696 27697 27698 27699 27700 27701 27702 27703 27704 27705 27706 27707 27708 27709 27710 27711 27712 27713 27714 27715 27716 27717 27718 27719 27720 27721 27722 27723 27724 27725 27726 27727 27728 27729 27730 27731 27732 27733 27734 27735 27736 27737 27738 27739 27740 27741 27742 27743 27744 27745 27746 27747 27748 27749 27750 27751 27752 27753 27754 27755 27756 27757 27758 27759 27760 27761 27762 27763 27764 27765 27766 27767 27768 27769 27770 27771 27772 27773 27774 27775 27776 27777 27778 27779 27780 27781 27782 27783 27784 27785 27786 27787 27788 27789 27790 27791 27792 27793 27794 27795 27796 27797 27798 27799 27800 27801 27802 27803 27804 27805 27806 27807 27808 27809 27810 27811 27812 27813 27814 27815 27816 27817 27818 27819 27820 27821 27822 27823 27824 27825 27826 27827 27828 27829 27830 27831 27832 27833 27834 27835 27836 27837 27838 27839 27840 27841 27842 27843 27844 27845 27846 27847 27848 27849 27850 27851 27852 27853 27854 27855 27856 27857 27858 27859 27860 27861 27862 27863 27864 27865 27866 27867 27868 27869 27870 27871 27872 27873 27874 27875 27876 27877 27878 27879 27880 27881 27882 27883 27884 27885 27886 27887 27888 27889 27890 27891 27892 27893 27894 27895 27896 27897 27898 27899 27900 27901 27902 27903 27904 27905 27906 27907 27908 27909 27910 27911 27912 27913 27914 27915 27916 27917 27918 27919 27920 27921 27922 27923 27924 27925 27926 27927 27928 27929 27930 27931 27932 27933 27934 27935 27936 27937 27938 27939 27940 27941 27942 27943 27944 27945 27946 27947 27948 27949 27950 27951 27952 27953 27954 27955 27956 27957 27958 27959 27960 27961 27962 27963 27964 27965 27966 27967 27968 27969 27970 27971 27972 27973 27974 27975 27976 27977 27978 27979 27980 27981 27982 27983 27984 27985 27986 27987 27988 27989 27990 27991 27992 27993 27994 27995 27996 27997 27998 27999 28000 28001 28002 28003 28004 28005 28006 28007 28008 28009 28010 28011 28012 28013 28014 28015 28016 28017 28018 28019 28020 28021 28022 28023 28024 28025 28026 28027 28028 28029 28030 28031 28032 28033 28034 28035 28036 28037 28038 28039 28040 28041 28042 28043 28044 28045 28046 28047 28048 28049 28050 28051 28052 28053 28054 28055 28056 28057 28058 28059 28060 28061 28062 28063 28064 28065 28066 28067 28068 28069 28070 28071 28072 28073 28074 28075 28076 28077 28078 28079 28080 28081 28082 28083 28084 28085 28086 28087 28088 28089 28090 28091 28092 28093 28094 28095 28096 28097 28098 28099 28100 28101 28102 28103 28104 28105 28106 28107 28108 28109 28110 28111 28112 28113 28114 28115 28116 28117 28118 28119 28120 28121 28122 28123 28124 28125 28126 28127 28128 28129 28130 28131 28132 28133 28134 28135 28136 28137 28138 28139 28140 28141 28142 28143 28144 28145 28146 28147 28148 28149 28150 28151 28152 28153 28154 28155 28156 28157 28158 28159 28160 28161 28162 28163 28164 28165 28166 28167 28168 28169 28170 28171 28172 28173 28174 28175 28176 28177 28178 28179 28180 28181 28182 28183 28184 28185 28186 28187 28188 28189 28190 28191 28192 28193 28194 28195 28196 28197 28198 28199 28200 28201 28202 28203 28204 28205 28206 28207 28208 28209 28210 28211 28212 28213 28214 28215 28216 28217 28218 28219 28220 28221 28222 28223 28224 28225 28226 28227 28228 28229 28230 28231 28232 28233 28234 28235 28236 28237 28238 28239 28240 28241 28242 28243 28244 28245 28246 28247 28248 28249 28250 28251 28252 28253 28254 28255 28256 28257 28258 28259 28260 28261 28262 28263 28264 28265 28266 28267 28268 28269 28270 28271 28272 28273 28274 28275 28276 28277 28278 28279 28280 28281 28282 28283 28284 28285 28286 28287 28288 28289 28290 28291 28292 28293 28294 28295 28296 28297 28298 28299 28300 28301 28302 28303 28304 28305 28306 28307 28308 28309 28310 28311 28312 28313 28314 28315 28316 28317 28318 28319 28320 28321 28322 28323 28324 28325 28326 28327 28328 28329 28330 28331 28332 28333 28334 28335 28336 28337 28338 28339 28340 28341 28342 28343 28344 28345 28346 28347 28348 28349 28350 28351 28352 28353 28354 28355 28356 28357 28358 28359 28360 28361 28362 28363 28364 28365 28366 28367 28368 28369 28370 28371 28372 28373 28374 28375 28376 28377 28378 28379 28380 28381 28382 28383 28384 28385 28386 28387 28388 28389 28390 28391 28392 28393 28394 28395 28396 28397 28398 28399 28400 28401 28402 28403 28404 28405 28406 28407 28408 28409 28410 28411 28412 28413 28414 28415 28416 28417 28418 28419 28420 28421 28422 28423 28424 28425 28426 28427 28428 28429 28430 28431 28432 28433 28434 28435 28436 28437 28438 28439 28440 28441 28442 28443 28444 28445 28446 28447 28448 28449 28450 28451 28452 28453 28454 28455 28456 28457 28458 28459 28460 28461 28462 28463 28464 28465 28466 28467 28468 28469 28470 28471 28472 28473 28474 28475 28476 28477 28478 28479 28480 28481 28482 28483 28484 28485 28486 28487 28488 28489 28490 28491 28492 28493 28494 28495 28496 28497 28498 28499 28500 28501 28502 28503 28504 28505 28506 28507 28508 28509 28510 28511 28512 28513 28514 28515 28516 28517 28518 28519 28520 28521 28522 28523 28524 28525 28526 28527 28528 28529 28530 28531 28532 28533 28534 28535 28536 28537 28538 28539 28540 28541 28542 28543 28544 28545 28546 28547 28548 28549 28550 28551 28552 28553 28554 28555 28556 28557 28558 28559 28560 28561 28562 28563 28564 28565 28566 28567 28568 28569 28570 28571 28572 28573 28574 28575 28576 28577 28578 28579 28580 28581 28582 28583 28584 28585 28586 28587 28588 28589 28590 28591 28592 28593 28594 28595 28596 28597 28598 28599 28600 28601 28602 28603 28604 28605 28606 28607 28608 28609 28610 28611 28612 28613 28614 28615 28616 28617 28618 28619 28620 28621 28622 28623 28624 28625 28626 28627 28628 28629 28630 28631 28632 28633 28634 28635 28636 28637 28638 28639 28640 28641 28642 28643 28644 28645 28646 28647 28648 28649 28650 28651 28652 28653 28654 28655 28656 28657 28658 28659 28660 28661 28662 28663 28664 28665 28666 28667 28668 28669 28670 28671 28672 28673 28674 28675 28676 28677 28678 28679 28680 28681 28682 28683 28684 28685 28686 28687 28688 28689 28690 28691 28692 28693 28694 28695 28696 28697 28698 28699 28700 28701 28702 28703 28704 28705 28706 28707 28708 28709 28710 28711 28712 28713 28714 28715 28716 28717 28718 28719 28720 28721 28722 28723 28724 28725 28726 28727 28728 28729 28730 28731 28732 28733 28734 28735 28736 28737 28738 28739 28740 28741 28742 28743 28744 28745 28746 28747 28748 28749 28750 28751 28752 28753 28754 28755 28756 28757 28758 28759 28760 28761 28762 28763 28764 28765 28766 28767 28768 28769 28770 28771 28772 28773 28774 28775 28776 28777 28778 28779 28780 28781 28782 28783 28784 28785 28786 28787 28788 28789 28790 28791 28792 28793 28794 28795 28796 28797 28798 28799 28800 28801 28802 28803 28804 28805 28806 28807 28808 28809 28810 28811 28812 28813 28814 28815 28816 28817 28818 28819 28820 28821 28822 28823 28824 28825 28826 28827 28828 28829 28830 28831 28832 28833 28834 28835 28836 28837 28838 28839 28840 28841 28842 28843 28844 28845 28846 28847 28848 28849 28850 28851 28852 28853 28854 28855 28856 28857 28858 28859 28860 28861 28862 28863 28864 28865 28866 28867 28868 28869 28870 28871 28872 28873 28874 28875 28876 28877 28878 28879 28880 28881 28882 28883 28884 28885 28886 28887 28888 28889 28890 28891 28892 28893 28894 28895 28896 28897 28898 28899 28900 28901 28902 28903 28904 28905 28906 28907 28908 28909 28910 28911 28912 28913 28914 28915 28916 28917 28918 28919 28920 28921 28922 28923 28924 28925 28926 28927 28928 28929 28930 28931 28932 28933 28934 28935 28936 28937 28938 28939 28940 28941 28942 28943 28944 28945 28946 28947 28948 28949 28950 28951 28952 28953 28954 28955 28956 28957 28958 28959 28960 28961 28962 28963 28964 28965 28966 28967 28968 28969 28970 28971 28972 28973 28974 28975 28976 28977 28978 28979 28980 28981 28982 28983 28984 28985 28986 28987 28988 28989 28990 28991 28992 28993 28994 28995 28996 28997 28998 28999 29000 29001 29002 29003 29004 29005 29006 29007 29008 29009 29010 29011 29012 29013 29014 29015 29016 29017 29018 29019 29020 29021 29022 29023 29024 29025 29026 29027 29028 29029 29030 29031 29032 29033 29034 29035 29036 29037 29038 29039 29040 29041 29042 29043 29044 29045 29046 29047 29048 29049 29050 29051 29052 29053 29054 29055 29056 29057 29058 29059 29060 29061 29062 29063 29064 29065 29066 29067 29068 29069 29070 29071 29072 29073 29074 29075 29076 29077 29078 29079 29080 29081 29082 29083 29084 29085 29086 29087 29088 29089 29090 29091 29092 29093 29094 29095 29096 29097 29098 29099 29100 29101 29102 29103 29104 29105 29106 29107 29108 29109 29110 29111 29112 29113 29114 29115 29116 29117 29118 29119 29120 29121 29122 29123 29124 29125 29126 29127 29128 29129 29130 29131 29132 29133 29134 29135 29136 29137 29138 29139 29140 29141 29142 29143 29144 29145 29146 29147 29148 29149 29150 29151 29152 29153 29154 29155 29156 29157 29158 29159 29160 29161 29162 29163 29164 29165 29166 29167 29168 29169 29170 29171 29172 29173 29174 29175 29176 29177 29178 29179 29180 29181 29182 29183 29184 29185 29186 29187 29188 29189 29190 29191 29192 29193 29194 29195 29196 29197 29198 29199 29200 29201 29202 29203 29204 29205 29206 29207 29208 29209 29210 29211 29212 29213 29214 29215 29216 29217 29218 29219 29220 29221 29222 29223 29224 29225 29226 29227 29228 29229 29230 29231 29232 29233 29234 29235 29236 29237 29238 29239 29240 29241 29242 29243 29244 29245 29246 29247 29248 29249 29250 29251 29252 29253 29254 29255 29256 29257 29258 29259 29260 29261 29262 29263 29264 29265 29266 29267 29268 29269 29270 29271 29272 29273 29274 29275 29276 29277 29278 29279 29280 29281 29282 29283 29284 29285 29286 29287 29288 29289 29290 29291 29292 29293 29294 29295 29296 29297 29298 29299 29300 29301 29302 29303 29304 29305 29306 29307 29308 29309 29310 29311 29312 29313 29314 29315 29316 29317 29318 29319 29320 29321 29322 29323 29324 29325 29326 29327 29328 29329 29330 29331 29332 29333 29334 29335 29336 29337 29338 29339 29340 29341 29342 29343 29344 29345 29346 29347 29348 29349 29350 29351 29352 29353 29354 29355 29356 29357 29358 29359 29360 29361 29362 29363 29364 29365 29366 29367 29368 29369 29370 29371 29372 29373 29374 29375 29376 29377 29378 29379 29380 29381 29382 29383 29384 29385 29386 29387 29388 29389 29390 29391 29392 29393 29394 29395 29396 29397 29398 29399 29400 29401 29402 29403 29404 29405 29406 29407 29408 29409 29410 29411 29412 29413 29414 29415 29416 29417 29418 29419 29420 29421 29422 29423 29424 29425 29426 29427 29428 29429 29430 29431 29432 29433 29434 29435 29436 29437 29438 29439 29440 29441 29442 29443 29444 29445 29446 29447 29448 29449 29450 29451 29452 29453 29454 29455 29456 29457 29458 29459 29460 29461 29462 29463 29464 29465 29466 29467 29468 29469 29470 29471 29472 29473 29474 29475 29476 29477 29478 29479 29480 29481 29482 29483 29484 29485 29486 29487 29488 29489 29490 29491 29492 29493 29494 29495 29496 29497 29498 29499 29500 29501 29502 29503 29504 29505 29506 29507 29508 29509 29510 29511 29512 29513 29514 29515 29516 29517 29518 29519 29520 29521 29522 29523 29524 29525 29526 29527 29528 29529 29530 29531 29532 29533 29534 29535 29536 29537 29538 29539 29540 29541 29542 29543 29544 29545 29546 29547 29548 29549 29550 29551 29552 29553 29554 29555 29556 29557 29558 29559 29560 29561 29562 29563 29564 29565 29566 29567 29568 29569 29570 29571 29572 29573 29574 29575 29576 29577 29578 29579 29580 29581 29582 29583 29584 29585 29586 29587 29588 29589 29590 29591 29592 29593 29594 29595 29596 29597 29598 29599 29600 29601 29602 29603 29604 29605 29606 29607 29608 29609 29610 29611 29612 29613 29614 29615 29616 29617 29618 29619 29620 29621 29622 29623 29624 29625 29626 29627 29628 29629 29630 29631 29632 29633 29634 29635 29636 29637 29638 29639 29640 29641 29642 29643 29644 29645 29646 29647 29648 29649 29650 29651 29652 29653 29654 29655 29656 29657 29658 29659 29660 29661 29662 29663 29664 29665 29666 29667 29668 29669 29670 29671 29672 29673 29674 29675 29676 29677 29678 29679 29680 29681 29682 29683 29684 29685 29686 29687 29688 29689 29690 29691 29692 29693 29694 29695 29696 29697 29698 29699 29700 29701 29702 29703 29704 29705 29706 29707 29708 29709 29710 29711 29712 29713 29714 29715 29716 29717 29718 29719 29720 29721 29722 29723 29724 29725 29726 29727 29728 29729 29730 29731 29732 29733 29734 29735 29736 29737 29738 29739 29740 29741 29742 29743 29744 29745 29746 29747 29748 29749 29750 29751 29752 29753 29754 29755 29756 29757 29758 29759 29760 29761 29762 29763 29764 29765 29766 29767 29768 29769 29770 29771 29772 29773 29774 29775 29776 29777 29778 29779 29780 29781 29782 29783 29784 29785 29786 29787 29788 29789 29790 29791 29792 29793 29794 29795 29796 29797 29798 29799 29800 29801 29802 29803 29804 29805 29806 29807 29808 29809 29810 29811 29812 29813 29814 29815 29816 29817 29818 29819 29820 29821 29822 29823 29824 29825 29826 29827 29828 29829 29830 29831 29832 29833 29834 29835 29836 29837 29838 29839 29840 29841 29842 29843 29844 29845 29846 29847 29848 29849 29850 29851 29852 29853 29854 29855 29856 29857 29858 29859 29860 29861 29862 29863 29864 29865 29866 29867 29868 29869 29870 29871 29872 29873 29874 29875 29876 29877 29878 29879 29880 29881 29882 29883 29884 29885 29886 29887 29888 29889 29890 29891 29892 29893 29894 29895 29896 29897 29898 29899 29900 29901 29902 29903 29904 29905 29906 29907 29908 29909 29910 29911 29912 29913 29914 29915 29916 29917 29918 29919 29920 29921 29922 29923 29924 29925 29926 29927 29928 29929 29930 29931 29932 29933 29934 29935 29936 29937 29938 29939 29940 29941 29942 29943 29944 29945 29946 29947 29948 29949 29950 29951 29952 29953 29954 29955 29956 29957 29958 29959 29960 29961 29962 29963 29964 29965 29966 29967 29968 29969 29970 29971 29972 29973 29974 29975 29976 29977 29978 29979 29980 29981 29982 29983 29984 29985 29986 29987 29988 29989 29990 29991 29992 29993 29994 29995 29996 29997 29998 29999 30000 30001 30002 30003 30004 30005 30006 30007 30008 30009 30010 30011 30012 30013 30014 30015 30016 30017 30018 30019 30020 30021 30022 30023 30024 30025 30026 30027 30028 30029 30030 30031 30032 30033 30034 30035 30036 30037 30038 30039 30040 30041 30042 30043 30044 30045 30046 30047 30048 30049 30050 30051 30052 30053 30054 30055 30056 30057 30058 30059 30060 30061 30062 30063 30064 30065 30066 30067 30068 30069 30070 30071 30072 30073 30074 30075 30076 30077 30078 30079 30080 30081 30082 30083 30084 30085 30086 30087 30088 30089 30090 30091 30092 30093 30094 30095 30096 30097 30098 30099 30100 30101 30102 30103 30104 30105 30106 30107 30108 30109 30110 30111 30112 30113 30114 30115 30116 30117 30118 30119 30120 30121 30122 30123 30124 30125 30126 30127 30128 30129 30130 30131 30132 30133 30134 30135 30136 30137 30138 30139 30140 30141 30142 30143 30144 30145 30146 30147 30148 30149 30150 30151 30152 30153 30154 30155 30156 30157 30158 30159 30160 30161 30162 30163 30164 30165 30166 30167 30168 30169 30170 30171 30172 30173 30174 30175 30176 30177 30178 30179 30180 30181 30182 30183 30184 30185 30186 30187 30188 30189 30190 30191 30192 30193 30194 30195 30196 30197 30198 30199 30200 30201 30202 30203 30204 30205 30206 30207 30208 30209 30210 30211 30212 30213 30214 30215 30216 30217 30218 30219 30220 30221 30222 30223 30224 30225 30226 30227 30228 30229 30230 30231 30232 30233 30234 30235 30236 30237 30238 30239 30240 30241 30242 30243 30244 30245 30246 30247 30248 30249 30250 30251 30252 30253 30254 30255 30256 30257 30258 30259 30260 30261 30262 30263 30264 30265 30266 30267 30268 30269 30270 30271 30272 30273 30274 30275 30276 30277 30278 30279 30280 30281 30282 30283 30284 30285 30286 30287 30288 30289 30290 30291 30292 30293 30294 30295 30296 30297 30298 30299 30300 30301 30302 30303 30304 30305 30306 30307 30308 30309 30310 30311 30312 30313 30314 30315 30316 30317 30318 30319 30320 30321 30322 30323 30324 30325 30326 30327 30328 30329 30330 30331 30332 30333 30334 30335 30336 30337 30338 30339 30340 30341 30342 30343 30344 30345 30346 30347 30348 30349 30350 30351 30352 30353 30354 30355 30356 30357 30358 30359 30360 30361 30362 30363 30364 30365 30366 30367 30368 30369 30370 30371 30372 30373 30374 30375 30376 30377 30378 30379 30380 30381 30382 30383 30384 30385 30386 30387 30388 30389 30390 30391 30392 30393 30394 30395 30396 30397 30398 30399 30400 30401 30402 30403 30404 30405 30406 30407 30408 30409 30410 30411 30412 30413 30414 30415 30416 30417 30418 30419 30420 30421 30422 30423 30424 30425 30426 30427 30428 30429 30430 30431 30432 30433 30434 30435 30436 30437 30438 30439 30440 30441 30442 30443 30444 30445 30446 30447 30448 30449 30450 30451 30452 30453 30454 30455 30456 30457 30458 30459 30460 30461 30462 30463 30464 30465 30466 30467 30468 30469 30470 30471 30472 30473 30474 30475 30476 30477 30478 30479 30480 30481 30482 30483 30484 30485 30486 30487 30488 30489 30490 30491 30492 30493 30494 30495 30496 30497 30498 30499 30500 30501 30502 30503 30504 30505 30506 30507 30508 30509 30510 30511 30512 30513 30514 30515 30516 30517 30518 30519 30520 30521 30522 30523 30524 30525 30526 30527 30528 30529 30530 30531 30532 30533 30534 30535 30536 30537 30538 30539 30540 30541 30542 30543 30544 30545 30546 30547 30548 30549 30550 30551 30552 30553 30554 30555 30556 30557 30558 30559 30560 30561 30562 30563 30564 30565 30566 30567 30568 30569 30570 30571 30572 30573 30574 30575 30576 30577 30578 30579 30580 30581 30582 30583 30584 30585 30586 30587 30588 30589 30590 30591 30592 30593 30594 30595 30596 30597 30598 30599 30600 30601 30602 30603 30604 30605 30606 30607 30608 30609 30610 30611 30612 30613 30614 30615 30616 30617 30618 30619 30620 30621 30622 30623 30624 30625 30626 30627 30628 30629 30630 30631 30632 30633 30634 30635 30636 30637 30638 30639 30640 30641 30642 30643 30644 30645 30646 30647 30648 30649 30650 30651 30652 30653 30654 30655 30656 30657 30658 30659 30660 30661 30662 30663 30664 30665 30666 30667 30668 30669 30670 30671 30672 30673 30674 30675 30676 30677 30678 30679 30680 30681 30682 30683 30684 30685 30686 30687 30688 30689 30690 30691 30692 30693 30694 30695 30696 30697 30698 30699 30700 30701 30702 30703 30704 30705 30706 30707 30708 30709 30710 30711 30712 30713 30714 30715 30716 30717 30718 30719 30720 30721 30722 30723 30724 30725 30726 30727 30728 30729 30730 30731 30732 30733 30734 30735 30736 30737 30738 30739 30740 30741 30742 30743 30744 30745 30746 30747 30748 30749 30750 30751 30752 30753 30754 30755 30756 30757 30758 30759 30760 30761 30762 30763 30764 30765 30766 30767 30768 30769 30770 30771 30772 30773 30774 30775 30776 30777 30778 30779 30780 30781 30782 30783 30784 30785 30786 30787 30788 30789 30790 30791 30792 30793 30794 30795 30796 30797 30798 30799 30800 30801 30802 30803 30804 30805 30806 30807 30808 30809 30810 30811 30812 30813 30814 30815 30816 30817 30818 30819 30820 30821 30822 30823 30824 30825 30826 30827 30828 30829 30830 30831 30832 30833 30834 30835 30836 30837 30838 30839 30840 30841 30842 30843 30844 30845 30846 30847 30848 30849 30850 30851 30852 30853 30854 30855 30856 30857 30858 30859 30860 30861 30862 30863 30864 30865 30866 30867 30868 30869 30870 30871 30872 30873 30874 30875 30876 30877 30878 30879 30880 30881 30882 30883 30884 30885 30886 30887 30888 30889 30890 30891 30892 30893 30894 30895 30896 30897 30898 30899 30900 30901 30902 30903 30904 30905 30906 30907 30908 30909 30910 30911 30912 30913 30914 30915 30916 30917 30918 30919 30920 30921 30922 30923 30924 30925 30926 30927 30928 30929 30930 30931 30932 30933 30934 30935 30936 30937 30938 30939 30940 30941 30942 30943 30944 30945 30946 30947 30948 30949 30950 30951 30952 30953 30954 30955 30956 30957 30958 30959 30960 30961 30962 30963 30964 30965 30966 30967 30968 30969 30970 30971 30972 30973 30974 30975 30976 30977 30978 30979 30980 30981 30982 30983 30984 30985 30986 30987 30988 30989 30990 30991 30992 30993 30994 30995 30996 30997 30998 30999 31000 31001 31002 31003 31004 31005 31006 31007 31008 31009 31010 31011 31012 31013 31014 31015 31016 31017 31018 31019 31020 31021 31022 31023 31024 31025 31026 31027 31028 31029 31030 31031 31032 31033 31034 31035 31036 31037 31038 31039 31040 31041 31042 31043 31044 31045 31046 31047 31048 31049 31050 31051 31052 31053 31054 31055 31056 31057 31058 31059 31060 31061 31062 31063 31064 31065 31066 31067 31068 31069 31070 31071 31072 31073 31074 31075 31076 31077 31078 31079 31080 31081 31082 31083 31084 31085 31086 31087 31088 31089 31090 31091 31092 31093 31094 31095 31096 31097 31098 31099 31100 31101 31102 31103 31104 31105 31106 31107 31108 31109 31110 31111 31112 31113 31114 31115 31116 31117 31118 31119 31120 31121 31122 31123 31124 31125 31126 31127 31128 31129 31130 31131 31132 31133 31134 31135 31136 31137 31138 31139 31140 31141 31142 31143 31144 31145 31146 31147 31148 31149 31150 31151 31152 31153 31154 31155 31156 31157 31158 31159 31160 31161 31162 31163 31164 31165 31166 31167 31168 31169 31170 31171 31172 31173 31174 31175 31176 31177 31178 31179 31180 31181 31182 31183 31184 31185 31186 31187 31188 31189 31190 31191 31192 31193 31194 31195 31196 31197 31198 31199 31200 31201 31202 31203 31204 31205 31206 31207 31208 31209 31210 31211 31212 31213 31214 31215 31216 31217 31218 31219 31220 31221 31222 31223 31224 31225 31226 31227 31228 31229 31230 31231 31232 31233 31234 31235 31236 31237 31238 31239 31240 31241 31242 31243 31244 31245 31246 31247 31248 31249 31250 31251 31252 31253 31254 31255 31256 31257 31258 31259 31260 31261 31262 31263 31264 31265 31266 31267 31268 31269 31270 31271 31272 31273 31274 31275 31276 31277 31278 31279 31280 31281 31282 31283 31284 31285 31286 31287 31288 31289 31290 31291 31292 31293 31294 31295 31296 31297 31298 31299 31300 31301 31302 31303 31304 31305 31306 31307 31308 31309 31310 31311 31312 31313 31314 31315 31316 31317 31318 31319 31320 31321 31322 31323 31324 31325 31326 31327 31328 31329 31330 31331 31332 31333 31334 31335 31336 31337 31338 31339 31340 31341 31342 31343 31344 31345 31346 31347 31348 31349 31350 31351 31352 31353 31354 31355 31356 31357 31358 31359 31360 31361 31362 31363 31364 31365 31366 31367 31368 31369 31370 31371 31372 31373 31374 31375 31376 31377 31378 31379 31380 31381 31382 31383 31384 31385 31386 31387 31388 31389 31390 31391 31392 31393 31394 31395 31396 31397 31398 31399 31400 31401 31402 31403 31404 31405 31406 31407 31408 31409 31410 31411 31412 31413 31414 31415 31416 31417 31418 31419 31420 31421 31422 31423 31424 31425 31426 31427 31428 31429 31430 31431 31432 31433 31434 31435 31436 31437 31438 31439 31440 31441 31442 31443 31444 31445 31446 31447 31448 31449 31450 31451 31452 31453 31454 31455 31456 31457 31458 31459 31460 31461 31462 31463 31464 31465 31466 31467 31468 31469 31470 31471 31472 31473 31474 31475 31476 31477 31478 31479 31480 31481 31482 31483 31484 31485 31486 31487 31488 31489 31490 31491 31492 31493 31494 31495 31496 31497 31498 31499 31500 31501 31502 31503 31504 31505 31506 31507 31508 31509 31510 31511 31512 31513 31514 31515 31516 31517 31518 31519 31520 31521 31522 31523 31524 31525 31526 31527 31528 31529 31530 31531 31532 31533 31534 31535 31536 31537 31538 31539 31540 31541 31542 31543 31544 31545 31546 31547 31548 31549 31550 31551 31552 31553 31554 31555 31556 31557 31558 31559 31560 31561 31562 31563 31564 31565 31566 31567 31568 31569 31570 31571 31572 31573 31574 31575 31576 31577 31578 31579 31580 31581 31582 31583 31584 31585 31586 31587 31588 31589 31590 31591 31592 31593 31594 31595 31596 31597 31598 31599 31600 31601 31602 31603 31604 31605 31606 31607 31608 31609 31610 31611 31612 31613 31614 31615 31616 31617 31618 31619 31620 31621 31622 31623 31624 31625 31626 31627 31628 31629 31630 31631 31632 31633 31634 31635 31636 31637 31638 31639 31640 31641 31642 31643 31644 31645 31646 31647 31648 31649 31650 31651 31652 31653 31654 31655 31656 31657 31658 31659 31660 31661 31662 31663 31664 31665 31666 31667 31668 31669 31670 31671 31672 31673 31674 31675 31676 31677 31678 31679 31680 31681 31682 31683 31684 31685 31686 31687 31688 31689 31690 31691 31692 31693 31694 31695 31696 31697 31698 31699 31700 31701 31702 31703 31704 31705 31706 31707 31708 31709 31710 31711 31712 31713 31714 31715 31716 31717 31718 31719 31720 31721 31722 31723 31724 31725 31726 31727 31728 31729 31730 31731 31732 31733 31734 31735 31736 31737 31738 31739 31740 31741 31742 31743 31744 31745 31746 31747 31748 31749 31750 31751 31752 31753 31754 31755 31756 31757 31758 31759 31760 31761 31762 31763 31764 31765 31766 31767 31768 31769 31770 31771 31772 31773 31774 31775 31776 31777 31778 31779 31780 31781 31782 31783 31784 31785 31786 31787 31788 31789 31790 31791 31792 31793 31794 31795 31796 31797 31798 31799 31800 31801 31802 31803 31804 31805 31806 31807 31808 31809 31810 31811 31812 
</DataArray>
<DataArray type="UInt32" Name="offsets" format="ascii">
3 6 8 11 14 17 20 23 26 29 32 35 38 41 44 47 50 53 56 59 62 65 68 71 74 77 80 83 86 89 92 95 98 101 104 107 110 113 116 119 121 124 127 129 132 134 136 139 142 145 148 150 153 155 157 160 163 166 168 171 174 177 179 182 185 188 191 194 197 200 203 206 209 211 214 217 220 223 226 229 232 234 236 239 242 244 247 250 252 254 257 260 262 265 268 271 274 277 280 283 286 289 292 295 298 301 303 306 309 312 315 318 321 324 326 329 332 335 337 340 343 346 349 351 354 357 360 363 366 369 372 375 377 380 383 385 388 391 394 397 400 403 406 409 412 415 418 420 423 426 428 431 434 437 440 443 446 449 452 455 458 461 464 467 470 473 475 478 481 484 487 490 493 496 499 501 504 507 510 512 515 518 521 524 527 530 533 536 539 541 544 547 550 553 556 559 561 564 567 570 573 576 579 582 584 586 589 592 595 598 601 603 605 607 609 612 615 618 620 623 626 629 631 634 637 640 643 645 648 651 654 656 659 661 664 667 670 673 676 679 682 684 687 690 693 696 699 702 704 707 710 713 716 718 721 724 726 729 732 734 737 740 743 746 749 751 754 757 760 763 766 768 771 774 777 779 782 785 788 791 793 796 799 802 805 808 811 814 817 820 823 826 829 832 835 837 840 843 845 848 850 852 855 857 860 863 866 869 872 875 877 880 883 886 889 892 895 897 900 902 905 908 911 913 916 919 921 923 926 929 932 934 937 939 942 944 947 950 953 956 958 961 964 967 969 971 974 976 979 982 985 987 990 993 995 998 1001 1004 1007 1010 1013 1016 1019 1022 1025 1028 1031 1034 1037 1040 1043 1046 1048 1051 1054 1057 1060 1063 1066 1069 1071 1074 1077 1080 1083 1086 1089 1092 1095 1098 1101 1104 1107 1110 1113 1116 1119 1122 1125 1128 1131 1134 1137 1140 1143 1146 1149 1152 1155 1158 1161 1164 1167 1170 1173 1176 1179 1182 1185 1188 1191 1194 1197 1199 1201 1204 1206 1209 1212 1215 1218 1221 1224 1227 1230 1233 1236 1239 1242 1244 1247 1250 1253 1256 1259 1262 1265 1267 1270 1273 1276 1279 1281 1284 1287 1290 1293 1296 1299 1302 1305 1308 1310 1313 1316 1319 1322 1325 1328 1331 1333 1336 1339 1342 1345 1348 1351 1353 1356 1359 1362 1365 1368 1371 1373 1376 1378 1381 1384 1387 1390 1393 1396 1398 1401 1404 1407 1410 1412 1415 1418 1420 1423 1426 1429 1432 1435 1438 1441 1443 1446 1449 1452 1455 1457 1460 1462 1464 1467 1470 1473 1475 1477 1479 1482 1485 1487 1490 1492 1495 1497 1499 1502 1505 1508 1510 1513 1516 1518 1521 1524 1527 1530 1533 1536 1539 1542 1545 1548 1551 1554 1557 1559 1562 1564 1567 1570 1572 1575 1577 1580 1582 1585 1588 1591 1594 1596 1599 1602 1605 1608 1611 1614 1617 1620 1623 1626 1629 1632 1635 1637 1640 1643 1646 1648 1651 1653 1656 1659 1662 1665 1668 1671 1674 1677 1680 1683 1686 1688 1691 1694 1697 1700 1703 1706 1709 1712 1715 1718 1721 1724 1727 1730 1733 1736 1739 1742 1745 1748 1751 1754 1757 1760 1763 1766 1769 1772 1775 1778 1781 1784 1787 1790 1793 1796 1799 1802 1805 1808 1811 1813 1816 1819 1822 1825 1828 1831 1833 1835 1838 1841 1844 1847 1850 1852 1855 1858 1861 1864 1867 1870 1873 1876 1879 1882 1885 1887 1890 1893 1895 1898 1901 1904 1907 1910 1913 1916 1919 1922 1925 1928 1931 1934 1937 1940 1943 1946 1949 1952 1955 1958 1961 1964 1967 1970 1973 1976 1979 1982 1985 1988 1991 1994 1997 2000 2003 2006 2009 2012 2015 2018 2021 2024 2026 2029 2031 2034 2037 2039 2041 2044 2047 2050 2053 2056 2059 2062 2065 2068 2071 2074 2077 2080 2083 2086 2089 2091 2094 2097 2100 2103 2105 2108 2111 2114 2117 2120 2123 2126 2129 2132 2135 2138 2141 2143 2146 2148 2150 2152 2155 2158 2161 2164 2166 2168 2170 2173 2176 2179 2182 2184 2187 2190 2192 2195 2198 2201 2204 2207 2210 2213 2216 2219 2222 2225 2228 2231 2234 2237 2240 2243 2246 2249 2252 2254 2257 2260 2263 2266 2269 2272 2274 2277 2280 2283 2286 2288 2291 2294 2297 2300 2303 2306 2309 2312 2315 2318 2321 2324 2327 2330 2333 2336 2339 2342 2345 2348 2350 2353 2356 2359 2362 2365 2368 2371 2374 2376 2379 2382 2385 2387 2390 2393 2395 2397 2400 2403 2406 2409 2412 2414 2417 2420 2423 2425 2427 2429 2432 2435 2438 2441 2444 2446 2449 2452 2455 2458 2461 2464 2467 2470 2473 2476 2479 2482 2485 2488 2490 2493 2496 2499 2502 2505 2508 2511 2514 2517 2520 2523 2526 2529 2532 2535 2538 2541 2544 2546 2549 2552 2555 2558 2561 2564 2567 2570 2573 2576 2579 2582 2585 2588 2591 2593 2596 2599 2602 2605 2608 2610 2613 2616 2619 2621 2624 2627 2630 2633 2635 2638 2640 2643 2646 2649 2652 2654 2657 2660 2663 2666 2669 2672 2675 2678 2681 2684 2687 2690 2693 2696 2699 2702 2705 2708 2710 2713 2716 2719 2722 2724 2726 2729 2732 2735 2737 2740 2743 2746 2748 2751 2754 2757 2760 2763 2766 2769 2772 2774 2777 2779 2782 2785 2788 2791 2793 2796 2799 2802 2805 2808 2811 2814 2816 2819 2822 2825 2828 2831 2834 2837 2840 2843 2846 2849 2852 2855 2858 2861 2863 2866 2869 2871 2874 2877 2880 2882 2885 2888 2891 2894 2897 2900 2902 2904 2907 2910 2912 2915 2918 2921 2924 2927 2929 2931 2934 2937 2940 2943 2946 2949 2952 2955 2957 2960 2963 2966 2969 2972 2975 2977 2980 2983 2986 2989 2992 2994 2997 3000 3003 3006 3009 3012 3014 3017 3019 3022 3025 3027 3030 3033 3036 3039 3042 3045 3048 3051 3054 3057 3060 3062 3064 3067 3070 3072 3075 3078 3080 3083 3086 3088 3091 3093 3096 3099 3102 3105 3108 3110 3113 3116 3119 3122 3125 3128 3131 3134 3137 3140 3143 3146 3149 3152 3155 3158 3161 3163 3166 3169 3171 3174 3177 3179 3182 3185 3188 3191 3194 3196 3199 3202 3205 3208 3211 3213 3216 3219 3222 3224 3227 3230 3232 3235 3238 3241 3244 3246 3249 3252 3255 3258 3261 3264 3267 3269 3271 3274 3277 3280 3283 3285 3288 3291 3294 3297 3300 3303 3306 3309 3312 3315 3318 3321 3324 3327 3330 3333 3336 3339 3341 3344 3347 3350 3353 3356 3359 3362 3364 3367 3370 3373 3376 3378 3381 3384 3387 3390 3393 3396 3399 3402 3405 3407 3410 3413 3415 3418 3421 3424 3427 3430 3432 3434 3436 3438 3441 3443 3445 3448 3451 3454 3456 3459 3462 3465 3467 3470 3472 3475 3478 3480 3483 3486 3489 3491 3494 3497 3500 3503 3505 3508 3510 3513 3515 3518 3521 3523 3526 3528 3531 3534 3537 3540 3543 3546 3549 3552 3555 3558 3561 3564 3567 3570 3572 3575 3578 3581 3583 3586 3589 3592 3595 3598 3601 3604 3607 3610 3613 3616 3619 3622 3624 3627 3630 3633 3636 3639 3642 3645 3648 3651 3654 3657 3659 3662 3665 3668 3670 3673 3676 3679 3682 3685 3688 3691 3694 3697 3700 3703 3706 3709 3712 3715 3718 3721 3724 3727 3730 3733 3736 3739 3742 3745 3748 3751 3754 3756 3759 3762 3765 3768 3771 3773 3776 3779 3782 3784 3787 3790 3793 3796 3799 3802 3805 3808 3811 3814 3817 3820 3823 3826 3829 3832 3835 3838 3841 3844 3847 3850 3852 3855 3858 3861 3864 3866 3868 3871 3874 3877 3880 3883 3886 3889 3892 3895 3897 3900 3903 3906 3909 3912 3915 3918 3921 3924 3926 3929 3932 3935 3938 3941 3943 3946 3949 3951 3954 3956 3959 3962 3964 3966 3969 3971 3974 3977 3980 3982 3985 3988 3990 3993 3996 3999 4001 4004 4006 4009 4012 4015 4018 4021 4024 4027 4030 4033 4036 4038 4041 4044 4047 4050 4053 4056 4059 4062 4065 4068 4071 4074 4077 4080 4083 4086 4089 4092 4095 4098 4101 4104 4106 4109 4112 4115 4118 4121 4123 4126 4129 4132 4135 4138 4140 4143 4146 4149 4152 4155 4158 4161 4164 4167 4170 4173 4176 4179 4182 4185 4188 4191 4194 4197 4200 4203 4206 4209 4211 4214 4217 4219 4222 4225 4228 4231 4234 4237 4240 4243 4246 4249 4252 4255 4258 4260 4263 4266 4269 4272 4275 4278 4281 4283 4285 4287 4290 4292 4295 4298 4301 4304 4307 4310 4312 4315 4317 4319 4322 4325 4328 4331 4334 4337 4340 4343 4346 4349 4352 4355 4358 4361 4364 4367 4370 4373 4376 4379 4381 4383 4386 4389 4392 4394 4396 4399 4402 4405 4408 4411 4414 4417 4420 4423 4426 4429 4432 4435 4438 4441 4443 4446 4448 4451 4454 4457 4459 4462 4465 4467 4470 4473 4476 4479 4482 4485 4487 4490 4492 4495 4498 4501 4504 4507 4510 4513 4516 4519 4522 4524 4527 4530 4533 4536 4539 4542 4545 4548 4551 4553 4555 4558 4561 4564 4567 4570 4573 4576 4578 4580 4583 4586 4589 4591 4594 4596 4599 4602 4605 4608 4611 4613 4616 4618 4621 4624 4626 4629 4632 4635 4638 4641 4644 4647 4649 4652 4655 4657 4660 4663 4666 4669 4672 4675 4678 4681 4683 4686 4689 4692 4695 4698 4701 4703 4706 4709 4712 4715 4718 4720 4723 4726 4729 4732 4735 4737 4740 4743 4746 4749 4751 4754 4757 4760 4763 4765 4767 4769 4772 4775 4777 4780 4782 4785 4788 4791 4794 4797 4800 4803 4806 4809 4811 4814 4817 4820 4822 4825 4828 4831 4833 4835 4838 4841 4844 4846 4849 4852 4855 4858 4861 4864 4867 4870 4873 4876 4879 4882 4885 4888 4891 4894 4896 4899 4902 4905 4908 4911 4914 4917 4920 4923 4926 4929 4932 4935 4938 4941 4944 4947 4950 4953 4956 4959 4962 4965 4967 4970 4973 4976 4978 4981 4984 4987 4990 4993 4996 4999 5002 5005 5008 5011 5014 5016 5019 5022 5024 5027 5030 5033 5036 5039 5042 5045 5048 5051 5054 5057 5060 5063 5066 5069 5072 5075 5078 5081 5084 5087 5090 5093 5096 5099 5102 5105 5108 5111 5114 5117 5120 5123 5126 5129 5132 5135 5138 5140 5143 5146 5149 5152 5155 5158 5161 5164 5166 5169 5172 5175 5178 5181 5184 5187 5190 5193 5196 5199 5202 5205 5208 5211 5214 5217 5220 5223 5226 5229 5231 5234 5237 5240 5242 5245 5248 5251 5253 5255 5258 5261 5264 5267 5270 5273 5276 5279 5282 5285 5288 5291 5294 5297 5300 5303 5306 5309 5312 5315 5317 5320 5323 5326 5329 5332 5335 5338 5341 5343 5346 5349 5352 5354 5357 5360 5363 5366 5368 5371 5373 5376 5379 5381 5384 5387 5390 5392 5395 5397 5400 5402 5405 5408 5411 5414 5417 5420 5423 5426 5429 5432 5435 5437 5440 5443 5445 5448 5451 5454 5457 5460 5463 5466 5468 5471 5474 5477 5480 5483 5486 5489 5492 5495 5498 5501 5504 5507 5510 5513 5516 5519 5522 5525 5528 5531 5534 5537 5540 5543 5546 5549 5552 5555 5558 5560 5563 5566 5569 5571 5574 5577 5580 5583 5586 5589 5592 5594 5597 5600 5603 5606 5608 5611 5614 5617 5620 5622 5625 5627 5630 5633 5636 5639 5642 5645 5647 5649 5652 5655 5658 5661 5664 5667 5669 5672 5675 5678 5681 5684 5687 5690 5693 5696 5699 5702 5704 5707 5710 5713 5716 5718 5721 5724 5727 5729 5732 5735 5738 5741 5744 5747 5750 5753 5756 5759 5762 5765 5768 5771 5774 5777 5780 5783 5786 5789 5792 5795 5798 5801 5804 5807 5810 5813 5816 5819 5822 5825 5828 5831 5834 5836 5839 5842 5845 5848 5851 5854 5857 5860 5863 5866 5869 5872 5875 5878 5881 5884 5887 5890 5893 5896 5899 5901 5904 5907 5910 5913 5916 5919 5922 5925 5928 5931 5934 5937 5940 5943 5945 5948 5951 5954 5957 5960 5963 5966 5969 5972 5975 5978 5981 5984 5987 5990 5993 5995 5998 6001 6003 6006 6009 6012 6015 6018 6021 6024 6027 6030 6033 6035 6038 6040 6042 6044 6047 6050 6052 6054 6057 6060 6062 6065 6068 6071 6073 6076 6079 6082 6085 6088 6091 6094 6097 6099 6102 6105 6108 6111 6114 6116 6119 6122 6125 6128 6130 6133 6135 6138 6141 6143 6145 6147 6150 6153 6156 6159 6162 6165 6168 6171 6174 6177 6180 6183 6186 6189 6192 6195 6198 6201 6204 6206 6209 6212 6215 6217 6220 6223 6225 6228 6231 6233 6236 6239 6241 6244 6247 6250 6252 6255 6258 6261 6263 6266 6269 6272 6275 6278 6281 6284 6287 6290 6292 6295 6298 6301 6304 6307 6310 6313 6316 6319 6322 6325 6328 6331 6334 6337 6340 6343 6346 6349 6352 6355 6358 6360 6363 6366 6369 6372 6375 6378 6381 6384 6387 6390 6393 6396 6399 6402 6405 6408 6411 6414 6417 6420 6423 6426 6429 6431 6434 6436 6438 6441 6443 6446 6449 6452 6455 6457 6460 6463 6466 6469 6472 6475 6478 6480 6482 6485 6488 6491 6494 6497 6500 6503 6506 6509 6511 6514 6517 6520 6522 6525 6528 6531 6533 6536 6539 6542 6545 6548 6551 6554 6557 6560 6563 6566 6569 6572 6575 6578 6581 6584 6587 6590 6593 6596 6599 6602 6605 6608 6611 6614 6617 6620 6623 6626 6629 6632 6635 6638 6641 6644 6647 6650 6653 6656 6659 6661 6664 6667 6670 6673 6676 6678 6681 6684 6687 6690 6693 6696 6699 6702 6705 6708 6711 6714 6717 6720 6723 6726 6728 6730 6733 6735 6738 6741 6744 6747 6749 6752 6754 6757 6760 6763 6766 6769 6772 6775 6778 6781 6784 6786 6789 6792 6795 6798 6800 6803 6806 6809 6812 6815 6818 6821 6824 6826 6829 6832 6835 6837 6840 6843 6846 6849 6852 6855 6858 6861 6863 6866 6869 6871 6874 6877 6880 6883 6886 6889 6892 6895 6898 6901 6904 6907 6910 6913 6916 6918 6921 6923 6926 6929 6932 6935 6937 6940 6943 6946 6949 6952 6954 6957 6959 6962 6965 6968 6971 6974 6977 6980 6983 6986 6989 6992 6995 6998 7001 7004 7007 7010 7013 7016 7019 7022 7025 7028 7031 7034 7037 7040 7043 7046 7049 7051 7054 7057 7060 7063 7066 7069 7071 7074 7077 7079 7081 7084 7087 7090 7093 7096 7099 7101 7104 7106 7109 7112 7115 7117 7120 7123 7126 7129 7132 7135 7138 7140 7143 7146 7148 7151 7154 7157 7160 7163 7166 7168 7171 7174 7177 7180 7183 7186 7189 7192 7195 7198 7200 7203 7206 7208 7211 7214 7216 7219 7222 7225 7228 7231 7234 7237 7240 7243 7246 7249 7251 7254 7257 7260 7263 7266 7269 7272 7275 7278 7281 7284 7287 7290 7293 7296 7298 7301 7304 7306 7309 7312 7314 7317 7319 7322 7325 7328 7331 7334 7337 7340 7343 7346 7348 7350 7353 7356 7359 7362 7365 7368 7371 7374 7376 7379 7382 7385 7388 7391 7394 7396 7398 7401 7404 7406 7409 7412 7415 7418 7421 7423 7426 7429 7431 7434 7436 7439 7442 7444 7447 7450 7453 7455 7458 7461 7464 7466 7469 7472 7475 7478 7481 7483 7486 7489 7492 7494 7497 7500 7503 7505 7508 7511 7513 7515 7518 7521 7523 7526 7529 7532 7535 7538 7541 7544 7547 7550 7552 7555 7558 7561 7564 7567 7570 7573 7576 7579 7582 7585 7588 7591 7594 7597 7600 7603 7606 7609 7612 7615 7617 7620 7623 7625 7628 7631 7634 7637 7640 7643 7645 7648 7651 7654 7657 7660 7663 7666 7669 7672 7675 7677 7680 7683 7686 7688 7691 7694 7697 7700 7702 7704 7707 7710 7713 7715 7718 7721 7724 7727 7730 7733 7736 7738 7741 7744 7747 7750 7753 7756 7758 7761 7764 7767 7769 7772 7775 7778 7781 7784 7787 7790 7793 7796 7799 7802 7805 7808 7810 7812 7815 7818 7821 7823 7826 7829 7832 7835 7837 7840 7843 7846 7849 7852 7855 7858 7861 7864 7867 7870 7873 7876 7879 7881 7884 7887 7890 7893 7896 7899 7901 7904 7907 7909 7912 7915 7918 7921 7923 7926 7929 7932 7935 7937 7940 7943 7946 7949 7951 7953 7956 7959 7962 7965 7968 7971 7974 7977 7979 7982 7984 7987 7990 7992 7995 7998 8001 8003 8005 8007 8009 8012 8015 8018 8021 8024 8027 8029 8032 8035 8037 8040 8043 8046 8049 8052 8055 8057 8060 8063 8066 8068 8071 8073 8076 8079 8082 8084 8087 8089 8092 8095 8097 8099 8102 8105 8108 8111 8114 8116 8119 8122 8125 8128 8130 8133 8136 8139 8142 8144 8147 8150 8153 8155 8158 8160 8162 8165 8168 8171 8174 8177 8180 8183 8185 8188 8191 8194 8197 8199 8201 8204 8206 8209 8211 8213 8215 8218 8221 8224 8227 8229 8232 8235 8237 8240 8242 8245 8248 8250 8253 8256 8259 8262 8265 8268 8271 8273 8276 8279 8281 8284 8287 8290 8293 8296 8299 8302 8305 8308 8310 8313 8316 8319 8322 8325 8327 8330 8332 8335 8337 8340 8343 8345 8348 8351 8354 8356 8359 8362 8365 8367 8370 8373 8376 8378 8381 8384 8387 8390 8393 8395 8398 8401 8404 8407 8410 8412 8415 8418 8420 8422 8425 8428 8430 8433 8436 8439 8441 8444 8447 8450 8453 8456 8459 8461 8463 8466 8468 8471 8474 8476 8479 8482 8485 8487 8490 8493 8496 8499 8502 8505 8508 8511 8514 8517 8520 8523 8526 8529 8532 8535 8538 8541 8543 8546 8549 8552 8554 8557 8560 8563 8566 8569 8571 8574 8577 8580 8583 8586 8589 8592 8595 8598 8601 8604 8607 8610 8612 8615 8618 8621 8624 8627 8630 8633 8636 8639 8642 8645 8648 8651 8654 8657 8660 8663 8666 8669 8672 8674 8677 8680 8683 8686 8689 8692 8694 8697 8700 8703 8706 8709 8712 8715 8718 8721 8724 8727 8730 8733 8736 8738 8741 8744 8747 8750 8753 8755 8758 8761 8764 8767 8770 8773 8776 8779 8782 8785 8788 8791 8794 8797 8800 8803 8806 8808 8811 8814 8817 8819 8822 8825 8828 8831 8834 8837 8840 8843 8846 8849 8852 8855 8858 8861 8864 8867 8870 8873 8876 8879 8882 8885 8888 8891 8894 8897 8900 8903 8905 8908 8911 8913 8916 8918 8920 8923 8926 8929 8931 8934 8937 8940 8943 8946 8949 8952 8955 8958 8961 8964 8967 8970 8973 8976 8979 8981 8984 8986 8989 8992 8995 8998 9001 9004 9006 9009 9012 9015 9018 9021 9024 9027 9030 9033 9036 9038 9041 9044 9046 9049 9051 9053 9056 9059 9062 9064 9067 9070 9073 9076 9079 9082 9085 9087 9090 9093 9096 9099 9102 9104 9107 9109 9112 9114 9117 9119 9122 9125 9128 9131 9134 9137 9140 9142 9145 9148 9151 9154 9157 9160 9162 9165 9168 9170 9173 9176 9179 9181 9184 9187 9190 9193 9196 9199 9201 9204 9207 9210 9213 9216 9219 9222 9224 9227 9230 9232 9234 9237 9240 9242 9244 9247 9250 9252 9255 9258 9261 9264 9267 9270 9273 9276 9279 9281 9283 9286 9288 9291 9294 9296 9299 9301 9304 9307 9310 9313 9316 9319 9322 9325 9328 9331 9334 9337 9340 9343 9346 9348 9351 9354 9357 9360 9363 9366 9369 9372 9375 9377 9379 9382 9384 9387 9389 9391 9394 9397 9400 9403 9405 9408 9410 9413 9416 9418 9421 9424 9427 9430 9432 9434 9436 9438 9441 9444 9446 9448 9451 9454 9456 9459 9461 9463 9466 9469 9471 9474 9476 9479 9482 9485 9487 9490 9493 9495 9497 9500 9503 9506 9509 9512 9515 9518 9521 9524 9527 9530 9533 9535 9538 9541 9544 9547 9549 9552 9555 9557 9560 9563 9565 9568 9570 9573 9576 9578 9580 9583 9586 9588 9591 9594 9596 9599 9602 9605 9607 9610 9613 9616 9619 9622 9625 9628 9631 9634 9636 9639 9642 9645 9648 9651 9653 9656 9658 9661 9664 9666 9669 9672 9675 9677 9680 9683 9686 9689 9691 9694 9696 9698 9701 9704 9707 9710 9713 9716 9719 9722 9725 9728 9731 9734 9737 9739 9742 9745 9748 9751 9754 9757 9760 9763 9766 9769 9772 9774 9777 9780 9783 9786 9788 9790 9793 9796 9798 9801 9804 9806 9809 9812 9814 9817 9820 9823 9825 9828 9830 9833 9835 9837 9840 9843 9846 9849 9851 9854 9856 9859 9862 9865 9868 9871 9874 9877 9879 9882 9885 9888 9891 9893 9895 9898 9901 9903 9906 9908 9910 9913 9916 9919 9922 9925 9928 9931 9934 9937 9940 9943 9946 9949 9951 9954 9957 9959 9962 9965 9968 9971 9974 9977 9980 9983 9986 9989 9992 9995 9998 10001 10004 10007 10010 10013 10016 10018 10021 10023 10026 10029 10032 10034 10037 10039 10042 10044 10047 10050 10053 10056 10059 10062 10065 10068 10071 10074 10077 10080 10083 10086 10088 10091 10094 10097 10099 10102 10105 10107 10110 10113 10115 10118 10121 10124 10127 10130 10133 10136 10139 10142 10145 10148 10151 10154 10156 10159 10162 10164 10167 10170 10173 10176 10179 10182 10185 10187 10190 10193 10196 10199 10201 10204 10207 10209 10212 10214 10217 10220 10223 10226 10229 10231 10234 10237 10240 10243 10245 10248 10251 10254 10256 10259 10262 10264 10267 10270 10273 10276 10278 10281 10284 10287 10290 10293 10296 10299 10301 10304 10307 10310 10313 10316 10319 10322 10325 10328 10331 10334 10337 10340 10342 10345 10348 10351 10354 10357 10360 10363 10366 10369 10372 10375 10378 10381 10384 10387 10390 10393 10395 10398 10401 10404 10407 10409 10412 10415 10418 10421 10424 10427 10430 10433 10435 10438 10441 10444 10447 10450 10453 10456 10459 10462 10465 10468 10471 10474 10477 10480 10483 10486 10489 10492 10495 10498 10501 10504 10507 10510 10513 10516 10519 10522 10525 10528 10531 10534 10537 10540 10543 10545 10548 10551 10554 10557 10560 10563 10566 10569 10572 10575 10578 10581 10584 10587 10590 10593 10596 10598 10601 10604 10607 10610 10612 10615 10617 10620 10623 10626 10629 10632 10635 10638 10641 10644 10647 10649 10652 10654 10657 10660 10663 10666 10669 10671 10674 10677 10680 10682 10685 10687 10690 10692 10695 10698 10701 10704 10707 10710 10713 10716 10719 10722 10725 10728 10731 10734 10737 10740 10743 10745 10748 10751 10754 10757 10760 10763 10766 10768 10770 10773 10776 10779 10781 10783 10786 10788 10791 10794 10797 10800 10802 10805 10808 10811 10813 10815 10818 10821 10824 10827 10830 10833 10836 10839 10842 10845 10848 10850 10853 10856 10858 10861 10864 10866 10869 10872 10875 10878 10881 10884 10886 10889 10892 10895 10898 10901 10904 10907 10910 10913 10916 10919 10922 10925 10928 10931 10934 10937 10940 10943 10946 10948 10951 10954 10956 10959 10962 10965 10967 10969 10972 10975 10978 10980 10983 10986 10989 10991 10994 10997 11000 11003 11005 11008 11011 11014 11017 11020 11023 11026 11029 11032 11035 11038 11041 11044 11047 11050 11053 11055 11058 11060 11063 11066 11069 11072 11075 11078 11081 11084 11087 11089 11092 11095 11097 11100 11103 11106 11109 11111 11114 11117 11120 11123 11126 11128 11131 11134 11137 11140 11143 11146 11149 11152 11155 11158 11161 11164 11167 11170 11172 11175 11178 11181 11184 11187 11189 11192 11195 11198 11200 11203 11206 11208 11211 11214 11216 11219 11222 11225 11228 11231 11234 11237 11240 11243 11245 11248 11251 11254 11257 11259 11261 11264 11267 11270 11272 11275 11277 11280 11283 11286 11289 11292 11295 11298 11301 11304 11307 11310 11313 11316 11319 11322 11325 11328 11330 11333 11335 11338 11341 11343 11346 11349 11352 11354 11357 11360 11362 11365 11368 11371 11374 11377 11380 11383 11385 11388 11391 11394 11397 11400 11403 11406 11409 11412 11415 11418 11421 11423 11426 11429 11432 11435 11438 11440 11443 11446 11448 11451 11454 11457 11459 11462 11465 11467 11470 11473 11475 11478 11480 11483 11485 11488 11491 11494 11497 11499 11501 11504 11507 11510 11513 11516 11519 11522 11525 11528 11531 11533 11536 11539 11542 11544 11547 11549 11552 11555 11558 11560 11563 11566 11569 11571 11574 11577 11579 11581 11584 11587 11590 11593 11596 11599 11602 11605 11608 11611 11614 11616 11619 11622 11625 11627 11629 11632 11635 11637 11640 11643 11646 11649 11652 11654 11656 11659 11662 11665 11668 11671 11674 11677 11680 11682 11685 11688 11690 11693 11696 11699 11701 11704 11707 11710 11713 11716 11719 11722 11725 11728 11730 11733 11736 11739 11741 11744 11747 11750 11753 11755 11758 11761 11764 11767 11770 11773 11776 11778 11781 11784 11787 11790 11793 11795 11798 11801 11804 11807 11810 11813 11816 11819 11822 11825 11828 11831 11834 11837 11840 11843 11846 11848 11851 11854 11857 11860 11863 11866 11868 11871 11874 11877 11880 11883 11886 11889 11892 11895 11898 11901 11904 11907 11910 11913 11916 11919 11922 11925 11928 11931 11934 11937 11939 11942 11944 11947 11950 11953 11956 11959 11962 11965 11968 11971 11973 11976 11979 11982 11984 11987 11990 11993 11996 11999 12002 12005 12008 12011 12014 12017 12020 12023 12026 12029 12032 12035 12038 12041 12044 12047 12050 12053 12056 12059 12062 12065 12068 12071 12073 12076 12079 12082 12085 12088 12091 12094 12097 12100 12102 12105 12108 12111 12114 12117 12120 12123 12126 12129 12132 12135 12138 12141 12144 12147 12150 12153 12156 12159 12162 12165 12168 12171 12174 12176 12178 12181 12184 12187 12190 12193 12196 12199 12202 12205 12208 12210 12213 12216 12219 12222 12225 12227 12230 12233 12236 12238 12241 12244 12246 12249 12252 12255 12258 12261 12263 12266 12269 12272 12275 12278 12281 12283 12286 12289 12291 12294 12297 12299 12302 12304 12307 12310 12312 12314 12317 12320 12322 12324 12327 12329 12332 12335 12338 12341 12344 12347 12349 12352 12355 12358 12361 12364 12366 12369 12371 12374 12377 12379 12381 12384 12387 12390 12393 12396 12399 12402 12405 12408 12411 12414 12417 12420 12422 12425 12427 12430 12433 12436 12439 12442 12445 12448 12451 12454 12457 12460 12463 12466 12469 12472 12475 12478 12481 12484 12487 12489 12491 12494 12497 12500 12503 12506 12509 12512 12515 12518 12521 12523 12526 12529 12532 12535 12538 12541 12544 12547 12550 12552 12555 12558 12561 12563 12566 12569 12571 12574 12576 12579 12582 12585 12587 12590 12593 12595 12598 12601 12604 12607 12610 12613 12616 12619 12622 12625 12628 12631 12634 12637 12640 12643 12646 12649 12652 12655 12658 12660 12663 12666 12669 12672 12675 12678 12681 12684 12687 12690 12693 12696 12699 12702 12705 12708 12710 12713 12716 12719 12722 12725 12728 12731 12734 12736 12739 12742 12745 12748 12751 12754 12757 12760 12763 12765 12768 12771 12774 12777 12780 12783 12785 12788 12790 12793 12796 12799 12802 12805 12808 12811 12814 12817 12820 12823 12825 12828 12830 12833 12836 12838 12840 12843 12846 12849 12852 12855 12857 12860 12863 12866 12869 12872 12875 12878 12881 12883 12886 12889 12891 12894 12897 12900 12903 12906 12908 12911 12914 12917 12920 12923 12926 12929 12932 12935 12937 12940 12943 12945 12947 12950 12953 12956 12959 12961 12964 12967 12970 12973 12976 12979 12982 12985 12988 12991 12994 12997 13000 13002 13005 13008 13011 13014 13016 13019 13022 13024 13027 13030 13033 13036 13038 13041 13044 13047 13050 13053 13055 13058 13061 13064 13067 13069 13072 13075 13077 13080 13083 13086 13089 13092 13094 13096 13099 13102 13105 13108 13110 13112 13115 13118 13120 13123 13126 13129 13132 13135 13138 13141 13144 13147 13149 13152 13155 13158 13161 13164 13167 13170 13173 13176 13179 13182 13185 13188 13191 13194 13197 13200 13203 13205 13208 13211 13214 13217 13220 13223 13225 13228 13231 13234 13236 13239 13242 13245 13248 13251 13254 13257 13259 13262 13265 13267 13270 13273 13276 13279 13282 13285 13288 13291 13294 13297 13300 13303 13306 13309 13312 13314 13317 13320 13322 13325 13328 13331 13333 13336 13339 13341 13343 13346 13349 13352 13355 13358 13361 13363 13366 13369 13372 13375 13378 13381 13384 13387 13390 13393 13396 13399 13402 13405 13407 13410 13413 13416 13419 13422 13425 13427 13430 13433 13436 13439 13441 13444 13447 13450 13453 13456 13459 13462 13465 13468 13471 13474 13477 13480 13483 13486 13489 13492 13495 13498 13501 13504 13507 13510 13513 13516 13519 13522 13525 13528 13531 13534 13537 13539 13542 13545 13548 13551 13553 13556 13559 13561 13564 13566 13569 13572 13574 13577 13580 13583 13586 13589 13591 13594 13597 13600 13603 13606 13609 13612 13615 13618 13621 13624 13627 13630 13632 13635 13638 13641 13644 13647 13649 13652 13654 13657 13660 13663 13666 13669 13672 13675 13678 13681 13684 13687 13690 13692 13694 13697 13699 13702 13705 13708 13711 13713 13716 13719 13722 13724 13727 13730 13733 13736 13738 13741 13744 13747 13750 13753 13755 13758 13760 13763 13766 13769 13772 13775 13778 13781 13784 13787 13790 13793 13796 13799 13802 13805 13808 13811 13814 13817 13820 13822 13825 13828 13831 13834 13837 13840 13843 13846 13849 13851 13854 13857 13860 13863 13866 13869 13872 13875 13878 13881 13884 13887 13889 13892 13895 13898 13901 13904 13906 13908 13911 13914 13917 13920 13923 13925 13928 13930 13933 13936 13939 13942 13945 13948 13951 13954 13956 13959 13962 13964 13967 13970 13973 13975 13978 13981 13984 13987 13990 13993 13996 13999 14002 14005 14008 14011 14014 14017 14020 14023 14026 14029 14032 14035 14038 14041 14043 14046 14049 14052 14055 14057 14060 14063 14066 14069 14071 14074 14077 14080 14083 14086 14089 14092 14095 14098 14101 14104 14106 14109 14112 14115 14118 14121 14124 14127 14130 14133 14136 14139 14142 14145 14148 14151 14154 14157 14160 14163 14166 14169 14172 14175 14178 14181 14184 14187 14189 14192 14195 14197 14200 14203 14206 14209 14212 14215 14218 14221 14224 14227 14230 14233 14236 14239 14242 14245 14247 14250 14252 14255 14258 14261 14264 14267 14269 14272 14275 14278 14280 14283 14286 14289 14291 14294 14297 14300 14303 14305 14307 14310 14313 14316 14318 14321 14323 14325 14328 14331 14334 14337 14340 14343 14345 14348 14351 14354 14357 14359 14362 14365 14367 14370 14373 14376 14379 14381 14384 14387 14389 14392 14395 14397 14400 14403 14406 14409 14412 14415 14417 14420 14423 14425 14427 14430 14432 14435 14438 14441 14444 14447 14450 14452 14454 14456 14459 14461 14463 14466 14469 14472 14475 14478 14481 14484 14487 14490 14493 14496 14499 14502 14505 14508 14511 14514 14517 14520 14523 14526 14529 14532 14535 14538 14541 14544 14547 14550 14553 14556 14559 14562 14565 14568 14570 14573 14576 14579 14581 14584 14587 14590 14593 14596 14599 14602 14605 14608 14611 14614 14617 14620 14623 14626 14628 14631 14634 14637 14640 14643 14646 14649 14652 14655 14658 14661 14663 14666 14669 14671 14674 14676 14679 14682 14685 14688 14691 14693 14696 14699 14702 14705 14707 14710 14713 14716 14718 14721 14724 14727 14730 14733 14736 14739 14742 14745 14748 14751 14754 14757 14760 14763 14766 14769 14772 14775 14778 14781 14784 14787 14790 14793 14796 14799 14802 14805 14808 14810 14813 14816 14819 14822 14825 14828 14831 14834 14837 14840 14843 14846 14849 14852 14855 14858 14861 14864 14867 14870 14873 14876 14879 14882 14885 14888 14891 14893 14896 14899 14902 14905 14907 14910 14913 14915 14918 14921 14924 14927 14930 14933 14936 14939 14942 14945 14947 14950 14953 14956 14959 14962 14965 14967 14970 14972 14975 14977 14980 14983 14986 14989 14992 14995 14998 15001 15004 15007 15010 15013 15016 15019 15022 15025 15028 15031 15034 15037 15039 15042 15044 15047 15050 15053 15056 15059 15062 15065 15068 15070 15073 15076 15079 15082 15084 15087 15089 15092 15095 15098 15101 15103 15106 15109 15112 15115 15118 15121 15124 15127 15130 15133 15136 15139 15142 15145 15148 15150 15153 15156 15159 15162 15165 15168 15170 15173 15176 15179 15182 15185 15188 15191 15194 15197 15200 15203 15206 15209 15212 15215 15218 15221 15224 15227 15230 15233 15236 15239 15242 15245 15248 15251 15254 15257 15260 15263 15265 15267 15270 15273 15276 15279 15282 15285 15288 15291 15294 15297 15300 15303 15305 15308 15310 15313 15316 15319 15322 15325 15328 15331 15333 15336 15339 15342 15345 15348 15351 15354 15357 15360 15363 15366 15369 15372 15375 15378 15381 15384 15387 15390 15392 15395 15398 15401 15404 15407 15410 15413 15416 15419 15422 15425 15428 15431 15434 15437 15440 15443 15446 15449 15452 15455 15458 15461 15464 15467 15470 15473 15476 15479 15482 15485 15488 15491 15494 15497 15500 15503 15506 15509 15512 15515 15518 15521 15524 15527 15530 15533 15536 15539 15542 15545 15548 15551 15554 15557 15560 15563 15566 15569 15572 15575 15578 15581 15584 15587 15590 15593 15596 15599 15602 15605 15608 15611 15614 15617 15620 15623 15626 15629 15632 15635 15638 15641 15644 15647 15650 15653 15656 15659 15662 15665 15668 15671 15674 15677 15680 15683 15686 15689 15692 15695 15698 15701 15704 15707 15710 15713 15716 15719 15722 15725 15727 15730 15733 15735 15738 15741 15744 15747 15750 15753 15756 15759 15762 15765 15768 15771 15774 15777 15780 15783 15786 15789 15792 15795 15798 15801 15804 15807 15810 15813 15816 15819 15822 15825 15828 15831 15834 15837 15840 15843 15846 15849 15852 15855 15858 15861 15863 15865 15868 15871 15874 15877 15880 15883 15886 15889 15891 15894 15897 15900 15903 15906 15909 15912 15915 15918 15921 15924 15927 15930 15932 15935 15938 15941 15944 15946 15949 15952 15955 15958 15961 15964 15967 15970 15973 15976 15979 15982 15985 15988 15991 15994 15997 16000 16003 16006 16009 16012 16014 16016 16019 16022 16025 16028 16031 16034 16037 16040 16043 16046 16049 16051 16054 16057 16060 16063 16066 16069 16072 16075 16078 16081 16084 16087 16090 16092 16095 16098 16101 16104 16107 16110 16113 16116 16119 16122 16125 16128 16131 16134 16137 16140 16143 16146 16148 16151 16153 16156 16159 16162 16165 16168 16171 16174 16177 16180 16183 16186 16189 16192 16195 16198 16201 16204 16207 16209 16212 16215 16218 16221 16223 16226 16229 16232 16235 16238 16241 16244 16247 16250 16253 16255 16258 16261 16264 16267 16270 16273 16275 16278 16281 16284 16287 16290 16293 16295 16298 16300 16303 16306 16308 16311 16314 16317 16320 16322 16325 16328 16331 16334 16337 16340 16343 16346 16349 16352 16355 16358 16361 16364 16367 16369 16371 16374 16377 16380 16382 16385 16387 16389 16392 16395 16398 16400 16403 16406 16409 16412 16415 16418 16421 16424 16426 16429 16432 16435 16438 16441 16444 16446 16449 16452 16455 16458 16461 16464 16467 16470 16473 16476 16479 16482 16485 16488 16491 16494 16497 16500 16503 16506 16509 16511 16513 16516 16519 16522 16524 16527 16529 16532 16535 16538 16540 16543 16545 16547 16550 16552 16555 16558 16561 16563 16566 16569 16572 16575 16578 16581 16584 16587 16589 16592 16595 16598 16601 16604 16607 16610 16612 16614 16617 16620 16622 16624 16627 16630 16633 16636 16639 16642 16645 16648 16651 16654 16657 16660 16663 16666 16669 16672 16675 16678 16681 16684 16687 16690 16693 16696 16699 16702 16705 16708 16711 16714 16717 16720 16723 16726 16729 16732 16735 16738 16741 16744 16747 16750 16753 16756 16759 16762 16765 16768 16771 16774 16777 16780 16783 16786 16789 16792 16795 16798 16801 16804 16807 16809 16811 16814 16817 16820 16822 16825 16828 16831 16834 16837 16840 16843 16846 16849 16852 16855 16858 16861 16864 16867 16870 16873 16876 16879 16882 16885 16888 16891 16894 16897 16900 16903 16906 16909 16912 16915 16917 16920 16923 16926 16929 16932 16935 16938 16941 16943 16946 16949 16952 16955 16957 16960 16963 16966 16968 16971 16974 16977 16979 16982 16985 16988 16991 16994 16997 17000 17003 17006 17009 17012 17014 17017 17020 17022 17025 17028 17031 17033 17035 17037 17040 17043 17045 17048 17051 17053 17056 17059 17061 17064 17067 17070 17073 17076 17079 17082 17084 17087 17090 17093 17096 17098 17101 17103 17106 17109 17112 17114 17117 17120 17123 17125 17128 17130 17133 17136 17139 17142 17145 17148 17151 17154 17157 17160 17163 17165 17168 17171 17174 17177 17180 17183 17186 17189 17192 17195 17198 17201 17204 17207 17210 17213 17216 17219 17222 17225 17228 17231 17234 17237 17240 17243 17246 17249 17252 17255 17258 17261 17264 17267 17270 17273 17276 17279 17282 17285 17288 17291 17294 17297 17300 17303 17306 17309 17312 17315 17317 17320 17323 17326 17329 17332 17335 17338 17341 17344 17347 17350 17353 17356 17359 17362 17365 17367 17370 17373 17376 17379 17382 17385 17388 17391 17394 17397 17400 17402 17405 17408 17411 17414 17417 17419 17422 17425 17428 17431 17434 17437 17439 17442 17445 17448 17451 17453 17456 17459 17462 17465 17468 17471 17474 17477 17480 17483 17486 17489 17492 17495 17498 17501 17504 17507 17510 17513 17516 17519 17522 17525 17528 17531 17534 17537 17540 17543 17546 17549 17552 17555 17558 17561 17564 17567 17570 17573 17576 17579 17582 17585 17588 17591 17594 17597 17600 17603 17606 17609 17612 17614 17617 17620 17623 17626 17629 17632 17635 17638 17641 17644 17647 17650 17653 17656 17658 17661 17664 17667 17669 17672 17675 17678 17681 17683 17685 17688 17691 17694 17696 17698 17700 17703 17706 17709 17711 17714 17717 17720 17723 17726 17729 17732 17734 17737 17740 17742 17745 17748 17750 17753 17756 17759 17762 17765 17768 17771 17774 17777 17780 17783 17786 17789 17792 17795 17798 17801 17804 17807 17810 17813 17816 17819 17822 17824 17827 17830 17832 17835 17838 17841 17843 17846 17848 17851 17854 17857 17860 17863 17866 17869 17872 17875 17878 17881 17884 17887 17890 17893 17895 17898 17901 17904 17907 17909 17912 17914 17917 17920 17923 17926 17929 17932 17935 17938 17941 17944 17947 17950 17953 17955 17958 17961 17963 17966 17969 17972 17975 17977 17980 17983 17986 17989 17992 17995 17998 18001 18003 18006 18009 18012 18015 18018 18020 18023 18026 18029 18032 18035 18038 18041 18044 18047 18050 18053 18056 18059 18062 18065 18068 18071 18074 18077 18080 18083 18085 18088 18091 18094 18097 18100 18103 18105 18108 18111 18114 18117 18120 18123 18126 18129 18132 18135 18138 18141 18144 18147 18150 18152 18155 18158 18161 18163 18166 18169 18172 18175 18178 18181 18184 18186 18189 18191 18194 18197 18200 18203 18206 18209 18212 18215 18218 18221 18223 18226 18229 18232 18235 18238 18241 18244 18247 18250 18253 18256 18259 18262 18265 18268 18271 18274 18277 18280 18283 18286 18288 18290 18293 18296 18299 18302 18305 18308 18311 18314 18317 18320 18323 18326 18329 18332 18335 18338 18341 18344 18347 18350 18353 18356 18359 18362 18365 18368 18371 18374 18377 18379 18382 18385 18388 18391 18394 18397 18400 18403 18406 18409 18412 18415 18418 18421 18424 18427 18430 18433 18436 18439 18442 18445 18448 18451 18453 18456 18459 18462 18465 18468 18470 18473 18476 18479 18481 18484 18487 18490 18493 18496 18499 18502 18505 18508 18511 18514 18516 18518 18521 18524 18527 18530 18533 18536 18538 18541 18544 18547 18550 18553 18555 18558 18561 18564 18567 18570 18573 18576 18579 18582 18585 18588 18591 18593 18596 18599 18602 18605 18607 18610 18612 18615 18618 18621 18624 18627 18629 18632 18635 18638 18641 18644 18647 18649 18652 18655 18658 18661 18663 18666 18668 18671 18674 18677 18680 18683 18685 18688 18690 18692 18695 18698 18700 18703 18706 18709 18712 18715 18718 18721 18724 18727 18730 18733 18736 18739 18742 18744 18747 18749 18752 18755 18758 18760 18763 18766 18769 18771 18774 18777 18780 18783 18786 18789 18792 18795 18797 18800 18802 18805 18808 18811 18814 18816 18819 18822 18825 18828 18831 18834 18837 18840 18842 18845 18848 18851 18854 18856 18859 18862 18865 18868 18871 18873 18876 18879 18882 18885 18888 18891 18893 18896 18899 18902 18905 18908 18910 18913 18916 18918 18921 18924 18927 18930 18933 18936 18939 18942 18945 18948 18951 18954 18957 18960 18963 18966 18968 18971 18974 18977 18980 18983 18985 18987 18990 18992 18995 18997 19000 19003 19006 19009 19012 19015 19018 19021 19023 19026 19029 19032 19034 19037 19040 19043 19046 19049 19052 19054 19057 19060 19063 19066 19068 19071 19074 19077 19080 19083 19086 19088 19091 19094 19097 19100 19103 19106 19109 19112 19115 19117 19120 19123 19126 19129 19131 19134 19137 19139 19142 19145 19148 19151 19154 19156 19159 19162 19165 19168 19171 19174 19177 19180 19183 19186 19189 19192 19195 19198 19201 19204 19207 19210 19213 19216 19219 19222 19225 19228 19231 19234 19237 19240 19243 19246 19249 19252 19255 19258 19261 19264 19267 19270 19273 19276 19279 19282 19285 19288 19291 19294 19297 19299 19302 19304 19307 19310 19313 19316 19319 19322 19325 19328 19331 19333 19336 19339 19342 19345 19348 19351 19354 19356 19359 19362 19365 19368 19370 19373 19376 19379 19382 19384 19387 19390 19393 19395 19398 19401 19404 19407 19410 19413 19416 19419 19422 19425 19428 19431 19434 19437 19439 19442 19445 19448 19451 19454 19457 19460 19463 19466 19469 19472 19475 19477 19480 19483 19486 19489 19492 19495 19498 19501 19503 19506 19509 19512 19515 19518 19520 19523 19525 19528 19531 19534 19536 19539 19542 19544 19547 19550 19553 19556 19559 19562 19564 19567 19569 19572 19574 19577 19579 19582 19585 19588 19591 19593 19596 19599 19602 19605 19608 19611 19614 19617 19620 19623 19626 19629 19632 19635 19637 19640 19643 19646 19649 19652 19655 19658 19661 19664 19667 19670 19673 19675 19678 19681 19684 19686 19689 19692 19695 19698 19701 19704 19707 19710 19713 19716 19719 19722 19725 19728 19731 19734 19736 19739 19742 19745 19748 19751 19754 19756 19759 19762 19764 19767 19769 19771 19773 19776 19779 19782 19785 19788 19791 19794 19797 19800 19803 19806 19809 19812 19815 19818 19821 19824 19827 19830 19832 19835 19838 19841 19844 19847 19850 19852 19854 19856 19859 19862 19865 19868 19871 19874 19877 19880 19883 19886 19888 19891 19894 19897 19900 19903 19906 19908 19911 19914 19917 19920 19922 19925 19928 19931 19933 19936 19939 19942 19945 19947 19950 19953 19955 19958 19960 19963 19966 19969 19972 19975 19978 19981 19984 19987 19990 19993 19996 19999 20002 20004 20006 20009 20012 20015 20018 20021 20024 20027 20030 20033 20036 20039 20042 20045 20048 20051 20054 20057 20060 20063 20066 20069 20072 20075 20078 20081 20084 20086 20089 20091 20094 20097 20100 20103 20106 20109 20112 20115 20118 20121 20124 20127 20129 20132 20135 20138 20141 20144 20147 20149 20152 20155 20158 20161 20164 20167 20169 20172 20175 20178 20181 20183 20186 20189 20192 20195 20198 20201 20204 20206 20209 20211 20214 20217 20220 20223 20226 20228 20231 20233 20236 20239 20242 20245 20247 20250 20253 20255 20258 20260 20262 20265 20267 20269 20272 20274 20277 20279 20282 20285 20288 20290 20293 20296 20299 20301 20303 20306 20309 20312 20314 20317 20319 20322 20325 20327 20330 20332 20335 20338 20341 20344 20346 20349 20352 20355 20358 20360 20362 20365 20368 20371 20373 20375 20378 20381 20384 20387 20389 20392 20395 20398 20401 20404 20406 20409 20412 20415 20418 20421 20424 20427 20429 20432 20435 20438 20440 20442 20444 20446 20449 20452 20455 20458 20460 20463 20466 20469 20472 20475 20478 20481 20484 20487 20490 20493 20496 20499 20502 20505 20508 20511 20514 20517 20520 20523 20526 20529 20532 20534 20537 20540 20542 20545 20548 20551 20554 20557 20560 20563 20565 20568 20570 20573 20576 20579 20581 20584 20587 20590 20593 20596 20599 20602 20605 20608 20611 20614 20617 20619 20622 20625 20627 20630 20632 20635 20638 20641 20644 20647 20649 20651 20654 20657 20660 20662 20665 20668 20671 20673 20675 20678 20680 20683 20686 20689 20692 20695 20697 20700 20703 20706 20709 20711 20714 20717 20720 20723 20725 20728 20731 20734 20737 20740 20743 20746 20749 20752 20755 20758 20761 20764 20767 20770 20773 20776 20779 20782 20785 20788 20790 20793 20796 20799 20802 20804 20807 20810 20812 20815 20818 20821 20824 20827 20830 20833 20835 20838 20841 20844 20847 20850 20852 20855 20858 20861 20864 20866 20868 20871 20874 20877 20880 20883 20886 20888 20891 20894 20896 20899 20902 20905 20907 20910 20913 20916 20919 20922 20925 20927 20930 20933 20936 20939 20942 20944 20947 20950 20953 20956 20959 20961 20964 20966 20969 20972 20975 20978 20981 20983 20986 20989 20992 20995 20998 21001 21004 21007 21009 21012 21015 21018 21021 21024 21027 21030 21033 21036 21039 21042 21045 21048 21051 21054 21057 21060 21063 21066 21069 21071 21074 21077 21080 21082 21084 21087 21089 21092 21095 21098 21101 21104 21107 21110 21113 21116 21119 21122 21125 21127 21130 21133 21136 21139 21141 21144 21147 21150 21153 21155 21158 21161 21164 21167 21170 21173 21176 21179 21182 21185 21188 21191 21194 21197 21200 21203 21206 21209 21212 21215 21218 21220 21223 21225 21228 21231 21234 21237 21240 21243 21246 21248 21251 21254 21257 21260 21263 21266 21269 21272 21275 21278 21281 21284 21287 21290 21293 21296 21299 21302 21304 21307 21310 21313 21316 21319 21322 21325 21328 21330 21333 21336 21339 21342 21344 21347 21350 21353 21356 21359 21362 21365 21368 21371 21374 21377 21380 21383 21386 21389 21392 21395 21397 21400 21403 21405 21408 21410 21413 21416 21419 21422 21425 21428 21431 21434 21436 21439 21442 21444 21447 21449 21452 21455 21458 21461 21464 21467 21470 21473 21476 21479 21482 21485 21488 21491 21493 21496 21499 21502 21505 21508 21511 21514 21517 21520 21523 21526 21529 21531 21534 21537 21540 21543 21546 21549 21551 21553 21556 21559 21562 21565 21568 21570 21573 21575 21578 21580 21583 21585 21587 21590 21593 21596 21599 21602 21604 21607 21610 21613 21616 21618 21621 21624 21626 21629 21632 21635 21638 21641 21644 21647 21650 21653 21656 21659 21662 21664 21667 21669 21672 21675 21678 21681 21684 21687 21690 21692 21695 21697 21700 21703 21706 21708 21711 21714 21717 21720 21723 21726 21729 21732 21735 21738 21741 21744 21746 21749 21752 21755 21758 21760 21763 21766 21769 21772 21775 21777 21780 21782 21785 21788 21791 21793 21796 21799 21802 21804 21807 21809 21812 21815 21818 21821 21823 21826 21829 21831 21833 21836 21839 21842 21845 21848 21851 21853 21856 21859 21862 21865 21867 21870 21873 21875 21878 21881 21884 21886 21889 21892 21895 21897 21900 21902 21905 21908 21910 21912 21915 21918 21921 21924 21927 21929 21932 21935 21938 21941 21943 21946 21949 21952 21954 21957 21960 21963 21966 21968 21971 21974 21976 21979 21982 21985 21988 21991 21993 21996 21999 22002 22005 22008 22011 22014 22017 22020 22023 22026 22029 22032 22035 22038 22040 22043 22045 22048 22051 22054 22056 22059 22062 22064 22067 22069 22072 22075 22078 22081 22084 22087 22090 22093 22096 22098 22101 22104 22107 22110 22113 22116 22119 22122 22125 22128 22131 22134 22137 22140 22143 22146 22149 22152 22155 22158 22161 22164 22166 22169 22172 22175 22178 22181 22184 22187 22189 22192 22194 22197 22200 22202 22205 22207 22210 22212 22214 22217 22220 22223 22225 22228 22231 22234 22237 22240 22243 22246 22249 22252 22255 22257 22260 22263 22266 22269 22272 22275 22277 22280 22283 22286 22289 22292 22295 22298 22301 22304 22307 22309 22312 22315 22317 22320 22322 22324 22327 22330 22333 22336 22339 22342 22344 22347 22349 22352 22355 22358 22361 22363 22366 22369 22372 22375 22377 22379 22382 22385 22388 22391 22394 22397 22399 22402 22405 22408 22410 22413 22416 22419 22422 22425 22428 22431 22434 22437 22440 22443 22446 22449 22452 22455 22458 22460 22462 22465 22467 22470 22473 22476 22479 22482 22485 22487 22489 22492 22495 22498 22501 22504 22506 22509 22512 22515 22518 22521 22524 22527 22530 22533 22535 22538 22541 22544 22547 22550 22553 22556 22559 22562 22565 22568 22571 22574 22577 22580 22583 22586 22588 22591 22594 22597 22600 22603 22606 22609 22612 22615 22618 22621 22623 22625 22628 22631 22634 22637 22640 22642 22645 22648 22651 22653 22656 22658 22661 22664 22667 22670 22673 22676 22679 22682 22684 22687 22690 22693 22696 22698 22700 22703 22706 22709 22712 22715 22717 22720 22723 22726 22728 22731 22734 22737 22740 22742 22745 22747 22750 22753 22756 22758 22760 22763 22765 22767 22770 22772 22775 22778 22781 22783 22786 22788 22791 22794 22797 22800 22803 22806 22809 22812 22814 22817 22820 22823 22826 22829 22832 22835 22838 22841 22844 22847 22849 22852 22855 22858 22861 22864 22867 22869 22872 22875 22878 22881 22884 22887 22889 22892 22895 22898 22901 22904 22907 22909 22912 22914 22917 22920 22922 22925 22928 22931 22934 22937 22940 22943 22946 22949 22951 22954 22957 22959 22962 22965 22967 22970 22972 22975 22978 22981 22984 22987 22989 22992 22995 22997 23000 23003 23006 23009 23012 23015 23018 23020 23023 23026 23029 23031 23034 23037 23040 23043 23046 23049 23052 23055 23058 23061 23064 23067 23070 23073 23076 23079 23082 23085 23088 23090 23093 23096 23098 23101 23104 23107 23109 23112 23115 23118 23121 23124 23127 23130 23132 23135 23138 23141 23144 23147 23150 23153 23156 23159 23162 23165 23168 23170 23173 23176 23179 23182 23185 23188 23191 23194 23197 23200 23202 23205 23208 23211 23214 23216 23219 23222 23225 23228 23230 23233 23236 23239 23241 23243 23246 23249 23251 23254 23257 23260 23263 23266 23269 23272 23275 23277 23280 23283 23285 23288 23291 23294 23297 23300 23303 23306 23308 23311 23314 23317 23319 23322 23325 23328 23331 23334 23337 23340 23343 23346 23349 23352 23355 23358 23361 23364 23367 23370 23373 23376 23378 23381 23384 23387 23390 23393 23396 23399 23402 23405 23408 23411 23414 23417 23420 23423 23426 23429 23432 23434 23437 23440 23443 23446 23449 23452 23455 23458 23460 23463 23465 23468 23471 23474 23477 23480 23483 23486 23489 23492 23494 23497 23500 23503 23506 23509 23512 23515 23518 23520 23523 23526 23529 23532 23535 23538 23541 23544 23547 23550 23552 23555 23558 23560 23563 23566 23568 23571 23574 23577 23580 23583 23585 23588 23591 23594 23597 23600 23603 23605 23607 23610 23613 23615 23617 23620 23622 23625 23627 23630 23633 23635 23638 23640 23643 23646 23649 23652 23654 23657 23660 23663 23665 23668 23671 23673 23676 23679 23682 23685 23687 23690 23693 23696 23699 23702 23705 23708 23711 23714 23716 23719 23722 23725 23728 23731 23734 23737 23740 23743 23746 23749 23751 23754 23757 23760 23763 23765 23768 23771 23774 23776 23779 23782 23785 23788 23791 23794 23797 23799 23802 23805 23807 23810 23813 23816 23819 23821 23824 23826 23829 23832 23835 23838 23841 23844 23847 23850 23853 23856 23859 23862 23865 23868 23871 23874 23877 23880 23883 23886 23889 23892 23895 23898 23901 23904 23907 23910 23913 23916 23919 23922 23925 23928 23931 23934 23936 23938 23941 23944 23946 23949 23952 23955 23958 23961 23964 23967 23970 23973 23976 23979 23982 23985 23987 23990 23993 23996 23999 24002 24005 24008 24010 24013 24016 24019 24022 24024 24026 24029 24032 24035 24038 24041 24043 24045 24048 24051 24053 24056 24059 24062 24065 24068 24071 24074 24076 24079 24082 24084 24087 24090 24093 24095 24098 24101 24104 24106 24109 24111 24114 24116 24118 24121 24124 24126 24129 24132 24135 24138 24141 24144 24147 24149 24152 24155 24158 24161 24164 24166 24168 24170 24173 24176 24178 24181 24184 24187 24190 24192 24195 24198 24201 24204 24207 24210 24213 24215 24218 24221 24224 24227 24230 24233 24236 24239 24242 24245 24248 24251 24254 24257 24260 24262 24265 24268 24270 24273 24276 24279 24282 24285 24287 24290 24293 24296 24299 24302 24305 24308 24311 24314 24317 24320 24323 24325 24328 24331 24334 24337 24340 24342 24345 24348 24351 24354 24357 24360 24362 24365 24368 24371 24373 24375 24377 24379 24382 24385 24388 24391 24394 24397 24400 24402 24404 24406 24409 24411 24414 24416 24419 24422 24425 24428 24431 24434 24437 24440 24443 24446 24449 24452 24455 24458 24461 24464 24467 24469 24472 24475 24478 24481 24484 24487 24490 24493 24495 24498 24501 24504 24507 24509 24512 24515 24518 24521 24524 24526 24529 24532 24534 24537 24539 24542 24545 24548 24551 24553 24556 24559 24562 24565 24568 24571 24574 24577 24580 24582 24585 24588 24591 24594 24597 24600 24603 24606 24609 24612 24615 24618 24621 24624 24627 24629 24632 24635 24638 24641 24643 24646 24649 24652 24654 24657 24659 24662 24664 24667 24670 24673 24676 24679 24682 24685 24688 24691 24693 24696 24699 24702 24705 24708 24711 24714 24717 24719 24721 24723 24726 24729 24731 24734 24737 24740 24742 24745 24748 24751 24753 24756 24759 24762 24764 24767 24770 24773 24776 24779 24782 24785 24787 24790 24793 24795 24798 24801 24804 24806 24809 24811 24814 24817 24820 24823 24825 24828 24831 24834 24837 24840 24842 24845 24848 24851 24854 24856 24859 24862 24865 24867 24869 24872 24875 24878 24881 24884 24887 24890 24893 24896 24899 24902 24905 24908 24911 24914 24917 24920 24923 24925 24928 24931 24934 24936 24939 24941 24944 24947 24949 24952 24955 24958 24960 24963 24966 24969 24972 24975 24978 24981 24984 24986 24989 24992 24995 24998 25001 25004 25006 25009 25012 25014 25016 25019 25021 25024 25027 25030 25033 25036 25039 25042 25045 25048 25051 25054 25057 25060 25063 25066 25069 25071 25074 25077 25080 25083 25086 25089 25092 25094 25097 25100 25103 25105 25108 25111 25114 25116 25119 25122 25124 25127 25130 25133 25136 25139 25142 25145 25148 25151 25154 25157 25160 25163 25166 25169 25172 25175 25178 25181 25184 25187 25189 25192 25195 25198 25201 25204 25207 25210 25213 25216 25219 25222 25225 25228 25231 25234 25237 25240 25243 25246 25249 25252 25255 25258 25261 25264 25267 25270 25273 25276 25279 25282 25285 25287 25289 25292 25295 25298 25301 25304 25307 25310 25313 25316 25319 25322 25325 25328 25331 25333 25336 25339 25342 25345 25348 25351 25354 25357 25359 25362 25365 25368 25371 25374 25377 25380 25383 25385 25388 25391 25394 25396 25399 25402 25405 25408 25411 25414 25417 25420 25423 25426 25429 25432 25435 25438 25441 25444 25447 25450 25453 25456 25459 25462 25465 25467 25470 25473 25476 25478 25481 25484 25487 25490 25493 25496 25499 25502 25505 25508 25511 25514 25517 25520 25523 25526 25529 25532 25535 25538 25541 25544 25547 25550 25552 25555 25558 25561 25564 25567 25570 25573 25576 25579 25582 25584 25587 25590 25593 25595 25598 25601 25604 25607 25609 25612 25615 25618 25621 25624 25627 25630 25633 25635 25638 25641 25644 25646 25649 25652 25655 25658 25660 25663 25666 25668 25671 25673 25676 25678 25681 25684 25687 25690 25693 25696 25698 25701 25704 25707 25710 25712 25715 25718 25721 25723 25726 25729 25732 25735 25738 25740 25743 25746 25749 25752 25755 25758 25761 25764 25767 25770 25773 25776 25779 25782 25785 25787 25790 25793 25796 25798 25801 25804 25806 25809 25812 25814 25817 25820 25823 25826 25829 25832 25835 25838 25841 25843 25846 25849 25852 25855 25858 25861 25864 25867 25870 25872 25875 25878 25881 25884 25887 25890 25893 25895 25898 25901 25904 25906 25909 25912 25915 25918 25921 25924 25927 25930 25933 25936 25939 25942 25945 25948 25951 25954 25957 25960 25963 25966 25968 25971 25974 25977 25980 25983 25986 25989 25992 25995 25998 26000 26003 26006 26009 26012 26015 26018 26021 26024 26026 26029 26032 26035 26038 26041 26043 26046 26049 26052 26055 26058 26061 26064 26067 26070 26073 26075 26078 26081 26083 26086 26089 26091 26094 26097 26100 26103 26106 26108 26111 26114 26117 26120 26122 26125 26128 26130 26133 26136 26139 26142 26145 26148 26150 26153 26156 26159 26162 26165 26168 26170 26173 26176 26179 26181 26184 26186 26189 26192 26195 26198 26201 26204 26207 26210 26213 26216 26219 26222 26224 26227 26230 26232 26235 26238 26241 26244 26247 26250 26253 26256 26258 26261 26264 26267 26270 26273 26276 26279 26282 26285 26288 26291 26294 26296 26299 26301 26304 26307 26310 26313 26316 26319 26322 26325 26328 26330 26333 26336 26339 26342 26345 26348 26351 26354 26357 26360 26363 26366 26369 26372 26374 26377 26380 26383 26386 26389 26392 26395 26398 26400 26403 26405 26408 26411 26414 26417 26419 26422 26425 26428 26430 26433 26436 26439 26442 26445 26448 26450 26453 26456 26458 26461 26464 26467 26470 26472 26475 26477 26480 26483 26486 26489 26492 26495 26498 26501 26504 26507 26510 26513 26516 26519 26522 26525 26528 26531 26534 26537 26540 26543 26546 26549 26552 26555 26558 26561 26564 26567 26570 26573 26576 26579 26582 26585 26588 26591 26593 26596 26599 26602 26605 26608 26610 26613 26616 26619 26622 26625 26627 26630 26633 26635 26638 26641 26644 26647 26650 26653 26656 26659 26662 26665 26667 26670 26673 26675 26678 26681 26684 26687 26690 26693 26696 26699 26702 26705 26708 26711 26714 26717 26719 26722 26725 26728 26731 26734 26737 26740 26743 26746 26749 26752 26754 26757 26759 26761 26764 26767 26770 26773 26776 26779 26782 26784 26787 26790 26793 26795 26797 26800 26802 26805 26808 26811 26814 26816 26819 26822 26825 26828 26831 26834 26837 26840 26842 26845 26848 26851 26854 26857 26860 26863 26866 26869 26872 26874 26877 26880 26883 26886 26889 26892 26895 26898 26901 26904 26907 26910 26912 26915 26918 26921 26924 26927 26930 26932 26934 26937 26940 26943 26946 26949 26952 26955 26958 26961 26964 26967 26970 26973 26976 26979 26981 26983 26986 26989 26992 26995 26998 27001 27004 27007 27010 27012 27015 27018 27021 27024 27027 27030 27032 27035 27037 27040 27042 27045 27048 27051 27054 27056 27059 27062 27064 27067 27070 27073 27076 27079 27082 27085 27088 27091 27094 27097 27100 27102 27105 27108 27111 27113 27116 27119 27122 27125 27128 27131 27134 27137 27140 27143 27146 27148 27151 27154 27157 27159 27162 27165 27168 27170 27173 27176 27179 27182 27185 27188 27191 27193 27196 27199 27202 27205 27208 27211 27214 27217 27220 27223 27226 27229 27232 27235 27238 27241 27244 27247 27250 27253 27256 27259 27262 27265 27267 27270 27273 27276 27279 27282 27285 27287 27289 27292 27295 27298 27300 27303 27306 27309 27312 27315 27318 27321 27324 27327 27330 27333 27336 27339 27342 27345 27348 27351 27354 27357 27360 27363 27366 27369 27372 27374 27377 27380 27383 27385 27387 27390 27393 27395 27398 27400 27403 27406 27408 27411 27414 27417 27419 27421 27424 27427 27430 27432 27435 27438 27441 27444 27447 27450 27453 27456 27459 27462 27465 27468 27471 27474 27477 27480 27483 27486 27489 27492 27495 27498 27501 27504 27507 27509 27512 27515 27518 27521 27524 27527 27530 27533 27536 27539 27542 27545 27548 27551 27554 27557 27560 27563 27565 27568 27571 27573 27576 27578 27581 27584 27587 27590 27593 27596 27599 27602 27605 27608 27610 27613 27616 27619 27622 27625 27628 27631 27634 27637 27640 27643 27646 27649 27652 27655 27658 27661 27664 27667 27670 27673 27676 27679 27682 27685 27688 27691 27694 27697 27700 27703 27706 27709 27712 27715 27718 27721 27723 27726 27729 27732 27735 27738 27740 27743 27746 27749 27752 27755 27758 27761 27764 27767 27770 27773 27776 27779 27782 27785 27788 27791 27794 27796 27799 27802 27805 27808 27811 27814 27817 27820 27823 27826 27829 27832 27835 27838 27841 27844 27847 27850 27853 27856 27859 27861 27864 27867 27870 27872 27875 27878 27881 27884 27887 27890 27893 27896 27899 27902 27905 27908 27911 27913 27916 27919 27922 27925 27928 27931 27934 27937 27940 27943 27946 27949 27952 27955 27958 27961 27964 27967 27970 27973 27976 27979 27982 27985 27988 27991 27994 27996 27999 28002 28005 28008 28010 28013 28016 28018 28021 28024 28027 28029 28031 28034 28037 28040 28043 28045 28048 28051 28054 28057 28059 28061 28064 28067 28069 28072 28075 28078 28080 28083 28085 28088 28091 28094 28097 28099 28102 28105 28108 28111 28114 28116 28118 28121 28124 28126 28129 28131 28134 28137 28140 28143 28145 28148 28150 28153 28156 28159 28161 28164 28167 28170 28173 28175 28177 28179 28182 28185 28187 28190 28193 28196 28199 28202 28205 28208 28211 28214 28217 28220 28223 28226 28229 28232 28235 28237 28240 28243 28246 28249 28252 28255 28258 28261 28264 28267 28270 28273 28275 28278 28281 28284 28287 28290 28293 28296 28299 28302 28304 28307 28310 28313 28316 28319 28322 28325 28328 28331 28334 28337 28340 28343 28345 28348 28351 28354 28357 28360 28363 28366 28369 28372 28374 28377 28380 28382 28385 28388 28391 28394 28397 28400 28403 28406 28409 28411 28414 28417 28420 28423 28426 28429 28431 28433 28435 28438 28441 28443 28446 28449 28452 28455 28458 28461 28464 28466 28469 28472 28475 28478 28481 28484 28487 28490 28493 28496 28498 28501 28503 28506 28508 28511 28513 28516 28518 28521 28524 28527 28529 28531 28534 28536 28539 28541 28543 28546 28549 28552 28555 28557 28560 28563 28565 28567 28570 28573 28576 28579 28582 28585 28588 28590 28592 28595 28597 28600 28603 28606 28609 28612 28615 28618 28621 28624 28627 28630 28633 28636 28639 28642 28645 28648 28651 28654 28657 28659 28662 28665 28668 28671 28674 28677 28680 28683 28686 28688 28691 28694 28697 28700 28703 28706 28709 28712 28714 28716 28719 28722 28725 28728 28731 28734 28737 28740 28743 28746 28749 28752 28754 28757 28760 28763 28766 28769 28772 28775 28778 28781 28784 28787 28790 28793 28795 28798 28801 28804 28806 28809 28812 28815 28818 28821 28824 28827 28829 28832 28835 28838 28841 28844 28847 28850 28853 28856 28858 28861 28863 28866 28869 28871 28874 28877 28880 28883 28886 28889 28892 28895 28898 28901 28904 28907 28910 28913 28916 28919 28922 28925 28928 28931 28934 28937 28940 28942 28945 28948 28951 28954 28957 28960 28962 28965 28968 28971 28974 28976 28979 28982 28984 28987 28990 28993 28996 28999 29002 29005 29008 29011 29014 29017 29019 29022 29025 29028 29031 29034 29037 29040 29043 29045 29047 29050 29053 29056 29059 29062 29065 29068 29070 29073 29076 29078 29081 29084 29087 29090 29092 29095 29098 29101 29104 29107 29110 29112 29115 29118 29121 29124 29127 29130 29132 29135 29138 29141 29144 29147 29150 29152 29155 29158 29161 29163 29166 29169 29171 29174 29177 29180 29183 29186 29189 29192 29195 29198 29200 29203 29206 29209 29212 29215 29218 29221 29223 29226 29228 29230 29233 29236 29238 29241 29244 29247 29250 29253 29256 29259 29262 29265 29268 29271 29274 29276 29279 29281 29284 29287 29290 29292 29295 29298 29301 29304 29306 29309 29311 29314 29316 29319 29322 29325 29328 29330 29333 29336 29338 29341 29344 29347 29349 29351 29354 29357 29360 29363 29366 29368 29371 29374 29376 29379 29382 29385 29388 29391 29394 29397 29400 29403 29406 29409 29412 29415 29418 29421 29424 29427 29430 29432 29435 29438 29441 29444 29447 29450 29452 29455 29458 29461 29464 29467 29470 29473 29476 29478 29481 29484 29487 29490 29493 29495 29498 29501 29504 29507 29509 29512 29515 29518 29521 29524 29527 29530 29533 29536 29539 29541 29544 29547 29550 29553 29556 29559 29562 29565 29568 29570 29573 29576 29579 29582 29584 29586 29589 29592 29595 29598 29601 29604 29607 29610 29613 29616 29619 29622 29625 29628 29631 29633 29636 29639 29642 29645 29647 29650 29653 29656 29659 29662 29665 29668 29670 29673 29676 29679 29682 29685 29688 29691 29694 29697 29700 29703 29706 29709 29712 29715 29717 29720 29723 29726 29729 29731 29734 29737 29740 29742 29745 29748 29751 29754 29757 29759 29762 29764 29766 29768 29771 29774 29777 29780 29782 29784 29787 29790 29793 29795 29798 29801 29804 29807 29810 29813 29816 29819 29822 29825 29828 29831 29834 29837 29840 29843 29846 29849 29851 29854 29857 29860 29863 29866 29869 29872 29875 29878 29881 29884 29887 29890 29893 29896 29898 29900 29903 29906 29909 29912 29915 29918 29921 29924 29926 29929 29932 29934 29936 29939 29942 29945 29948 29951 29954 29957 29959 29962 29965 29968 29971 29974 29977 29980 29983 29986 29989 29991 29994 29997 29999 30002 30004 30006 30009 30011 30013 30016 30019 30022 30025 30028 30031 30034 30037 30040 30042 30045 30048 30051 30053 30056 30059 30062 30064 30067 30069 30072 30075 30078 30081 30083 30086 30089 30092 30095 30098 30101 30104 30107 30109 30112 30115 30118 30121 30123 30126 30129 30131 30133 30136 30139 30142 30145 30148 30151 30154 30157 30160 30163 30166 30169 30172 30175 30178 30181 30184 30187 30190 30193 30196 30199 30202 30205 30208 30210 30212 30214 30217 30220 30222 30225 30228 30231 30234 30237 30239 30242 30245 30248 30251 30254 30257 30260 30263 30266 30268 30271 30273 30276 30279 30282 30285 30288 30291 30294 30296 30299 30301 30304 30306 30309 30312 30315 30318 30321 30324 30327 30330 30333 30335 30338 30341 30344 30347 30350 30353 30355 30358 30361 30364 30367 30370 30373 30376 30379 30382 30385 30388 30391 30394 30397 30400 30403 30405 30408 30411 30413 30416 30419 30422 30425 30428 30431 30434 30437 30440 30442 30445 30448 30451 30453 30455 30457 30460 30463 30466 30468 30471 30474 30476 30479 30481 30484 30487 30490 30493 30496 30499 30502 30505 30508 30511 30514 30517 30520 30523 30526 30529 30532 30535 30537 30540 30543 30546 30548 30551 30554 30556 30558 30561 30563 30566 30569 30572 30574 30577 30580 30583 30586 30589 30592 30595 30598 30601 30604 30606 30609 30612 30615 30618 30620 30623 30626 30629 30632 30635 30638 30641 30644 30647 30650 30653 30656 30659 30662 30665 30668 30671 30674 30677 30680 30683 30686 30689 30692 30695 30698 30701 30704 30706 30709 30712 30715 30718 30721 30724 30727 30730 30733 30736 30738 30741 30743 30746 30749 30752 30755 30758 30761 30763 30766 30769 30772 30775 30778 30781 30784 30787 30790 30793 30796 30799 30802 30805 30808 30811 30813 30816 30819 30822 30825 30828 30831 30834 30836 30839 30842 30845 30848 30851 30854 30857 30860 30863 30865 30868 30871 30874 30877 30880 30883 30886 30889 30892 30895 30898 30901 30904 30907 30910 30912 30915 30918 30921 30924 30927 30930 30933 30936 30939 30942 30945 30947 30950 30953 30956 30959 30962 30965 30968 30970 30972 30975 30978 30981 30984 30987 30990 30993 30996 30998 31000 31003 31006 31009 31012 31015 31018 31021 31024 31027 31030 31033 31036 31039 31042 31045 31048 31050 31053 31056 31059 31062 31065 31068 31071 31074 31077 31079 31082 31085 31088 31091 31094 31097 31100 31103 31106 31109 31112 31115 31118 31121 31124 31127 31130 31133 31136 31139 31142 31145 31148 31151 31154 31157 31160 31163 31166 31169 31172 31175 31178 31181 31184 31187 31190 31193 31196 31199 31202 31205 31208 31211 31214 31217 31220 31223 31226 31229 31232 31235 31238 31241 31244 31247 31250 31253 31256 31259 31262 31265 31268 31271 31274 31277 31280 31283 31286 31289 31292 31295 31298 31301 31304 31307 31310 31313 31316 31319 31322 31325 31328 31331 31334 31337 31340 31343 31346 31349 31352 31355 31358 31361 31364 31367 31369 31372 31375 31378 31381 31384 31387 31390 31393 31396 31398 31401 31404 31407 31409 31412 31415 31418 31421 31424 31427 31430 31433 31436 31438 31441 31444 31447 31450 31453 31456 31459 31462 31465 31467 31470 31473 31475 31478 31480 31482 31485 31487 31490 31493 31495 31498 31501 31504 31507 31510 31513 31516 31519 31522 31525 31528 31531 31534 31536 31538 31541 31543 31546 31549 31552 31554 31557 31560 31563 31566 31568 31571 31574 31577 31580 31583 31586 31589 31592 31595 31598 31601 31604 31607 31610 31613 31616 31618 31620 31623 31626 31629 31632 31635 31638 31641 31643 31646 31649 31652 31655 31658 31661 31664 31667 31670 31672 31675 31678 31681 31684 31687 31690 31693 31696 31699 31701 31704 31707 31710 31713 31716 31719 31722 31725 31728 31731 31733 31736 31739 31741 31743 31746 31748 31751 31754 31757 31760 31763 31766 31769 31772 31774 31777 31780 31783 31786 31789 31792 31795 31798 31801 31804 31807 31810 31813 
</DataArray>
<DataArray type="UInt32" Name="types" format="ascii">
5 5 3 5 5 5 5 5 5 5 5 5 5 5 5 5 5 5 5 5 5 5 5 5 5 5 5 5 5 5 5 5 5 5 5 5 5 5 5 5 3 5 5 3 5 3 3 5 5 5 5 3 5 3 3 5 5 5 3 5 5 5 3 5 5 5 5 5 5 5 5 5 5 3 5 5 5 5 5 5 5 3 3 5 5 3 5 5 3 3 5 5 3 5 5 5 5 5 5 5 5 5 5 5 5 5 3 5 5 5 5 5 5 5 3 5 5 5 3 5 5 5 5 3 5 5 5 5 5 5 5 5 3 5 5 3 5 5 5 5 5 5 5 5 5 5 5 3 5 5 3 5 5 5 5 5 5 5 5 5 5 5 5 5 5 5 3 5 5 5 5 5 5 5 5 3 5 5 5 3 5 5 5 5 5 5 5 5 5 3 5 5 5 5 5 5 3 5 5 5 5 5 5 5 3 3 5 5 5 5 5 3 3 3 3 5 5 5 3 5 5 5 3 5 5 5 5 3 5 5 5 3 5 3 5 5 5 5 5 5 5 3 5 5 5 5 5 5 3 5 5 5 5 3 5 5 3 5 5 3 5 5 5 5 5 3 5 5 5 5 5 3 5 5 5 3 5 5 5 5 3 5 5 5 5 5 5 5 5 5 5 5 5 5 5 3 5 5 3 5 3 3 5 3 5 5 5 5 5 5 3 5 5 5 5 5 5 3 5 3 5 5 5 3 5 5 3 3 5 5 5 3 5 3 5 3 5 5 5 5 3 5 5 5 3 3 5 3 5 5 5 3 5 5 3 5 5 5 5 5 5 5 5 5 5 5 5 5 5 5 5 5 3 5 5 5 5 5 5 5 3 5 5 5 5 5 5 5 5 5 5 5 5 5 5 5 5 5 5 5 5 5 5 5 5 5 5 5 5 5 5 5 5 5 5 5 5 5 5 5 5 5 5 3 3 5 3 5 5 5 5 5 5 5 5 5 5 5 5 3 5 5 5 5 5 5 5 3 5 5 5 5 3 5 5 5 5 5 5 5 5 5 3 5 5 5 5 5 5 5 3 5 5 5 5 5 5 3 5 5 5 5 5 5 3 5 3 5 5 5 5 5 5 3 5 5 5 5 3 5 5 3 5 5 5 5 5 5 5 3 5 5 5 5 3 5 3 3 5 5 5 3 3 3 5 5 3 5 3 5 3 3 5 5 5 3 5 5 3 5 5 5 5 5 5 5 5 5 5 5 5 5 3 5 3 5 5 3 5 3 5 3 5 5 5 5 3 5 5 5 5 5 5 5 5 5 5 5 5 5 3 5 5 5 3 5 3 5 5 5 5 5 5 5 5 5 5 5 3 5 5 5 5 5 5 5 5 5 5 5 5 5 5 5 5 5 5 5 5 5 5 5 5 5 5 5 5 5 5 5 5 5 5 5 5 5 5 5 5 5 3 5 5 5 5 5 5 3 3 5 5 5 5 5 3 5 5 5 5 5 5 5 5 5 5 5 3 5 5 3 5 5 5 5 5 5 5 5 5 5 5 5 5 5 5 5 5 5 5 5 5 5 5 5 5 5 5 5 5 5 5 5 5 5 5 5 5 5 5 5 5 5 5 3 5 3 5 5 3 3 5 5 5 5 5 5 5 5 5 5 5 5 5 5 5 5 3 5 5 5 5 3 5 5 5 5 5 5 5 5 5 5 5 5 3 5 3 3 3 5 5 5 5 3 3 3 5 5 5 5 3 5 5 3 5 5 5 5 5 5 5 5 5 5 5 5 5 5 5 5 5 5 5 5 3 5 5 5 5 5 5 3 5 5 5 5 3 5 5 5 5 5 5 5 5 5 5 5 5 5 5 5 5 5 5 5 5 3 5 5 5 5 5 5 5 5 3 5 5 5 3 5 5 3 3 5 5 5 5 5 3 5 5 5 3 3 3 5 5 5 5 5 3 5 5 5 5 5 5 5 5 5 5 5 5 5 5 3 5 5 5 5 5 5 5 5 5 5 5 5 5 5 5 5 5 5 3 5 5 5 5 5 5 5 5 5 5 5 5 5 5 5 3 5 5 5 5 5 3 5 5 5 3 5 5 5 5 3 5 3 5 5 5 5 3 5 5 5 5 5 5 5 5 5 5 5 5 5 5 5 5 5 5 3 5 5 5 5 3 3 5 5 5 3 5 5 5 3 5 5 5 5 5 5 5 5 3 5 3 5 5 5 5 3 5 5 5 5 5 5 5 3 5 5 5 5 5 5 5 5 5 5 5 5 5 5 5 3 5 5 3 5 5 5 3 5 5 5 5 5 5 3 3 5 5 3 5 5 5 5 5 3 3 5 5 5 5 5 5 5 5 3 5 5 5 5 5 5 3 5 5 5 5 5 3 5 5 5 5 5 5 3 5 3 5 5 3 5 5 5 5 5 5 5 5 5 5 5 3 3 5 5 3 5 5 3 5 5 3 5 3 5 5 5 5 5 3 5 5 5 5 5 5 5 5 5 5 5 5 5 5 5 5 5 3 5 5 3 5 5 3 5 5 5 5 5 3 5 5 5 5 5 3 5 5 5 3 5 5 3 5 5 5 5 3 5 5 5 5 5 5 5 3 3 5 5 5 5 3 5 5 5 5 5 5 5 5 5 5 5 5 5 5 5 5 5 5 3 5 5 5 5 5 5 5 3 5 5 5 5 3 5 5 5 5 5 5 5 5 5 3 5 5 3 5 5 5 5 5 3 3 3 3 5 3 3 5 5 5 3 5 5 5 3 5 3 5 5 3 5 5 5 3 5 5 5 5 3 5 3 5 3 5 5 3 5 3 5 5 5 5 5 5 5 5 5 5 5 5 5 5 3 5 5 5 3 5 5 5 5 5 5 5 5 5 5 5 5 5 3 5 5 5 5 5 5 5 5 5 5 5 3 5 5 5 3 5 5 5 5 5 5 5 5 5 5 5 5 5 5 5 5 5 5 5 5 5 5 5 5 5 5 5 5 3 5 5 5 5 5 3 5 5 5 3 5 5 5 5 5 5 5 5 5 5 5 5 5 5 5 5 5 5 5 5 5 5 3 5 5 5 5 3 3 5 5 5 5 5 5 5 5 5 3 5 5 5 5 5 5 5 5 5 3 5 5 5 5 5 3 5 5 3 5 3 5 5 3 3 5 3 5 5 5 3 5 5 3 5 5 5 3 5 3 5 5 5 5 5 5 5 5 5 5 3 5 5 5 5 5 5 5 5 5 5 5 5 5 5 5 5 5 5 5 5 5 5 3 5 5 5 5 5 3 5 5 5 5 5 3 5 5 5 5 5 5 5 5 5 5 5 5 5 5 5 5 5 5 5 5 5 5 5 3 5 5 3 5 5 5 5 5 5 5 5 5 5 5 5 5 3 5 5 5 5 5 5 5 3 3 3 5 3 5 5 5 5 5 5 3 5 3 3 5 5 5 5 5 5 5 5 5 5 5 5 5 5 5 5 5 5 5 5 3 3 5 5 5 3 3 5 5 5 5 5 5 5 5 5 5 5 5 5 5 5 3 5 3 5 5 5 3 5 5 3 5 5 5 5 5 5 3 5 3 5 5 5 5 5 5 5 5 5 5 3 5 5 5 5 5 5 5 5 5 3 3 5 5 5 5 5 5 5 3 3 5 5 5 3 5 3 5 5 5 5 5 3 5 3 5 5 3 5 5 5 5 5 5 5 3 5 5 3 5 5 5 5 5 5 5 5 3 5 5 5 5 5 5 3 5 5 5 5 5 3 5 5 5 5 5 3 5 5 5 5 3 5 5 5 5 3 3 3 5 5 3 5 3 5 5 5 5 5 5 5 5 5 3 5 5 5 3 5 5 5 3 3 5 5 5 3 5 5 5 5 5 5 5 5 5 5 5 5 5 5 5 5 3 5 5 5 5 5 5 5 5 5 5 5 5 5 5 5 5 5 5 5 5 5 5 5 3 5 5 5 3 5 5 5 5 5 5 5 5 5 5 5 5 3 5 5 3 5 5 5 5 5 5 5 5 5 5 5 5 5 5 5 5 5 5 5 5 5 5 5 5 5 5 5 5 5 5 5 5 5 5 5 5 5 5 3 5 5 5 5 5 5 5 5 3 5 5 5 5 5 5 5 5 5 5 5 5 5 5 5 5 5 5 5 5 5 3 5 5 5 3 5 5 5 3 3 5 5 5 5 5 5 5 5 5 5 5 5 5 5 5 5 5 5 5 5 3 5 5 5 5 5 5 5 5 3 5 5 5 3 5 5 5 5 3 5 3 5 5 3 5 5 5 3 5 3 5 3 5 5 5 5 5 5 5 5 5 5 5 3 5 5 3 5 5 5 5 5 5 5 3 5 5 5 5 5 5 5 5 5 5 5 5 5 5 5 5 5 5 5 5 5 5 5 5 5 5 5 5 5 5 3 5 5 5 3 5 5 5 5 5 5 5 3 5 5 5 5 3 5 5 5 5 3 5 3 5 5 5 5 5 5 3 3 5 5 5 5 5 5 3 5 5 5 5 5 5 5 5 5 5 5 3 5 5 5 5 3 5 5 5 3 5 5 5 5 5 5 5 5 5 5 5 5 5 5 5 5 5 5 5 5 5 5 5 5 5 5 5 5 5 5 5 5 5 5 5 3 5 5 5 5 5 5 5 5 5 5 5 5 5 5 5 5 5 5 5 5 5 3 5 5 5 5 5 5 5 5 5 5 5 5 5 5 3 5 5 5 5 5 5 5 5 5 5 5 5 5 5 5 5 3 5 5 3 5 5 5 5 5 5 5 5 5 5 3 5 3 3 3 5 5 3 3 5 5 3 5 5 5 3 5 5 5 5 5 5 5 5 3 5 5 5 5 5 3 5 5 5 5 3 5 3 5 5 3 3 3 5 5 5 5 5 5 5 5 5 5 5 5 5 5 5 5 5 5 5 3 5 5 5 3 5 5 3 5 5 3 5 5 3 5 5 5 3 5 5 5 3 5 5 5 5 5 5 5 5 5 3 5 5 5 5 5 5 5 5 5 5 5 5 5 5 5 5 5 5 5 5 5 5 3 5 5 5 5 5 5 5 5 5 5 5 5 5 5 5 5 5 5 5 5 5 5 5 3 5 3 3 5 3 5 5 5 5 3 5 5 5 5 5 5 5 3 3 5 5 5 5 5 5 5 5 5 3 5 5 5 3 5 5 5 3 5 5 5 5 5 5 5 5 5 5 5 5 5 5 5 5 5 5 5 5 5 5 5 5 5 5 5 5 5 5 5 5 5 5 5 5 5 5 5 5 5 5 3 5 5 5 5 5 3 5 5 5 5 5 5 5 5 5 5 5 5 5 5 5 5 3 3 5 3 5 5 5 5 3 5 3 5 5 5 5 5 5 5 5 5 5 3 5 5 5 5 3 5 5 5 5 5 5 5 5 3 5 5 5 3 5 5 5 5 5 5 5 5 3 5 5 3 5 5 5 5 5 5 5 5 5 5 5 5 5 5 5 3 5 3 5 5 5 5 3 5 5 5 5 5 3 5 3 5 5 5 5 5 5 5 5 5 5 5 5 5 5 5 5 5 5 5 5 5 5 5 5 5 5 5 5 5 5 3 5 5 5 5 5 5 3 5 5 3 3 5 5 5 5 5 5 3 5 3 5 5 5 3 5 5 5 5 5 5 5 3 5 5 3 5 5 5 5 5 5 3 5 5 5 5 5 5 5 5 5 5 3 5 5 3 5 5 3 5 5 5 5 5 5 5 5 5 5 5 3 5 5 5 5 5 5 5 5 5 5 5 5 5 5 5 3 5 5 3 5 5 3 5 3 5 5 5 5 5 5 5 5 5 3 3 5 5 5 5 5 5 5 5 3 5 5 5 5 5 5 3 3 5 5 3 5 5 5 5 5 3 5 5 3 5 3 5 5 3 5 5 5 3 5 5 5 3 5 5 5 5 5 3 5 5 5 3 5 5 5 3 5 5 3 3 5 5 3 5 5 5 5 5 5 5 5 5 3 5 5 5 5 5 5 5 5 5 5 5 5 5 5 5 5 5 5 5 5 5 3 5 5 3 5 5 5 5 5 5 3 5 5 5 5 5 5 5 5 5 5 3 5 5 5 3 5 5 5 5 3 3 5 5 5 3 5 5 5 5 5 5 5 3 5 5 5 5 5 5 3 5 5 5 3 5 5 5 5 5 5 5 5 5 5 5 5 5 3 3 5 5 5 3 5 5 5 5 3 5 5 5 5 5 5 5 5 5 5 5 5 5 5 3 5 5 5 5 5 5 3 5 5 3 5 5 5 5 3 5 5 5 5 3 5 5 5 5 3 3 5 5 5 5 5 5 5 5 3 5 3 5 5 3 5 5 5 3 3 3 3 5 5 5 5 5 5 3 5 5 3 5 5 5 5 5 5 3 5 5 5 3 5 3 5 5 5 3 5 3 5 5 3 3 5 5 5 5 5 3 5 5 5 5 3 5 5 5 5 3 5 5 5 3 5 3 3 5 5 5 5 5 5 5 3 5 5 5 5 3 3 5 3 5 3 3 3 5 5 5 5 3 5 5 3 5 3 5 5 3 5 5 5 5 5 5 5 3 5 5 3 5 5 5 5 5 5 5 5 5 3 5 5 5 5 5 3 5 3 5 3 5 5 3 5 5 5 3 5 5 5 3 5 5 5 3 5 5 5 5 5 3 5 5 5 5 5 3 5 5 3 3 5 5 3 5 5 5 3 5 5 5 5 5 5 3 3 5 3 5 5 3 5 5 5 3 5 5 5 5 5 5 5 5 5 5 5 5 5 5 5 5 5 5 3 5 5 5 3 5 5 5 5 5 3 5 5 5 5 5 5 5 5 5 5 5 5 5 3 5 5 5 5 5 5 5 5 5 5 5 5 5 5 5 5 5 5 5 5 3 5 5 5 5 5 5 3 5 5 5 5 5 5 5 5 5 5 5 5 5 5 3 5 5 5 5 5 3 5 5 5 5 5 5 5 5 5 5 5 5 5 5 5 5 5 3 5 5 5 3 5 5 5 5 5 5 5 5 5 5 5 5 5 5 5 5 5 5 5 5 5 5 5 5 5 5 5 5 3 5 5 3 5 3 3 5 5 5 3 5 5 5 5 5 5 5 5 5 5 5 5 5 5 5 5 3 5 3 5 5 5 5 5 5 3 5 5 5 5 5 5 5 5 5 5 3 5 5 3 5 3 3 5 5 5 3 5 5 5 5 5 5 5 3 5 5 5 5 5 3 5 3 5 3 5 3 5 5 5 5 5 5 5 3 5 5 5 5 5 5 3 5 5 3 5 5 5 3 5 5 5 5 5 5 3 5 5 5 5 5 5 5 3 5 5 3 3 5 5 3 3 5 5 3 5 5 5 5 5 5 5 5 5 3 3 5 3 5 5 3 5 3 5 5 5 5 5 5 5 5 5 5 5 5 5 5 5 3 5 5 5 5 5 5 5 5 5 3 3 5 3 5 3 3 5 5 5 5 3 5 3 5 5 3 5 5 5 5 3 3 3 3 5 5 3 3 5 5 3 5 3 3 5 5 3 5 3 5 5 5 3 5 5 3 3 5 5 5 5 5 5 5 5 5 5 5 5 3 5 5 5 5 3 5 5 3 5 5 3 5 3 5 5 3 3 5 5 3 5 5 3 5 5 5 3 5 5 5 5 5 5 5 5 5 3 5 5 5 5 5 3 5 3 5 5 3 5 5 5 3 5 5 5 5 3 5 3 3 5 5 5 5 5 5 5 5 5 5 5 5 5 3 5 5 5 5 5 5 5 5 5 5 5 3 5 5 5 5 3 3 5 5 3 5 5 3 5 5 3 5 5 5 3 5 3 5 3 3 5 5 5 5 3 5 3 5 5 5 5 5 5 5 3 5 5 5 5 3 3 5 5 3 5 3 3 5 5 5 5 5 5 5 5 5 5 5 5 5 3 5 5 3 5 5 5 5 5 5 5 5 5 5 5 5 5 5 5 5 5 5 5 3 5 3 5 5 5 3 5 3 5 3 5 5 5 5 5 5 5 5 5 5 5 5 5 5 3 5 5 5 3 5 5 3 5 5 3 5 5 5 5 5 5 5 5 5 5 5 5 5 3 5 5 3 5 5 5 5 5 5 5 3 5 5 5 5 3 5 5 3 5 3 5 5 5 5 5 3 5 5 5 5 3 5 5 5 3 5 5 3 5 5 5 5 3 5 5 5 5 5 5 5 3 5 5 5 5 5 5 5 5 5 5 5 5 5 3 5 5 5 5 5 5 5 5 5 5 5 5 5 5 5 5 5 3 5 5 5 5 3 5 5 5 5 5 5 5 5 3 5 5 5 5 5 5 5 5 5 5 5 5 5 5 5 5 5 5 5 5 5 5 5 5 5 5 5 5 5 5 5 5 5 5 5 5 3 5 5 5 5 5 5 5 5 5 5 5 5 5 5 5 5 5 3 5 5 5 5 3 5 3 5 5 5 5 5 5 5 5 5 5 3 5 3 5 5 5 5 5 3 5 5 5 3 5 3 5 3 5 5 5 5 5 5 5 5 5 5 5 5 5 5 5 5 5 3 5 5 5 5 5 5 5 3 3 5 5 5 3 3 5 3 5 5 5 5 3 5 5 5 3 3 5 5 5 5 5 5 5 5 5 5 5 3 5 5 3 5 5 3 5 5 5 5 5 5 3 5 5 5 5 5 5 5 5 5 5 5 5 5 5 5 5 5 5 5 5 3 5 5 3 5 5 5 3 3 5 5 5 3 5 5 5 3 5 5 5 5 3 5 5 5 5 5 5 5 5 5 5 5 5 5 5 5 5 3 5 3 5 5 5 5 5 5 5 5 5 3 5 5 3 5 5 5 5 3 5 5 5 5 5 3 5 5 5 5 5 5 5 5 5 5 5 5 5 5 3 5 5 5 5 5 3 5 5 5 3 5 5 3 5 5 3 5 5 5 5 5 5 5 5 5 3 5 5 5 5 3 3 5 5 5 3 5 3 5 5 5 5 5 5 5 5 5 5 5 5 5 5 5 5 5 3 5 3 5 5 3 5 5 5 3 5 5 3 5 5 5 5 5 5 5 3 5 5 5 5 5 5 5 5 5 5 5 5 3 5 5 5 5 5 3 5 5 3 5 5 5 3 5 5 3 5 5 3 5 3 5 3 5 5 5 5 3 3 5 5 5 5 5 5 5 5 5 5 3 5 5 5 3 5 3 5 5 5 3 5 5 5 3 5 5 3 3 5 5 5 5 5 5 5 5 5 5 5 3 5 5 5 3 3 5 5 3 5 5 5 5 5 3 3 5 5 5 5 5 5 5 5 3 5 5 3 5 5 5 3 5 5 5 5 5 5 5 5 5 3 5 5 5 3 5 5 5 5 3 5 5 5 5 5 5 5 3 5 5 5 5 5 3 5 5 5 5 5 5 5 5 5 5 5 5 5 5 5 5 5 3 5 5 5 5 5 5 3 5 5 5 5 5 5 5 5 5 5 5 5 5 5 5 5 5 5 5 5 5 5 5 3 5 3 5 5 5 5 5 5 5 5 5 3 5 5 5 3 5 5 5 5 5 5 5 5 5 5 5 5 5 5 5 5 5 5 5 5 5 5 5 5 5 5 5 5 5 3 5 5 5 5 5 5 5 5 5 3 5 5 5 5 5 5 5 5 5 5 5 5 5 5 5 5 5 5 5 5 5 5 5 5 3 3 5 5 5 5 5 5 5 5 5 5 3 5 5 5 5 5 3 5 5 5 3 5 5 3 5 5 5 5 5 3 5 5 5 5 5 5 3 5 5 3 5 5 3 5 3 5 5 3 3 5 5 3 3 5 3 5 5 5 5 5 5 3 5 5 5 5 5 3 5 3 5 5 3 3 5 5 5 5 5 5 5 5 5 5 5 5 5 3 5 3 5 5 5 5 5 5 5 5 5 5 5 5 5 5 5 5 5 5 5 5 3 3 5 5 5 5 5 5 5 5 5 5 3 5 5 5 5 5 5 5 5 5 3 5 5 5 3 5 5 3 5 3 5 5 5 3 5 5 3 5 5 5 5 5 5 5 5 5 5 5 5 5 5 5 5 5 5 5 5 5 3 5 5 5 5 5 5 5 5 5 5 5 5 5 5 5 5 3 5 5 5 5 5 5 5 5 3 5 5 5 5 5 5 5 5 5 3 5 5 5 5 5 5 3 5 3 5 5 5 5 5 5 5 5 5 5 5 3 5 3 5 5 3 3 5 5 5 5 5 3 5 5 5 5 5 5 5 5 3 5 5 3 5 5 5 5 5 3 5 5 5 5 5 5 5 5 5 3 5 5 3 3 5 5 5 5 3 5 5 5 5 5 5 5 5 5 5 5 5 5 3 5 5 5 5 3 5 5 3 5 5 5 5 3 5 5 5 5 5 3 5 5 5 5 3 5 5 3 5 5 5 5 5 3 3 5 5 5 5 3 3 5 5 3 5 5 5 5 5 5 5 5 5 3 5 5 5 5 5 5 5 5 5 5 5 5 5 5 5 5 5 5 3 5 5 5 5 5 5 3 5 5 5 3 5 5 5 5 5 5 5 3 5 5 3 5 5 5 5 5 5 5 5 5 5 5 5 5 5 5 3 5 5 3 5 5 5 3 5 5 3 3 5 5 5 5 5 5 3 5 5 5 5 5 5 5 5 5 5 5 5 5 5 3 5 5 5 5 5 5 3 5 5 5 5 3 5 5 5 5 5 5 5 5 5 5 5 5 5 5 5 5 5 5 5 5 5 5 5 5 5 5 5 5 5 5 5 5 3 5 5 5 5 3 5 5 3 5 3 5 5 3 5 5 5 5 5 3 5 5 5 5 5 5 5 5 5 5 5 5 5 3 5 5 5 5 5 3 5 3 5 5 5 5 5 5 5 5 5 5 5 5 3 3 5 3 5 5 5 5 3 5 5 5 3 5 5 5 5 3 5 5 5 5 5 3 5 3 5 5 5 5 5 5 5 5 5 5 5 5 5 5 5 5 5 5 5 5 3 5 5 5 5 5 5 5 5 5 3 5 5 5 5 5 5 5 5 5 5 5 5 3 5 5 5 5 5 3 3 5 5 5 5 5 3 5 3 5 5 5 5 5 5 5 5 3 5 5 3 5 5 5 3 5 5 5 5 5 5 5 5 5 5 5 5 5 5 5 5 5 5 5 5 5 5 3 5 5 5 5 3 5 5 5 5 3 5 5 5 5 5 5 5 5 5 5 5 3 5 5 5 5 5 5 5 5 5 5 5 5 5 5 5 5 5 5 5 5 5 5 5 5 5 5 5 3 5 5 3 5 5 5 5 5 5 5 5 5 5 5 5 5 5 5 5 3 5 3 5 5 5 5 5 3 5 5 5 3 5 5 5 3 5 5 5 5 3 3 5 5 5 3 5 3 3 5 5 5 5 5 5 3 5 5 5 5 3 5 5 3 5 5 5 5 3 5 5 3 5 5 3 5 5 5 5 5 5 3 5 5 3 3 5 3 5 5 5 5 5 5 3 3 3 5 3 3 5 5 5 5 5 5 5 5 5 5 5 5 5 5 5 5 5 5 5 5 5 5 5 5 5 5 5 5 5 5 5 5 5 5 5 3 5 5 5 3 5 5 5 5 5 5 5 5 5 5 5 5 5 5 5 3 5 5 5 5 5 5 5 5 5 5 5 3 5 5 3 5 3 5 5 5 5 5 3 5 5 5 5 3 5 5 5 3 5 5 5 5 5 5 5 5 5 5 5 5 5 5 5 5 5 5 5 5 5 5 5 5 5 5 5 5 5 5 3 5 5 5 5 5 5 5 5 5 5 5 5 5 5 5 5 5 5 5 5 5 5 5 5 5 5 5 3 5 5 5 5 3 5 5 3 5 5 5 5 5 5 5 5 5 5 3 5 5 5 5 5 5 3 5 3 5 3 5 5 5 5 5 5 5 5 5 5 5 5 5 5 5 5 5 5 5 5 3 5 3 5 5 5 5 5 5 5 5 3 5 5 5 5 3 5 3 5 5 5 5 3 5 5 5 5 5 5 5 5 5 5 5 5 5 5 5 3 5 5 5 5 5 5 3 5 5 5 5 5 5 5 5 5 5 5 5 5 5 5 5 5 5 5 5 5 5 5 5 5 5 5 5 5 5 5 3 3 5 5 5 5 5 5 5 5 5 5 5 5 3 5 3 5 5 5 5 5 5 5 3 5 5 5 5 5 5 5 5 5 5 5 5 5 5 5 5 5 5 5 3 5 5 5 5 5 5 5 5 5 5 5 5 5 5 5 5 5 5 5 5 5 5 5 5 5 5 5 5 5 5 5 5 5 5 5 5 5 5 5 5 5 5 5 5 5 5 5 5 5 5 5 5 5 5 5 5 5 5 5 5 5 5 5 5 5 5 5 5 5 5 5 5 5 5 5 5 5 5 5 5 5 5 5 5 5 5 5 5 5 5 5 5 5 5 5 5 5 5 5 5 5 5 5 5 5 5 5 5 5 5 5 3 5 5 3 5 5 5 5 5 5 5 5 5 5 5 5 5 5 5 5 5 5 5 5 5 5 5 5 5 5 5 5 5 5 5 5 5 5 5 5 5 5 5 5 5 5 3 3 5 5 5 5 5 5 5 5 3 5 5 5 5 5 5 5 5 5 5 5 5 5 3 5 5 5 5 3 5 5 5 5 5 5 5 5 5 5 5 5 5 5 5 5 5 5 5 5 5 5 3 3 5 5 5 5 5 5 5 5 5 5 5 3 5 5 5 5 5 5 5 5 5 5 5 5 5 3 5 5 5 5 5 5 5 5 5 5 5 5 5 5 5 5 5 5 3 5 3 5 5 5 5 5 5 5 5 5 5 5 5 5 5 5 5 5 5 3 5 5 5 5 3 5 5 5 5 5 5 5 5 5 5 3 5 5 5 5 5 5 3 5 5 5 5 5 5 3 5 3 5 5 3 5 5 5 5 3 5 5 5 5 5 5 5 5 5 5 5 5 5 5 5 3 3 5 5 5 3 5 3 3 5 5 5 3 5 5 5 5 5 5 5 5 3 5 5 5 5 5 5 3 5 5 5 5 5 5 5 5 5 5 5 5 5 5 5 5 5 5 5 5 5 3 3 5 5 5 3 5 3 5 5 5 3 5 3 3 5 3 5 5 5 3 5 5 5 5 5 5 5 5 3 5 5 5 5 5 5 5 3 3 5 5 3 3 5 5 5 5 5 5 5 5 5 5 5 5 5 5 5 5 5 5 5 5 5 5 5 5 5 5 5 5 5 5 5 5 5 5 5 5 5 5 5 5 5 5 5 5 5 5 5 5 5 5 5 5 5 5 5 5 5 5 5 5 5 3 3 5 5 5 3 5 5 5 5 5 5 5 5 5 5 5 5 5 5 5 5 5 5 5 5 5 5 5 5 5 5 5 5 5 5 5 3 5 5 5 5 5 5 5 5 3 5 5 5 5 3 5 5 5 3 5 5 5 3 5 5 5 5 5 5 5 5 5 5 5 3 5 5 3 5 5 5 3 3 3 5 5 3 5 5 3 5 5 3 5 5 5 5 5 5 5 3 5 5 5 5 3 5 3 5 5 5 3 5 5 5 3 5 3 5 5 5 5 5 5 5 5 5 5 5 3 5 5 5 5 5 5 5 5 5 5 5 5 5 5 5 5 5 5 5 5 5 5 5 5 5 5 5 5 5 5 5 5 5 5 5 5 5 5 5 5 5 5 5 5 5 5 5 5 5 5 3 5 5 5 5 5 5 5 5 5 5 5 5 5 5 5 5 3 5 5 5 5 5 5 5 5 5 5 5 3 5 5 5 5 5 3 5 5 5 5 5 5 3 5 5 5 5 3 5 5 5 5 5 5 5 5 5 5 5 5 5 5 5 5 5 5 5 5 5 5 5 5 5 5 5 5 5 5 5 5 5 5 5 5 5 5 5 5 5 5 5 5 5 5 5 5 5 5 5 5 5 3 5 5 5 5 5 5 5 5 5 5 5 5 5 5 3 5 5 5 3 5 5 5 5 3 3 5 5 5 3 3 3 5 5 5 3 5 5 5 5 5 5 5 3 5 5 3 5 5 3 5 5 5 5 5 5 5 5 5 5 5 5 5 5 5 5 5 5 5 5 5 5 5 5 3 5 5 3 5 5 5 3 5 3 5 5 5 5 5 5 5 5 5 5 5 5 5 5 5 3 5 5 5 5 3 5 3 5 5 5 5 5 5 5 5 5 5 5 5 5 3 5 5 3 5 5 5 5 3 5 5 5 5 5 5 5 5 3 5 5 5 5 5 3 5 5 5 5 5 5 5 5 5 5 5 5 5 5 5 5 5 5 5 5 5 3 5 5 5 5 5 5 3 5 5 5 5 5 5 5 5 5 5 5 5 5 5 5 3 5 5 5 3 5 5 5 5 5 5 5 3 5 3 5 5 5 5 5 5 5 5 5 5 3 5 5 5 5 5 5 5 5 5 5 5 5 5 5 5 5 5 5 5 5 5 3 3 5 5 5 5 5 5 5 5 5 5 5 5 5 5 5 5 5 5 5 5 5 5 5 5 5 5 5 5 5 3 5 5 5 5 5 5 5 5 5 5 5 5 5 5 5 5 5 5 5 5 5 5 5 5 3 5 5 5 5 5 3 5 5 5 3 5 5 5 5 5 5 5 5 5 5 5 3 3 5 5 5 5 5 5 3 5 5 5 5 5 3 5 5 5 5 5 5 5 5 5 5 5 5 3 5 5 5 5 3 5 3 5 5 5 5 5 3 5 5 5 5 5 5 3 5 5 5 5 3 5 3 5 5 5 5 5 3 5 3 3 5 5 3 5 5 5 5 5 5 5 5 5 5 5 5 5 5 3 5 3 5 5 5 3 5 5 5 3 5 5 5 5 5 5 5 5 3 5 3 5 5 5 5 3 5 5 5 5 5 5 5 5 3 5 5 5 5 3 5 5 5 5 5 3 5 5 5 5 5 5 3 5 5 5 5 5 3 5 5 3 5 5 5 5 5 5 5 5 5 5 5 5 5 5 5 5 3 5 5 5 5 5 3 3 5 3 5 3 5 5 5 5 5 5 5 5 3 5 5 5 3 5 5 5 5 5 5 3 5 5 5 5 3 5 5 5 5 5 5 3 5 5 5 5 5 5 5 5 5 3 5 5 5 5 3 5 5 3 5 5 5 5 5 3 5 5 5 5 5 5 5 5 5 5 5 5 5 5 5 5 5 5 5 5 5 5 5 5 5 5 5 5 5 5 5 5 5 5 5 5 5 5 5 5 5 5 5 5 5 5 5 3 5 3 5 5 5 5 5 5 5 5 5 3 5 5 5 5 5 5 5 3 5 5 5 5 3 5 5 5 5 3 5 5 5 3 5 5 5 5 5 5 5 5 5 5 5 5 5 5 3 5 5 5 5 5 5 5 5 5 5 5 5 3 5 5 5 5 5 5 5 5 3 5 5 5 5 5 3 5 3 5 5 5 3 5 5 3 5 5 5 5 5 5 3 5 3 5 3 5 3 5 5 5 5 3 5 5 5 5 5 5 5 5 5 5 5 5 5 5 3 5 5 5 5 5 5 5 5 5 5 5 5 3 5 5 5 3 5 5 5 5 5 5 5 5 5 5 5 5 5 5 5 5 3 5 5 5 5 5 5 3 5 5 3 5 3 3 3 5 5 5 5 5 5 5 5 5 5 5 5 5 5 5 5 5 5 5 3 5 5 5 5 5 5 3 3 3 5 5 5 5 5 5 5 5 5 5 3 5 5 5 5 5 5 3 5 5 5 5 3 5 5 5 3 5 5 5 5 3 5 5 3 5 3 5 5 5 5 5 5 5 5 5 5 5 5 5 5 3 3 5 5 5 5 5 5 5 5 5 5 5 5 5 5 5 5 5 5 5 5 5 5 5 5 5 5 3 5 3 5 5 5 5 5 5 5 5 5 5 5 5 3 5 5 5 5 5 5 3 5 5 5 5 5 5 3 5 5 5 5 3 5 5 5 5 5 5 5 3 5 3 5 5 5 5 5 3 5 3 5 5 5 5 3 5 5 3 5 3 3 5 3 3 5 3 5 3 5 5 5 3 5 5 5 3 3 5 5 5 3 5 3 5 5 3 5 3 5 5 5 5 3 5 5 5 5 3 3 5 5 5 3 3 5 5 5 5 3 5 5 5 5 5 3 5 5 5 5 5 5 5 3 5 5 5 3 3 3 3 5 5 5 5 3 5 5 5 5 5 5 5 5 5 5 5 5 5 5 5 5 5 5 5 5 5 5 5 5 3 5 5 3 5 5 5 5 5 5 5 3 5 3 5 5 5 3 5 5 5 5 5 5 5 5 5 5 5 5 3 5 5 3 5 3 5 5 5 5 5 3 3 5 5 5 3 5 5 5 3 3 5 3 5 5 5 5 5 3 5 5 5 5 3 5 5 5 5 3 5 5 5 5 5 5 5 5 5 5 5 5 5 5 5 5 5 5 5 5 5 3 5 5 5 5 3 5 5 3 5 5 5 5 5 5 5 3 5 5 5 5 5 3 5 5 5 5 3 3 5 5 5 5 5 5 3 5 5 3 5 5 5 3 5 5 5 5 5 5 3 5 5 5 5 5 3 5 5 5 5 5 3 5 3 5 5 5 5 5 3 5 5 5 5 5 5 5 5 3 5 5 5 5 5 5 5 5 5 5 5 5 5 5 5 5 5 5 5 5 3 5 5 5 3 3 5 3 5 5 5 5 5 5 5 5 5 5 5 5 3 5 5 5 5 3 5 5 5 5 3 5 5 5 5 5 5 5 5 5 5 5 5 5 5 5 5 5 5 5 5 5 3 5 3 5 5 5 5 5 5 5 3 5 5 5 5 5 5 5 5 5 5 5 5 5 5 5 5 5 5 3 5 5 5 5 5 5 5 5 3 5 5 5 5 3 5 5 5 5 5 5 5 5 5 5 5 5 5 5 5 5 5 3 5 5 3 5 3 5 5 5 5 5 5 5 5 3 5 5 3 5 3 5 5 5 5 5 5 5 5 5 5 5 5 5 5 3 5 5 5 5 5 5 5 5 5 5 5 5 3 5 5 5 5 5 5 3 3 5 5 5 5 5 3 5 3 5 3 5 3 3 5 5 5 5 5 3 5 5 5 5 3 5 5 3 5 5 5 5 5 5 5 5 5 5 5 5 3 5 3 5 5 5 5 5 5 5 3 5 3 5 5 5 3 5 5 5 5 5 5 5 5 5 5 5 5 3 5 5 5 5 3 5 5 5 5 5 3 5 3 5 5 5 3 5 5 5 3 5 3 5 5 5 5 3 5 5 3 3 5 5 5 5 5 5 3 5 5 5 5 3 5 5 3 5 5 5 3 5 5 5 3 5 3 5 5 3 3 5 5 5 5 5 3 5 5 5 5 3 5 5 5 3 5 5 5 5 3 5 5 3 5 5 5 5 5 3 5 5 5 5 5 5 5 5 5 5 5 5 5 5 5 3 5 3 5 5 5 3 5 5 3 5 3 5 5 5 5 5 5 5 5 5 3 5 5 5 5 5 5 5 5 5 5 5 5 5 5 5 5 5 5 5 5 5 5 3 5 5 5 5 5 5 5 3 5 3 5 5 3 5 3 5 3 3 5 5 5 3 5 5 5 5 5 5 5 5 5 5 3 5 5 5 5 5 5 3 5 5 5 5 5 5 5 5 5 5 3 5 5 3 5 3 3 5 5 5 5 5 5 3 5 3 5 5 5 5 3 5 5 5 5 3 3 5 5 5 5 5 5 3 5 5 5 3 5 5 5 5 5 5 5 5 5 5 5 5 5 5 5 5 3 3 5 3 5 5 5 5 5 5 3 3 5 5 5 5 5 3 5 5 5 5 5 5 5 5 5 3 5 5 5 5 5 5 5 5 5 5 5 5 5 5 5 5 5 3 5 5 5 5 5 5 5 5 5 5 5 3 3 5 5 5 5 5 3 5 5 5 3 5 3 5 5 5 5 5 5 5 5 3 5 5 5 5 3 3 5 5 5 5 5 3 5 5 5 3 5 5 5 5 3 5 3 5 5 5 3 3 5 3 3 5 3 5 5 5 3 5 3 5 5 5 5 5 5 5 5 3 5 5 5 5 5 5 5 5 5 5 5 3 5 5 5 5 5 5 3 5 5 5 5 5 5 3 5 5 5 5 5 5 3 5 3 5 5 3 5 5 5 5 5 5 5 5 5 3 5 5 3 5 5 3 5 3 5 5 5 5 5 3 5 5 3 5 5 5 5 5 5 5 3 5 5 5 3 5 5 5 5 5 5 5 5 5 5 5 5 5 5 5 5 5 5 5 3 5 5 3 5 5 5 3 5 5 5 5 5 5 5 3 5 5 5 5 5 5 5 5 5 5 5 5 3 5 5 5 5 5 5 5 5 5 5 3 5 5 5 5 3 5 5 5 5 3 5 5 5 3 3 5 5 3 5 5 5 5 5 5 5 5 3 5 5 3 5 5 5 5 5 5 5 3 5 5 5 3 5 5 5 5 5 5 5 5 5 5 5 5 5 5 5 5 5 5 5 3 5 5 5 5 5 5 5 5 5 5 5 5 5 5 5 5 5 5 3 5 5 5 5 5 5 5 5 3 5 3 5 5 5 5 5 5 5 5 5 3 5 5 5 5 5 5 5 5 3 5 5 5 5 5 5 5 5 5 5 3 5 5 3 5 5 3 5 5 5 5 5 3 5 5 5 5 5 5 3 3 5 5 3 3 5 3 5 3 5 5 3 5 3 5 5 5 5 3 5 5 5 3 5 5 3 5 5 5 5 3 5 5 5 5 5 5 5 5 5 3 5 5 5 5 5 5 5 5 5 5 5 3 5 5 5 5 3 5 5 5 3 5 5 5 5 5 5 5 3 5 5 3 5 5 5 5 3 5 3 5 5 5 5 5 5 5 5 5 5 5 5 5 5 5 5 5 5 5 5 5 5 5 5 5 5 5 5 5 5 5 5 5 5 5 5 3 3 5 5 3 5 5 5 5 5 5 5 5 5 5 5 5 5 3 5 5 5 5 5 5 5 3 5 5 5 5 3 3 5 5 5 5 5 3 3 5 5 3 5 5 5 5 5 5 5 3 5 5 3 5 5 5 3 5 5 5 3 5 3 5 3 3 5 5 3 5 5 5 5 5 5 5 3 5 5 5 5 5 3 3 3 5 5 3 5 5 5 5 3 5 5 5 5 5 5 5 3 5 5 5 5 5 5 5 5 5 5 5 5 5 5 5 3 5 5 3 5 5 5 5 5 3 5 5 5 5 5 5 5 5 5 5 5 5 3 5 5 5 5 5 3 5 5 5 5 5 5 3 5 5 5 3 3 3 3 5 5 5 5 5 5 5 3 3 3 5 3 5 3 5 5 5 5 5 5 5 5 5 5 5 5 5 5 5 5 5 3 5 5 5 5 5 5 5 5 3 5 5 5 5 3 5 5 5 5 5 3 5 5 3 5 3 5 5 5 5 3 5 5 5 5 5 5 5 5 5 3 5 5 5 5 5 5 5 5 5 5 5 5 5 5 5 3 5 5 5 5 3 5 5 5 3 5 3 5 3 5 5 5 5 5 5 5 5 5 3 5 5 5 5 5 5 5 5 3 3 3 5 5 3 5 5 5 3 5 5 5 3 5 5 5 3 5 5 5 5 5 5 5 3 5 5 3 5 5 5 3 5 3 5 5 5 5 3 5 5 5 5 5 3 5 5 5 5 3 5 5 5 3 3 5 5 5 5 5 5 5 5 5 5 5 5 5 5 5 5 5 5 3 5 5 5 3 5 3 5 5 3 5 5 5 3 5 5 5 5 5 5 5 5 3 5 5 5 5 5 5 3 5 5 3 3 5 3 5 5 5 5 5 5 5 5 5 5 5 5 5 5 5 5 3 5 5 5 5 5 5 5 3 5 5 5 3 5 5 5 3 5 5 3 5 5 5 5 5 5 5 5 5 5 5 5 5 5 5 5 5 5 5 5 5 3 5 5 5 5 5 5 5 5 5 5 5 5 5 5 5 5 5 5 5 5 5 5 5 5 5 5 5 5 5 5 5 5 3 3 5 5 5 5 5 5 5 5 5 5 5 5 5 5 3 5 5 5 5 5 5 5 5 3 5 5 5 5 5 5 5 5 3 5 5 5 3 5 5 5 5 5 5 5 5 5 5 5 5 5 5 5 5 5 5 5 5 5 5 5 3 5 5 5 3 5 5 5 5 5 5 5 5 5 5 5 5 5 5 5 5 5 5 5 5 5 5 5 5 3 5 5 5 5 5 5 5 5 5 5 3 5 5 5 3 5 5 5 5 3 5 5 5 5 5 5 5 5 3 5 5 5 3 5 5 5 5 3 5 5 3 5 3 5 3 5 5 5 5 5 5 3 5 5 5 5 3 5 5 5 3 5 5 5 5 5 3 5 5 5 5 5 5 5 5 5 5 5 5 5 5 5 3 5 5 5 3 5 5 3 5 5 3 5 5 5 5 5 5 5 5 5 3 5 5 5 5 5 5 5 5 5 3 5 5 5 5 5 5 5 3 5 5 5 3 5 5 5 5 5 5 5 5 5 5 5 5 5 5 5 5 5 5 5 5 3 5 5 5 5 5 5 5 5 5 5 3 5 5 5 5 5 5 5 5 3 5 5 5 5 5 3 5 5 5 5 5 5 5 5 5 5 3 5 5 3 5 5 3 5 5 5 5 5 3 5 5 5 5 3 5 5 3 5 5 5 5 5 5 3 5 5 5 5 5 5 3 5 5 5 3 5 3 5 5 5 5 5 5 5 5 5 5 5 5 3 5 5 3 5 5 5 5 5 5 5 5 3 5 5 5 5 5 5 5 5 5 5 5 5 3 5 3 5 5 5 5 5 5 5 5 5 3 5 5 5 5 5 5 5 5 5 5 5 5 5 5 3 5 5 5 5 5 5 5 5 3 5 3 5 5 5 5 3 5 5 5 3 5 5 5 5 5 5 3 5 5 3 5 5 5 5 3 5 3 5 5 5 5 5 5 5 5 5 5 5 5 5 5 5 5 5 5 5 5 5 5 5 5 5 5 5 5 5 5 5 5 5 5 5 5 5 5 3 5 5 5 5 5 3 5 5 5 5 5 3 5 5 3 5 5 5 5 5 5 5 5 5 5 3 5 5 3 5 5 5 5 5 5 5 5 5 5 5 5 5 5 3 5 5 5 5 5 5 5 5 5 5 5 3 5 3 3 5 5 5 5 5 5 5 3 5 5 5 3 3 5 3 5 5 5 5 3 5 5 5 5 5 5 5 5 3 5 5 5 5 5 5 5 5 5 5 3 5 5 5 5 5 5 5 5 5 5 5 5 3 5 5 5 5 5 5 3 3 5 5 5 5 5 5 5 5 5 5 5 5 5 5 5 3 3 5 5 5 5 5 5 5 5 5 3 5 5 5 5 5 5 3 5 3 5 3 5 5 5 5 3 5 5 3 5 5 5 5 5 5 5 5 5 5 5 5 3 5 5 5 3 5 5 5 5 5 5 5 5 5 5 5 3 5 5 5 3 5 5 5 3 5 5 5 5 5 5 5 3 5 5 5 5 5 5 5 5 5 5 5 5 5 5 5 5 5 5 5 5 5 5 5 5 3 5 5 5 5 5 5 3 3 5 5 5 3 5 5 5 5 5 5 5 5 5 5 5 5 5 5 5 5 5 5 5 5 5 5 5 5 3 5 5 5 3 3 5 5 3 5 3 5 5 3 5 5 5 3 3 5 5 5 3 5 5 5 5 5 5 5 5 5 5 5 5 5 5 5 5 5 5 5 5 5 5 5 5 5 3 5 5 5 5 5 5 5 5 5 5 5 5 5 5 5 5 5 5 3 5 5 3 5 3 5 5 5 5 5 5 5 5 5 5 3 5 5 5 5 5 5 5 5 5 5 5 5 5 5 5 5 5 5 5 5 5 5 5 5 5 5 5 5 5 5 5 5 5 5 5 5 5 3 5 5 5 5 5 3 5 5 5 5 5 5 5 5 5 5 5 5 5 5 5 5 5 5 3 5 5 5 5 5 5 5 5 5 5 5 5 5 5 5 5 5 5 5 5 5 3 5 5 5 3 5 5 5 5 5 5 5 5 5 5 5 5 5 3 5 5 5 5 5 5 5 5 5 5 5 5 5 5 5 5 5 5 5 5 5 5 5 5 5 5 5 3 5 5 5 5 3 5 5 3 5 5 5 3 3 5 5 5 5 3 5 5 5 5 3 3 5 5 3 5 5 5 3 5 3 5 5 5 5 3 5 5 5 5 5 3 3 5 5 3 5 3 5 5 5 5 3 5 3 5 5 5 3 5 5 5 5 3 3 3 5 5 3 5 5 5 5 5 5 5 5 5 5 5 5 5 5 5 5 3 5 5 5 5 5 5 5 5 5 5 5 5 3 5 5 5 5 5 5 5 5 5 3 5 5 5 5 5 5 5 5 5 5 5 5 5 3 5 5 5 5 5 5 5 5 5 3 5 5 3 5 5 5 5 5 5 5 5 5 3 5 5 5 5 5 5 3 3 3 5 5 3 5 5 5 5 5 5 5 3 5 5 5 5 5 5 5 5 5 5 3 5 3 5 3 5 3 5 3 5 5 5 3 3 5 3 5 3 3 5 5 5 5 3 5 5 3 3 5 5 5 5 5 5 5 3 3 5 3 5 5 5 5 5 5 5 5 5 5 5 5 5 5 5 5 5 5 5 5 3 5 5 5 5 5 5 5 5 5 3 5 5 5 5 5 5 5 5 3 3 5 5 5 5 5 5 5 5 5 5 5 5 3 5 5 5 5 5 5 5 5 5 5 5 5 5 3 5 5 5 3 5 5 5 5 5 5 5 3 5 5 5 5 5 5 5 5 5 3 5 3 5 5 3 5 5 5 5 5 5 5 5 5 5 5 5 5 5 5 5 5 5 5 5 5 5 5 3 5 5 5 5 5 5 3 5 5 5 5 3 5 5 3 5 5 5 5 5 5 5 5 5 5 5 3 5 5 5 5 5 5 5 5 3 3 5 5 5 5 5 5 5 3 5 5 3 5 5 5 5 3 5 5 5 5 5 5 3 5 5 5 5 5 5 3 5 5 5 5 5 5 3 5 5 5 3 5 5 3 5 5 5 5 5 5 5 5 5 3 5 5 5 5 5 5 5 3 5 3 3 5 5 3 5 5 5 5 5 5 5 5 5 5 5 5 3 5 3 5 5 5 3 5 5 5 5 3 5 3 5 3 5 5 5 5 3 5 5 3 5 5 5 3 3 5 5 5 5 5 3 5 5 3 5 5 5 5 5 5 5 5 5 5 5 5 5 5 5 5 5 5 3 5 5 5 5 5 5 3 5 5 5 5 5 5 5 5 3 5 5 5 5 5 3 5 5 5 5 3 5 5 5 5 5 5 5 5 5 5 3 5 5 5 5 5 5 5 5 5 3 5 5 5 5 3 3 5 5 5 5 5 5 5 5 5 5 5 5 5 5 5 3 5 5 5 5 3 5 5 5 5 5 5 5 3 5 5 5 5 5 5 5 5 5 5 5 5 5 5 5 3 5 5 5 5 3 5 5 5 3 5 5 5 5 5 3 5 3 3 3 5 5 5 5 3 3 5 5 5 3 5 5 5 5 5 5 5 5 5 5 5 5 5 5 5 5 5 5 3 5 5 5 5 5 5 5 5 5 5 5 5 5 5 5 3 3 5 5 5 5 5 5 5 5 3 5 5 3 3 5 5 5 5 5 5 5 3 5 5 5 5 5 5 5 5 5 5 3 5 5 3 5 3 3 5 3 3 5 5 5 5 5 5 5 5 5 3 5 5 5 3 5 5 5 3 5 3 5 5 5 5 3 5 5 5 5 5 5 5 5 3 5 5 5 5 3 5 5 3 3 5 5 5 5 5 5 5 5 5 5 5 5 5 5 5 5 5 5 5 5 5 5 5 5 5 3 3 3 5 5 3 5 5 5 5 5 3 5 5 5 5 5 5 5 5 5 3 5 3 5 5 5 5 5 5 5 3 5 3 5 3 5 5 5 5 5 5 5 5 5 3 5 5 5 5 5 5 3 5 5 5 5 5 5 5 5 5 5 5 5 5 5 5 5 3 5 5 3 5 5 5 5 5 5 5 5 5 3 5 5 5 3 3 3 5 5 5 3 5 5 3 5 3 5 5 5 5 5 5 5 5 5 5 5 5 5 5 5 5 5 5 3 5 5 5 3 5 5 3 3 5 3 5 5 5 3 5 5 5 5 5 5 5 5 5 5 3 5 5 5 5 3 5 5 5 5 5 5 5 5 5 5 5 5 5 5 5 5 5 5 5 5 5 5 5 5 5 5 5 5 3 5 5 5 5 5 5 5 5 5 5 3 5 3 5 5 5 5 5 5 3 5 5 5 5 5 5 5 5 5 5 5 5 5 5 5 5 3 5 5 5 5 5 5 5 3 5 5 5 5 5 5 5 5 5 3 5 5 5 5 5 5 5 5 5 5 5 5 5 5 5 3 5 5 5 5 5 5 5 5 5 5 5 3 5 5 5 5 5 5 5 3 3 5 5 5 5 5 5 5 5 3 3 5 5 5 5 5 5 5 5 5 5 5 5 5 5 5 5 3 5 5 5 5 5 5 5 5 5 3 5 5 5 5 5 5 5 5 5 5 5 5 5 5 5 5 5 5 5 5 5 5 5 5 5 5 5 5 5 5 5 5 5 5 5 5 5 5 5 5 5 5 5 5 5 5 5 5 5 5 5 5 5 5 5 5 5 5 5 5 5 5 5 5 5 5 5 5 5 5 5 5 5 5 5 5 5 5 5 5 5 5 5 5 5 5 5 5 5 5 5 5 5 5 5 5 3 5 5 5 5 5 5 5 5 5 3 5 5 5 3 5 5 5 5 5 5 5 5 5 3 5 5 5 5 5 5 5 5 5 3 5 5 3 5 3 3 5 3 5 5 3 5 5 5 5 5 5 5 5 5 5 5 5 5 3 3 5 3 5 5 5 3 5 5 5 5 3 5 5 5 5 5 5 5 5 5 5 5 5 5 5 5 5 3 3 5 5 5 5 5 5 5 3 5 5 5 5 5 5 5 5 5 3 5 5 5 5 5 5 5 5 5 3 5 5 5 5 5 5 5 5 5 5 3 5 5 3 3 5 3 5 5 5 5 5 5 5 5 3 5 5 5 5 5 5 5 5 5 5 5 5 5 
</DataArray>
</Cells>
<PointData Scalars="" Vectors="displacement," Tensors="">
<DataArray type="Float64" Name="displacement" NumberOfComponents="3" format="ascii">
-0.054059245350723123 5.0126310987616343e-09 0 -0.054996022555431394 -3.6175434092949381e-09 0 -0.055001986654042802 5.5247237657976431e-10 0 -0.054049432293199674 -5.5443581037759683e-07 0 -0.054994190504207958 -7.8065117488705411e-07 0 -0.053055155554731795 -0.00021067547344132736 0 -0.054053483089113091 5.5883137761548416e-08 0 -0.054999791102014868 -5.7101220849777453e-08 0 -0.054994190504207958 -7.8065117488705411e-07 0 -0.053055155554731795 -0.00021067547344132736 0 -0.053956068791208463 -0.00025885329294559044 0 -0.052871178401861965 -0.00033769576680392125 0 -0.053055155554731795 -0.00021067547344132736 0 -0.053956068791208463 -0.00025885329294559044 0 -0.054049432293199674 -5.5443581037759683e-07 0 -0.053055155554731795 -0.00021067547344132736 0 -0.051239917109090621 -6.1361490074548025e-07 0 -0.053055155554731795 -0.00021067547344132736 0 -0.051239917109090621 -6.1361490074548025e-07 0 -0.051101169803000855 -0.00027590234044077221 0 -0.051239917109090621 -6.1361490074548025e-07 0 -0.051101169803000855 -0.00027590234044077221 0 -0.048424506057706339 5.0363871040568433e-08 0 -0.052871178401861965 -0.00033769576680392125 0 -0.051101169803000855 -0.00027590234044077221 0 -0.052375796622666115 -0.00033272375509617791 0 -0.052871178401861965 -0.00033769576680392125 0 -0.053055155554731795 -0.00021067547344132736 0 -0.051101169803000855 -0.00027590234044077221 0 -0.051101169803000855 -0.00027590234044077221 0 -0.051126089558174236 -0.0001973920091016262 0 -0.049198124235954828 -0.00013222991481823433 0 -0.051101169803000855 -0.00027590234044077221 0 -0.048424506057706339 5.0363871040568433e-08 0 -0.049198124235954828 -0.00013222991481823433 0 -0.052345673212741355 -0.00016388196187309707 0 -0.05323403406956316 -0.00012328149521625021 0 -0.052876882666185981 0.00026995649936021227 0 -0.052345673212741355 -0.00016388196187309707 0 -0.052375796622666115 -0.00033272375509617791 0 -0.053033901155714512 -0.00028416699776817914 0 -0.052345673212741355 -0.00016388196187309707 0 -0.053033901155714512 -0.00028416699776817914 0 -0.05323403406956316 -0.00012328149521625021 0 -0.051101169803000855 -0.00027590234044077221 0 -0.051126089558174236 -0.0001973920091016262 0 -0.052375796622666115 -0.00033272375509617791 0 -0.052345673212741355 -0.00016388196187309707 0 -0.051126089558174236 -0.0001973920091016262 0 -0.052375796622666115 -0.00033272375509617791 0 -0.052871178401861965 -0.00033769576680392125 0 -0.052375796622666115 -0.00033272375509617791 0 -0.053651672001535151 -0.00035362641977272115 0 -0.053033901155714512 -0.00028416699776817914 0 -0.053651672001535151 -0.00035362641977272115 0 -0.053713857141875633 -0.00029082256914846619 0 -0.052375796622666115 -0.00033272375509617791 0 -0.053033901155714512 -0.00028416699776817914 0 -0.053651672001535151 -0.00035362641977272115 0 -0.053651672001535151 -0.00035362641977272115 0 -0.054999535126044358 -3.0604654861325195e-07 0 -0.0543034538365266 -0.00026271371486685145 0 -0.052871178401861965 -0.00033769576680392125 0 -0.053651672001535151 -0.00035362641977272115 0 -0.053956068791208463 -0.00025885329294559044 0 -0.054994190504207958 -7.8065117488705411e-07 0 -0.053956068791208463 -0.00025885329294559044 0 -0.054999535126044358 -3.0604654861325195e-07 0 -0.053651672001535151 -0.00035362641977272115 0 -0.053956068791208463 -0.00025885329294559044 0 -0.054999535126044358 -3.0604654861325195e-07 0 -0.054999535126044358 -3.0604654861325195e-07 0 -0.054998945418067255 -1.6874064863728412e-07 0 -0.0543034538365266 -0.00026271371486685145 0 -0.054998945418067255 -1.6874064863728412e-07 0 -0.054652182743487508 -0.00015211783167948381 0 -0.0543034538365266 -0.00026271371486685145 0 -0.054652182743487508 -0.00015211783167948381 0 -0.054212908659246245 -0.00022359491299991786 0 -0.054330615390407087 -0.00015613157878965889 0 -0.054652182743487508 -0.00015211783167948381 0 -0.054212908659246245 -0.00022359491299991786 0 -0.0543034538365266 -0.00026271371486685145 0 -0.054212908659246245 -0.00022359491299991786 0 -0.0543034538365266 -0.00026271371486685145 0 -0.053713857141875633 -0.00029082256914846619 0 -0.053651672001535151 -0.00035362641977272115 0 -0.0543034538365266 -0.00026271371486685145 0 -0.053713857141875633 -0.00029082256914846619 0 -0.054999770421019646 -2.3537437280377802e-07 0 -0.054738130551916994 -0.00013405499660073801 0 -0.054876962495872893 -9.9849813002118629e-05 0 -0.054999770421019646 -2.3537437280377802e-07 0 -0.054876962495872893 -9.9849813002118629e-05 0 -0.054936817627785031 -7.5290139252721597e-05 0 -0.054652182743487508 -0.00015211783167948381 0 -0.054999770421019646 -2.3537437280377802e-07 0 -0.054738130551916994 -0.00013405499660073801 0 -0.054998945418067255 -1.6874064863728412e-07 0 -0.054652182743487508 -0.00015211783167948381 0 -0.054999770421019646 -2.3537437280377802e-07 0 -0.054330615390407087 -0.00015613157878965889 0 -0.05475663688026855 -0.00010965363695909368 0 -0.054888968244238265 -3.199704658621393e-05 0 -0.054652182743487508 -0.00015211783167948381 0 -0.054330615390407087 -0.00015613157878965889 0 -0.054738130551916994 -0.00013405499660073801 0 -0.054330615390407087 -0.00015613157878965889 0 -0.054738130551916994 -0.00013405499660073801 0 -0.05475663688026855 -0.00010965363695909368 0 -0.052880967297568117 0.0012496825140026341 0 -0.053326194827532959 0.0014240884936958214 0 -0.054097451696610732 0.00030002467734088691 0 -0.054738130551916994 -0.00013405499660073801 0 -0.054876962495872893 -9.9849813002118629e-05 0 -0.05475663688026855 -0.00010965363695909368 0 -0.054876962495872893 -9.9849813002118629e-05 0 -0.05475663688026855 -0.00010965363695909368 0 -0.054888968244238265 -3.199704658621393e-05 0 -0.054143342784141485 0.00038953396630796866 0 -0.054458799768142149 0.00020466182097485811 0 -0.054876962495872893 -9.9849813002118629e-05 0 -0.054888968244238265 -3.199704658621393e-05 0 -0.054936817627785031 -7.5290139252721597e-05 0 -0.053326194827532959 0.0014240884936958214 0 -0.052104366263010939 0.0024764501825538612 0 -0.05381765692858452 0.0018321450189662837 0 -0.053025934275792524 0.0019617279544414767 0 -0.050541038716859298 0.00063658574916896867 0 -0.052880967297568117 0.0012496825140026341 0 -0.053326194827532959 0.0014240884936958214 0 -0.052104366263010939 0.0024764501825538612 0 -0.054143342784141485 0.00038953396630796866 0 -0.053429815503366576 0.0010544099828742031 0 -0.054143342784141485 0.00038953396630796866 0 -0.054049436256173672 0.00043882631869790467 0 -0.054655188682305789 -0.0003402050729768399 0 -0.054288406013787899 0.00041462114733556345 0 -0.053710551818796373 0.00074415254298849324 0 -0.054330615390407087 -0.00015613157878965889 0 -0.054888968244238265 -3.199704658621393e-05 0 -0.053710551818796373 0.00074415254298849324 0 -0.054288406013787899 0.00041462114733556345 0 -0.053710551818796373 0.00074415254298849324 0 -0.053887273247829617 0.0013196971754125845 0 -0.052104366263010939 0.0024764501825538612 0 -0.051327523492085157 0.0038191974918133048 0 -0.052355430109899702 0.0038964654162733595 0 -0.053429815503366576 0.0010544099828742031 0 -0.045415799097143279 0.0023848103259844896 0 -0.053710551818796373 0.00074415254298849324 0 -0.053887273247829617 0.0013196971754125845 0 -0.053499484577767646 0.0013352369357428114 0 -0.045415799097143279 0.0023848103259844896 0 -0.051013954228259939 0.0023879203423854316 0 -0.045415799097143279 0.0023848103259844896 0 -0.036386960998336285 -0.0031996229886921521 0 -0.041593935635944934 -0.0021980838961367186 0 -0.041309180280604332 -0.0015423832892527544 0 -0.041204530376551481 -0.0019686910763303967 0 -0.041593935635944934 -0.0021980838961367186 0 -0.041204530376551481 -0.0019686910763303967 0 -0.041036032414139278 -0.0022552288063250234 0 -0.052104366263010939 0.0024764501825538612 0 -0.052355430109899702 0.0038964654162733595 0 -0.05381765692858452 0.0018321450189662837 0 -0.036386960998336285 -0.0031996229886921521 0 -0.050541038716859298 0.00063658574916896867 0 -0.054212908659246245 -0.00022359491299991786 0 -0.053713857141875633 -0.00029082256914846619 0 -0.053955924310266815 -0.00011908171070401346 0 -0.053713857141875633 -0.00029082256914846619 0 -0.053955924310266815 -0.00011908171070401346 0 -0.05323403406956316 -0.00012328149521625021 0 -0.053033901155714512 -0.00028416699776817914 0 -0.053713857141875633 -0.00029082256914846619 0 -0.05323403406956316 -0.00012328149521625021 0 -0.054193771717867066 -0.00016461564089341593 0 -0.053316134020341174 0.00019909228850567247 0 -0.054330615390407087 -0.00015613157878965889 0 -0.053710551818796373 0.00074415254298849324 0 -0.052718043598364961 0.00045526792453177712 0 -0.054212908659246245 -0.00022359491299991786 0 -0.054330615390407087 -0.00015613157878965889 0 -0.053955924310266815 -0.00011908171070401346 0 -0.052718043598364961 0.00045526792453177712 0 -0.05318803585263588 0.00089637864474948728 0 -0.052844188528337915 0.001060930542458077 0 -0.053710551818796373 0.00074415254298849324 0 -0.052718043598364961 0.00045526792453177712 0 -0.05318803585263588 0.00089637864474948728 0 -0.05318803585263588 0.00089637864474948728 0 -0.053499484577767646 0.0013352369357428114 0 -0.052844188528337915 0.001060930542458077 0 -0.053499484577767646 0.0013352369357428114 0 -0.052844188528337915 0.001060930542458077 0 -0.052889094296650251 0.0016247779970173239 0 -0.053710551818796373 0.00074415254298849324 0 -0.05318803585263588 0.00089637864474948728 0 -0.053499484577767646 0.0013352369357428114 0 -0.05403817489310702 0.0013961881622286483 0 -0.053499484577767646 0.0013352369357428114 0 -0.052889094296650251 0.0016247779970173239 0 -0.052718043598364961 0.00045526792453177712 0 -0.052844188528337915 0.001060930542458077 0 -0.052173526947900138 0.0015606959569868433 0 -0.052844188528337915 0.001060930542458077 0 -0.052173526947900138 0.0015606959569868433 0 -0.052889094296650251 0.0016247779970173239 0 -0.053316134020341174 0.00019909228850567247 0 -0.051780542131748541 0.0010514905010232793 0 -0.053955924310266815 -0.00011908171070401346 0 -0.05323403406956316 -0.00012328149521625021 0 -0.052876882666185981 0.00026995649936021227 0 -0.052718043598364961 0.00045526792453177712 0 -0.050665556386158758 0.0018624860472466202 0 -0.052173526947900138 0.0015606959569868433 0 -0.050665556386158758 0.0018624860472466202 0 -0.051952847249691875 0.0028384868131020469 0 -0.050128160566212575 0.0031306791599483353 0 -0.050665556386158758 0.0018624860472466202 0 -0.052173526947900138 0.0015606959569868433 0 -0.051952847249691875 0.0028384868131020469 0 -0.05403817489310702 0.0013961881622286483 0 -0.052889094296650251 0.0016247779970173239 0 -0.051952847249691875 0.0028384868131020469 0 -0.043567995580749148 0.0061252025343102858 0 -0.044011724143205866 0.0059138933892363531 0 -0.043748840777541813 0.0057211630260603904 0 -0.052173526947900138 0.0015606959569868433 0 -0.052889094296650251 0.0016247779970173239 0 -0.051952847249691875 0.0028384868131020469 0 -0.045415799097143279 0.0023848103259844896 0 -0.048539460763855312 0.004404598748397901 0 -0.045415799097143279 0.0023848103259844896 0 -0.033509844922751206 0.00052022687122337918 0 -0.025885735046562906 -0.0045167321979779273 0 -0.026697248593951166 -0.004651433168856153 0 -0.025473070306741813 -0.0037577612573270578 0 -0.044011724143205866 0.0059138933892363531 0 -0.043748840777541813 0.0057211630260603904 0 -0.044244190152824103 0.0054354214189239565 0 -0.024591687478573133 -0.0051731105314345126 0 -0.024940930323632957 -0.0040159888163697286 0 -0.051952847249691875 0.0028384868131020469 0 -0.050128160566212575 0.0031306791599483353 0 -0.049336800084871818 0.0041843727429559047 0 -0.044011724143205866 0.0059138933892363531 0 -0.044244190152824103 0.0054354214189239565 0 -0.045015228326073208 0.0054932641221540745 0 -0.048539460763855312 0.004404598748397901 0 -0.047125852013437032 0.0047820701145518596 0 -0.036386960998336285 -0.0031996229886921521 0 -0.033037299146698611 -0.0046545307188136688 0 -0.025448821383497543 -0.0070792239844728695 0 -0.025759946771933603 -0.0058284913041208091 0 -0.027153996806210844 -0.0069779916851531315 0 -0.026949560174630981 -0.0060745686040744006 0 -0.027835301296645198 -0.0060064615084448984 0 -0.026697248593951166 -0.004651433168856153 0 -0.036386960998336285 -0.0031996229886921521 0 -0.024591687478573133 -0.0051731105314345126 0 -0.025448821383497543 -0.0070792239844728695 0 -0.024462586373713291 -0.0054958741356399771 0 -0.025759946771933603 -0.0058284913041208091 0 -0.026949560174630981 -0.0060745686040744006 0 -0.025885735046562906 -0.0045167321979779273 0 -0.026697248593951166 -0.004651433168856153 0 -0.024462586373713291 -0.0054958741356399771 0 -0.025759946771933603 -0.0058284913041208091 0 -0.025099935188617806 -0.004690270261093153 0 -0.024462586373713291 -0.0054958741356399771 0 -0.024481599874088406 -0.0045105876237350236 0 -0.024069936249705427 -0.0040430608961368481 0 -0.024462586373713291 -0.0054958741356399771 0 -0.025099935188617806 -0.004690270261093153 0 -0.024481599874088406 -0.0045105876237350236 0 -0.025759946771933603 -0.0058284913041208091 0 -0.026192871181557911 -0.0047647691523846746 0 -0.027001337865261162 -0.0057482428274008351 0 -0.025759946771933603 -0.0058284913041208091 0 -0.026192871181557911 -0.0047647691523846746 0 -0.025099935188617806 -0.004690270261093153 0 -0.026192871181557911 -0.0047647691523846746 0 -0.02543755762150237 -0.003768824609560724 0 -0.026758678688814118 -0.0037418112592036709 0 -0.026192871181557911 -0.0047647691523846746 0 -0.02543755762150237 -0.003768824609560724 0 -0.025099935188617806 -0.004690270261093153 0 -0.02543755762150237 -0.003768824609560724 0 -0.025099935188617806 -0.004690270261093153 0 -0.024387824915479465 -0.0039112209677342408 0 -0.025099935188617806 -0.004690270261093153 0 -0.024481599874088406 -0.0045105876237350236 0 -0.024387824915479465 -0.0039112209677342408 0 -0.024481599874088406 -0.0045105876237350236 0 -0.024387824915479465 -0.0039112209677342408 0 -0.024069936249705427 -0.0040430608961368481 0 -0.024387824915479465 -0.0039112209677342408 0 -0.024392633721869506 -0.0027240360515271389 0 -0.022783958029402328 -0.0021870249229490966 0 -0.024293033375840826 -0.0038101637657097444 0 -0.023624608988107212 -0.0026694866392226652 0 -0.02543755762150237 -0.003768824609560724 0 -0.024387824915479465 -0.0039112209677342408 0 -0.024392633721869506 -0.0027240360515271389 0 -0.02543755762150237 -0.003768824609560724 0 -0.026758678688814118 -0.0037418112592036709 0 -0.025836543119794771 -0.0023920257258030673 0 -0.02543755762150237 -0.003768824609560724 0 -0.024392633721869506 -0.0027240360515271389 0 -0.025836543119794771 -0.0023920257258030673 0 -0.044036448910257306 0.004683742375890497 0 -0.044574187994343616 0.005138139498231325 0 -0.045132433960288681 0.0043121792044256459 0 -0.044244190152824103 0.0054354214189239565 0 -0.044036448910257306 0.004683742375890497 0 -0.044574187994343616 0.005138139498231325 0 -0.044244190152824103 0.0054354214189239565 0 -0.044574187994343616 0.005138139498231325 0 -0.045015228326073208 0.0054932641221540745 0 -0.043748840777541813 0.0057211630260603904 0 -0.044244190152824103 0.0054354214189239565 0 -0.044036448910257306 0.004683742375890497 0 -0.033509844922751206 0.00052022687122337918 0 -0.034507255807364148 0.00057618531697892846 0 -0.025885735046562906 -0.0045167321979779273 0 -0.024773578360326481 -0.0036078146904857814 0 -0.025473070306741813 -0.0037577612573270578 0 -0.024387824915479465 -0.0039112209677342408 0 -0.024069936249705427 -0.0040430608961368481 0 -0.024333097539561848 -0.0036576658288447026 0 -0.024069936249705427 -0.0040430608961368481 0 -0.024333097539561848 -0.0036576658288447026 0 -0.024406716954977453 -0.0033802957113095713 0 -0.024940930323632957 -0.0040159888163697286 0 -0.024435573751007928 -0.0034398536404788146 0 -0.024773578360326481 -0.0036078146904857814 0 -0.025473070306741813 -0.0037577612573270578 0 -0.024406716954977453 -0.0033802957113095713 0 -0.024387824915479465 -0.0039112209677342408 0 -0.024333097539561848 -0.0036576658288447026 0 -0.02452559230025516 -0.0033465702583697111 0 -0.024333097539561848 -0.0036576658288447026 0 -0.024406716954977453 -0.0033802957113095713 0 -0.02452559230025516 -0.0033465702583697111 0 -0.044036448910257306 0.004683742375890497 0 -0.045132433960288681 0.0043121792044256459 0 -0.044616515694976933 0.0030733443551988213 0 -0.034507255807364148 0.00057618531697892846 0 -0.034930067386489641 -0.00028960041922126512 0 -0.024773578360326481 -0.0036078146904857814 0 -0.024406716954977453 -0.0033802957113095713 0 -0.02418553286596601 -0.0031986506116224362 0 -0.045132433960288681 0.0043121792044256459 0 -0.046121336284533722 0.004137201994037415 0 -0.045929377089512696 0.0032936697893533973 0 -0.045132433960288681 0.0043121792044256459 0 -0.04563459034904583 0.0047213443799871673 0 -0.046121336284533722 0.004137201994037415 0 -0.04563459034904583 0.0047213443799871673 0 -0.045015228326073208 0.0054932641221540745 0 -0.046748371364287833 0.0046627498382550824 0 -0.045132433960288681 0.0043121792044256459 0 -0.045084439639279758 0.0049241136277602161 0 -0.04563459034904583 0.0047213443799871673 0 -0.044574187994343616 0.005138139498231325 0 -0.045132433960288681 0.0043121792044256459 0 -0.045084439639279758 0.0049241136277602161 0 -0.045084439639279758 0.0049241136277602161 0 -0.04563459034904583 0.0047213443799871673 0 -0.045015228326073208 0.0054932641221540745 0 -0.049336800084871818 0.0041843727429559047 0 -0.046748371364287833 0.0046627498382550824 0 -0.048574680862672831 0.0036260824312078048 0 -0.047125852013437032 0.0047820701145518596 0 -0.046909640112727961 0.0046481661576511842 0 -0.044574187994343616 0.005138139498231325 0 -0.045084439639279758 0.0049241136277602161 0 -0.045015228326073208 0.0054932641221540745 0 -0.046714995676485849 0.0046358017319413922 0 -0.046748371364287833 0.0046627498382550824 0 -0.048574680862672831 0.0036260824312078048 0 -0.048735862871092911 0.003262331518522784 0 -0.049828124946986352 0.0021993238829738624 0 -0.049764084765674108 0.00096000015402699583 0 -0.049474941968156931 0.0016938634686376054 0 -0.051248787620174527 0.00077351356522582619 0 -0.049764084765674108 0.00096000015402699583 0 -0.04910823378097226 0.0011841657304634623 0 -0.04880859326983427 0.00073270425970494389 0 -0.04910823378097226 0.0011841657304634623 0 -0.049474941968156931 0.0016938634686376054 0 -0.048168299588707539 0.001357694605925975 0 -0.049764084765674108 0.00096000015402699583 0 -0.04910823378097226 0.0011841657304634623 0 -0.049474941968156931 0.0016938634686376054 0 -0.046714995676485849 0.0046358017319413922 0 -0.046748371364287833 0.0046627498382550824 0 -0.046893189292088432 0.0036876545850606482 0 -0.04563459034904583 0.0047213443799871673 0 -0.046748371364287833 0.0046627498382550824 0 -0.046121336284533722 0.004137201994037415 0 -0.046748371364287833 0.0046627498382550824 0 -0.046121336284533722 0.004137201994037415 0 -0.046893189292088432 0.0036876545850606482 0 -0.046121336284533722 0.004137201994037415 0 -0.046893189292088432 0.0036876545850606482 0 -0.045929377089512696 0.0032936697893533973 0 -0.049474941968156931 0.0016938634686376054 0 -0.048168299588707539 0.001357694605925975 0 -0.047124867076633908 0.0044217529705062562 0 -0.048168299588707539 0.001357694605925975 0 -0.046608425730662283 0.00042257297145592988 0 -0.047124867076633908 0.0044217529705062562 0 -0.046714995676485849 0.0046358017319413922 0 -0.046893189292088432 0.0036876545850606482 0 -0.047777075043444348 0.0034029283733522371 0 -0.048735862871092911 0.003262331518522784 0 -0.043041282609084235 0.0021415646122791825 0 -0.042800025630957805 7.8089767392067901e-06 0 -0.046608425730662283 0.00042257297145592988 0 -0.047124867076633908 0.0044217529705062562 0 -0.042790060493839391 1.0689876035964286e-06 0 -0.040112425092695213 0.00011054663477956849 0 -0.039420497320097017 0.00026479595903168405 0 -0.042793721604342007 6.9770673007793133e-07 0 -0.043041282609084235 0.0021415646122791825 0 -0.042800025630957805 7.8089767392067901e-06 0 -0.046608425730662283 0.00042257297145592988 0 -0.04560915874238667 -2.0994026291303366e-06 0 -0.046608425730662283 0.00042257297145592988 0 -0.04880859326983427 0.00073270425970494389 0 -0.048688341367203403 0.00022086265244905117 0 -0.04910823378097226 0.0011841657304634623 0 -0.048168299588707539 0.001357694605925975 0 -0.04880859326983427 0.00073270425970494389 0 -0.048168299588707539 0.001357694605925975 0 -0.046608425730662283 0.00042257297145592988 0 -0.04880859326983427 0.00073270425970494389 0 -0.04880859326983427 0.00073270425970494389 0 -0.048688341367203403 0.00022086265244905117 0 -0.050033909390717245 0.00051643305493672797 0 -0.048688341367203403 0.00022086265244905117 0 -0.04560915874238667 -2.0994026291303366e-06 0 -0.049198124235954828 -0.00013222991481823433 0 -0.046608425730662283 0.00042257297145592988 0 -0.048688341367203403 0.00022086265244905117 0 -0.04560915874238667 -2.0994026291303366e-06 0 -0.048424506057706339 5.0363871040568433e-08 0 -0.04560915874238667 -2.0994026291303366e-06 0 -0.049198124235954828 -0.00013222991481823433 0 -0.048688341367203403 0.00022086265244905117 0 -0.049198124235954828 -0.00013222991481823433 0 -0.050297355495659571 0.00010374885006132772 0 -0.051126089558174236 -0.0001973920091016262 0 -0.049198124235954828 -0.00013222991481823433 0 -0.050297355495659571 0.00010374885006132772 0 -0.052345673212741355 -0.00016388196187309707 0 -0.051126089558174236 -0.0001973920091016262 0 -0.051575286703972052 0.00012455410276735693 0 -0.050297355495659571 0.00010374885006132772 0 -0.051575286703972052 0.00012455410276735693 0 -0.050782144914666025 0.00037190157096125126 0 -0.051126089558174236 -0.0001973920091016262 0 -0.050297355495659571 0.00010374885006132772 0 -0.051575286703972052 0.00012455410276735693 0 -0.052345673212741355 -0.00016388196187309707 0 -0.052876882666185981 0.00026995649936021227 0 -0.051575286703972052 0.00012455410276735693 0 -0.052876882666185981 0.00026995649936021227 0 -0.051575286703972052 0.00012455410276735693 0 -0.051248787620174527 0.00077351356522582619 0 -0.051780542131748541 0.0010514905010232793 0 -0.049828124946986352 0.0021993238829738624 0 -0.051575286703972052 0.00012455410276735693 0 -0.051248787620174527 0.00077351356522582619 0 -0.050782144914666025 0.00037190157096125126 0 -0.050665556386158758 0.0018624860472466202 0 -0.050128160566212575 0.0031306791599483353 0 -0.048574680862672831 0.0036260824312078048 0 -0.050128160566212575 0.0031306791599483353 0 -0.049336800084871818 0.0041843727429559047 0 -0.048574680862672831 0.0036260824312078048 0 -0.049764084765674108 0.00096000015402699583 0 -0.051248787620174527 0.00077351356522582619 0 -0.050033909390717245 0.00051643305493672797 0 -0.049764084765674108 0.00096000015402699583 0 -0.04880859326983427 0.00073270425970494389 0 -0.050033909390717245 0.00051643305493672797 0 -0.050297355495659571 0.00010374885006132772 0 -0.050033909390717245 0.00051643305493672797 0 -0.050782144914666025 0.00037190157096125126 0 -0.048688341367203403 0.00022086265244905117 0 -0.050297355495659571 0.00010374885006132772 0 -0.050033909390717245 0.00051643305493672797 0 -0.051248787620174527 0.00077351356522582619 0 -0.050033909390717245 0.00051643305493672797 0 -0.050782144914666025 0.00037190157096125126 0 -0.050536167190862326 -0.0040066481253783351 0 -0.050402904561335206 -0.0037068227059160793 0 -0.047055290008549883 -0.0026717690827328601 0 -0.046119511427275599 -0.0037227911544764742 0 -0.05051256364253736 -0.0037344549852079616 0 -0.046119511427275599 -0.0037227911544764742 0 -0.044790794573893379 -0.0032810429849689854 0 -0.045576085640139888 -0.0025414624170756036 0 -0.047055290008549883 -0.0026717690827328601 0 -0.046119511427275599 -0.0037227911544764742 0 -0.045576085640139888 -0.0025414624170756036 0 -0.050536167190862326 -0.0040066481253783351 0 -0.050637634539729103 -0.0023767209934347656 0 -0.054788614106738076 -0.0040000068410104908 0 -0.055146348119702072 -0.0019785921211251576 0 -0.056738428457221254 -0.0027223135581070225 0 -0.054788614106738076 -0.0040000068410104908 0 -0.055146348119702072 -0.0019785921211251576 0 -0.053427763623164273 -0.0024693651304098286 0 -0.055146348119702072 -0.0019785921211251576 0 -0.053427763623164273 -0.0024693651304098286 0 -0.05415124070710179 -0.0013893168523008035 0 -0.054788614106738076 -0.0040000068410104908 0 -0.053427763623164273 -0.0024693651304098286 0 -0.05051256364253736 -0.0037344549852079616 0 -0.053427763623164273 -0.0024693651304098286 0 -0.05415124070710179 -0.0013893168523008035 0 -0.052839485810550813 -0.0015584880396668026 0 -0.05415124070710179 -0.0013893168523008035 0 -0.054554080513470951 -0.000388269659877318 0 -0.055057281157514626 -0.00081017943715259576 0 -0.05415124070710179 -0.0013893168523008035 0 -0.054554080513470951 -0.000388269659877318 0 -0.052839485810550813 -0.0015584880396668026 0 -0.054554080513470951 -0.000388269659877318 0 -0.055002355298063868 2.3840398657347113e-08 0 -0.054996481506363548 -7.9469632113447263e-08 0 -0.054999949304358912 -1.0557159411670816e-08 0 -0.054995548369465255 -8.1258831793052127e-06 0 -0.054978553449676427 -5.6534042244803356e-05 0 -0.055000598778692539 -3.3253873183534833e-07 0 -0.054975122091281234 -0.00076999517717549193 0 -0.055002355298063868 2.3840398657347113e-08 0 -0.055057281157514626 -0.00081017943715259576 0 -0.056233525884056217 -0.0012383777576463766 0 -0.054554080513470951 -0.000388269659877318 0 -0.055002355298063868 2.3840398657347113e-08 0 -0.055057281157514626 -0.00081017943715259576 0 -0.055146348119702072 -0.0019785921211251576 0 -0.05415124070710179 -0.0013893168523008035 0 -0.055057281157514626 -0.00081017943715259576 0 -0.055146348119702072 -0.0019785921211251576 0 -0.055057281157514626 -0.00081017943715259576 0 -0.056233525884056217 -0.0012383777576463766 0 -0.054948001547512879 -4.3874867450871232e-05 0 -0.054976904551545962 -2.0760748419110781e-05 0 -0.054960209932989064 -4.5559476686652426e-05 0 -0.054948001547512879 -4.3874867450871232e-05 0 -0.054960209932989064 -4.5559476686652426e-05 0 -0.054918910629383359 -8.0545987341747988e-05 0 -0.054941609126151349 0.0002493100594743266 0 -0.054975122091281234 -0.00076999517717549193 0 -0.054995548369465255 -8.1258831793052127e-06 0 -0.054948001547512879 -4.3874867450871232e-05 0 -0.054976904551545962 -2.0760748419110781e-05 0 -0.054999949304358912 -1.0557159411670816e-08 0 -0.054995548369465255 -8.1258831793052127e-06 0 -0.054999947497833032 -2.5910976114882723e-08 0 -0.054995548369465255 -8.1258831793052127e-06 0 -0.054976904551545962 -2.0760748419110781e-05 0 -0.054999947497833032 -2.5910976114882723e-08 0 -0.054976904551545962 -2.0760748419110781e-05 0 -0.054999947497833032 -2.5910976114882723e-08 0 -0.054984152297138697 -1.783238435600013e-05 0 -0.054976904551545962 -2.0760748419110781e-05 0 -0.054960209932989064 -4.5559476686652426e-05 0 -0.054984152297138697 -1.783238435600013e-05 0 -0.054918910629383359 -8.0545987341747988e-05 0 -0.05489437628561341 -0.00011729635842485235 0 -0.054931451961076252 -8.7871212027230232e-05 0 -0.054960209932989064 -4.5559476686652426e-05 0 -0.054918910629383359 -8.0545987341747988e-05 0 -0.054931451961076252 -8.7871212027230232e-05 0 -0.054975122091281234 -0.00076999517717549193 0 -0.054257469193458398 -0.00074662540893746202 0 -0.054975122091281234 -0.00076999517717549193 0 -0.055178215767482552 -0.0024736375615915284 0 -0.053600226341023405 -0.0015233166335617907 0 -0.053646047587739297 -0.001528799293295353 0 -0.053560768321180972 -0.0013077677680402092 0 -0.055146348119702072 -0.0019785921211251576 0 -0.056233525884056217 -0.0012383777576463766 0 -0.056738428457221254 -0.0027223135581070225 0 -0.053750498726715619 -0.0016926092950250013 0 -0.053600226341023405 -0.0015233166335617907 0 -0.053646047587739297 -0.001528799293295353 0 -0.053600226341023405 -0.0015233166335617907 0 -0.053560768321180972 -0.0013077677680402092 0 -0.053462964724868674 -0.0012937718697778767 0 -0.054788614106738076 -0.0040000068410104908 0 -0.056738428457221254 -0.0027223135581070225 0 -0.057029323418155288 -0.004120609566835607 0 -0.054257469193458398 -0.00074662540893746202 0 -0.052144048683522619 -0.0017165418477418795 0 -0.055178215767482552 -0.0024736375615915284 0 -0.050637634539729103 -0.0023767209934347656 0 -0.050637634539729103 -0.0023767209934347656 0 -0.052144048683522619 -0.0017165418477418795 0 -0.052144048683522619 -0.0017165418477418795 0 -0.049512397298369724 -0.00246571641480876 0 -0.048058599002597062 -0.0029729061016451532 0 -0.048032304971233737 -0.0029058516175934565 0 -0.048906808036359918 -0.0030375802461290306 0 -0.05489437628561341 -0.00011729635842485235 0 -0.054907949660439562 -0.00013087756039618933 0 -0.054931451961076252 -8.7871212027230232e-05 0 -0.047767151230109196 -0.0028636794685580743 0 -0.048058599002597062 -0.0029729061016451532 0 -0.048032837778413176 -0.002906545076485214 0 -0.052011300174129325 -0.0017172884173084883 0 -0.052144048683522619 -0.0017165418477418795 0 -0.054907949660439562 -0.00013087756039618933 0 -0.054957502387237719 -9.0260613852652675e-05 0 -0.054931451961076252 -8.7871212027230232e-05 0 -0.043406455051126495 -0.0034134660600110183 0 -0.044378678241876586 -0.0035424588906779442 0 -0.044922445014419422 -0.0028122728868217308 0 -0.043406455051126495 -0.0034134660600110183 0 -0.044378678241876586 -0.0035424588906779442 0 -0.04388522359247856 -0.0038392598786146752 0 -0.049512397298369724 -0.00246571641480876 0 -0.051874912595666338 -0.00023813952667745987 0 -0.044922445014419422 -0.0028122728868217308 0 -0.045490413110617016 -0.0011321672531471128 0 -0.046116153368139345 -0.0037394657747143807 0 -0.044378678241876586 -0.0035424588906779442 0 -0.044922445014419422 -0.0028122728868217308 0 -0.0455398842090678 -0.0041980933045956265 0 -0.054636233599795046 -0.00019445437620646021 0 -0.054756250198471551 -0.00024438336811388116 0 -0.054606555841532171 -0.00049711396295044354 0 -0.043406455051126495 -0.0034134660600110183 0 -0.044922445014419422 -0.0028122728868217308 0 -0.045490413110617016 -0.0011321672531471128 0 -0.051874912595666338 -0.00023813952667745987 0 -0.044128491163019791 -0.0037960685161233477 0 -0.044922445014419422 -0.0028122728868217308 0 -0.0455398842090678 -0.0041980933045956265 0 -0.046116153368139345 -0.0037394657747143807 0 -0.054957502387237719 -9.0260613852652675e-05 0 -0.054957692435434018 -6.6080186594715405e-05 0 -0.05498312684012558 -4.2600920083955827e-05 0 -0.054765284360780486 -0.00012465963559726248 0 -0.054780918976950838 -0.0001194906521748084 0 -0.054875432626020064 -6.1354587983291365e-05 0 -0.051874912595666338 -0.00023813952667745987 0 -0.055155108734580321 -0.00012699148507733398 0 -0.054636233599795046 -0.00019445437620646021 0 -0.054780918976950838 -0.0001194906521748084 0 -0.054756250198471551 -0.00024438336811388116 0 -0.051874912595666338 -0.00023813952667745987 0 -0.053902120248944911 0.00055020464290029018 0 -0.054960209932989064 -4.5559476686652426e-05 0 -0.054957692435434018 -6.6080186594715405e-05 0 -0.054931451961076252 -8.7871212027230232e-05 0 -0.054957502387237719 -9.0260613852652675e-05 0 -0.054957692435434018 -6.6080186594715405e-05 0 -0.054931451961076252 -8.7871212027230232e-05 0 -0.054960209932989064 -4.5559476686652426e-05 0 -0.054957692435434018 -6.6080186594715405e-05 0 -0.05498312684012558 -4.2600920083955827e-05 0 -0.054960209932989064 -4.5559476686652426e-05 0 -0.054984152297138697 -1.783238435600013e-05 0 -0.05498312684012558 -4.2600920083955827e-05 0 -0.054999947497833032 -2.5910976114882723e-08 0 -0.054984152297138697 -1.783238435600013e-05 0 -0.054999997527267454 -2.1733639042751727e-08 0 -0.054984152297138697 -1.783238435600013e-05 0 -0.054999997527267454 -2.1733639042751727e-08 0 -0.05498312684012558 -4.2600920083955827e-05 0 -0.054999891650685709 -9.1230039923721851e-09 0 -0.054944741107787673 -2.6915243225625972e-05 0 -0.054875432626020064 -6.1354587983291365e-05 0 -0.054999882773866075 9.5341607317971111e-08 0 -0.055155108734580321 -0.00012699148507733398 0 -0.054999891650685709 -9.1230039923721851e-09 0 -0.054944741107787673 -2.6915243225625972e-05 0 -0.054999807767868308 -5.3196707669508334e-08 0 -0.054944741107787673 -2.6915243225625972e-05 0 -0.054875432626020064 -6.1354587983291365e-05 0 -0.054887066424052527 -5.958428994812894e-05 0 -0.054780918976950838 -0.0001194906521748084 0 -0.054875432626020064 -6.1354587983291365e-05 0 -0.054887066424052527 -5.958428994812894e-05 0 -0.054780918976950838 -0.0001194906521748084 0 -0.054887066424052527 -5.958428994812894e-05 0 -0.054858535112856342 -0.00013118708309997791 0 -0.054887066424052527 -5.958428994812894e-05 0 -0.054917868436403318 -5.2933505396876411e-05 0 -0.054858535112856342 -0.00013118708309997791 0 -0.055001113326856942 -1.7320505086277123e-08 0 -0.054998643019009509 -8.2196697062484195e-08 0 -0.054719733700418133 0.00049813225929844305 0 -0.054999655786241677 3.978973210521856e-07 0 -0.055205860196677788 5.7563739599693674e-05 0 -0.054944741107787673 -2.6915243225625972e-05 0 -0.054887066424052527 -5.958428994812894e-05 0 -0.054999807767868308 -5.3196707669508334e-08 0 -0.054887066424052527 -5.958428994812894e-05 0 -0.054999807767868308 -5.3196707669508334e-08 0 -0.054917868436403318 -5.2933505396876411e-05 0 -0.054998643019009509 -8.2196697062484195e-08 0 -0.054097451696610732 0.00030002467734088691 0 -0.054719733700418133 0.00049813225929844305 0 -0.054999770421019646 -2.3537437280377802e-07 0 -0.054999956901207785 5.9085672524134305e-08 0 -0.054936817627785031 -7.5290139252721597e-05 0 -0.054999834781607679 -3.6044631143266849e-08 0 -0.054458799768142149 0.00020466182097485811 0 -0.053326194827532959 0.0014240884936958214 0 -0.054719733700418133 0.00049813225929844305 0 -0.053794870519496343 0.0018063156205666913 0 -0.053326194827532959 0.0014240884936958214 0 -0.054097451696610732 0.00030002467734088691 0 -0.054719733700418133 0.00049813225929844305 0 -0.055205860196677788 5.7563739599693674e-05 0 -0.050541038716859298 0.00063658574916896867 0 -0.054917868436403318 -5.2933505396876411e-05 0 -0.054944045959959491 -0.00015279510660474329 0 -0.054858535112856342 -0.00013118708309997791 0 -0.054944045959959491 -0.00015279510660474329 0 -0.054858535112856342 -0.00013118708309997791 0 -0.054849591314366786 -0.00028656249884138776 0 -0.050541038716859298 0.00063658574916896867 0 -0.048041183380834969 -0.0009239558951989361 0 -0.054780918976950838 -0.0001194906521748084 0 -0.054858535112856342 -0.00013118708309997791 0 -0.054756250198471551 -0.00024438336811388116 0 -0.054858535112856342 -0.00013118708309997791 0 -0.054756250198471551 -0.00024438336811388116 0 -0.054849591314366786 -0.00028656249884138776 0 -0.054756250198471551 -0.00024438336811388116 0 -0.054849591314366786 -0.00028656249884138776 0 -0.054606555841532171 -0.00049711396295044354 0 -0.040863421850705475 -0.0018745744190140367 0 -0.040414923920171798 -0.0022423452575069847 0 -0.040432326104205892 -0.0023342328985373061 0 -0.040863421850705475 -0.0018745744190140367 0 -0.041036032414139278 -0.0022552288063250234 0 -0.040432326104205892 -0.0023342328985373061 0 -0.048041183380834969 -0.0009239558951989361 0 -0.044128491163019791 -0.0037960685161233477 0 -0.041309180280604332 -0.0015423832892527544 0 -0.040863421850705475 -0.0018745744190140367 0 -0.041204530376551481 -0.0019686910763303967 0 -0.040863421850705475 -0.0018745744190140367 0 -0.041204530376551481 -0.0019686910763303967 0 -0.041036032414139278 -0.0022552288063250234 0 -0.027153996806210844 -0.0069779916851531315 0 -0.027827719604780136 -0.0061005148311531329 0 -0.027001337865261162 -0.0057482428274008351 0 -0.025759946771933603 -0.0058284913041208091 0 -0.027153996806210844 -0.0069779916851531315 0 -0.027001337865261162 -0.0057482428274008351 0 -0.027153996806210844 -0.0069779916851531315 0 -0.027827719604780136 -0.0061005148311531329 0 -0.028894388974169322 -0.0068555833000192414 0 -0.033037299146698611 -0.0046545307188136688 0 -0.037135680826599016 -0.0061844953380844787 0 -0.027827719604780136 -0.0061005148311531329 0 -0.028255336324601952 -0.0048256980617187211 0 -0.028894388974169322 -0.0068555833000192414 0 -0.027827719604780136 -0.0061005148311531329 0 -0.028255336324601952 -0.0048256980617187211 0 -0.027001337865261162 -0.0057482428274008351 0 -0.029770966608025407 -0.0076934812645569851 0 -0.031575325422962347 -0.009269974666345146 0 -0.030856539161967216 -0.011187437807691688 0 -0.028053092030524602 -0.0067270601097058113 0 -0.037135680826599016 -0.0061844953380844787 0 -0.026192871181557911 -0.0047647691523846746 0 -0.028255336324601952 -0.0048256980617187211 0 -0.027001337865261162 -0.0057482428274008351 0 -0.026192871181557911 -0.0047647691523846746 0 -0.028255336324601952 -0.0048256980617187211 0 -0.026758678688814118 -0.0037418112592036709 0 -0.028255336324601952 -0.0048256980617187211 0 -0.026758678688814118 -0.0037418112592036709 0 -0.027726433892211525 -0.0027487265570101068 0 -0.026758678688814118 -0.0037418112592036709 0 -0.027726433892211525 -0.0027487265570101068 0 -0.025836543119794771 -0.0023920257258030673 0 -0.028053092030524602 -0.0067270601097058113 0 -0.028264819545558647 -0.0032632582212222417 0 -0.029770966608025407 -0.0076934812645569851 0 -0.028571471445300797 -0.0040625766216764499 0 -0.031008559779583819 -0.0052607513529930741 0 -0.029770966608025407 -0.0076934812645569851 0 -0.031915753253588225 -0.0069335949822010934 0 -0.031008559779583819 -0.0052607513529930741 0 -0.031915753253588225 -0.0069335949822010934 0 -0.031008559779583819 -0.0052607513529930741 0 -0.033126484060919496 -0.005251856935929014 0 -0.028571471445300797 -0.0040625766216764499 0 -0.031008559779583819 -0.0052607513529930741 0 -0.032182413319042862 -0.0031110758643657314 0 -0.031008559779583819 -0.0052607513529930741 0 -0.033126484060919496 -0.005251856935929014 0 -0.032182413319042862 -0.0031110758643657314 0 -0.034061708744751312 -0.0040569469712129231 0 -0.033126484060919496 -0.005251856935929014 0 -0.035711892030888349 -0.0055176176780674154 0 -0.034061708744751312 -0.0040569469712129231 0 -0.033126484060919496 -0.005251856935929014 0 -0.032182413319042862 -0.0031110758643657314 0 -0.033126484060919496 -0.005251856935929014 0 -0.034115985764665603 -0.0069401741235803147 0 -0.035711892030888349 -0.0055176176780674154 0 -0.031915753253588225 -0.0069335949822010934 0 -0.033126484060919496 -0.005251856935929014 0 -0.034115985764665603 -0.0069401741235803147 0 -0.034115985764665603 -0.0069401741235803147 0 -0.033810664946651657 -0.0093533771208213698 0 -0.036176995997651881 -0.0075006459744357051 0 -0.031915753253588225 -0.0069335949822010934 0 -0.034115985764665603 -0.0069401741235803147 0 -0.033810664946651657 -0.0093533771208213698 0 -0.029770966608025407 -0.0076934812645569851 0 -0.031915753253588225 -0.0069335949822010934 0 -0.031575325422962347 -0.009269974666345146 0 -0.031915753253588225 -0.0069335949822010934 0 -0.033810664946651657 -0.0093533771208213698 0 -0.031575325422962347 -0.009269974666345146 0 -0.033810664946651657 -0.0093533771208213698 0 -0.031575325422962347 -0.009269974666345146 0 -0.03153602921085618 -0.011133113853228844 0 -0.038019007791201237 -0.008024748912398464 0 -0.040275710312197267 -0.0063785684728286905 0 -0.04337820939739144 -0.0057372238608430831 0 -0.045310576204002188 -0.0042034949180038798 0 -0.044218669134902619 -0.0042857144252304901 0 -0.031575325422962347 -0.009269974666345146 0 -0.03153602921085618 -0.011133113853228844 0 -0.030856539161967216 -0.011187437807691688 0 -0.040275710312197267 -0.0063785684728286905 0 -0.044128491163019791 -0.0037960685161233477 0 -0.040810060235572564 -0.0070980250032268363 0 -0.041268970162387862 -0.0067228347009256504 0 -0.041348885585849982 -0.0070496693603286512 0 -0.040275710312197267 -0.0063785684728286905 0 -0.037135680826599016 -0.0061844953380844787 0 -0.044128491163019791 -0.0037960685161233477 0 -0.037135680826599016 -0.0061844953380844787 0 -0.044378678241876586 -0.0035424588906779442 0 -0.0455398842090678 -0.0041980933045956265 0 -0.044218669134902619 -0.0042857144252304901 0 -0.040275710312197267 -0.0063785684728286905 0 -0.04517389829438568 -0.0048777123504524589 0 -0.044218669134902619 -0.0042857144252304901 0 -0.043419255279959545 -0.0040818800902370474 0 -0.043186588456078367 -0.0048588797622974023 0 -0.044378678241876586 -0.0035424588906779442 0 -0.04388522359247856 -0.0038392598786146752 0 -0.044218669134902619 -0.0042857144252304901 0 -0.04388522359247856 -0.0038392598786146752 0 -0.044218669134902619 -0.0042857144252304901 0 -0.043419255279959545 -0.0040818800902370474 0 -0.043406455051126495 -0.0034134660600110183 0 -0.04388522359247856 -0.0038392598786146752 0 -0.043419255279959545 -0.0040818800902370474 0 -0.043406455051126495 -0.0034134660600110183 0 -0.043419255279959545 -0.0040818800902370474 0 -0.042280468585700143 -0.0047183103466937621 0 -0.043419255279959545 -0.0040818800902370474 0 -0.043186588456078367 -0.0048588797622974023 0 -0.042280468585700143 -0.0047183103466937621 0 -0.049512397298369724 -0.00246571641480876 0 -0.045080910357368276 -0.0044745452453080065 0 -0.043186588456078367 -0.0048588797622974023 0 -0.042280468585700143 -0.0047183103466937621 0 -0.042312729743720558 -0.0056753126768498913 0 -0.04337820939739144 -0.0057372238608430831 0 -0.043186588456078367 -0.0048588797622974023 0 -0.042312729743720558 -0.0056753126768498913 0 -0.04337820939739144 -0.0057372238608430831 0 -0.044218669134902619 -0.0042857144252304901 0 -0.043186588456078367 -0.0048588797622974023 0 -0.048058599002597062 -0.0029729061016451532 0 -0.048906808036359918 -0.0030375802461290306 0 -0.048452124314451291 -0.0035250829738111725 0 -0.048058599002597062 -0.0029729061016451532 0 -0.048452124314451291 -0.0035250829738111725 0 -0.047987231863951041 -0.0040083821203117714 0 -0.047767151230109196 -0.0028636794685580743 0 -0.048058599002597062 -0.0029729061016451532 0 -0.047987231863951041 -0.0040083821203117714 0 -0.045080910357368276 -0.0044745452453080065 0 -0.043977414849138884 -0.0040260585974656966 0 -0.042280468585700143 -0.0047183103466937621 0 -0.04116564521928788 -0.0059290272385776185 0 -0.042312729743720558 -0.0056753126768498913 0 -0.050637634539729103 -0.0023767209934347656 0 -0.043977414849138884 -0.0040260585974656966 0 -0.044790794573893379 -0.0032810429849689854 0 -0.044534060576171645 -0.0019955703965133294 0 -0.045576085640139888 -0.0025414624170756036 0 -0.045339591451515046 -0.0018622084982214604 0 -0.044534060576171645 -0.0019955703965133294 0 -0.045313323275001052 -0.0011912842726014214 0 -0.042169346720012858 -0.004691259193048399 0 -0.042051476659375801 -0.0042387296482986328 0 -0.042806555955420635 -0.0039932920629931305 0 -0.043977414849138884 -0.0040260585974656966 0 -0.044093238197561141 -0.0026419176201379372 0 -0.045339591451515046 -0.0018622084982214604 0 -0.044534060576171645 -0.0019955703965133294 0 -0.045576085640139888 -0.0025414624170756036 0 -0.04337820939739144 -0.0057372238608430831 0 -0.042312729743720558 -0.0056753126768498913 0 -0.041463864671902335 -0.007246346561323537 0 -0.043977414849138884 -0.0040260585974656966 0 -0.039826015691850743 -0.0061564913632217539 0 -0.038019007791201237 -0.008024748912398464 0 -0.039826015691850743 -0.0061564913632217539 0 -0.04116564521928788 -0.0059290272385776185 0 -0.042312729743720558 -0.0056753126768498913 0 -0.041463864671902335 -0.007246346561323537 0 -0.038617425767525304 -0.00590812013986447 0 -0.038208102275783043 -0.004240414082084581 0 -0.040202612643562327 -0.004627373246413085 0 -0.034115985764665603 -0.0069401741235803147 0 -0.036176995997651881 -0.0075006459744357051 0 -0.035711892030888349 -0.0055176176780674154 0 -0.039826015691850743 -0.0061564913632217539 0 -0.037038434699300397 -0.0048300907790668072 0 -0.035492809065998283 -0.0033877707169523634 0 -0.038413436727026844 -0.0037725610604765489 0 -0.037115645549156001 -0.0028110496378288049 0 -0.036196300808675579 -0.0032467589371921106 0 -0.041261527606856876 -0.0037015969161476657 0 -0.038208102275783043 -0.004240414082084581 0 -0.037796606616600517 -0.0025758253507049082 0 -0.040202612643562327 -0.004627373246413085 0 -0.037038434699300397 -0.0048300907790668072 0 -0.036196300808675579 -0.0032467589371921106 0 -0.034061708744751312 -0.0040569469712129231 0 -0.035711892030888349 -0.0055176176780674154 0 -0.035272907023302845 -0.0034888349849077128 0 -0.035492809065998283 -0.0033877707169523634 0 -0.038413436727026844 -0.0037725610604765489 0 -0.038882188972635547 -0.0060165902136315235 0 -0.039852711763760103 -0.0033896884193072166 0 -0.038413436727026844 -0.0037725610604765489 0 -0.038506976990882215 -0.0025559052097546202 0 -0.039852711763760103 -0.0033896884193072166 0 -0.038413436727026844 -0.0037725610604765489 0 -0.040819437606558692 -0.0044724748854912382 0 -0.041261527606856876 -0.0037015969161476657 0 -0.042487570128872838 -0.0031305857097136476 0 -0.038413436727026844 -0.0037725610604765489 0 -0.038882188972635547 -0.0060165902136315235 0 -0.040819437606558692 -0.0044724748854912382 0 -0.04433314408218185 -0.0018993995934285211 0 -0.044281772309395631 -0.0018542373664311421 0 -0.044230924607855979 -0.0019041792388173686 0 -0.042051476659375801 -0.0042387296482986328 0 -0.042582316950305607 -0.0038053984088378605 0 -0.042806555955420635 -0.0039932920629931305 0 -0.041261527606856876 -0.0037015969161476657 0 -0.044093238197561141 -0.0026419176201379372 0 -0.039826015691850743 -0.0061564913632217539 0 -0.041261527606856876 -0.0037015969161476657 0 -0.044117858206135743 -0.0020258028047089724 0 -0.044414057108221695 -0.0019646207860988898 0 -0.044749181641841627 -0.0022950155296538165 0 -0.044093238197561141 -0.0026419176201379372 0 -0.045359537640524 -0.0018976064699780791 0 -0.044414057108221695 -0.0019646207860988898 0 -0.044819749446235534 -0.0020233355238945434 0 -0.044749181641841627 -0.0022950155296538165 0 -0.044414057108221695 -0.0019646207860988898 0 -0.044230924607855979 -0.0019041792388173686 0 -0.044064689435048467 -0.001913419195755975 0 -0.044117858206135743 -0.0020258028047089724 0 -0.044414057108221695 -0.0019646207860988898 0 -0.044230924607855979 -0.0019041792388173686 0 -0.044093238197561141 -0.0026419176201379372 0 -0.044368907275532186 -0.0020382718480242653 0 -0.044230924607855979 -0.0019041792388173686 0 -0.044222120952131634 -0.0020133511915411866 0 -0.044064689435048467 -0.001913419195755975 0 -0.04433314408218185 -0.0018993995934285211 0 -0.044230924607855979 -0.0019041792388173686 0 -0.044222120952131634 -0.0020133511915411866 0 -0.042487570128872838 -0.0031305857097136476 0 -0.043079276664261937 -0.0023953704433742453 0 -0.044222120952131634 -0.0020133511915411866 0 -0.044064689435048467 -0.001913419195755975 0 -0.043075625073486612 -0.002164438036363884 0 -0.040819437606558692 -0.0044724748854912382 0 -0.043075625073486612 -0.002164438036363884 0 -0.040602147365744634 -0.0021979237641772615 0 -0.039852711763760103 -0.0033896884193072166 0 -0.040819437606558692 -0.0044724748854912382 0 -0.040602147365744634 -0.0021979237641772615 0 -0.043873837610025924 -0.0019556765693673271 0 -0.043500818560466156 -0.0013154394643214188 0 -0.044305269624602871 -0.0016239247606117677 0 -0.043873837610025924 -0.0019556765693673271 0 -0.044543181836633049 -0.0019603043512862006 0 -0.044305269624602871 -0.0016239247606117677 0 -0.044064689435048467 -0.001913419195755975 0 -0.043873837610025924 -0.0019556765693673271 0 -0.043075625073486612 -0.002164438036363884 0 -0.043873837610025924 -0.0019556765693673271 0 -0.043075625073486612 -0.002164438036363884 0 -0.043500818560466156 -0.0013154394643214188 0 -0.044064689435048467 -0.001913419195755975 0 -0.043873837610025924 -0.0019556765693673271 0 -0.044396527344400326 -0.00195389405166819 0 -0.043873837610025924 -0.0019556765693673271 0 -0.044396527344400326 -0.00195389405166819 0 -0.044543181836633049 -0.0019603043512862006 0 -0.044993314213452484 -0.0020467651461184549 0 -0.044396527344400326 -0.00195389405166819 0 -0.044543181836633049 -0.0019603043512862006 0 -0.044819749446235534 -0.0020233355238945434 0 -0.04543701070639708 -0.0021232887161374931 0 -0.044749181641841627 -0.0022950155296538165 0 -0.044993314213452484 -0.0020467651461184549 0 -0.044396527344400326 -0.00195389405166819 0 -0.044819749446235534 -0.0020233355238945434 0 -0.044414057108221695 -0.0019646207860988898 0 -0.044064689435048467 -0.001913419195755975 0 -0.044396527344400326 -0.00195389405166819 0 -0.044414057108221695 -0.0019646207860988898 0 -0.044396527344400326 -0.00195389405166819 0 -0.044819749446235534 -0.0020233355238945434 0 -0.044993314213452484 -0.0020467651461184549 0 -0.044819749446235534 -0.0020233355238945434 0 -0.04543701070639708 -0.0021232887161374931 0 -0.044749181641841627 -0.0022950155296538165 0 -0.046492352811968278 -0.0022364127727772134 0 -0.046172617489897025 -0.0022290278629880146 0 -0.04543701070639708 -0.0021232887161374931 0 -0.044749181641841627 -0.0022950155296538165 0 -0.046172617489897025 -0.0022290278629880146 0 -0.045359537640524 -0.0018976064699780791 0 -0.046223893653979331 -0.0022482860246643452 0 -0.045917629410247157 -0.0017206483685466615 0 -0.045576085640139888 -0.0025414624170756036 0 -0.046492352811968278 -0.0022364127727772134 0 -0.045339591451515046 -0.0018622084982214604 0 -0.045917629410247157 -0.0017206483685466615 0 -0.045576085640139888 -0.0025414624170756036 0 -0.045339591451515046 -0.0018622084982214604 0 -0.045313323275001052 -0.0011912842726014214 0 -0.045917629410247157 -0.0017206483685466615 0 -0.047055290008549883 -0.0026717690827328601 0 -0.045576085640139888 -0.0025414624170756036 0 -0.046492352811968278 -0.0022364127727772134 0 -0.047055290008549883 -0.0026717690827328601 0 -0.046492352811968278 -0.0022364127727772134 0 -0.048128789432970116 -0.0023172523057286344 0 -0.042099745591838107 0.0022555451194848737 0 -0.042222808004621457 0.0020868373072666139 0 -0.041955445664388538 0.002289854655502271 0 -0.042099745591838107 0.0022555451194848737 0 -0.042222808004621457 0.0020868373072666139 0 -0.042512839262142152 0.0020055730414976118 0 -0.042514762448568305 0.0023141296123482097 0 -0.039868945165453612 0.002763236376431652 0 -0.040622362089598595 0.003229052690453333 0 -0.042222808004621457 0.0020868373072666139 0 -0.040991731634027029 0.0047190796232641601 0 -0.040622362089598595 0.003229052690453333 0 -0.039618563795589423 0.0041699558545493075 0 -0.040991731634027029 0.0047190796232641601 0 -0.040622362089598595 0.003229052690453333 0 -0.039370476888172981 0.003061463452900762 0 -0.039618563795589423 0.0041699558545493075 0 -0.040622362089598595 0.003229052690453333 0 -0.040824876676483941 0.0020557959512289073 0 -0.039370476888172981 0.003061463452900762 0 -0.040824876676483941 0.0020557959512289073 0 -0.041769637989718021 0.0007627237418251769 0 -0.039754230811718944 0.0010429378488055522 0 -0.040622362089598595 0.003229052690453333 0 -0.040824876676483941 0.0020557959512289073 0 -0.042222808004621457 0.0020868373072666139 0 -0.040824876676483941 0.0020557959512289073 0 -0.039754230811718944 0.0010429378488055522 0 -0.039370476888172981 0.003061463452900762 0 -0.040824876676483941 0.0020557959512289073 0 -0.042222808004621457 0.0020868373072666139 0 -0.041769637989718021 0.0007627237418251769 0 -0.042222808004621457 0.0020868373072666139 0 -0.041769637989718021 0.0007627237418251769 0 -0.043040546337856554 0.001131221416506124 0 -0.043099948036960822 -0.00013044288271980259 0 -0.041769637989718021 0.0007627237418251769 0 -0.043040546337856554 0.001131221416506124 0 -0.043099948036960822 -0.00013044288271980259 0 -0.042483096927903072 -0.0007357801256473506 0 -0.041769637989718021 0.0007627237418251769 0 -0.043099948036960822 -0.00013044288271980259 0 -0.042483096927903072 -0.0007357801256473506 0 -0.043500818560466156 -0.0013154394643214188 0 -0.042483096927903072 -0.0007357801256473506 0 -0.043075625073486612 -0.002164438036363884 0 -0.043500818560466156 -0.0013154394643214188 0 -0.042483096927903072 -0.0007357801256473506 0 -0.043075625073486612 -0.002164438036363884 0 -0.040602147365744634 -0.0021979237641772615 0 -0.042483096927903072 -0.0007357801256473506 0 -0.040602147365744634 -0.0021979237641772615 0 -0.040800185503350482 -0.0003628329401156122 0 -0.040602147365744634 -0.0021979237641772615 0 -0.040800185503350482 -0.0003628329401156122 0 -0.039049570366736376 -0.00098665809658915363 0 -0.040800185503350482 -0.0003628329401156122 0 -0.041769637989718021 0.0007627237418251769 0 -0.039754230811718944 0.0010429378488055522 0 -0.042483096927903072 -0.0007357801256473506 0 -0.040800185503350482 -0.0003628329401156122 0 -0.041769637989718021 0.0007627237418251769 0 -0.037881890843704434 4.0608245247394104e-05 0 -0.039049570366736376 -0.00098665809658915363 0 -0.039754230811718944 0.0010429378488055522 0 -0.037881890843704434 4.0608245247394104e-05 0 -0.039049570366736376 -0.00098665809658915363 0 -0.03639311000967501 -0.0015785222743655747 0 -0.040800185503350482 -0.0003628329401156122 0 -0.039049570366736376 -0.00098665809658915363 0 -0.039754230811718944 0.0010429378488055522 0 -0.037881890843704434 4.0608245247394104e-05 0 -0.037587569863478665 0.0016048173282406457 0 -0.039754230811718944 0.0010429378488055522 0 -0.039049570366736376 -0.00098665809658915363 0 -0.038506976990882215 -0.0025559052097546202 0 -0.03639311000967501 -0.0015785222743655747 0 -0.038413436727026844 -0.0037725610604765489 0 -0.038506976990882215 -0.0025559052097546202 0 -0.037115645549156001 -0.0028110496378288049 0 -0.040602147365744634 -0.0021979237641772615 0 -0.039049570366736376 -0.00098665809658915363 0 -0.038506976990882215 -0.0025559052097546202 0 -0.039852711763760103 -0.0033896884193072166 0 -0.040602147365744634 -0.0021979237641772615 0 -0.038506976990882215 -0.0025559052097546202 0 -0.035492809065998283 -0.0033877707169523634 0 -0.03639311000967501 -0.0015785222743655747 0 -0.034485074774514526 -0.0027188207284872738 0 -0.035492809065998283 -0.0033877707169523634 0 -0.037115645549156001 -0.0028110496378288049 0 -0.03639311000967501 -0.0015785222743655747 0 -0.038506976990882215 -0.0025559052097546202 0 -0.037115645549156001 -0.0028110496378288049 0 -0.03639311000967501 -0.0015785222743655747 0 -0.03639311000967501 -0.0015785222743655747 0 -0.034837051083155809 -0.0012347365390660092 0 -0.034485074774514526 -0.0027188207284872738 0 -0.03639311000967501 -0.0015785222743655747 0 -0.036104036192880211 0.00014208345360576454 0 -0.034837051083155809 -0.0012347365390660092 0 -0.036104036192880211 0.00014208345360576454 0 -0.034385444229856586 0.00024121245208817745 0 -0.034837051083155809 -0.0012347365390660092 0 -0.037881890843704434 4.0608245247394104e-05 0 -0.03639311000967501 -0.0015785222743655747 0 -0.036104036192880211 0.00014208345360576454 0 -0.037881890843704434 4.0608245247394104e-05 0 -0.036104036192880211 0.00014208345360576454 0 -0.037587569863478665 0.0016048173282406457 0 -0.036104036192880211 0.00014208345360576454 0 -0.035496449655280732 0.0017607403625370735 0 -0.034385444229856586 0.00024121245208817745 0 -0.035496449655280732 0.0017607403625370735 0 -0.036566810377247405 0.0039352677177431732 0 -0.033107658813494201 0.002615852977910599 0 -0.035496449655280732 0.0017607403625370735 0 -0.037587569863478665 0.0016048173282406457 0 -0.036566810377247405 0.0039352677177431732 0 -0.036104036192880211 0.00014208345360576454 0 -0.035496449655280732 0.0017607403625370735 0 -0.037587569863478665 0.0016048173282406457 0 -0.037587569863478665 0.0016048173282406457 0 -0.039370476888172981 0.003061463452900762 0 -0.036566810377247405 0.0039352677177431732 0 -0.037587569863478665 0.0016048173282406457 0 -0.039754230811718944 0.0010429378488055522 0 -0.039370476888172981 0.003061463452900762 0 -0.036954273827168094 0.0045231375173795992 0 -0.035014978585410611 0.0036493908261630375 0 -0.036119840486822583 0.0055251223991134042 0 -0.039370476888172981 0.003061463452900762 0 -0.039682889631052265 0.0050080168673294276 0 -0.036566810377247405 0.0039352677177431732 0 -0.038425471515696676 0.0044060122207851514 0 -0.035726730527287476 0.0037777612427706115 0 -0.039184084336685535 0.0034635882368371698 0 -0.038425471515696676 0.0044060122207851514 0 -0.035014978585410611 0.0036493908261630375 0 -0.033107658813494201 0.002615852977910599 0 -0.033386702686142418 0.0046537204730056946 0 -0.035726730527287476 0.0037777612427706115 0 -0.033296109930818392 0.0027102391536889116 0 -0.033107658813494201 0.002615852977910599 0 -0.030902300513555764 0.0060960658559785922 0 -0.033386702686142418 0.0046537204730056946 0 -0.033107658813494201 0.002615852977910599 0 -0.02889895001134133 0.0029008575908574179 0 -0.030902300513555764 0.0060960658559785922 0 -0.033107658813494201 0.002615852977910599 0 -0.029966274743738371 0.00078206550930369023 0 -0.02889895001134133 0.0029008575908574179 0 -0.033107658813494201 0.002615852977910599 0 -0.032208617795566517 0.00024023702961822212 0 -0.029966274743738371 0.00078206550930369023 0 -0.035496449655280732 0.0017607403625370735 0 -0.033107658813494201 0.002615852977910599 0 -0.034385444229856586 0.00024121245208817745 0 -0.033107658813494201 0.002615852977910599 0 -0.034385444229856586 0.00024121245208817745 0 -0.032208617795566517 0.00024023702961822212 0 -0.034385444229856586 0.00024121245208817745 0 -0.033117196069560165 -0.0012331355798392686 0 -0.032208617795566517 0.00024023702961822212 0 -0.034385444229856586 0.00024121245208817745 0 -0.033117196069560165 -0.0012331355798392686 0 -0.034837051083155809 -0.0012347365390660092 0 -0.033117196069560165 -0.0012331355798392686 0 -0.034837051083155809 -0.0012347365390660092 0 -0.034485074774514526 -0.0027188207284872738 0 -0.033117196069560165 -0.0012331355798392686 0 -0.034485074774514526 -0.0027188207284872738 0 -0.032182413319042862 -0.0031110758643657314 0 -0.034061708744751312 -0.0040569469712129231 0 -0.034485074774514526 -0.0027188207284872738 0 -0.032182413319042862 -0.0031110758643657314 0 -0.034061708744751312 -0.0040569469712129231 0 -0.035272907023302845 -0.0034888349849077128 0 -0.034485074774514526 -0.0027188207284872738 0 -0.036196300808675579 -0.0032467589371921106 0 -0.035051731368575562 -0.0026781337471637229 0 -0.033117196069560165 -0.0012331355798392686 0 -0.032182413319042862 -0.0031110758643657314 0 -0.030566340513920664 -0.0012218177846278955 0 -0.033117196069560165 -0.0012331355798392686 0 -0.030566340513920664 -0.0012218177846278955 0 -0.032208617795566517 0.00024023702961822212 0 -0.030566340513920664 -0.0012218177846278955 0 -0.032208617795566517 0.00024023702961822212 0 -0.029966274743738371 0.00078206550930369023 0 -0.030566340513920664 -0.0012218177846278955 0 -0.027286177881470912 -0.00031309465932616315 0 -0.029966274743738371 0.00078206550930369023 0 -0.028571471445300797 -0.0040625766216764499 0 -0.030566340513920664 -0.0012218177846278955 0 -0.027286177881470912 -0.00031309465932616315 0 -0.028571471445300797 -0.0040625766216764499 0 -0.032182413319042862 -0.0031110758643657314 0 -0.030566340513920664 -0.0012218177846278955 0 -0.027726433892211525 -0.0027487265570101068 0 -0.027286177881470912 -0.00031309465932616315 0 -0.025836543119794771 -0.0023920257258030673 0 -0.028264819545558647 -0.0032632582212222417 0 -0.027296637271229003 -0.00047399118543468979 0 -0.027286177881470912 -0.00031309465932616315 0 -0.02889895001134133 0.0029008575908574179 0 -0.025124172388582649 0.0029362606665070045 0 -0.027286177881470912 -0.00031309465932616315 0 -0.029966274743738371 0.00078206550930369023 0 -0.02889895001134133 0.0029008575908574179 0 -0.02889895001134133 0.0029008575908574179 0 -0.026879529770579561 0.0054336977547471939 0 -0.025124172388582649 0.0029362606665070045 0 -0.02889895001134133 0.0029008575908574179 0 -0.026879529770579561 0.0054336977547471939 0 -0.030902300513555764 0.0060960658559785922 0 -0.023876293325586617 0.0042734274031772943 0 -0.025846663631194613 0.0043575885253552783 0 -0.020815100527015688 0.0031867181738071183 0 -0.02064028100518334 0.0026069041516249541 0 -0.020662554500968249 0.0026799381003834153 0 -0.020815100527015688 0.0031867181738071183 0 -0.02064028100518334 0.0026069041516249541 0 -0.021259361856894407 0.0027861222294920918 0 -0.02064028100518334 0.0026069041516249541 0 -0.020520666742366078 0.0023521729851031874 0 -0.020860665427953392 0.0023159698257223128 0 -0.020520666742366078 0.0023521729851031874 0 -0.020860665427953392 0.0023159698257223128 0 -0.020554734653968589 0.0019447576642955997 0 -0.020625711526960629 0.0024982881302096343 0 -0.020694098420228468 0.0025821798163329344 0 -0.020594881535820703 0.0025588175814301476 0 -0.020520666742366078 0.0023521729851031874 0 -0.020625711526960629 0.0024982881302096343 0 -0.020594881535820703 0.0025588175814301476 0 -0.02064028100518334 0.0026069041516249541 0 -0.020520666742366078 0.0023521729851031874 0 -0.020625711526960629 0.0024982881302096343 0 -0.02064028100518334 0.0026069041516249541 0 -0.020625711526960629 0.0024982881302096343 0 -0.02070394698162141 0.0025935668334587155 0 -0.020625711526960629 0.0024982881302096343 0 -0.02070394698162141 0.0025935668334587155 0 -0.020694098420228468 0.0025821798163329344 0 -0.021560355040749886 0.0022962980782160101 0 -0.021216743249219631 0.0025179805012790404 0 -0.02070394698162141 0.0025935668334587155 0 -0.020694098420228468 0.0025821798163329344 0 -0.02085758637371277 0.002672751978923275 0 -0.02216618941124952 0.0020229500434055807 0 -0.021603438350817787 0.0023776066763288167 0 -0.02182590964849427 0.0018444018986974715 0 -0.021603438350817787 0.0023776066763288167 0 -0.02182590964849427 0.0018444018986974715 0 -0.021439470720588279 0.0019412869828470387 0 -0.02070394698162141 0.0025935668334587155 0 -0.02085758637371277 0.002672751978923275 0 -0.020949618009787629 0.0025624815638452519 0 -0.02070394698162141 0.0025935668334587155 0 -0.020662554500968249 0.0026799381003834153 0 -0.020976731994692032 0.0024575534928552361 0 -0.02070394698162141 0.0025935668334587155 0 -0.020976731994692032 0.0024575534928552361 0 -0.020949618009787629 0.0025624815638452519 0 -0.02064028100518334 0.0026069041516249541 0 -0.02070394698162141 0.0025935668334587155 0 -0.020662554500968249 0.0026799381003834153 0 -0.025846663631194613 0.0043575885253552783 0 -0.027360656435009244 0.0046562000305306918 0 -0.030902300513555764 0.0060960658559785922 0 -0.033386702686142418 0.0046537204730056946 0 -0.034282600421943379 0.0063367869110422248 0 -0.035014978585410611 0.0036493908261630375 0 -0.033386702686142418 0.0046537204730056946 0 -0.034282600421943379 0.0063367869110422248 0 -0.035014978585410611 0.0036493908261630375 0 -0.036119840486822583 0.0055251223991134042 0 -0.034282600421943379 0.0063367869110422248 0 -0.036954273827168094 0.0045231375173795992 0 -0.036119840486822583 0.0055251223991134042 0 -0.037212505350230102 0.0064037022998120023 0 -0.036119840486822583 0.0055251223991134042 0 -0.034282600421943379 0.0063367869110422248 0 -0.037068953757994433 0.0066261458095450464 0 -0.021118695572218703 0.0025207317485886446 0 -0.02117408711691009 0.0025719234692024792 0 -0.021361266631316881 0.0024991111852348796 0 -0.027360656435009244 0.0046562000305306918 0 -0.030442134210771399 0.0027415733336674328 0 -0.020976731994692032 0.0024575534928552361 0 -0.021118695572218703 0.0025207317485886446 0 -0.021361266631316881 0.0024991111852348796 0 -0.036119840486822583 0.0055251223991134042 0 -0.037068953757994433 0.0066261458095450464 0 -0.037212505350230102 0.0064037022998120023 0 -0.024087984148368206 0.00014864977879356682 0 -0.024128293658598716 0.00013117148170517046 0 -0.024133684663457316 0.0003620710003129246 0 -0.020976731994692032 0.0024575534928552361 0 -0.021118695572218703 0.0025207317485886446 0 -0.020949618009787629 0.0025624815638452519 0 -0.021118695572218703 0.0025207317485886446 0 -0.020949618009787629 0.0025624815638452519 0 -0.02117408711691009 0.0025719234692024792 0 -0.021603438350817787 0.0023776066763288167 0 -0.02117408711691009 0.0025719234692024792 0 -0.021162570696590111 0.0025317256934397308 0 -0.021216743249219631 0.0025179805012790404 0 -0.02119042557818078 0.002561937310617633 0 -0.02085758637371277 0.002672751978923275 0 -0.020949618009787629 0.0025624815638452519 0 -0.02117408711691009 0.0025719234692024792 0 -0.021680890031463375 0.0014011671790271547 0 -0.022994537231633638 0.00076779615258439147 0 -0.021603438350817787 0.0023776066763288167 0 -0.021162570696590111 0.0025317256934397308 0 -0.021439470720588279 0.0019412869828470387 0 -0.024098056230288996 -0.00019488265393940085 0 -0.024203950803236542 2.5162103412688159e-05 0 -0.024280943209184305 -0.00029412500500799972 0 -0.024098056230288996 -0.00019488265393940085 0 -0.024089970591601974 -9.5264521590550249e-06 0 -0.023963816718597451 -4.7373741768782745e-05 0 -0.024098056230288996 -0.00019488265393940085 0 -0.024089970591601974 -9.5264521590550249e-06 0 -0.024203950803236542 2.5162103412688159e-05 0 -0.024203950803236542 2.5162103412688159e-05 0 -0.024128293658598716 0.00013117148170517046 0 -0.024133684663457316 0.0003620710003129246 0 -0.02117408711691009 0.0025719234692024792 0 -0.021162570696590111 0.0025317256934397308 0 -0.021361266631316881 0.0024991111852348796 0 -0.021680890031463375 0.0014011671790271547 0 -0.030442134210771399 0.0027415733336674328 0 -0.024089970591601974 -9.5264521590550249e-06 0 -0.024203950803236542 2.5162103412688159e-05 0 -0.024128293658598716 0.00013117148170517046 0 -0.024089970591601974 -9.5264521590550249e-06 0 -0.024087984148368206 0.00014864977879356682 0 -0.024128293658598716 0.00013117148170517046 0 -0.024087984148368206 0.00014864977879356682 0 -0.023963816718597451 -4.7373741768782745e-05 0 -0.024106851521039103 0.00035881201018738427 0 -0.039893452851700061 0.0028162759538938663 0 -0.039936092695335962 0.002699337228002537 0 -0.03984805484968465 0.0028140356680376589 0 -0.031660550455595092 0.0011620879941631581 0 -0.034134895909212384 0.0021123246399181762 0 -0.024089970591601974 -9.5264521590550249e-06 0 -0.024087984148368206 0.00014864977879356682 0 -0.023963816718597451 -4.7373741768782745e-05 0 -0.039936092695335962 0.002699337228002537 0 -0.0396228046958211 0.002464685540026974 0 -0.03979709347054327 0.0020632331054594843 0 -0.031660550455595092 0.0011620879941631581 0 -0.031876138217146063 0.00085500487693854525 0 -0.024098056230288996 -0.00019488265393940085 0 -0.023963816718597451 -4.7373741768782745e-05 0 -0.023870582404709156 -0.00044311712420718407 0 -0.0396228046958211 0.002464685540026974 0 -0.039838215014757448 0.0028046184587715763 0 -0.039640880057112374 0.0026543773314937507 0 -0.039936092695335962 0.002699337228002537 0 -0.0396228046958211 0.002464685540026974 0 -0.039838215014757448 0.0028046184587715763 0 -0.039893452851700061 0.0028162759538938663 0 -0.039936092695335962 0.002699337228002537 0 -0.039838215014757448 0.0028046184587715763 0 -0.039893452851700061 0.0028162759538938663 0 -0.039838215014757448 0.0028046184587715763 0 -0.03998126551576401 0.0028746125034710746 0 -0.039893452851700061 0.0028162759538938663 0 -0.03998126551576401 0.0028746125034710746 0 -0.03984805484968465 0.0028140356680376589 0 -0.03998126551576401 0.0028746125034710746 0 -0.038737915971285314 0.0023569319872688102 0 -0.0392583046712143 0.002174244718159306 0 -0.042016039398490135 0.0031496166738359073 0 -0.034134895909212384 0.0021123246399181762 0 -0.03998126551576401 0.0028746125034710746 0 -0.039807837184110448 0.0018991608827534977 0 -0.0392583046712143 0.002174244718159306 0 -0.03998126551576401 0.0028746125034710746 0 -0.038089600523672995 0.0026262151920014376 0 -0.038737915971285314 0.0023569319872688102 0 -0.024087984148368206 0.00014864977879356682 0 -0.024133684663457316 0.0003620710003129246 0 -0.024106851521039103 0.00035881201018738427 0 -0.038089600523672995 0.0026262151920014376 0 -0.038058765874022439 0.0024438265366896975 0 -0.038737915971285314 0.0023569319872688102 0 -0.030442134210771399 0.0027415733336674328 0 -0.034250810986736102 0.0029075471469350691 0 -0.035549022089614558 0.00066427923141210285 0 -0.033219350067842462 0.00031201649459101444 0 -0.033748479025029365 0.0035288344741303459 0 -0.030442134210771399 0.0027415733336674328 0 -0.034134895909212384 0.0021123246399181762 0 -0.034134895909212384 0.0021123246399181762 0 -0.034250810986736102 0.0029075471469350691 0 -0.038737915971285314 0.0023569319872688102 0 -0.03870122318015063 0.0014476851248934445 0 -0.0392583046712143 0.002174244718159306 0 -0.038058765874022439 0.0024438265366896975 0 -0.038737915971285314 0.0023569319872688102 0 -0.03870122318015063 0.0014476851248934445 0 -0.037357164079590846 0.0034480346117804544 0 -0.037322250689511206 0.00335669544347038 0 -0.037303820778180855 0.0034213861316396386 0 -0.038425471515696676 0.0044060122207851514 0 -0.034250810986736102 0.0029075471469350691 0 -0.034250810986736102 0.0029075471469350691 0 -0.039868945165453612 0.002763236376431652 0 -0.038425471515696676 0.0044060122207851514 0 -0.039868945165453612 0.002763236376431652 0 -0.03870122318015063 0.0014476851248934445 0 -0.039807837184110448 0.0018991608827534977 0 -0.0392583046712143 0.002174244718159306 0 -0.042099745591838107 0.0022555451194848737 0 -0.041955445664388538 0.002289854655502271 0 -0.042019188258906985 0.0022840677494939793 0 -0.039868945165453612 0.002763236376431652 0 -0.04090844239245911 0.0021596396696770756 0 -0.031120967049808365 0.0012147219809361788 0 -0.03142056130189308 0.00031321244771865511 0 -0.031843392083679048 0.00069102131877728441 0 -0.032851931490871129 0.00032844321917503873 0 -0.039899165901936748 0.0017215397158046061 0 -0.031120967049808365 0.0012147219809361788 0 -0.031413025311062728 0.0014782560020148272 0 -0.031843392083679048 0.00069102131877728441 0 -0.026459666241330813 0.0030270775640695077 0 -0.03086461746137089 -0.00023505948124590614 0 -0.03086461746137089 -0.00023505948124590614 0 -0.021874560811548694 0.0012880248098831675 0 -0.022314291087914103 0.0034394081320622853 0 -0.02226884008520812 0.0035720144527376621 0 -0.022042960634302423 0.0034546405227927728 0 -0.022314291087914103 0.0034394081320622853 0 -0.02204882421133101 0.0032928629280620388 0 -0.0222284089255095 0.0032458448137974902 0 -0.022314291087914103 0.0034394081320622853 0 -0.022042960634302423 0.0034546405227927728 0 -0.02204882421133101 0.0032928629280620388 0 -0.032851931490871129 0.00032844321917503873 0 -0.0331869193374714 0.00056785709472079919 0 -0.031120967049808365 0.0012147219809361788 0 -0.031413025311062728 0.0014782560020148272 0 -0.030816579613331747 0.0021303863921634512 0 -0.022314291087914103 0.0034394081320622853 0 -0.022451400757192486 0.0032794943789036727 0 -0.0222284089255095 0.0032458448137974902 0 -0.026459666241330813 0.0030270775640695077 0 -0.026662601641824026 0.0028432374102005426 0 -0.031413025311062728 0.0014782560020148272 0 -0.030816579613331747 0.0021303863921634512 0 -0.03096477416496007 0.0022628461348324692 0 -0.035669418782049898 -0.00048616554809511193 0 -0.035336563197687437 -0.00036295543300549641 0 -0.034780055642204544 -0.00034359519237226447 0 -0.035336563197687437 -0.00036295543300549641 0 -0.037084285989334463 -7.5968950902910825e-07 0 -0.034230640873023722 -5.9382510909403586e-07 0 -0.035336563197687437 -0.00036295543300549641 0 -0.037084285989334463 -7.5968950902910825e-07 0 -0.036656359582472417 -0.00021548362973920581 0 -0.035669418782049898 -0.00048616554809511193 0 -0.035336563197687437 -0.00036295543300549641 0 -0.036656359582472417 -0.00021548362973920581 0 -0.035669418782049898 -0.00048616554809511193 0 -0.036656359582472417 -0.00021548362973920581 0 -0.036663299168502708 0.00014860366829016201 0 -0.036663299168502708 0.00014860366829016201 0 -0.037324195848857003 0.0017127544075828756 0 -0.035577910943364953 0.00024165625976344351 0 -0.036656359582472417 -0.00021548362973920581 0 -0.036663299168502708 0.00014860366829016201 0 -0.038758439707240501 0.00014293812212765031 0 -0.037084285989334463 -7.5968950902910825e-07 0 -0.038758439707240501 0.00014293812212765031 0 -0.039939067862872761 4.2003050751558845e-07 0 -0.037084285989334463 -7.5968950902910825e-07 0 -0.036656359582472417 -0.00021548362973920581 0 -0.038758439707240501 0.00014293812212765031 0 -0.042790060493839391 1.0689876035964286e-06 0 -0.039939067862872761 4.2003050751558845e-07 0 -0.040112425092695213 0.00011054663477956849 0 -0.038758439707240501 0.00014293812212765031 0 -0.039939067862872761 4.2003050751558845e-07 0 -0.040112425092695213 0.00011054663477956849 0 -0.038758439707240501 0.00014293812212765031 0 -0.040112425092695213 0.00011054663477956849 0 -0.039420497320097017 0.00026479595903168405 0 -0.038501382633322367 0.00077980472580951312 0 -0.043041282609084235 0.0021415646122791825 0 -0.036663299168502708 0.00014860366829016201 0 -0.038758439707240501 0.00014293812212765031 0 -0.037324195848857003 0.0017127544075828756 0 -0.039899165901936748 0.0017215397158046061 0 -0.046232014970963374 0.002806700055925667 0 -0.046893189292088432 0.0036876545850606482 0 -0.047777075043444348 0.0034029283733522371 0 -0.04620787694120581 0.0020403407634397683 0 -0.046893189292088432 0.0036876545850606482 0 -0.04620787694120581 0.0020403407634397683 0 -0.045929377089512696 0.0032936697893533973 0 -0.043041282609084235 0.0021415646122791825 0 -0.039899165901936748 0.0017215397158046061 0 -0.035669418782049898 -0.00048616554809511193 0 -0.036663299168502708 0.00014860366829016201 0 -0.035577910943364953 0.00024165625976344351 0 -0.03086461746137089 -0.00023505948124590614 0 -0.034930067386489641 -0.00028960041922126512 0 -0.046125822574645196 0.0019957577814912657 0 -0.045288283302494091 0.0013378340254403089 0 -0.044616515694976933 0.0030733443551988213 0 -0.039899165901936748 0.0017215397158046061 0 -0.03086461746137089 -0.00023505948124590614 0 -0.046125822574645196 0.0019957577814912657 0 -0.045929377089512696 0.0032936697893533973 0 -0.044616515694976933 0.0030733443551988213 0 -0.045132433960288681 0.0043121792044256459 0 -0.045929377089512696 0.0032936697893533973 0 -0.044616515694976933 0.0030733443551988213 0 -0.024406716954977453 -0.0033802957113095713 0 -0.02418553286596601 -0.0031986506116224362 0 -0.02452559230025516 -0.0033465702583697111 0 -0.02418553286596601 -0.0031986506116224362 0 -0.02452559230025516 -0.0033465702583697111 0 -0.024444023200641717 -0.0028723077956043196 0 -0.023624608988107212 -0.0026694866392226652 0 -0.023069856172036923 -0.0017630362104474851 0 -0.022783958029402328 -0.0021870249229490966 0 -0.021439758818030386 -7.3618804076062947e-05 0 -0.023937388538294722 -0.00079279406052333882 0 -0.021439758818030386 -7.3618804076062947e-05 0 -0.023937388538294722 -0.00079279406052333882 0 -0.0222362973958075 0.0014969039892889946 0 -0.0239959593596662 -0.0027052346962543237 0 -0.02418553286596601 -0.0031986506116224362 0 -0.024444023200641717 -0.0028723077956043196 0 -0.027286177881470912 -0.00031309465932616315 0 -0.023937388538294722 -0.00079279406052333882 0 -0.023979339016583633 0.0011724206366285693 0 -0.027286177881470912 -0.00031309465932616315 0 -0.025836543119794771 -0.0023920257258030673 0 -0.023937388538294722 -0.00079279406052333882 0 -0.024392633721869506 -0.0027240360515271389 0 -0.022783958029402328 -0.0021870249229490966 0 -0.023937388538294722 -0.00079279406052333882 0 -0.024392633721869506 -0.0027240360515271389 0 -0.025836543119794771 -0.0023920257258030673 0 -0.023937388538294722 -0.00079279406052333882 0 -0.023937388538294722 -0.00079279406052333882 0 -0.023979339016583633 0.0011724206366285693 0 -0.0222362973958075 0.0014969039892889946 0 -0.027286177881470912 -0.00031309465932616315 0 -0.023979339016583633 0.0011724206366285693 0 -0.025124172388582649 0.0029362606665070045 0 -0.023979339016583633 0.0011724206366285693 0 -0.02297368255422285 0.0025874984037516152 0 -0.0222362973958075 0.0014969039892889946 0 -0.023979339016583633 0.0011724206366285693 0 -0.02297368255422285 0.0025874984037516152 0 -0.025124172388582649 0.0029362606665070045 0 -0.02297368255422285 0.0025874984037516152 0 -0.021880684352858098 0.0032382508588159986 0 -0.022402653102689185 0.0037811104464123527 0 -0.02297368255422285 0.0025874984037516152 0 -0.025124172388582649 0.0029362606665070045 0 -0.022402653102689185 0.0037811104464123527 0 -0.023069856172036923 -0.0017630362104474851 0 -0.021874560811548694 0.0012880248098831675 0 -0.0239959593596662 -0.0027052346962543237 0 -0.024444023200641717 -0.0028723077956043196 0 -0.024285191757289822 -0.002417043370716966 0 -0.021439758818030386 -7.3618804076062947e-05 0 -0.020446962962009971 0.001992744953340207 0 -0.0222362973958075 0.0014969039892889946 0 -0.02297368255422285 0.0025874984037516152 0 -0.0222362973958075 0.0014969039892889946 0 -0.021880684352858098 0.0032382508588159986 0 -0.021874560811548694 0.0012880248098831675 0 -0.021831876758350636 0.0034249886875941187 0 -0.020446962962009971 0.001992744953340207 0 -0.0222362973958075 0.0014969039892889946 0 -0.021880684352858098 0.0032382508588159986 0 -0.021874560811548694 0.0012880248098831675 0 -0.02184324726011479 0.0039566511649457977 0 -0.021988013648242391 0.0033495163113434097 0 -0.021880684352858098 0.0032382508588159986 0 -0.02204882421133101 0.0032928629280620388 0 -0.021880684352858098 0.0032382508588159986 0 -0.021896887209008533 0.0032442904648153736 0 -0.02204882421133101 0.0032928629280620388 0 -0.021896887209008533 0.0032442904648153736 0 -0.021989115487423213 0.0030896625140743364 0 -0.02204882421133101 0.0032928629280620388 0 -0.021880684352858098 0.0032382508588159986 0 -0.021896887209008533 0.0032442904648153736 0 -0.021956054746381688 0.0033964791132795138 0 -0.021880684352858098 0.0032382508588159986 0 -0.021956054746381688 0.0033964791132795138 0 -0.022402653102689185 0.0037811104464123527 0 -0.021896887209008533 0.0032442904648153736 0 -0.021956054746381688 0.0033964791132795138 0 -0.02179233753830298 0.0030527544109363392 0 -0.02179233753830298 0.0030527544109363392 0 -0.02173621097785269 0.0030678028464351187 0 -0.021500782278913326 0.0026265551043962508 0 -0.021956054746381688 0.0033964791132795138 0 -0.02179233753830298 0.0030527544109363392 0 -0.02173621097785269 0.0030678028464351187 0 -0.021896887209008533 0.0032442904648153736 0 -0.02179233753830298 0.0030527544109363392 0 -0.021989115487423213 0.0030896625140743364 0 -0.02179233753830298 0.0030527544109363392 0 -0.021745458747503367 0.002715672452824561 0 -0.021989115487423213 0.0030896625140743364 0 -0.026879529770579561 0.0054336977547471939 0 -0.025124172388582649 0.0029362606665070045 0 -0.022402653102689185 0.0037811104464123527 0 -0.023876293325586617 0.0042734274031772943 0 -0.022525486728353927 0.0038570141268163115 0 -0.020815100527015688 0.0031867181738071183 0 -0.022402653102689185 0.0037811104464123527 0 -0.021259361856894407 0.0027861222294920918 0 -0.021956054746381688 0.0033964791132795138 0 -0.022402653102689185 0.0037811104464123527 0 -0.02173621097785269 0.0030678028464351187 0 -0.02173621097785269 0.0030678028464351187 0 -0.021259361856894407 0.0027861222294920918 0 -0.021213180514554109 0.0024576029915154714 0 -0.022402653102689185 0.0037811104464123527 0 -0.02173621097785269 0.0030678028464351187 0 -0.021259361856894407 0.0027861222294920918 0 -0.02064028100518334 0.0026069041516249541 0 -0.021259361856894407 0.0027861222294920918 0 -0.020860665427953392 0.0023159698257223128 0 -0.021259361856894407 0.0027861222294920918 0 -0.021213180514554109 0.0024576029915154714 0 -0.020860665427953392 0.0023159698257223128 0 -0.021213180514554109 0.0024576029915154714 0 -0.020883173917541489 0.0020047737654423376 0 -0.020860665427953392 0.0023159698257223128 0 -0.020883173917541489 0.0020047737654423376 0 -0.020860665427953392 0.0023159698257223128 0 -0.020649045852211945 0.0018713818157218901 0 -0.020860665427953392 0.0023159698257223128 0 -0.020649045852211945 0.0018713818157218901 0 -0.020554734653968589 0.0019447576642955997 0 -0.02179233753830298 0.0030527544109363392 0 -0.021745458747503367 0.002715672452824561 0 -0.021500782278913326 0.0026265551043962508 0 -0.021745458747503367 0.002715672452824561 0 -0.021500782278913326 0.0026265551043962508 0 -0.021454881086029526 0.0023190849540061687 0 -0.021745458747503367 0.002715672452824561 0 -0.021454881086029526 0.0023190849540061687 0 -0.02174562554307698 0.0023055602392365467 0 -0.02173621097785269 0.0030678028464351187 0 -0.021213180514554109 0.0024576029915154714 0 -0.021500782278913326 0.0026265551043962508 0 -0.021213180514554109 0.0024576029915154714 0 -0.021500782278913326 0.0026265551043962508 0 -0.021184264062598337 0.0021864553602535578 0 -0.021184264062598337 0.0021864553602535578 0 -0.021302715003699266 0.001954624373845124 0 -0.020850367699600528 0.0017179011647169625 0 -0.021500782278913326 0.0026265551043962508 0 -0.021184264062598337 0.0021864553602535578 0 -0.021454881086029526 0.0023190849540061687 0 -0.021213180514554109 0.0024576029915154714 0 -0.020883173917541489 0.0020047737654423376 0 -0.021184264062598337 0.0021864553602535578 0 -0.020883173917541489 0.0020047737654423376 0 -0.021184264062598337 0.0021864553602535578 0 -0.020850367699600528 0.0017179011647169625 0 -0.021184264062598337 0.0021864553602535578 0 -0.021454881086029526 0.0023190849540061687 0 -0.021302715003699266 0.001954624373845124 0 -0.021454881086029526 0.0023190849540061687 0 -0.021302715003699266 0.001954624373845124 0 -0.02174562554307698 0.0023055602392365467 0 -0.021302715003699266 0.001954624373845124 0 -0.02174562554307698 0.0023055602392365467 0 -0.02163067670119968 0.0017454672790185074 0 -0.02174562554307698 0.0023055602392365467 0 -0.022063762767886175 0.0021369716916562979 0 -0.02163067670119968 0.0017454672790185074 0 -0.022063762767886175 0.0021369716916562979 0 -0.02163067670119968 0.0017454672790185074 0 -0.022115095543034487 0.0017587272877298318 0 -0.022061244056836626 0.0024137442265817722 0 -0.02174562554307698 0.0023055602392365467 0 -0.022063762767886175 0.0021369716916562979 0 -0.022499623120184099 0.0019374423180845458 0 -0.022063762767886175 0.0021369716916562979 0 -0.022527088230673585 0.0022780564747802178 0 -0.022499623120184099 0.0019374423180845458 0 -0.022063762767886175 0.0021369716916562979 0 -0.022115095543034487 0.0017587272877298318 0 -0.022061244056836626 0.0024137442265817722 0 -0.022063762767886175 0.0021369716916562979 0 -0.022425092421598417 0.0025265896016715738 0 -0.022063762767886175 0.0021369716916562979 0 -0.022527088230673585 0.0022780564747802178 0 -0.022425092421598417 0.0025265896016715738 0 -0.022527088230673585 0.0022780564747802178 0 -0.022425092421598417 0.0025265896016715738 0 -0.022737898553554122 0.0025652813301203013 0 -0.022425092421598417 0.0025265896016715738 0 -0.022557197727372965 0.0028319683243004348 0 -0.022037177351480371 0.0026833686729068342 0 -0.022425092421598417 0.0025265896016715738 0 -0.022557197727372965 0.0028319683243004348 0 -0.022737898553554122 0.0025652813301203013 0 -0.022061244056836626 0.0024137442265817722 0 -0.022425092421598417 0.0025265896016715738 0 -0.022037177351480371 0.0026833686729068342 0 -0.021745458747503367 0.002715672452824561 0 -0.02174562554307698 0.0023055602392365467 0 -0.022037177351480371 0.0026833686729068342 0 -0.022061244056836626 0.0024137442265817722 0 -0.02174562554307698 0.0023055602392365467 0 -0.022037177351480371 0.0026833686729068342 0 -0.022037177351480371 0.0026833686729068342 0 -0.021989115487423213 0.0030896625140743364 0 -0.022324477755218196 0.0030662480916232963 0 -0.021745458747503367 0.002715672452824561 0 -0.022037177351480371 0.0026833686729068342 0 -0.021989115487423213 0.0030896625140743364 0 -0.022324477755218196 0.0030662480916232963 0 -0.022451400757192486 0.0032794943789036727 0 -0.022711737887646907 0.0030445997717308687 0 -0.022557197727372965 0.0028319683243004348 0 -0.022324477755218196 0.0030662480916232963 0 -0.022711737887646907 0.0030445997717308687 0 -0.022557197727372965 0.0028319683243004348 0 -0.022037177351480371 0.0026833686729068342 0 -0.022324477755218196 0.0030662480916232963 0 -0.022324477755218196 0.0030662480916232963 0 -0.022451400757192486 0.0032794943789036727 0 -0.0222284089255095 0.0032458448137974902 0 -0.030816579613331747 0.0021303863921634512 0 -0.03096477416496007 0.0022628461348324692 0 -0.030495659118818609 0.0030455123198608585 0 -0.026662601641824026 0.0028432374102005426 0 -0.027483928195918932 0.0021091500629771523 0 -0.021989115487423213 0.0030896625140743364 0 -0.02204882421133101 0.0032928629280620388 0 -0.0222284089255095 0.0032458448137974902 0 -0.021989115487423213 0.0030896625140743364 0 -0.022324477755218196 0.0030662480916232963 0 -0.0222284089255095 0.0032458448137974902 0 -0.035336563197687437 -0.00036295543300549641 0 -0.034230640873023722 -5.9382510909403586e-07 0 -0.033792540779133455 -0.00020556835800091238 0 -0.034230640873023722 -5.9382510909403586e-07 0 -0.033792540779133455 -0.00020556835800091238 0 -0.031376543035369332 -2.5022602677535249e-07 0 -0.035336563197687437 -0.00036295543300549641 0 -0.034780055642204544 -0.00034359519237226447 0 -0.033792540779133455 -0.00020556835800091238 0 -0.034780055642204544 -0.00034359519237226447 0 -0.033792540779133455 -0.00020556835800091238 0 -0.033250437348582948 1.9029016968281618e-05 0 -0.0331869193374714 0.00056785709472079919 0 -0.027483928195918932 0.0021091500629771523 0 -0.027483928195918932 0.0021091500629771523 0 -0.022989101352591659 0.0034617274453563264 0 -0.033792540779133455 -0.00020556835800091238 0 -0.033250437348582948 1.9029016968281618e-05 0 -0.031376543035369332 -2.5022602677535249e-07 0 -0.033250437348582948 1.9029016968281618e-05 0 -0.031376543035369332 -2.5022602677535249e-07 0 -0.031168448802052787 0.00015468086683985936 0 -0.031376543035369332 -2.5022602677535249e-07 0 -0.031168448802052787 0.00015468086683985936 0 -0.028522810385687287 4.0814673589481172e-07 0 -0.022856584443199573 0.0031748672739587221 0 -0.023000503621854008 0.0027580486020548308 0 -0.023221455132641046 0.002705239367415826 0 -0.022557197727372965 0.0028319683243004348 0 -0.022711737887646907 0.0030445997717308687 0 -0.023000503621854008 0.0027580486020548308 0 -0.027483928195918932 0.0021091500629771523 0 -0.027334689513114518 0.0011711755200391404 0 -0.022557197727372965 0.0028319683243004348 0 -0.023000503621854008 0.0027580486020548308 0 -0.022737898553554122 0.0025652813301203013 0 -0.023221455132641046 0.002705239367415826 0 -0.022974598527969656 0.0025686870537315037 0 -0.022965266897994351 0.0023299818733671122 0 -0.023000503621854008 0.0027580486020548308 0 -0.023221455132641046 0.002705239367415826 0 -0.022974598527969656 0.0025686870537315037 0 -0.023000503621854008 0.0027580486020548308 0 -0.022974598527969656 0.0025686870537315037 0 -0.022737898553554122 0.0025652813301203013 0 -0.023221455132641046 0.002705239367415826 0 -0.022965266897994351 0.0023299818733671122 0 -0.024103822747072564 0.002084085880999688 0 -0.022965266897994351 0.0023299818733671122 0 -0.024103822747072564 0.002084085880999688 0 -0.023015643803587334 0.0017678825366828771 0 -0.022527088230673585 0.0022780564747802178 0 -0.022737898553554122 0.0025652813301203013 0 -0.022965266897994351 0.0023299818733671122 0 -0.022499623120184099 0.0019374423180845458 0 -0.022527088230673585 0.0022780564747802178 0 -0.022965266897994351 0.0023299818733671122 0 -0.022974598527969656 0.0025686870537315037 0 -0.022737898553554122 0.0025652813301203013 0 -0.022965266897994351 0.0023299818733671122 0 -0.022499623120184099 0.0019374423180845458 0 -0.022965266897994351 0.0023299818733671122 0 -0.023015643803587334 0.0017678825366828771 0 -0.031168448802052787 0.00015468086683985936 0 -0.028522810385687287 4.0814673589481172e-07 0 -0.028604829538182577 0.00019282831748211797 0 -0.027334689513114518 0.0011711755200391404 0 -0.02642580990310317 0.00092008563902729566 0 -0.028522810385687287 4.0814673589481172e-07 0 -0.028604829538182577 0.00019282831748211797 0 -0.025668502565407359 6.940448701050004e-07 0 -0.024103822747072564 0.002084085880999688 0 -0.023292866100188648 0.0010242093203569984 0 -0.025661803163530117 3.1237756826481387e-06 0 -0.02642580990310317 0.00092008563902729566 0 -0.025667759200811876 -9.3001732405298365e-08 0 -0.024103822747072564 0.002084085880999688 0 -0.023015643803587334 0.0017678825366828771 0 -0.023292866100188648 0.0010242093203569984 0 -0.023015643803587334 0.0017678825366828771 0 -0.023292866100188648 0.0010242093203569984 0 -0.022516806569594611 0.0014290642946977708 0 -0.022499623120184099 0.0019374423180845458 0 -0.023015643803587334 0.0017678825366828771 0 -0.022516806569594611 0.0014290642946977708 0 -0.023292866100188648 0.0010242093203569984 0 -0.022516806569594611 0.0014290642946977708 0 -0.022463275368235926 0.00074013634940756795 0 -0.023325507896160023 4.735294535383508e-05 0 -0.022463275368235926 0.00074013634940756795 0 -0.022248336924316377 0.00011573685312883466 0 -0.023292866100188648 0.0010242093203569984 0 -0.023325507896160023 4.735294535383508e-05 0 -0.022463275368235926 0.00074013634940756795 0 -0.023292866100188648 0.0010242093203569984 0 -0.025661803163530117 3.1237756826481387e-06 0 -0.023325507896160023 4.735294535383508e-05 0 -0.025661803163530117 3.1237756826481387e-06 0 -0.023325507896160023 4.735294535383508e-05 0 -0.023438078833042154 -1.294048897663878e-06 0 -0.02163067670119968 0.0017454672790185074 0 -0.021482888299694219 0.0012504291498760297 0 -0.021108343583370392 0.0014945504698532276 0 -0.02163067670119968 0.0017454672790185074 0 -0.022006411409435659 0.0013344609848286216 0 -0.022115095543034487 0.0017587272877298318 0 -0.02163067670119968 0.0017454672790185074 0 -0.022006411409435659 0.0013344609848286216 0 -0.021482888299694219 0.0012504291498760297 0 -0.022006411409435659 0.0013344609848286216 0 -0.022115095543034487 0.0017587272877298318 0 -0.022516806569594611 0.0014290642946977708 0 -0.022499623120184099 0.0019374423180845458 0 -0.022115095543034487 0.0017587272877298318 0 -0.022516806569594611 0.0014290642946977708 0 -0.022006411409435659 0.0013344609848286216 0 -0.022516806569594611 0.0014290642946977708 0 -0.022463275368235926 0.00074013634940756795 0 -0.022463275368235926 0.00074013634940756795 0 -0.021680108104792938 0.00064721339385910939 0 -0.022248336924316377 0.00011573685312883466 0 -0.022006411409435659 0.0013344609848286216 0 -0.022463275368235926 0.00074013634940756795 0 -0.021680108104792938 0.00064721339385910939 0 -0.022006411409435659 0.0013344609848286216 0 -0.021680108104792938 0.00064721339385910939 0 -0.021482888299694219 0.0012504291498760297 0 -0.021680108104792938 0.00064721339385910939 0 -0.021482888299694219 0.0012504291498760297 0 -0.021056082510882982 0.00098104121649870762 0 -0.021482888299694219 0.0012504291498760297 0 -0.021056082510882982 0.00098104121649870762 0 -0.021108343583370392 0.0014945504698532276 0 -0.021168548710843803 0.00046130941589102965 0 -0.02147252510987133 -1.4526967946562471e-05 0 -0.020640183392886764 0.00016444784335433032 0 -0.021680108104792938 0.00064721339385910939 0 -0.021168548710843803 0.00046130941589102965 0 -0.02147252510987133 -1.4526967946562471e-05 0 -0.021680108104792938 0.00064721339385910939 0 -0.021168548710843803 0.00046130941589102965 0 -0.021056082510882982 0.00098104121649870762 0 -0.022248336924316377 0.00011573685312883466 0 -0.02206065569840289 -0.00025435973382338266 0 -0.02147252510987133 -1.4526967946562471e-05 0 -0.021680108104792938 0.00064721339385910939 0 -0.022248336924316377 0.00011573685312883466 0 -0.02147252510987133 -1.4526967946562471e-05 0 -0.02206065569840289 -0.00025435973382338266 0 -0.021586540573950354 -0.00048783790515862999 0 -0.02147252510987133 -1.4526967946562471e-05 0 -0.02206065569840289 -0.00025435973382338266 0 -0.021586540573950354 -0.00048783790515862999 0 -0.022017386271380741 -0.00050748050473772041 0 -0.02081762883300747 -0.00047088736022893134 0 -0.02147252510987133 -1.4526967946562471e-05 0 -0.020640183392886764 0.00016444784335433032 0 -0.021586540573950354 -0.00048783790515862999 0 -0.02081762883300747 -0.00047088736022893134 0 -0.02147252510987133 -1.4526967946562471e-05 0 -0.023438078833042154 -1.294048897663878e-06 0 -0.022540163584425569 -0.00019554691397099679 0 -0.022148408282312404 -0.00022361636174142682 0 -0.023325507896160023 4.735294535383508e-05 0 -0.023438078833042154 -1.294048897663878e-06 0 -0.022540163584425569 -0.00019554691397099679 0 -0.023325507896160023 4.735294535383508e-05 0 -0.022248336924316377 0.00011573685312883466 0 -0.022540163584425569 -0.00019554691397099679 0 -0.022248336924316377 0.00011573685312883466 0 -0.02206065569840289 -0.00025435973382338266 0 -0.022540163584425569 -0.00019554691397099679 0 -0.02206065569840289 -0.00025435973382338266 0 -0.022540163584425569 -0.00019554691397099679 0 -0.022201002049936892 -0.00035994183083948951 0 -0.02206065569840289 -0.00025435973382338266 0 -0.022017386271380741 -0.00050748050473772041 0 -0.022201002049936892 -0.00035994183083948951 0 -0.022017386271380741 -0.00050748050473772041 0 -0.022201002049936892 -0.00035994183083948951 0 -0.022029870961536285 -0.00050137833257272286 0 -0.022201002049936892 -0.00035994183083948951 0 -0.022148408282312404 -0.00022361636174142682 0 -0.021268837863435197 -8.8111567263766895e-05 0 -0.023438078833042154 -1.294048897663878e-06 0 -0.022148408282312404 -0.00022361636174142682 0 -0.021206138383189244 -7.523484431353268e-07 0 -0.022201002049936892 -0.00035994183083948951 0 -0.021268837863435197 -8.8111567263766895e-05 0 -0.022029870961536285 -0.00050137833257272286 0 -0.022540163584425569 -0.00019554691397099679 0 -0.022201002049936892 -0.00035994183083948951 0 -0.022148408282312404 -0.00022361636174142682 0 -0.022148408282312404 -0.00022361636174142682 0 -0.021206138383189244 -7.523484431353268e-07 0 -0.021268837863435197 -8.8111567263766895e-05 0 -0.021206138383189244 -7.523484431353268e-07 0 -0.021268837863435197 -8.8111567263766895e-05 0 -0.018980494829508258 1.061343599026543e-06 0 -0.021268837863435197 -8.8111567263766895e-05 0 -0.022324103426826756 -0.0010142223340622012 0 -0.022029870961536285 -0.00050137833257272286 0 -0.021268837863435197 -8.8111567263766895e-05 0 -0.018980494829508258 1.061343599026543e-06 0 -0.019146391649852101 9.964882460013361e-05 0 -0.022366106970062614 0.00030469490469605683 0 -0.016704772992384161 -0.0012190083706051335 0 -0.018972214973345187 3.2523984103572213e-06 0 -0.015647740428110901 0.00081645983781778884 0 -0.01537417624541307 0.00013504548022555177 0 -0.018976599277703263 6.5405543797357124e-07 0 -0.016704772992384161 -0.0012190083706051335 0 -0.018972214973345187 3.2523984103572213e-06 0 -0.015970279537481223 -8.4258490300234296e-07 0 -0.01537417624541307 0.00013504548022555177 0 -0.0088110319544400396 -0.0055347997171528501 0 -0.010459535499499564 -0.0050551850022251118 0 -0.009417926697926491 -0.004120498617991116 0 -0.016704772992384161 -0.0012190083706051335 0 -0.011050875538835145 -0.002491916746945566 0 -0.016704772992384161 -0.0012190083706051335 0 -0.015671052720649174 -0.0038309704500134158 0 -0.022324103426826756 -0.0010142223340622012 0 -0.021741058671651815 -0.0010748918697932798 0 -0.021558676541134473 -0.0020294985916212882 0 -0.022324103426826756 -0.0010142223340622012 0 -0.022016479090417332 -0.00076298942841084179 0 -0.021741058671651815 -0.0010748918697932798 0 -0.022324103426826756 -0.0010142223340622012 0 -0.022016479090417332 -0.00076298942841084179 0 -0.022029870961536285 -0.00050137833257272286 0 -0.022017386271380741 -0.00050748050473772041 0 -0.022016479090417332 -0.00076298942841084179 0 -0.021741058671651815 -0.0010748918697932798 0 -0.022017386271380741 -0.00050748050473772041 0 -0.022016479090417332 -0.00076298942841084179 0 -0.022029870961536285 -0.00050137833257272286 0 -0.021586540573950354 -0.00048783790515862999 0 -0.022017386271380741 -0.00050748050473772041 0 -0.021741058671651815 -0.0010748918697932798 0 -0.021741058671651815 -0.0010748918697932798 0 -0.021071259803240035 -0.00098595747886230873 0 -0.020647549212672024 -0.0018261596098435801 0 -0.021586540573950354 -0.00048783790515862999 0 -0.021741058671651815 -0.0010748918697932798 0 -0.021071259803240035 -0.00098595747886230873 0 -0.021071259803240035 -0.00098595747886230873 0 -0.020647549212672024 -0.0018261596098435801 0 -0.020014601192634176 -0.0012598053784948974 0 -0.021586540573950354 -0.00048783790515862999 0 -0.02081762883300747 -0.00047088736022893134 0 -0.021071259803240035 -0.00098595747886230873 0 -0.02081762883300747 -0.00047088736022893134 0 -0.021071259803240035 -0.00098595747886230873 0 -0.020014601192634176 -0.0012598053784948974 0 -0.020647549212672024 -0.0018261596098435801 0 -0.021558676541134473 -0.0020294985916212882 0 -0.020078425739791874 -0.0031455225748544227 0 -0.020647549212672024 -0.0018261596098435801 0 -0.020078425739791874 -0.0031455225748544227 0 -0.01958652053795723 -0.0020911479208196595 0 -0.021741058671651815 -0.0010748918697932798 0 -0.020647549212672024 -0.0018261596098435801 0 -0.021558676541134473 -0.0020294985916212882 0 -0.010459535499499564 -0.0050551850022251118 0 -0.010777497077722624 -0.0036013026997227401 0 -0.009417926697926491 -0.004120498617991116 0 -0.010459535499499564 -0.0050551850022251118 0 -0.010777497077722624 -0.0036013026997227401 0 -0.012636706206395542 -0.0046802438618444792 0 -0.015671052720649174 -0.0038309704500134158 0 -0.016448233759295536 -0.0037911118774663958 0 -0.012636706206395542 -0.0046802438618444792 0 -0.013230172897112131 -0.0023244852764849077 0 -0.011501819728489401 -0.0017654723290916792 0 -0.010777497077722624 -0.0036013026997227401 0 -0.012636706206395542 -0.0046802438618444792 0 -0.011501819728489401 -0.0017654723290916792 0 -0.010777497077722624 -0.0036013026997227401 0 -0.010136225624860632 -0.0022415511145580536 0 -0.011501819728489401 -0.0017654723290916792 0 -0.010777497077722624 -0.0036013026997227401 0 -0.010136225624860632 -0.0022415511145580536 0 -0.009417926697926491 -0.004120498617991116 0 -0.011149334064110625 -0.001207057149453237 0 -0.011050875538835145 -0.002491916746945566 0 -0.011986251848746488 -0.00026918255500823834 0 -0.013628704452028628 -0.00018573127927390192 0 -0.013713254600447278 0.00015849825841052385 0 -0.013628704452028628 -0.00018573127927390192 0 -0.015970279537481223 -8.4258490300234296e-07 0 -0.012964347246192307 -5.6325202791851968e-07 0 -0.013628704452028628 -0.00018573127927390192 0 -0.015970279537481223 -8.4258490300234296e-07 0 -0.01537417624541307 0.00013504548022555177 0 -0.015647740428110901 0.00081645983781778884 0 -0.01537417624541307 0.00013504548022555177 0 -0.013713254600447278 0.00015849825841052385 0 -0.013628704452028628 -0.00018573127927390192 0 -0.01537417624541307 0.00013504548022555177 0 -0.013713254600447278 0.00015849825841052385 0 -0.016952568824296875 -0.0036090661154706987 0 -0.017277568400525915 -0.0030855705938585163 0 -0.016310011640362266 -0.0036977474579637441 0 -0.016952568824296875 -0.0036090661154706987 0 -0.017185710782081674 -0.0035331473985298601 0 -0.017277568400525915 -0.0030855705938585163 0 -0.017185710782081674 -0.0035331473985298601 0 -0.017277568400525915 -0.0030855705938585163 0 -0.017403615917619131 -0.0036157942167141066 0 -0.017185710782081674 -0.0035331473985298601 0 -0.017034564119109395 -0.003980600911392765 0 -0.017403615917619131 -0.0036157942167141066 0 -0.017277568400525915 -0.0030855705938585163 0 -0.017403615917619131 -0.0036157942167141066 0 -0.017651680657523084 -0.0029639228617737096 0 -0.016528006580923203 -0.0024313530187665263 0 -0.016614778161982473 -0.0029714665660086903 0 -0.017052011763553733 -0.0022440751475308676 0 -0.017277568400525915 -0.0030855705938585163 0 -0.016082848361854411 -0.0037450829316739991 0 -0.016481502217157058 -0.0027182326730194979 0 -0.017667030013726267 -0.0032595828802579447 0 -0.014658805719510386 -0.0026282200916793496 0 -0.016082848361854411 -0.0037450829316739991 0 -0.015933669925122629 -0.0036556275773843619 0 -0.016481502217157058 -0.0027182326730194979 0 -0.016033474725118919 -0.002945390132054439 0 -0.016791888977995297 -0.0025103615170455227 0 -0.014658805719510386 -0.0026282200916793496 0 -0.016033474725118919 -0.002945390132054439 0 -0.014658805719510386 -0.0026282200916793496 0 -0.013343450995254035 -0.0017424474972202798 0 -0.010303419449069394 0.00012745376127570906 0 -0.01023258230085412 0.00030463069356529175 0 -0.010091899626253918 0.00029226538700483253 0 -0.016952568824296875 -0.0036090661154706987 0 -0.016310011640362266 -0.0036977474579637441 0 -0.017034564119109395 -0.003980600911392765 0 -0.010303419449069394 0.00012745376127570906 0 -0.01023258230085412 0.00030463069356529175 0 -0.010374095469681878 0.00017279371473716436 0 -0.015748727094886759 -0.0024430977279594319 0 -0.015615520191896298 -0.0023634047580108545 0 -0.015475834346288433 -0.0026085962795083422 0 -0.014658805719510386 -0.0026282200916793496 0 -0.015641256032774945 -0.002287353524061001 0 -0.016033474725118919 -0.002945390132054439 0 -0.015641256032774945 -0.002287353524061001 0 -0.013343450995254035 -0.0017424474972202798 0 -0.013737383441586311 -0.0011697881143186159 0 -0.017034564119109395 -0.003980600911392765 0 -0.017403615917619131 -0.0036157942167141066 0 -0.017395458819337548 -0.004172467330027815 0 -0.016952568824296875 -0.0036090661154706987 0 -0.017185710782081674 -0.0035331473985298601 0 -0.017034564119109395 -0.003980600911392765 0 -0.017403615917619131 -0.0036157942167141066 0 -0.016730356327090874 -0.0036195397585720838 0 -0.016148044547587399 -0.0013244933622908034 0 -0.014610838715313419 -0.001907291285495796 0 -0.016730356327090874 -0.0036195397585720838 0 -0.016148044547587399 -0.0013244933622908034 0 -0.018055358936000427 -0.004383942123820918 0 -0.013737383441586311 -0.0011697881143186159 0 -0.014610838715313419 -0.001907291285495796 0 -0.013230172897112131 -0.0023244852764849077 0 -0.016730356327090874 -0.0036195397585720838 0 -0.020078425739791874 -0.0031455225748544227 0 -0.017981259630321319 -0.002813321017042434 0 -0.01958652053795723 -0.0020911479208196595 0 -0.016448233759295536 -0.0037911118774663958 0 -0.016747540709575712 -0.0036630345855435298 0 -0.020078425739791874 -0.0031455225748544227 0 -0.016730356327090874 -0.0036195397585720838 0 -0.017981259630321319 -0.002813321017042434 0 -0.012636706206395542 -0.0046802438618444792 0 -0.013230172897112131 -0.0023244852764849077 0 -0.016730356327090874 -0.0036195397585720838 0 -0.017403615917619131 -0.0036157942167141066 0 -0.016730356327090874 -0.0036195397585720838 0 -0.017981259630321319 -0.002813321017042434 0 -0.017403615917619131 -0.0036157942167141066 0 -0.017981259630321319 -0.002813321017042434 0 -0.017651680657523084 -0.0029639228617737096 0 -0.017981259630321319 -0.002813321017042434 0 -0.017651680657523084 -0.0029639228617737096 0 -0.017895601928000243 -0.0023746522971293212 0 -0.017981259630321319 -0.002813321017042434 0 -0.017895601928000243 -0.0023746522971293212 0 -0.018671655609452817 -0.0020206888499075715 0 -0.017895601928000243 -0.0023746522971293212 0 -0.018671655609452817 -0.0020206888499075715 0 -0.018507771579486597 -0.0013786944889151113 0 -0.017981259630321319 -0.002813321017042434 0 -0.018671655609452817 -0.0020206888499075715 0 -0.01958652053795723 -0.0020911479208196595 0 -0.018671655609452817 -0.0020206888499075715 0 -0.01958652053795723 -0.0020911479208196595 0 -0.020014601192634176 -0.0012598053784948974 0 -0.020647549212672024 -0.0018261596098435801 0 -0.01958652053795723 -0.0020911479208196595 0 -0.020014601192634176 -0.0012598053784948974 0 -0.02081762883300747 -0.00047088736022893134 0 -0.020014601192634176 -0.0012598053784948974 0 -0.019716052322173213 -0.00059302580218889686 0 -0.018671655609452817 -0.0020206888499075715 0 -0.020014601192634176 -0.0012598053784948974 0 -0.019239610622367065 -0.0012764003647691496 0 -0.020014601192634176 -0.0012598053784948974 0 -0.019239610622367065 -0.0012764003647691496 0 -0.019716052322173213 -0.00059302580218889686 0 -0.018507771579486597 -0.0013786944889151113 0 -0.019716052322173213 -0.00059302580218889686 0 -0.018749400724824675 -0.00044418607868733118 0 -0.018671655609452817 -0.0020206888499075715 0 -0.019239610622367065 -0.0012764003647691496 0 -0.018507771579486597 -0.0013786944889151113 0 -0.019239610622367065 -0.0012764003647691496 0 -0.018507771579486597 -0.0013786944889151113 0 -0.019716052322173213 -0.00059302580218889686 0 -0.018507771579486597 -0.0013786944889151113 0 -0.017508169513684835 -0.001520660980091668 0 -0.018749400724824675 -0.00044418607868733118 0 -0.017895601928000243 -0.0023746522971293212 0 -0.018507771579486597 -0.0013786944889151113 0 -0.017508169513684835 -0.001520660980091668 0 -0.017508169513684835 -0.001520660980091668 0 -0.017296620885607877 -0.0023904280208881172 0 -0.016481502217157058 -0.0027182326730194979 0 -0.017895601928000243 -0.0023746522971293212 0 -0.017508169513684835 -0.001520660980091668 0 -0.017296620885607877 -0.0023904280208881172 0 -0.017399508108880385 -0.0016084051293280574 0 -0.016791888977995297 -0.0025103615170455227 0 -0.017277568400525915 -0.0030855705938585163 0 -0.017296620885607877 -0.0023904280208881172 0 -0.016481502217157058 -0.0027182326730194979 0 -0.017277568400525915 -0.0030855705938585163 0 -0.017895601928000243 -0.0023746522971293212 0 -0.017296620885607877 -0.0023904280208881172 0 -0.017277568400525915 -0.0030855705938585163 0 -0.017651680657523084 -0.0029639228617737096 0 -0.017895601928000243 -0.0023746522971293212 0 -0.016528006580923203 -0.0024313530187665263 0 -0.017052011763553733 -0.0022440751475308676 0 -0.016255752938361519 -0.0013478439541543112 0 -0.017508169513684835 -0.001520660980091668 0 -0.017052011763553733 -0.0022440751475308676 0 -0.016255752938361519 -0.0013478439541543112 0 -0.017508169513684835 -0.001520660980091668 0 -0.017355408054671551 -0.00013326958724207359 0 -0.016255752938361519 -0.0013478439541543112 0 -0.018881472059813723 0.00057525545176245827 0 -0.018154300714031017 8.2457575083369665e-05 0 -0.02032614952924525 0.0013960341277938352 0 -0.020287475099421602 0.001381321563759142 0 -0.020253610941686324 0.0011854413340278013 0 -0.017508169513684835 -0.001520660980091668 0 -0.017355408054671551 -0.00013326958724207359 0 -0.018749400724824675 -0.00044418607868733118 0 -0.017355408054671551 -0.00013326958724207359 0 -0.018749400724824675 -0.00044418607868733118 0 -0.019921315677846854 0.001217308171035275 0 -0.02032614952924525 0.0013960341277938352 0 -0.020340986088849416 0.0013857764217985972 0 -0.019921315677846854 0.001217308171035275 0 -0.018881472059813723 0.00057525545176245827 0 -0.019790319162539545 0.0011898928427991019 0 -0.02032614952924525 0.0013960341277938352 0 -0.020340986088849416 0.0013857764217985972 0 -0.020287475099421602 0.001381321563759142 0 -0.020340986088849416 0.0013857764217985972 0 -0.020271700812777852 0.0014595750053309664 0 -0.020287475099421602 0.001381321563759142 0 -0.02081762883300747 -0.00047088736022893134 0 -0.020640183392886764 0.00016444784335433032 0 -0.019716052322173213 -0.00059302580218889686 0 -0.020640183392886764 0.00016444784335433032 0 -0.019716052322173213 -0.00059302580218889686 0 -0.019891726624891474 0.00030011057940997342 0 -0.019716052322173213 -0.00059302580218889686 0 -0.018749400724824675 -0.00044418607868733118 0 -0.019891726624891474 0.00030011057940997342 0 -0.018749400724824675 -0.00044418607868733118 0 -0.019921315677846854 0.001217308171035275 0 -0.019891726624891474 0.00030011057940997342 0 -0.019921315677846854 0.001217308171035275 0 -0.019891726624891474 0.00030011057940997342 0 -0.020522262446791513 0.00076251216795572216 0 -0.021168548710843803 0.00046130941589102965 0 -0.020640183392886764 0.00016444784335433032 0 -0.020522262446791513 0.00076251216795572216 0 -0.021168548710843803 0.00046130941589102965 0 -0.020522262446791513 0.00076251216795572216 0 -0.021056082510882982 0.00098104121649870762 0 -0.020640183392886764 0.00016444784335433032 0 -0.019891726624891474 0.00030011057940997342 0 -0.020522262446791513 0.00076251216795572216 0 -0.021056082510882982 0.00098104121649870762 0 -0.020543954842628102 0.0013066097423629554 0 -0.021108343583370392 0.0014945504698532276 0 -0.020522262446791513 0.00076251216795572216 0 -0.021056082510882982 0.00098104121649870762 0 -0.020543954842628102 0.0013066097423629554 0 -0.019921315677846854 0.001217308171035275 0 -0.020522262446791513 0.00076251216795572216 0 -0.020543954842628102 0.0013066097423629554 0 -0.020543954842628102 0.0013066097423629554 0 -0.020850367699600528 0.0017179011647169625 0 -0.020430528213899082 0.0015175417775557904 0 -0.019921315677846854 0.001217308171035275 0 -0.020543954842628102 0.0013066097423629554 0 -0.020430528213899082 0.0015175417775557904 0 -0.020883173917541489 0.0020047737654423376 0 -0.020850367699600528 0.0017179011647169625 0 -0.020430528213899082 0.0015175417775557904 0 -0.020543954842628102 0.0013066097423629554 0 -0.020850367699600528 0.0017179011647169625 0 -0.021108343583370392 0.0014945504698532276 0 -0.021302715003699266 0.001954624373845124 0 -0.020850367699600528 0.0017179011647169625 0 -0.021108343583370392 0.0014945504698532276 0 -0.021302715003699266 0.001954624373845124 0 -0.02163067670119968 0.0017454672790185074 0 -0.021108343583370392 0.0014945504698532276 0 -0.020340986088849416 0.0013857764217985972 0 -0.020488197774135894 0.0016406395712182085 0 -0.020429264273481056 0.0016440336450393985 0 -0.020406725295602269 0.0013942144821302422 0 -0.020244495194543306 0.0015691936331325902 0 -0.020340986088849416 0.0013857764217985972 0 -0.020488197774135894 0.0016406395712182085 0 -0.020430528213899082 0.0015175417775557904 0 -0.020340986088849416 0.0013857764217985972 0 -0.019921315677846854 0.001217308171035275 0 -0.020430528213899082 0.0015175417775557904 0 -0.020488197774135894 0.0016406395712182085 0 -0.020430528213899082 0.0015175417775557904 0 -0.020649045852211945 0.0018713818157218901 0 -0.020883173917541489 0.0020047737654423376 0 -0.020430528213899082 0.0015175417775557904 0 -0.020649045852211945 0.0018713818157218901 0 -0.020488197774135894 0.0016406395712182085 0 -0.020649045852211945 0.0018713818157218901 0 -0.020554734653968589 0.0019447576642955997 0 -0.020488197774135894 0.0016406395712182085 0 -0.020554734653968589 0.0019447576642955997 0 -0.020429264273481056 0.0016440336450393985 0 -0.020554734653968589 0.0019447576642955997 0 -0.020429264273481056 0.0016440336450393985 0 -0.02019422781323553 0.0018679093574934991 0 -0.020520666742366078 0.0023521729851031874 0 -0.020554734653968589 0.0019447576642955997 0 -0.02019422781323553 0.0018679093574934991 0 -0.020244495194543306 0.0015691936331325902 0 -0.020863392952795518 0.0018105877589808669 0 -0.020271700812777852 0.0014595750053309664 0 -0.02019852131447946 0.0014429381424344886 0 -0.020189893224516156 0.0015242777699385052 0 -0.020271700812777852 0.0014595750053309664 0 -0.02019852131447946 0.0014429381424344886 0 -0.020225410822238457 0.0014063052310177148 0 -0.020131799966716546 0.0014261447277195349 0 -0.02019852131447946 0.0014429381424344886 0 -0.020189893224516156 0.0015242777699385052 0 -0.021221788553272475 0.0012842366610001199 0 -0.020863392952795518 0.0018105877589808669 0 -0.022455433248782589 0.0010921800587415146 0 -0.022721444685312557 0.0016612645847164664 0 -0.022427241008355584 0.0014786417430446683 0 -0.020131799966716546 0.0014261447277195349 0 -0.02019852131447946 0.0014429381424344886 0 -0.020170931380945747 0.001387152150843979 0 -0.021560355040749886 0.0022962980782160101 0 -0.020863392952795518 0.0018105877589808669 0 -0.020464004209242916 0.0024239563007058978 0 -0.020863392952795518 0.0018105877589808669 0 -0.02216618941124952 0.0020229500434055807 0 -0.022110907413825549 0.0015591984209448692 0 -0.022427241008355584 0.0014786417430446683 0 -0.02216618941124952 0.0020229500434055807 0 -0.022110907413825549 0.0015591984209448692 0 -0.02182590964849427 0.0018444018986974715 0 -0.02216618941124952 0.0020229500434055807 0 -0.022721444685312557 0.0016612645847164664 0 -0.022427241008355584 0.0014786417430446683 0 -0.02182590964849427 0.0018444018986974715 0 -0.0218095602549205 0.0012977179720469875 0 -0.021439470720588279 0.0019412869828470387 0 -0.022110907413825549 0.0015591984209448692 0 -0.02182590964849427 0.0018444018986974715 0 -0.0218095602549205 0.0012977179720469875 0 -0.023147080082184159 0.00033507413887602519 0 -0.022994537231633638 0.00076779615258439147 0 -0.022110907413825549 0.0015591984209448692 0 -0.0218095602549205 0.0012977179720469875 0 -0.022304044056795799 0.0011684055336906084 0 -0.022110907413825549 0.0015591984209448692 0 -0.022427241008355584 0.0014786417430446683 0 -0.022304044056795799 0.0011684055336906084 0 -0.022455433248782589 0.0010921800587415146 0 -0.022427241008355584 0.0014786417430446683 0 -0.022304044056795799 0.0011684055336906084 0 -0.022322538687112467 0.0012588497046473698 0 -0.022779997651838232 7.7933785479880155e-05 0 -0.023147080082184159 0.00033507413887602519 0 -0.022779997651838232 7.7933785479880155e-05 0 -0.021221788553272475 0.0012842366610001199 0 -0.022688689174212677 0.00023157604053354366 0 -0.022455433248782589 0.0010921800587415146 0 -0.022304044056795799 0.0011684055336906084 0 -0.022199933639596943 0.00065058406266974749 0 -0.022455433248782589 0.0010921800587415146 0 -0.022199933639596943 0.00065058406266974749 0 -0.022171212011005383 0.0004980404797933763 0 -0.020131799966716546 0.0014261447277195349 0 -0.020114498172278797 0.0013530571312746563 0 -0.020061795170261958 0.0013075514404746311 0 -0.0218095602549205 0.0012977179720469875 0 -0.022304044056795799 0.0011684055336906084 0 -0.022207731254888102 0.00066139611375852015 0 -0.02445840026743545 -0.00080626559804748276 0 -0.02433506594811179 -0.00080313615707982308 0 -0.024399807408705822 -0.00084154844361884122 0 -0.022779997651838232 7.7933785479880155e-05 0 -0.022688689174212677 0.00023157604053354366 0 -0.02445840026743545 -0.00080626559804748276 0 -0.02444747444971233 -0.00085980994323688856 0 -0.024399807408705822 -0.00084154844361884122 0 -0.020114498172278797 0.0013530571312746563 0 -0.020105410779202037 0.0013152267497873907 0 -0.020061795170261958 0.0013075514404746311 0 -0.020114498172278797 0.0013530571312746563 0 -0.020105410779202037 0.0013152267497873907 0 -0.02013751412044704 0.0013397831795628949 0 -0.024357397893794056 -0.0005668428345875497 0 -0.02445840026743545 -0.00080626559804748276 0 -0.02433506594811179 -0.00080313615707982308 0 -0.024357397893794056 -0.0005668428345875497 0 -0.02433506594811179 -0.00080313615707982308 0 -0.024217380239309142 -0.00067857893941933756 0 -0.02433506594811179 -0.00080313615707982308 0 -0.024217380239309142 -0.00067857893941933756 0 -0.024223407802961474 -0.00084270642836704727 0 -0.02433506594811179 -0.00080313615707982308 0 -0.024270048083971145 -0.0009743740829875196 0 -0.024223407802961474 -0.00084270642836704727 0 -0.02433506594811179 -0.00080313615707982308 0 -0.024360716182860613 -0.00090024169137635501 0 -0.024399807408705822 -0.00084154844361884122 0 -0.02433506594811179 -0.00080313615707982308 0 -0.024360716182860613 -0.00090024169137635501 0 -0.024270048083971145 -0.0009743740829875196 0 -0.024360716182860613 -0.00090024169137635501 0 -0.024355046770743446 -0.00099463522402943347 0 -0.024270048083971145 -0.0009743740829875196 0 -0.020061795170261958 0.0013075514404746311 0 -0.020121052844579237 0.001271899728634104 0 -0.020082349426304266 0.0011960279259693285 0 -0.020105410779202037 0.0013152267497873907 0 -0.020061795170261958 0.0013075514404746311 0 -0.020121052844579237 0.001271899728634104 0 -0.024360716182860613 -0.00090024169137635501 0 -0.02444747444971233 -0.00085980994323688856 0 -0.024399807408705822 -0.00084154844361884122 0 -0.024360716182860613 -0.00090024169137635501 0 -0.024355046770743446 -0.00099463522402943347 0 -0.02444747444971233 -0.00085980994323688856 0 -0.024120403479023351 -0.00091102725611520827 0 -0.022688689174212677 0.00023157604053354366 0 -0.020121052844579237 0.001271899728634104 0 -0.020174791741135668 0.0012472997021071477 0 -0.020123466445340295 0.0011931703999838127 0 -0.020121052844579237 0.001271899728634104 0 -0.020203141288380889 0.0013187796892976762 0 -0.02013751412044704 0.0013397831795628949 0 -0.020105410779202037 0.0013152267497873907 0 -0.020121052844579237 0.001271899728634104 0 -0.02013751412044704 0.0013397831795628949 0 -0.020121052844579237 0.001271899728634104 0 -0.020203141288380889 0.0013187796892976762 0 -0.020174791741135668 0.0012472997021071477 0 -0.020203141288380889 0.0013187796892976762 0 -0.020287475099421602 0.001381321563759142 0 -0.020253610941686324 0.0011854413340278013 0 -0.020203141288380889 0.0013187796892976762 0 -0.020174791741135668 0.0012472997021071477 0 -0.020253610941686324 0.0011854413340278013 0 -0.020203141288380889 0.0013187796892976762 0 -0.020287475099421602 0.001381321563759142 0 -0.020225410822238457 0.0014063052310177148 0 -0.020271700812777852 0.0014595750053309664 0 -0.020287475099421602 0.001381321563759142 0 -0.020225410822238457 0.0014063052310177148 0 -0.02019852131447946 0.0014429381424344886 0 -0.020225410822238457 0.0014063052310177148 0 -0.020170931380945747 0.001387152150843979 0 -0.020131799966716546 0.0014261447277195349 0 -0.020114498172278797 0.0013530571312746563 0 -0.020136054843858359 0.0013759904575386544 0 -0.020131799966716546 0.0014261447277195349 0 -0.020170931380945747 0.001387152150843979 0 -0.020136054843858359 0.0013759904575386544 0 -0.020170931380945747 0.001387152150843979 0 -0.020136054843858359 0.0013759904575386544 0 -0.02013751412044704 0.0013397831795628949 0 -0.020114498172278797 0.0013530571312746563 0 -0.020136054843858359 0.0013759904575386544 0 -0.02013751412044704 0.0013397831795628949 0 -0.020203141288380889 0.0013187796892976762 0 -0.020225410822238457 0.0014063052310177148 0 -0.020170931380945747 0.001387152150843979 0 -0.020203141288380889 0.0013187796892976762 0 -0.020170931380945747 0.001387152150843979 0 -0.02013751412044704 0.0013397831795628949 0 -0.03979709347054327 0.0020632331054594843 0 -0.039221525948065133 0.0020903949137605765 0 -0.038936945142150389 0.0016214421287344303 0 -0.03979709347054327 0.0020632331054594843 0 -0.039568409436859825 0.0011586124882574309 0 -0.038936945142150389 0.0016214421287344303 0 -0.0396228046958211 0.002464685540026974 0 -0.03979709347054327 0.0020632331054594843 0 -0.039221525948065133 0.0020903949137605765 0 -0.031876138217146063 0.00085500487693854525 0 -0.031706182919684446 0.00013837674589273503 0 -0.023870582404709156 -0.00044311712420718407 0 -0.02394189207589972 -0.00073478142547452453 0 -0.023865835939598689 -0.00083704918589618698 0 -0.023870582404709156 -0.00044311712420718407 0 -0.024089637391850528 -0.00058379260017771099 0 -0.02394189207589972 -0.00073478142547452453 0 -0.024098056230288996 -0.00019488265393940085 0 -0.023870582404709156 -0.00044311712420718407 0 -0.024156809507695585 -0.00038985372840101757 0 -0.023870582404709156 -0.00044311712420718407 0 -0.024089637391850528 -0.00058379260017771099 0 -0.024156809507695585 -0.00038985372840101757 0 -0.024098056230288996 -0.00019488265393940085 0 -0.024280943209184305 -0.00029412500500799972 0 -0.024156809507695585 -0.00038985372840101757 0 -0.024357397893794056 -0.0005668428345875497 0 -0.024280943209184305 -0.00029412500500799972 0 -0.024225940064945939 -0.00049742416005051895 0 -0.024280943209184305 -0.00029412500500799972 0 -0.024156809507695585 -0.00038985372840101757 0 -0.024225940064945939 -0.00049742416005051895 0 -0.024089637391850528 -0.00058379260017771099 0 -0.024156809507695585 -0.00038985372840101757 0 -0.024225940064945939 -0.00049742416005051895 0 -0.024089637391850528 -0.00058379260017771099 0 -0.024225940064945939 -0.00049742416005051895 0 -0.024217380239309142 -0.00067857893941933756 0 -0.024357397893794056 -0.0005668428345875497 0 -0.024225940064945939 -0.00049742416005051895 0 -0.024217380239309142 -0.00067857893941933756 0 -0.024089637391850528 -0.00058379260017771099 0 -0.024217380239309142 -0.00067857893941933756 0 -0.024059515256074412 -0.00078827779621150102 0 -0.024217380239309142 -0.00067857893941933756 0 -0.024223407802961474 -0.00084270642836704727 0 -0.024059515256074412 -0.00078827779621150102 0 -0.024270048083971145 -0.0009743740829875196 0 -0.024223407802961474 -0.00084270642836704727 0 -0.024159085697446975 -0.0010509025215661805 0 -0.024223407802961474 -0.00084270642836704727 0 -0.024059515256074412 -0.00078827779621150102 0 -0.024159085697446975 -0.0010509025215661805 0 -0.023825043244530782 -0.00094672943061289202 0 -0.024059515256074412 -0.00078827779621150102 0 -0.024159085697446975 -0.0010509025215661805 0 -0.023636126139016167 -0.00089805519757494103 0 -0.023933481861163407 -0.0010650854568728042 0 -0.024089637391850528 -0.00058379260017771099 0 -0.02394189207589972 -0.00073478142547452453 0 -0.024059515256074412 -0.00078827779621150102 0 -0.023825043244530782 -0.00094672943061289202 0 -0.02394189207589972 -0.00073478142547452453 0 -0.024059515256074412 -0.00078827779621150102 0 -0.023825043244530782 -0.00094672943061289202 0 -0.02394189207589972 -0.00073478142547452453 0 -0.023865835939598689 -0.00083704918589618698 0 -0.023825043244530782 -0.00094672943061289202 0 -0.023865835939598689 -0.00083704918589618698 0 -0.024074263876253513 -0.00079592771966662641 0 -0.039568409436859825 0.0011586124882574309 0 -0.03941052158515241 -0.00048593464711870068 0 -0.038365926563969976 0.00081811915759160499 0 -0.031706182919684446 0.00013837674589273503 0 -0.0318914908980562 -0.00058324571196058373 0 -0.039568409436859825 0.0011586124882574309 0 -0.038365926563969976 0.00081811915759160499 0 -0.038936945142150389 0.0016214421287344303 0 -0.024272347871960916 -0.0002426309892713348 0 -0.024074263876253513 -0.00079592771966662641 0 -0.02393187738912364 -0.00048614914475671612 0 -0.039062938688738037 -0.0030624198643951412 0 -0.03941052158515241 -0.00048593464711870068 0 -0.038329380164777591 -0.001681916827458966 0 -0.030464294299117768 -0.0018225341927811396 0 -0.0318914908980562 -0.00058324571196058373 0 -0.023825043244530782 -0.00094672943061289202 0 -0.024074263876253513 -0.00079592771966662641 0 -0.023577063922955922 -0.00064168448084362425 0 -0.024074263876253513 -0.00079592771966662641 0 -0.02393187738912364 -0.00048614914475671612 0 -0.023577063922955922 -0.00064168448084362425 0 -0.024272347871960916 -0.0002426309892713348 0 -0.02393187738912364 -0.00048614914475671612 0 -0.023730038025386046 -0.00021275064703160133 0 -0.02393187738912364 -0.00048614914475671612 0 -0.023730038025386046 -0.00021275064703160133 0 -0.023577063922955922 -0.00064168448084362425 0 -0.030464294299117768 -0.0018225341927811396 0 -0.021709420784048934 -0.00046606672724889013 0 -0.023730038025386046 -0.00021275064703160133 0 -0.023577063922955922 -0.00064168448084362425 0 -0.023074016321185879 -0.00021010779988036557 0 -0.021709420784048934 -0.00046606672724889013 0 -0.022925346283810055 -0.00049523200758940747 0 -0.023825043244530782 -0.00094672943061289202 0 -0.023577063922955922 -0.00064168448084362425 0 -0.023002905299226453 -0.00092350094024390124 0 -0.023577063922955922 -0.00064168448084362425 0 -0.023002905299226453 -0.00092350094024390124 0 -0.022727830095255235 -0.00058164074628044003 0 -0.022727830095255235 -0.00058164074628044003 0 -0.023074016321185879 -0.00021010779988036557 0 -0.022222661345500615 -0.00054186458848238519 0 -0.023577063922955922 -0.00064168448084362425 0 -0.022727830095255235 -0.00058164074628044003 0 -0.023074016321185879 -0.00021010779988036557 0 -0.022925346283810055 -0.00049523200758940747 0 -0.022159912163023703 -0.00051941512654534664 0 -0.022122352508458443 -0.00071855249444900703 0 -0.02206973200293412 -0.00059578929519097182 0 -0.022222661345500615 -0.00054186458848238519 0 -0.022122352508458443 -0.00071855249444900703 0 -0.02206973200293412 -0.00059578929519097182 0 -0.022302556580281248 -0.00067796600831848122 0 -0.02196795986094633 -0.00043951548521613861 0 -0.022206419527793956 -0.00046990650289529748 0 -0.021954267218767452 -0.00027715641800821238 0 -0.02206973200293412 -0.00059578929519097182 0 -0.02196795986094633 -0.00043951548521613861 0 -0.022206419527793956 -0.00046990650289529748 0 -0.02206973200293412 -0.00059578929519097182 0 -0.02196795986094633 -0.00043951548521613861 0 -0.022069180681001454 -0.00052526088439724429 0 -0.022206419527793956 -0.00046990650289529748 0 -0.022537583798631747 -0.00045666935688261552 0 -0.022390505678292497 -0.00033002859911720892 0 -0.02206973200293412 -0.00059578929519097182 0 -0.022206419527793956 -0.00046990650289529748 0 -0.022302556580281248 -0.00067796600831848122 0 -0.022206419527793956 -0.00046990650289529748 0 -0.022488183244898746 -0.00060798325735523444 0 -0.022537583798631747 -0.00045666935688261552 0 -0.022206419527793956 -0.00046990650289529748 0 -0.022302556580281248 -0.00067796600831848122 0 -0.022488183244898746 -0.00060798325735523444 0 -0.022540584266903502 -0.00093319878397209936 0 -0.022122352508458443 -0.00071855249444900703 0 -0.022302556580281248 -0.00067796600831848122 0 -0.022302556580281248 -0.00067796600831848122 0 -0.022524025586994272 -0.00077366276386201405 0 -0.022488183244898746 -0.00060798325735523444 0 -0.022540584266903502 -0.00093319878397209936 0 -0.022302556580281248 -0.00067796600831848122 0 -0.022524025586994272 -0.00077366276386201405 0 -0.022820044917134033 -0.0009007031760924814 0 -0.022540584266903502 -0.00093319878397209936 0 -0.022781521045420347 -0.00087490524908979907 0 -0.022540584266903502 -0.00093319878397209936 0 -0.022781521045420347 -0.00087490524908979907 0 -0.022524025586994272 -0.00077366276386201405 0 -0.022781521045420347 -0.00087490524908979907 0 -0.022524025586994272 -0.00077366276386201405 0 -0.022488183244898746 -0.00060798325735523444 0 -0.022781521045420347 -0.00087490524908979907 0 -0.022488183244898746 -0.00060798325735523444 0 -0.022747700226644001 -0.00050135631588497486 0 -0.022537583798631747 -0.00045666935688261552 0 -0.022747700226644001 -0.00050135631588497486 0 -0.022597163422110024 -0.00032635158110717953 0 -0.022488183244898746 -0.00060798325735523444 0 -0.022537583798631747 -0.00045666935688261552 0 -0.022747700226644001 -0.00050135631588497486 0 -0.033798569803660451 -0.0046392461245559156 0 -0.03056199325214615 -0.0031210583402959988 0 -0.0230643664829615 -0.0015987777483845841 0 -0.022467598311767395 -0.0020752665352313853 0 -0.022629914074510708 -0.0011556020042076361 0 -0.038141767007571638 -0.0067120479699126585 0 -0.038411213399200415 -0.0048338622763512617 0 -0.037614564852897263 -0.0050982663122746043 0 -0.038631619286615959 -0.0031796724203985945 0 -0.038411213399200415 -0.0048338622763512617 0 -0.037552434771219917 -0.0041262331880989279 0 -0.022820044917134033 -0.0009007031760924814 0 -0.022781521045420347 -0.00087490524908979907 0 -0.022629914074510708 -0.0011556020042076361 0 -0.030464294299117768 -0.0018225341927811396 0 -0.03056199325214615 -0.0031210583402959988 0 -0.022789790819680217 -0.0011018749199139322 0 -0.022990909371269089 -0.00059631993362849385 0 -0.022781521045420347 -0.00087490524908979907 0 -0.0230643664829615 -0.0015987777483845841 0 -0.022629914074510708 -0.0011556020042076361 0 -0.020133785039198802 0.0010091228924531089 0 -0.020253610941686324 0.0011854413340278013 0 -0.020097533177944767 0.0011029663816795473 0 -0.016528006580923203 -0.0024313530187665263 0 -0.016255752938361519 -0.0013478439541543112 0 -0.016016632114686648 -0.0026033346287856508 0 -0.018613507580694751 -0.0016949486657503118 0 -0.018154300714031017 8.2457575083369665e-05 0 -0.015432627267064937 -0.0022330650430224491 0 -0.016255752938361519 -0.0013478439541543112 0 -0.016016632114686648 -0.0026033346287856508 0 -0.020174791741135668 0.0012472997021071477 0 -0.020253610941686324 0.0011854413340278013 0 -0.020123466445340295 0.0011931703999838127 0 -0.020253610941686324 0.0011854413340278013 0 -0.020123466445340295 0.0011931703999838127 0 -0.020097533177944767 0.0011029663816795473 0 -0.022688689174212677 0.00023157604053354366 0 -0.021604577137602981 -0.00077657885809741191 0 -0.020061795170261958 0.0013075514404746311 0 -0.020082349426304266 0.0011960279259693285 0 -0.020009090850132697 0.0011003695605014809 0 -0.024355046770743446 -0.00099463522402943347 0 -0.024404421963554076 -0.00088058269367417635 0 -0.024349192937394164 -0.001133744642465356 0 -0.020121052844579237 0.001271899728634104 0 -0.020123466445340295 0.0011931703999838127 0 -0.020082349426304266 0.0011960279259693285 0 -0.020082349426304266 0.0011960279259693285 0 -0.020009090850132697 0.0011003695605014809 0 -0.020097533177944767 0.0011029663816795473 0 -0.020123466445340295 0.0011931703999838127 0 -0.020082349426304266 0.0011960279259693285 0 -0.020097533177944767 0.0011029663816795473 0 -0.024355046770743446 -0.00099463522402943347 0 -0.024270048083971145 -0.0009743740829875196 0 -0.024349192937394164 -0.001133744642465356 0 -0.023002905299226453 -0.00092350094024390124 0 -0.022727830095255235 -0.00058164074628044003 0 -0.022333915975556701 -0.0005911608483014603 0 -0.024270048083971145 -0.0009743740829875196 0 -0.024159085697446975 -0.0010509025215661805 0 -0.024349192937394164 -0.001133744642465356 0 -0.023933481861163407 -0.0010650854568728042 0 -0.021604577137602981 -0.00077657885809741191 0 -0.022727830095255235 -0.00058164074628044003 0 -0.022222661345500615 -0.00054186458848238519 0 -0.022333915975556701 -0.0005911608483014603 0 -0.021604577137602981 -0.00077657885809741191 0 -0.021042209231924475 -0.0017445053410090731 0 -0.019952543924883107 -0.0034386555748116047 0 -0.019709758218240173 -0.0028766192606889999 0 -0.020187284662483599 -0.0024145564020298426 0 -0.022222661345500615 -0.00054186458848238519 0 -0.022333915975556701 -0.0005911608483014603 0 -0.022069180681001454 -0.00052526088439724429 0 -0.020133785039198802 0.0010091228924531089 0 -0.020009090850132697 0.0011003695605014809 0 -0.020097533177944767 0.0011029663816795473 0 -0.019151710176198784 -0.0029904991276730672 0 -0.019952543924883107 -0.0034386555748116047 0 -0.019709758218240173 -0.0028766192606889999 0 -0.018613507580694751 -0.0016949486657503118 0 -0.021604577137602981 -0.00077657885809741191 0 -0.019151710176198784 -0.0029904991276730672 0 -0.019372304650492569 -0.0027825050632726746 0 -0.019709758218240173 -0.0028766192606889999 0 -0.019372304650492569 -0.0027825050632726746 0 -0.019709758218240173 -0.0028766192606889999 0 -0.019698212377397599 -0.0025101568934414653 0 -0.019698212377397599 -0.0025101568934414653 0 -0.020187284662483599 -0.0024145564020298426 0 -0.019776448129837816 -0.0021421214982072123 0 -0.019709758218240173 -0.0028766192606889999 0 -0.019698212377397599 -0.0025101568934414653 0 -0.020187284662483599 -0.0024145564020298426 0 -0.019372304650492569 -0.0027825050632726746 0 -0.019698212377397599 -0.0025101568934414653 0 -0.019359874689846363 -0.0024960768432653337 0 -0.019698212377397599 -0.0025101568934414653 0 -0.019359874689846363 -0.0024960768432653337 0 -0.019440747090028142 -0.0021749542069130351 0 -0.02206973200293412 -0.00059578929519097182 0 -0.022222661345500615 -0.00054186458848238519 0 -0.022069180681001454 -0.00052526088439724429 0 -0.021042209231924475 -0.0017445053410090731 0 -0.02115231745162964 -0.00064757586253457464 0 -0.02196795986094633 -0.00043951548521613861 0 -0.022069180681001454 -0.00052526088439724429 0 -0.021686698868833579 -0.00025103845708160648 0 -0.020187284662483599 -0.0024145564020298426 0 -0.020038993909644334 -0.0018223959699058751 0 -0.020572073492593834 -0.0013097922329834727 0 -0.020187284662483599 -0.0024145564020298426 0 -0.020038993909644334 -0.0018223959699058751 0 -0.019776448129837816 -0.0021421214982072123 0 -0.019698212377397599 -0.0025101568934414653 0 -0.019440747090028142 -0.0021749542069130351 0 -0.019776448129837816 -0.0021421214982072123 0 -0.020038993909644334 -0.0018223959699058751 0 -0.019776448129837816 -0.0021421214982072123 0 -0.01965798264630483 -0.0017703444960914447 0 -0.019440747090028142 -0.0021749542069130351 0 -0.01965798264630483 -0.0017703444960914447 0 -0.019189139728927024 -0.0020256873943263385 0 -0.019440747090028142 -0.0021749542069130351 0 -0.019776448129837816 -0.0021421214982072123 0 -0.01965798264630483 -0.0017703444960914447 0 -0.01965798264630483 -0.0017703444960914447 0 -0.019189139728927024 -0.0020256873943263385 0 -0.019090235701234561 -0.0016323178698495356 0 -0.019189139728927024 -0.0020256873943263385 0 -0.018753810479874365 -0.0021488638956315004 0 -0.019090235701234561 -0.0016323178698495356 0 -0.019189139728927024 -0.0020256873943263385 0 -0.018753810479874365 -0.0021488638956315004 0 -0.018993619579486042 -0.0024034827148747295 0 -0.018753810479874365 -0.0021488638956315004 0 -0.018993619579486042 -0.0024034827148747295 0 -0.018430717074198581 -0.002369611219586139 0 -0.019440747090028142 -0.0021749542069130351 0 -0.019189139728927024 -0.0020256873943263385 0 -0.018993619579486042 -0.0024034827148747295 0 -0.019359874689846363 -0.0024960768432653337 0 -0.018993619579486042 -0.0024034827148747295 0 -0.019083199837043707 -0.0026853798949630935 0 -0.019359874689846363 -0.0024960768432653337 0 -0.019440747090028142 -0.0021749542069130351 0 -0.018993619579486042 -0.0024034827148747295 0 -0.018993619579486042 -0.0024034827148747295 0 -0.019083199837043707 -0.0026853798949630935 0 -0.018537322678142665 -0.0027280180676264305 0 -0.018613507580694751 -0.0016949486657503118 0 -0.017323473849472436 -0.0026702468862696005 0 -0.019105559956014713 -0.0030458788522192896 0 -0.019083199837043707 -0.0026853798949630935 0 -0.018537322678142665 -0.0027280180676264305 0 -0.019105559956014713 -0.0030458788522192896 0 -0.019372304650492569 -0.0027825050632726746 0 -0.019083199837043707 -0.0026853798949630935 0 -0.018613507580694751 -0.0016949486657503118 0 -0.018838128423036806 -0.0024011783332242537 0 -0.019372304650492569 -0.0027825050632726746 0 -0.019359874689846363 -0.0024960768432653337 0 -0.019083199837043707 -0.0026853798949630935 0 -0.016528006580923203 -0.0024313530187665263 0 -0.016614778161982473 -0.0029714665660086903 0 -0.016016632114686648 -0.0026033346287856508 0 -0.018993619579486042 -0.0024034827148747295 0 -0.018537322678142665 -0.0027280180676264305 0 -0.018430717074198581 -0.002369611219586139 0 -0.016033474725118919 -0.002945390132054439 0 -0.017323473849472436 -0.0026702468862696005 0 -0.017965484467880807 -0.0024047313412239482 0 -0.018537322678142665 -0.0027280180676264305 0 -0.018430717074198581 -0.002369611219586139 0 -0.01023258230085412 0.00030463069356529175 0 -0.010374095469681878 0.00017279371473716436 0 -0.010486084302165747 0.00039011877424169285 0 -0.017965484467880807 -0.0024047313412239482 0 -0.018430717074198581 -0.002369611219586139 0 -0.018082932816271137 -0.0022038858654424291 0 -0.018753810479874365 -0.0021488638956315004 0 -0.018430717074198581 -0.002369611219586139 0 -0.018082932816271137 -0.0022038858654424291 0 -0.018753810479874365 -0.0021488638956315004 0 -0.018082932816271137 -0.0022038858654424291 0 -0.019090235701234561 -0.0016323178698495356 0 -0.016301005170968871 -0.0032735977886752701 0 -0.017105408267023531 -0.0019113359952323643 0 -0.018195402778411175 -0.0021707215379040113 0 -0.015641256032774945 -0.002287353524061001 0 -0.018963369474420008 -0.0018920653128924666 0 -0.015641256032774945 -0.002287353524061001 0 -0.013589190570816726 -0.00084461484315203586 0 -0.010486084302165747 0.00039011877424169285 0 -0.010400432547280448 0.00061995195900109478 0 -0.010252671616831773 0.00049890294364866861 0 -0.010486084302165747 0.00039011877424169285 0 -0.010400432547280448 0.00061995195900109478 0 -0.010704435091147402 0.00068603985257963606 0 -0.010003422765198481 0.00081172183663472477 0 -0.010119595034683421 0.00076161451774260636 0 -0.010400432547280448 0.00061995195900109478 0 -0.010512853953020195 0.00091238814877485841 0 -0.010082476222688073 0.00072290889875617124 0 -0.010400432547280448 0.00061995195900109478 0 -0.010704435091147402 0.00068603985257963606 0 -0.010512853953020195 0.00091238814877485841 0 -0.017913596203201647 -0.00056748206619064987 0 -0.018465467549976633 -0.0012549362262424212 0 -0.019036101682403789 -0.00059725843105419075 0 -0.017105408267023531 -0.0019113359952323643 0 -0.018465467549976633 -0.0012549362262424212 0 -0.018195402778411175 -0.0021707215379040113 0 -0.017105408267023531 -0.0019113359952323643 0 -0.017913596203201647 -0.00056748206619064987 0 -0.018465467549976633 -0.0012549362262424212 0 -0.013589190570816726 -0.00084461484315203586 0 -0.014682870952427885 0.00033737867821741208 0 -0.018963369474420008 -0.0018920653128924666 0 -0.019864542574248131 -0.00108569697509787 0 -0.018465467549976633 -0.0012549362262424212 0 -0.018195402778411175 -0.0021707215379040113 0 -0.020050382029051295 -0.0010167311183915395 0 -0.01965798264630483 -0.0017703444960914447 0 -0.020138636662938043 -0.0014412245462979735 0 -0.020050382029051295 -0.0010167311183915395 0 -0.01965798264630483 -0.0017703444960914447 0 -0.019090235701234561 -0.0016323178698495356 0 -0.020050382029051295 -0.0010167311183915395 0 -0.020038993909644334 -0.0018223959699058751 0 -0.01965798264630483 -0.0017703444960914447 0 -0.020138636662938043 -0.0014412245462979735 0 -0.020038993909644334 -0.0018223959699058751 0 -0.020138636662938043 -0.0014412245462979735 0 -0.020572073492593834 -0.0013097922329834727 0 -0.020138636662938043 -0.0014412245462979735 0 -0.020572073492593834 -0.0013097922329834727 0 -0.020050382029051295 -0.0010167311183915395 0 -0.020572073492593834 -0.0013097922329834727 0 -0.020050382029051295 -0.0010167311183915395 0 -0.020313702666727391 -0.00024671063275626722 0 -0.020572073492593834 -0.0013097922329834727 0 -0.020313702666727391 -0.00024671063275626722 0 -0.021212824564305531 0.00059512220567989273 0 -0.02115231745162964 -0.00064757586253457464 0 -0.021229730406797293 0.00052855449009793748 0 -0.020313702666727391 -0.00024671063275626722 0 -0.019711415974604744 -0.00036925536469380974 0 -0.019812041409178988 0.00028018705677146941 0 -0.020050382029051295 -0.0010167311183915395 0 -0.020313702666727391 -0.00024671063275626722 0 -0.019711415974604744 -0.00036925536469380974 0 -0.018465467549976633 -0.0012549362262424212 0 -0.020050382029051295 -0.0010167311183915395 0 -0.019036101682403789 -0.00059725843105419075 0 -0.020050382029051295 -0.0010167311183915395 0 -0.019036101682403789 -0.00059725843105419075 0 -0.019711415974604744 -0.00036925536469380974 0 -0.019036101682403789 -0.00059725843105419075 0 -0.019711415974604744 -0.00036925536469380974 0 -0.019067125990222474 4.1496578460033031e-05 0 -0.017913596203201647 -0.00056748206619064987 0 -0.019036101682403789 -0.00059725843105419075 0 -0.019067125990222474 4.1496578460033031e-05 0 -0.010945694406583743 0.00069900193704995161 0 -0.013318602838415379 -0.00087308431194528329 0 -0.00487795987424554 -0.0031596801259872755 0 -0.0046970402555446831 -0.0032034451171198985 0 -0.005134651487622488 -0.0031414110357211155 0 -0.019812041409178988 0.00028018705677146941 0 -0.018682927069264017 0.00071564593825109877 0 -0.020326549504925656 0.0011811973170361373 0 -0.019067125990222474 4.1496578460033031e-05 0 -0.019812041409178988 0.00028018705677146941 0 -0.018682927069264017 0.00071564593825109877 0 -0.019711415974604744 -0.00036925536469380974 0 -0.019067125990222474 4.1496578460033031e-05 0 -0.019812041409178988 0.00028018705677146941 0 -0.00487795987424554 -0.0031596801259872755 0 -0.0046970402555446831 -0.0032034451171198985 0 -0.0047934922696440691 -0.0030517926140816269 0 -0.010945694406583743 0.00069900193704995161 0 -0.0011826994624201596 -0.0018536419290668487 0 -0.020313702666727391 -0.00024671063275626722 0 -0.020480209440136978 0.00043527517211825866 0 -0.021212824564305531 0.00059512220567989273 0 -0.020313702666727391 -0.00024671063275626722 0 -0.019812041409178988 0.00028018705677146941 0 -0.020480209440136978 0.00043527517211825866 0 -0.019812041409178988 0.00028018705677146941 0 -0.020480209440136978 0.00043527517211825866 0 -0.020326549504925656 0.0011811973170361373 0 -0.020480209440136978 0.00043527517211825866 0 -0.020326549504925656 0.0011811973170361373 0 -0.021212824564305531 0.00059512220567989273 0 -0.005134651487622488 -0.0031414110357211155 0 -0.0051503828449265135 -0.0028243215817717331 0 -0.0058390333129610481 -0.0029890070804767153 0 -0.005134651487622488 -0.0031414110357211155 0 -0.004960041949243211 -0.0029564255095021071 0 -0.0051503828449265135 -0.0028243215817717331 0 -0.0011826994624201596 -0.0018536419290668487 0 8.0841992950000306e-05 -0.0010454397125350381 0 -0.004960041949243211 -0.0029564255095021071 0 -0.0047669673725994101 -0.0030901693562942418 0 -0.004868842037471244 -0.0024516409844656251 0 -0.0032327923267558493 -0.0033933795287497712 0 -0.0011826994624201596 -0.0018536419290668487 0 -0.00487795987424554 -0.0031596801259872755 0 -0.005134651487622488 -0.0031414110357211155 0 -0.004960041949243211 -0.0029564255095021071 0 -0.00487795987424554 -0.0031596801259872755 0 -0.004960041949243211 -0.0029564255095021071 0 -0.0047669673725994101 -0.0030901693562942418 0 -0.0011826994624201596 -0.0018536419290668487 0 -0.0016060331476200963 -0.00018234058969308366 0 -0.0095692957813815864 0.00063082877198266296 0 -0.0096849613444229717 0.00060987118343281907 0 -0.0096004742183095869 0.00044910174963673526 0 -0.0094142355121803138 0.00061962158884330419 0 -0.0095692957813815864 0.00063082877198266296 0 -0.0096004742183095869 0.00044910174963673526 0 -0.0094906094596014755 0.00073021243995351366 0 -0.0094142355121803138 0.00061962158884330419 0 -0.0095692957813815864 0.00063082877198266296 0 -0.0097822441122154824 0.00057486593094635584 0 -0.0096849613444229717 0.00060987118343281907 0 -0.0096004742183095869 0.00044910174963673526 0 -0.0097822441122154824 0.00057486593094635584 0 -0.0098220990195335405 0.00066027184155401911 0 -0.0098935855187781106 0.00059622519324977591 0 -0.0097822441122154824 0.00057486593094635584 0 -0.0096849613444229717 0.00060987118343281907 0 -0.0098220990195335405 0.00066027184155401911 0 -0.0096849613444229717 0.00060987118343281907 0 -0.0098220990195335405 0.00066027184155401911 0 -0.0097581581661209133 0.00077915156547586693 0 -0.0098220990195335405 0.00066027184155401911 0 -0.0097581581661209133 0.00077915156547586693 0 -0.0099831455778840016 0.00067271174213233344 0 -0.017913596203201647 -0.00056748206619064987 0 -0.019067125990222474 4.1496578460033031e-05 0 -0.018682927069264017 0.00071564593825109877 0 -0.010704435091147402 0.00068603985257963606 0 -0.010928636733804791 0.0010562610988404627 0 -0.010512853953020195 0.00091238814877485841 0 -0.0094906094596014755 0.00073021243995351366 0 -0.0095692957813815864 0.00063082877198266296 0 -0.0097581581661209133 0.00077915156547586693 0 -0.010945694406583743 0.00069900193704995161 0 -0.010003422765198481 0.00081172183663472477 0 -0.014682870952427885 0.00033737867821741208 0 -0.010945694406583743 0.00069900193704995161 0 -0.0095692957813815864 0.00063082877198266296 0 -0.0096849613444229717 0.00060987118343281907 0 -0.0097581581661209133 0.00077915156547586693 0 -0.035614666697363198 -0.0068788714975897844 0 -0.035026973081436048 -0.0070235305915575001 0 -0.034940343912015052 -0.0056691106195557667 0 -0.021034830722322768 -0.0039282455332498283 0 -0.022602522991893442 -0.0068076623365341234 0 -0.035785982467959353 -0.0051974516740495424 0 -0.035614666697363198 -0.0068788714975897844 0 -0.034940343912015052 -0.0056691106195557667 0 -0.0094922481261388338 -0.0072163715168592256 0 -0.008340384989088883 -0.0060351977345024666 0 -0.0096716675979836887 -0.0056133223138076773 0 -0.033798569803660451 -0.0046392461245559156 0 -0.03525613898582422 -0.0059666242888097186 0 -0.0230643664829615 -0.0015987777483845841 0 -0.022467598311767395 -0.0020752665352313853 0 -0.023020059105199928 -0.0027591636225686249 0 -0.022747700226644001 -0.00050135631588497486 0 -0.022777136398840703 -0.00020284950322887628 0 -0.022597163422110024 -0.00032635158110717953 0 -0.022990909371269089 -0.00059631993362849385 0 -0.021034830722322768 -0.0039282455332498283 0 -0.035010530552393178 -0.0042745498177919521 0 -0.035785982467959353 -0.0051974516740495424 0 -0.034940343912015052 -0.0056691106195557667 0 -0.033798569803660451 -0.0046392461245559156 0 -0.021034830722322768 -0.0039282455332498283 0 -0.022777136398840703 -0.00020284950322887628 0 -0.022597163422110024 -0.00032635158110717953 0 -0.022405440868599913 -0.00013498682071925761 0 -0.022537583798631747 -0.00045666935688261552 0 -0.022597163422110024 -0.00032635158110717953 0 -0.022390505678292497 -0.00033002859911720892 0 -0.022597163422110024 -0.00032635158110717953 0 -0.022390505678292497 -0.00033002859911720892 0 -0.022405440868599913 -0.00013498682071925761 0 -0.022405440868599913 -0.00013498682071925761 0 -0.022510310523606154 0.00014130501153001066 0 -0.022182493612091451 0.00016664316779026786 0 -0.022777136398840703 -0.00020284950322887628 0 -0.022405440868599913 -0.00013498682071925761 0 -0.022510310523606154 0.00014130501153001066 0 -0.021034830722322768 -0.0039282455332498283 0 -0.014836347180351928 -0.0025468771954566807 0 -0.022182493612091451 0.00016664316779026786 0 -0.022039877414795184 -7.7223371067772472e-05 0 -0.021827887897105023 0.00027650174649762995 0 -0.022405440868599913 -0.00013498682071925761 0 -0.022182493612091451 0.00016664316779026786 0 -0.022039877414795184 -7.7223371067772472e-05 0 -0.022405440868599913 -0.00013498682071925761 0 -0.022039877414795184 -7.7223371067772472e-05 0 -0.022180382228845538 -0.00025714608896204398 0 -0.022390505678292497 -0.00033002859911720892 0 -0.022405440868599913 -0.00013498682071925761 0 -0.022180382228845538 -0.00025714608896204398 0 -0.022206419527793956 -0.00046990650289529748 0 -0.022390505678292497 -0.00033002859911720892 0 -0.022180382228845538 -0.00025714608896204398 0 -0.022206419527793956 -0.00046990650289529748 0 -0.022180382228845538 -0.00025714608896204398 0 -0.021954267218767452 -0.00027715641800821238 0 -0.022039877414795184 -7.7223371067772472e-05 0 -0.022180382228845538 -0.00025714608896204398 0 -0.021954267218767452 -0.00027715641800821238 0 -0.022039877414795184 -7.7223371067772472e-05 0 -0.021954267218767452 -0.00027715641800821238 0 -0.021763508272742458 1.5607803727703306e-05 0 -0.02196795986094633 -0.00043951548521613861 0 -0.021686698868833579 -0.00025103845708160648 0 -0.021954267218767452 -0.00027715641800821238 0 -0.021686698868833579 -0.00025103845708160648 0 -0.021954267218767452 -0.00027715641800821238 0 -0.021763508272742458 1.5607803727703306e-05 0 -0.021686698868833579 -0.00025103845708160648 0 -0.021763508272742458 1.5607803727703306e-05 0 -0.021212824564305531 0.00059512220567989273 0 -0.021763508272742458 1.5607803727703306e-05 0 -0.021827887897105023 0.00027650174649762995 0 -0.021212824564305531 0.00059512220567989273 0 -0.022039877414795184 -7.7223371067772472e-05 0 -0.021763508272742458 1.5607803727703306e-05 0 -0.021827887897105023 0.00027650174649762995 0 -0.021212824564305531 0.00059512220567989273 0 -0.021608047244980083 0.0014433653812742737 0 -0.022204610059713231 0.00065757616035468688 0 -0.021827887897105023 0.00027650174649762995 0 -0.021212824564305531 0.00059512220567989273 0 -0.022204610059713231 0.00065757616035468688 0 -0.020326549504925656 0.0011811973170361373 0 -0.021212824564305531 0.00059512220567989273 0 -0.021608047244980083 0.0014433653812742737 0 -0.0051503828449265135 -0.0028243215817717331 0 -0.0058390333129610481 -0.0029890070804767153 0 -0.0055212788670050425 -0.0026757124478139797 0 -0.013318602838415379 -0.00087308431194528329 0 -0.011266526690874202 -0.0026457450848222674 0 -0.0061647608163914007 -0.0035917309601955255 0 -0.0067659780748850545 -0.0034060700815304887 0 -0.006231122010445238 -0.0029799454281584201 0 -0.0067659780748850545 -0.0034060700815304887 0 -0.0074463954277060648 -0.0040007920539043233 0 -0.0075534575477679 -0.0028213703320180781 0 -0.011266526690874202 -0.0026457450848222674 0 -0.014976691386695282 -0.0021434533918600488 0 -0.0061642500927427471 -0.0036294335386145571 0 -0.0067659780748850545 -0.0034060700815304887 0 -0.0074463954277060648 -0.0040007920539043233 0 -0.0061642500927427471 -0.0036294335386145571 0 -0.0074463954277060648 -0.0040007920539043233 0 -0.0072224159810246394 -0.0048410941171743611 0 -0.011266526690874202 -0.0026457450848222674 0 -0.0067151550691149078 -0.0038543387083845972 0 -0.022182493612091451 0.00016664316779026786 0 -0.021827887897105023 0.00027650174649762995 0 -0.022204610059713231 0.00065757616035468688 0 -0.022510310523606154 0.00014130501153001066 0 -0.022182493612091451 0.00016664316779026786 0 -0.022204610059713231 0.00065757616035468688 0 -0.008340384989088883 -0.0060351977345024666 0 -0.0085384807386044894 -0.0047683102731368348 0 -0.0096716675979836887 -0.0056133223138076773 0 -0.0074463954277060648 -0.0040007920539043233 0 -0.0072224159810246394 -0.0048410941171743611 0 -0.0085384807386044894 -0.0047683102731368348 0 -0.008340384989088883 -0.0060351977345024666 0 -0.0072224159810246394 -0.0048410941171743611 0 -0.0085384807386044894 -0.0047683102731368348 0 -0.014836347180351928 -0.0025468771954566807 0 -0.014976691386695282 -0.0021434533918600488 0 -0.0074463954277060648 -0.0040007920539043233 0 -0.0084390193957347912 -0.0037494760473016668 0 -0.0075534575477679 -0.0028213703320180781 0 -0.0074463954277060648 -0.0040007920539043233 0 -0.0085384807386044894 -0.0047683102731368348 0 -0.0084390193957347912 -0.0037494760473016668 0 -0.0084390193957347912 -0.0037494760473016668 0 -0.0098311143277087908 -0.0040440416765494154 0 -0.0089591505899180093 -0.0029321546266651544 0 -0.0085384807386044894 -0.0047683102731368348 0 -0.0084390193957347912 -0.0037494760473016668 0 -0.0098311143277087908 -0.0040440416765494154 0 -0.0085384807386044894 -0.0047683102731368348 0 -0.0098311143277087908 -0.0040440416765494154 0 -0.0096716675979836887 -0.0056133223138076773 0 -0.023816121715418252 -0.0058080108889644304 0 -0.022602522991893442 -0.0068076623365341234 0 -0.035439226636332831 -0.0087880988728488412 0 -0.035614666697363198 -0.0068788714975897844 0 -0.034784894371106288 -0.0079097921794718442 0 0.01493776374152584 -0.010275977818719204 0 0.016862580444461966 -0.012194690041380197 0 0.012815434894545117 -0.013638589174599699 0 0.01493776374152584 -0.010275977818719204 0 0.012815434894545117 -0.013638589174599699 0 0.012217977588159767 -0.010033946231658535 0 -0.023816121715418252 -0.0058080108889644304 0 -0.0049567967269475068 -0.0093559269244035889 0 -0.0098311143277087908 -0.0040440416765494154 0 -0.0089591505899180093 -0.0029321546266651544 0 -0.010004098746126407 -0.0025030388381760268 0 -0.0089591505899180093 -0.0029321546266651544 0 -0.0083199718029686696 -0.0019259686394328438 0 -0.010004098746126407 -0.0025030388381760268 0 0.0056228740046908319 -0.0066543581415759558 0 -0.0049567967269475068 -0.0093559269244035889 0 -0.0089591505899180093 -0.0029321546266651544 0 -0.0075534575477679 -0.0028213703320180781 0 -0.0083199718029686696 -0.0019259686394328438 0 -0.0084390193957347912 -0.0037494760473016668 0 -0.0089591505899180093 -0.0029321546266651544 0 -0.0075534575477679 -0.0028213703320180781 0 0.016862580444461966 -0.012194690041380197 0 0.020757747572567452 -0.010603813826114437 0 0.017596711822822724 -0.0083285419473452648 0 0.01493776374152584 -0.010275977818719204 0 0.016862580444461966 -0.012194690041380197 0 0.017596711822822724 -0.0083285419473452648 0 0.0056228740046908319 -0.0066543581415759558 0 0.0063338550701552499 -0.0063341925608451921 0 -0.0075534575477679 -0.0028213703320180781 0 -0.0083199718029686696 -0.0019259686394328438 0 -0.0066502929496925541 -0.0014625105568910545 0 -0.0075534575477679 -0.0028213703320180781 0 -0.0066502929496925541 -0.0014625105568910545 0 -0.006385130440518999 -0.002390084340141878 0 -0.0067659780748850545 -0.0034060700815304887 0 -0.0075534575477679 -0.0028213703320180781 0 -0.006385130440518999 -0.002390084340141878 0 -0.0067659780748850545 -0.0034060700815304887 0 -0.006385130440518999 -0.002390084340141878 0 -0.006231122010445238 -0.0029799454281584201 0 -0.006385130440518999 -0.002390084340141878 0 -0.0055212788670050425 -0.0026757124478139797 0 -0.0056694122687663247 -0.0020493553818659396 0 -0.006385130440518999 -0.002390084340141878 0 -0.006231122010445238 -0.0029799454281584201 0 -0.0055212788670050425 -0.0026757124478139797 0 -0.0061647608163914007 -0.0035917309601955255 0 -0.006231122010445238 -0.0029799454281584201 0 -0.0055212788670050425 -0.0026757124478139797 0 -0.011266526690874202 -0.0026457450848222674 0 -0.0054742871908675167 -0.0018258382480660302 0 0.0063338550701552499 -0.0063341925608451921 0 0.011676023181588696 -0.0038220675481601385 0 -0.0066502929496925541 -0.0014625105568910545 0 -0.006385130440518999 -0.002390084340141878 0 -0.0056694122687663247 -0.0020493553818659396 0 -0.0066502929496925541 -0.0014625105568910545 0 -0.0056694122687663247 -0.0020493553818659396 0 -0.0052658665286973829 -0.0011817414128356891 0 0.022864035063861688 -0.0059054535834752999 0 0.020654714173213622 -0.0076881153775098816 0 0.024562629735446751 -0.0091068545740078544 0 0.020757747572567452 -0.010603813826114437 0 0.020654714173213622 -0.0076881153775098816 0 0.024562629735446751 -0.0091068545740078544 0 0.025298060557659353 -0.0089662031262782039 0 0.011676023181588696 -0.0038220675481601385 0 0.022864035063861688 -0.0059054535834752999 0 0.023912195323907749 -0.0073647060026690745 0 0.024518877115180974 -0.0054411267823899602 0 0.022864035063861688 -0.0059054535834752999 0 0.024518877115180974 -0.0054411267823899602 0 0.02303533347060405 -0.0039604522578215945 0 0.022864035063861688 -0.0059054535834752999 0 0.020003063227755712 -0.0052357385338912725 0 0.02303533347060405 -0.0039604522578215945 0 0.022864035063861688 -0.0059054535834752999 0 0.020003063227755712 -0.0052357385338912725 0 0.020654714173213622 -0.0076881153775098816 0 0.020757747572567452 -0.010603813826114437 0 0.020654714173213622 -0.0076881153775098816 0 0.017596711822822724 -0.0083285419473452648 0 0.020003063227755712 -0.0052357385338912725 0 0.020654714173213622 -0.0076881153775098816 0 0.017596711822822724 -0.0083285419473452648 0 0.020003063227755712 -0.0052357385338912725 0 0.016555375823151468 -0.0052679697246015731 0 0.017733112743489841 -0.0029623997408818104 0 0.020003063227755712 -0.0052357385338912725 0 0.017596711822822724 -0.0083285419473452648 0 0.016555375823151468 -0.0052679697246015731 0 0.016555375823151468 -0.0052679697246015731 0 0.013999503815235652 -0.0047755871734943582 0 0.014457546009241947 -0.0073870411828221546 0 0.016555375823151468 -0.0052679697246015731 0 0.013999503815235652 -0.0047755871734943582 0 0.015292313725484974 -0.00294511007997826 0 0.013999503815235652 -0.0047755871734943582 0 0.014457546009241947 -0.0073870411828221546 0 0.011937482392643492 -0.0058607458828501451 0 0.01493776374152584 -0.010275977818719204 0 0.014457546009241947 -0.0073870411828221546 0 0.012217977588159767 -0.010033946231658535 0 0.01493776374152584 -0.010275977818719204 0 0.017596711822822724 -0.0083285419473452648 0 0.014457546009241947 -0.0073870411828221546 0 0.017596711822822724 -0.0083285419473452648 0 0.016555375823151468 -0.0052679697246015731 0 0.014457546009241947 -0.0073870411828221546 0 0.0064760686087668136 -0.0012070436386877167 0 0.0071459926789883667 -0.0016790907661627774 0 0.0067033905956689847 -0.0018856336358868038 0 0.0064760686087668136 -0.0012070436386877167 0 0.0067033905956689847 -0.0018856336358868038 0 0.0062290066201442238 -0.0020446027236452695 0 0.0064760686087668136 -0.0012070436386877167 0 0.0059716170568462779 -0.0018614398840420545 0 0.0062290066201442238 -0.0020446027236452695 0 -0.0097237483174203027 0.00038384057685506663 0 -0.0096004742183095869 0.00044910174963673526 0 -0.0096935391215131374 0.00032359151802810991 0 -0.0016060331476200963 -0.00018234058969308366 0 -0.0013180366822425089 -7.9510838824687014e-05 0 -0.0097237483174203027 0.00038384057685506663 0 -0.0096004742183095869 0.00044910174963673526 0 -0.009807959464010271 0.00050335607595629502 0 -0.0097822441122154824 0.00057486593094635584 0 -0.0096004742183095869 0.00044910174963673526 0 -0.009807959464010271 0.00050335607595629502 0 0.0069493595580259792 -0.00054311610602337623 0 0.0064760686087668136 -0.0012070436386877167 0 0.0074337649740157871 -0.001214673047368218 0 0.0064760686087668136 -0.0012070436386877167 0 0.0074337649740157871 -0.001214673047368218 0 0.0071459926789883667 -0.0016790907661627774 0 -0.0055212788670050425 -0.0026757124478139797 0 -0.0056694122687663247 -0.0020493553818659396 0 -0.004868842037471244 -0.0024516409844656251 0 -0.004960041949243211 -0.0029564255095021071 0 -0.0051503828449265135 -0.0028243215817717331 0 -0.004868842037471244 -0.0024516409844656251 0 -0.0051503828449265135 -0.0028243215817717331 0 -0.0055212788670050425 -0.0026757124478139797 0 -0.004868842037471244 -0.0024516409844656251 0 8.0841992950000306e-05 -0.0010454397125350381 0 0.011676023181588696 -0.0038220675481601385 0 -0.0056694122687663247 -0.0020493553818659396 0 -0.004868842037471244 -0.0024516409844656251 0 -0.0052658665286973829 -0.0011817414128356891 0 0.0074337649740157871 -0.001214673047368218 0 0.0071459926789883667 -0.0016790907661627774 0 0.0079317012361845487 -0.0019367760887616645 0 0.0071459926789883667 -0.0016790907661627774 0 0.007212813139386277 -0.0021680953793688537 0 0.0067033905956689847 -0.0018856336358868038 0 0.0071459926789883667 -0.0016790907661627774 0 0.007212813139386277 -0.0021680953793688537 0 0.0079317012361845487 -0.0019367760887616645 0 0.017504532791887271 -0.0045525096194688718 0 0.011676023181588696 -0.0038220675481601385 0 0.026430678834444263 -0.0062387628188417393 0 0.023912195323907749 -0.0073647060026690745 0 0.024518877115180974 -0.0054411267823899602 0 0.024518877115180974 -0.0054411267823899602 0 0.02457020036939787 -0.0031678981076634677 0 0.02303533347060405 -0.0039604522578215945 0 0.024518877115180974 -0.0054411267823899602 0 0.025886107843633533 -0.0044034921124229453 0 0.02457020036939787 -0.0031678981076634677 0 0.026430678834444263 -0.0062387628188417393 0 0.024518877115180974 -0.0054411267823899602 0 0.025886107843633533 -0.0044034921124229453 0 0.026430678834444263 -0.0062387628188417393 0 0.026988283453320251 -0.0046893098575529662 0 0.025886107843633533 -0.0044034921124229453 0 0.026988283453320251 -0.0046893098575529662 0 0.025886107843633533 -0.0044034921124229453 0 0.027030721066259561 -0.002901919813187714 0 0.026430678834444263 -0.0062387628188417393 0 0.026988283453320251 -0.0046893098575529662 0 0.02858359905972142 -0.0051345650769698114 0 0.023944594711672911 0.0063028934366844381 0 0.024924000032125974 0.0051584914377382071 0 0.024125864067365107 0.0053208442293751134 0 0.026988283453320251 -0.0046893098575529662 0 0.02858359905972142 -0.0051345650769698114 0 0.027429698790855675 -0.0035873377172517726 0 0.017431799050654923 -0.00023513137629072354 0 0.026683054494566857 0.00031610238964109707 0 0.007212813139386277 -0.0021680953793688537 0 0.0065147318565511184 -0.0023985426721192821 0 0.0067033905956689847 -0.0018856336358868038 0 0.0065147318565511184 -0.0023985426721192821 0 0.0067033905956689847 -0.0018856336358868038 0 0.0062290066201442238 -0.0020446027236452695 0 0.017504532791887271 -0.0045525096194688718 0 0.017431799050654923 -0.00023513137629072354 0 0.012595904285353262 0.0024406138193776351 0 0.013286836650323331 0.0016000051501155062 0 0.013916961657211286 0.0018870706346301091 0 0.003852629766841302 0.0014912135536630782 0 0.00388403560062719 0.0014234993496312271 0 0.0039120364089875875 0.0015706152295248922 0 0.003852629766841302 0.0014912135536630782 0 0.0038133146635155966 0.001521339756218809 0 0.0039798537703460892 0.0016105407525522388 0 0.003852629766841302 0.0014912135536630782 0 0.0038133146635155966 0.001521339756218809 0 0.00388403560062719 0.0014234993496312271 0 0.0061711832237400623 -0.0020682987047553128 0 0.0059716170568462779 -0.0018614398840420545 0 0.0062290066201442238 -0.0020446027236452695 0 0.0075812930249455233 1.0725520383536865e-05 0 0.0073526889208009628 -0.00014116896820111607 0 0.0048514033978612169 0.0010052762776936591 0 0.0072095558075857972 0.0024277555067819694 0 0.0075812930249455233 1.0725520383536865e-05 0 -0.0013180366822425089 -7.9510838824687014e-05 0 0.017431799050654923 -0.00023513137629072354 0 0.0075812930249455233 1.0725520383536865e-05 0 0.0065147318565511184 -0.0023985426721192821 0 0.0061760149262258517 -0.0020679213853722874 0 0.0062290066201442238 -0.0020446027236452695 0 0.0075812930249455233 1.0725520383536865e-05 0 0.0072095558075857972 0.0024277555067819694 0 0.017431799050654923 -0.00023513137629072354 0 0.01918062010559635 0.0048305593881965625 0 0.023944594711672911 0.0063028934366844381 0 0.024125864067365107 0.0053208442293751134 0 0.023348630656618886 0.0052272102963797518 0 0.023944594711672911 0.0063028934366844381 0 0.022653789884755964 0.0059955694917327076 0 0.023348630656618886 0.0052272102963797518 0 0.012595904285353262 0.0024406138193776351 0 0.013983330304287805 0.0029619032286783407 0 0.013916961657211286 0.0018870706346301091 0 0.01918062010559635 0.0048305593881965625 0 0.015157072358958308 0.0048478308014945747 0 0.0047887819976862363 0.002443018792607297 0 0.0074611390060134453 0.0051098581685267101 0 0.00608514414276695 0.0045461512573838131 0 0.013983330304287805 0.0029619032286783407 0 0.015397951844985875 0.0034819083388843487 0 0.013916961657211286 0.0018870706346301091 0 0.022653789884755964 0.0059955694917327076 0 0.021477226343759172 0.0056468154375368231 0 0.022278809401525605 0.0050774084187496741 0 0.015157072358958308 0.0048478308014945747 0 0.0072095558075857972 0.0024277555067819694 0 -0.0026277308371241291 0.00065508657361017372 0 -0.0025116437563988741 0.00063732143505694212 0 -0.0026603391352019402 0.0005560197704982154 0 0.0031906723540894339 0.0025403445046943106 0 -0.00023899796055851114 0.0018359800766425082 0 0.0043023668460140793 0.0025188082883136945 0 0.0060089106223717827 0.0046141495868812221 0 0.0027502506940335967 0.0032271650846418592 0 0.0047887819976862363 0.002443018792607297 0 0.0043023668460140793 0.0025188082883136945 0 0.00608514414276695 0.0045461512573838131 0 0.005270454689536336 0.0036066725312807247 0 0.0031906723540894339 0.0025403445046943106 0 -0.0026277308371241291 0.00065508657361017372 0 -0.0025710723241113976 0.00068027826440636386 0 -0.0025116437563988741 0.00063732143505694212 0 -0.0026277308371241291 0.00065508657361017372 0 -0.0025945042989497561 0.00071667194201960262 0 -0.0025710723241113976 0.00068027826440636386 0 -0.0026277308371241291 0.00065508657361017372 0 -0.0025945042989497561 0.00071667194201960262 0 -0.0026772256194470766 0.00074839133379373663 0 0.0072095558075857972 0.0024277555067819694 0 0.0031906723540894339 0.0025403445046943106 0 0.00388403560062719 0.0014234993496312271 0 0.0039120364089875875 0.0015706152295248922 0 0.0040215538580465641 0.0016380957847301576 0 -0.0025710723241113976 0.00068027826440636386 0 -0.0025116437563988741 0.00063732143505694212 0 -0.0025376633007003265 0.00070462734633868428 0 -0.0025945042989497561 0.00071667194201960262 0 -0.0025710723241113976 0.00068027826440636386 0 -0.0025376633007003265 0.00070462734633868428 0 -0.0024650405129871961 0.00071657033809843914 0 -0.0025116437563988741 0.00063732143505694212 0 -0.0025376633007003265 0.00070462734633868428 0 -0.0013180366822425089 -7.9510838824687014e-05 0 0.0031906723540894339 0.0025403445046943106 0 -0.0097237483174203027 0.00038384057685506663 0 -0.0096935391215131374 0.00032359151802810991 0 -0.0097287878233320458 0.00037623059305393666 0 -0.0013180366822425089 -7.9510838824687014e-05 0 -0.0072941115220999777 0.00053532502738947915 0 -0.0024650405129871961 0.00071657033809843914 0 -0.0025376633007003265 0.00070462734633868428 0 -0.002532841273207553 0.00077658235973007911 0 -0.0096511159279638534 0.00026511328561489082 0 -0.0072941115220999777 0.00053532502738947915 0 -0.0097237483174203027 0.00038384057685506663 0 -0.0098430431222954196 0.00036264824219070014 0 -0.0098337059292502218 0.00044669960039700436 0 -0.0098430431222954196 0.00036264824219070014 0 -0.0099083011449786814 0.00045390702548865896 0 -0.0098337059292502218 0.00044669960039700436 0 -0.0072941115220999777 0.00053532502738947915 0 -0.0087967132924866073 0.0010850684118668011 0 -0.0025945042989497561 0.00071667194201960262 0 -0.0025376633007003265 0.00070462734633868428 0 -0.002532841273207553 0.00077658235973007911 0 -0.0072941115220999777 0.00053532502738947915 0 -0.0061381070080197206 0.00065549808571835518 0 -0.0099083011449786814 0.00045390702548865896 0 -0.010082700857011377 0.00047595670183191234 0 -0.0099989646362889737 0.0005176396491866018 0 -0.0098586927851037013 0.00040344753752724437 0 -0.0099083011449786814 0.00045390702548865896 0 -0.010082700857011377 0.00047595670183191234 0 -0.0025945042989497561 0.00071667194201960262 0 -0.002532841273207553 0.00077658235973007911 0 -0.0026772256194470766 0.00074839133379373663 0 -0.010082700857011377 0.00047595670183191234 0 -0.0099989646362889737 0.0005176396491866018 0 -0.010071597457603096 0.00053126639730200474 0 -0.0099989646362889737 0.0005176396491866018 0 -0.010071597457603096 0.00053126639730200474 0 -0.0100279237238819 0.00058188024110783585 0 -0.0099989646362889737 0.0005176396491866018 0 -0.0099450469078900035 0.00055340675641964111 0 -0.0100279237238819 0.00058188024110783585 0 -0.0099989646362889737 0.0005176396491866018 0 -0.0099450469078900035 0.00055340675641964111 0 -0.0098888887394698206 0.00049715864949609822 0 -0.0099450469078900035 0.00055340675641964111 0 -0.009807959464010271 0.00050335607595629502 0 -0.0098888887394698206 0.00049715864949609822 0 -0.0099450469078900035 0.00055340675641964111 0 -0.009807959464010271 0.00050335607595629502 0 -0.0098935855187781106 0.00059622519324977591 0 -0.0097237483174203027 0.00038384057685506663 0 -0.009807959464010271 0.00050335607595629502 0 -0.0098337059292502218 0.00044669960039700436 0 -0.009807959464010271 0.00050335607595629502 0 -0.0098337059292502218 0.00044669960039700436 0 -0.0098888887394698206 0.00049715864949609822 0 -0.0099083011449786814 0.00045390702548865896 0 -0.0099989646362889737 0.0005176396491866018 0 -0.0098888887394698206 0.00049715864949609822 0 -0.0099083011449786814 0.00045390702548865896 0 -0.0098337059292502218 0.00044669960039700436 0 -0.0098888887394698206 0.00049715864949609822 0 -0.010095930598242374 0.00047888195738641967 0 -0.0093886390211779837 0.00051219220328550656 0 -0.0097591140732349903 -0.00011976722108222643 0 -0.01013608912659847 0.00048040343388390039 0 -0.010486802562602569 3.4893772869368127e-05 0 -0.010095930598242374 0.00047888195738641967 0 -0.0097591140732349903 -0.00011976722108222643 0 -0.01076924701801457 -0.00030841770775200941 0 -0.010071597457603096 0.00053126639730200474 0 -0.0100279237238819 0.00058188024110783585 0 -0.010080308329182391 0.00060286331740960438 0 -0.010071597457603096 0.00053126639730200474 0 -0.010095930598242374 0.00047888195738641967 0 -0.010080308329182391 0.00060286331740960438 0 -0.0061381070080197206 0.00065549808571835518 0 -0.0064286896977499789 0.00080623768464289046 0 -0.010082700857011377 0.00047595670183191234 0 -0.010099566538723749 0.0005576413651379882 0 -0.010042533716095293 0.0008795475166868353 0 -0.010071597457603096 0.00053126639730200474 0 -0.010099566538723749 0.0005576413651379882 0 -0.010095930598242374 0.00047888195738641967 0 -0.0026772256194470766 0.00074839133379373663 0 -0.002803776559153958 0.00071894629222557949 0 -0.0027230568548741955 0.0006736604110401884 0 -0.010082700857011377 0.00047595670183191234 0 -0.010071597457603096 0.00053126639730200474 0 -0.010099566538723749 0.0005576413651379882 0 -0.010099566538723749 0.0005576413651379882 0 -0.010042533716095293 0.0008795475166868353 0 -0.010095930598242374 0.00047888195738641967 0 -0.010042533716095293 0.0008795475166868353 0 -0.010095930598242374 0.00047888195738641967 0 -0.0093886390211779837 0.00051219220328550656 0 -0.002803776559153958 0.00071894629222557949 0 -0.0027230568548741955 0.0006736604110401884 0 -0.0027884904375450915 0.00059213111260190184 0 -0.002803776559153958 0.00071894629222557949 0 -0.0028337882292456952 0.0006193168230652753 0 -0.0027884904375450915 0.00059213111260190184 0 -0.0026277308371241291 0.00065508657361017372 0 -0.0026772256194470766 0.00074839133379373663 0 -0.0027230568548741955 0.0006736604110401884 0 -0.0027230568548741955 0.0006736604110401884 0 -0.0026984407059375869 0.00061963296325103238 0 -0.0027884904375450915 0.00059213111260190184 0 -0.0026277308371241291 0.00065508657361017372 0 -0.0027230568548741955 0.0006736604110401884 0 -0.0026984407059375869 0.00061963296325103238 0 0.0043023668460140793 0.0025188082883136945 0 0.0027502506940335967 0.0032271650846418592 0 0.0013401270118667988 0.00133376088953122 0 -0.0026984407059375869 0.00061963296325103238 0 -0.0026603391352019402 0.0005560197704982154 0 -0.0027884904375450915 0.00059213111260190184 0 -0.00023899796055851114 0.0018359800766425082 0 -0.0015978199100897979 0.0011770182134192082 0 -0.0026603391352019402 0.0005560197704982154 0 -0.0027884904375450915 0.00059213111260190184 0 -0.0028778615395191206 0.00048987897193586731 0 -0.0026277308371241291 0.00065508657361017372 0 -0.0026984407059375869 0.00061963296325103238 0 -0.0026603391352019402 0.0005560197704982154 0 -0.0028486304395840129 0.00050954768185766024 0 -0.0027884904375450915 0.00059213111260190184 0 -0.0028778615395191206 0.00048987897193586731 0 -0.0028337882292456952 0.0006193168230652753 0 -0.0028486304395840129 0.00050954768185766024 0 -0.0027884904375450915 0.00059213111260190184 0 -0.0028486304395840129 0.00050954768185766024 0 -0.0028316532855238094 0.00048242378496026638 0 -0.0028778615395191206 0.00048987897193586731 0 -0.0028486304395840129 0.00050954768185766024 0 -0.0028316532855238094 0.00048242378496026638 0 -0.0029144155271312922 0.00045148805402470523 0 -0.0028337882292456952 0.0006193168230652753 0 -0.0028486304395840129 0.00050954768185766024 0 -0.0029144155271312922 0.00045148805402470523 0 -0.0028316532855238094 0.00048242378496026638 0 -0.0029144155271312922 0.00045148805402470523 0 -0.0028913422182009732 0.00041721981504256412 0 -0.0028913422182009732 0.00041721981504256412 0 -0.003250138930489132 0.00030754140455695092 0 -0.0025537416344445798 0.00016009406453783387 0 -0.0029144155271312922 0.00045148805402470523 0 -0.0028913422182009732 0.00041721981504256412 0 -0.003250138930489132 0.00030754140455695092 0 -0.003250138930489132 0.00030754140455695092 0 -0.0029372666506178725 0.00082901575357086945 0 -0.0045268988148823063 0.00063865543151425577 0 -0.005678816767735179 0.00099986063477597266 0 -0.0047260127187787031 0.00076672518589240726 0 -0.0028337882292456952 0.0006193168230652753 0 -0.0029144155271312922 0.00045148805402470523 0 -0.0029372666506178725 0.00082901575357086945 0 -0.002803776559153958 0.00071894629222557949 0 -0.0028337882292456952 0.0006193168230652753 0 -0.0029372666506178725 0.00082901575357086945 0 -0.0029144155271312922 0.00045148805402470523 0 -0.003250138930489132 0.00030754140455695092 0 -0.0029372666506178725 0.00082901575357086945 0 -0.0064286896977499789 0.00080623768464289046 0 -0.005678816767735179 0.00099986063477597266 0 -0.00094302782255648292 -1.0917219936171693e-06 0 -0.0025537416344445798 0.00016009406453783387 0 -0.00066863929297169612 3.0927714313416099e-05 0 -0.00094302782255648292 -1.0917219936171693e-06 0 -0.0025537416344445798 0.00016009406453783387 0 -0.0045268988148823063 0.00063865543151425577 0 -0.003250138930489132 0.00030754140455695092 0 -0.0025537416344445798 0.00016009406453783387 0 -0.0045268988148823063 0.00063865543151425577 0 -0.00094302782255648292 -1.0917219936171693e-06 0 -0.0045268988148823063 0.00063865543151425577 0 -0.0039485334328110844 7.307460782430701e-07 0 -0.0045268988148823063 0.00063865543151425577 0 -0.006619022786415212 -0.00011935038575149572 0 -0.0079357524648297015 8.6840221430920612e-05 0 -0.0045268988148823063 0.00063865543151425577 0 -0.0039485334328110844 7.307460782430701e-07 0 -0.006619022786415212 -0.00011935038575149572 0 -0.006619022786415212 -0.00011935038575149572 0 -0.0089219624729372105 -0.00036181707898997435 0 -0.008263760454719167 -0.00032076860540135251 0 -0.006619022786415212 -0.00011935038575149572 0 -0.006954091600221075 -6.5451727521506127e-07 0 -0.008263760454719167 -0.00032076860540135251 0 -0.0039485334328110844 7.307460782430701e-07 0 -0.006619022786415212 -0.00011935038575149572 0 -0.006954091600221075 -6.5451727521506127e-07 0 -0.010042533716095293 0.0008795475166868353 0 -0.0084465068148275937 0.0013780728094720431 0 -0.0093886390211779837 0.00051219220328550656 0 -0.0084465068148275937 0.0013780728094720431 0 -0.0093886390211779837 0.00051219220328550656 0 -0.0079357524648297015 8.6840221430920612e-05 0 -0.0084465068148275937 0.0013780728094720431 0 -0.0045268988148823063 0.00063865543151425577 0 -0.0079357524648297015 8.6840221430920612e-05 0 -0.006619022786415212 -0.00011935038575149572 0 -0.0079357524648297015 8.6840221430920612e-05 0 -0.0089219624729372105 -0.00036181707898997435 0 -0.0079357524648297015 8.6840221430920612e-05 0 -0.0097591140732349903 -0.00011976722108222643 0 -0.0089219624729372105 -0.00036181707898997435 0 -0.0093886390211779837 0.00051219220328550656 0 -0.0079357524648297015 8.6840221430920612e-05 0 -0.0097591140732349903 -0.00011976722108222643 0 -0.0097591140732349903 -0.00011976722108222643 0 -0.0089219624729372105 -0.00036181707898997435 0 -0.010650027457608182 -0.00051785071085539444 0 -0.0089219624729372105 -0.00036181707898997435 0 -0.010650027457608182 -0.00051785071085539444 0 -0.0098998745076198744 -0.00055563486476716906 0 -0.006954091600221075 -6.5451727521506127e-07 0 -0.008263760454719167 -0.00032076860540135251 0 -0.0099594391957657149 -8.6829917734092408e-07 0 -0.0089219624729372105 -0.00036181707898997435 0 -0.008263760454719167 -0.00032076860540135251 0 -0.0098998745076198744 -0.00055563486476716906 0 -0.008263760454719167 -0.00032076860540135251 0 -0.0098998745076198744 -0.00055563486476716906 0 -0.0099594391957657149 -8.6829917734092408e-07 0 -0.0099594391957657149 -8.6829917734092408e-07 0 -0.011594228242930476 -0.00046407721296171046 0 -0.012964347246192307 -5.6325202791851968e-07 0 -0.0098998745076198744 -0.00055563486476716906 0 -0.0099594391957657149 -8.6829917734092408e-07 0 -0.011594228242930476 -0.00046407721296171046 0 -0.011986251848746488 -0.00026918255500823834 0 -0.013628704452028628 -0.00018573127927390192 0 -0.011594228242930476 -0.00046407721296171046 0 -0.013628704452028628 -0.00018573127927390192 0 -0.011594228242930476 -0.00046407721296171046 0 -0.012964347246192307 -5.6325202791851968e-07 0 -0.010650027457608182 -0.00051785071085539444 0 -0.010919242878313183 -0.00066574268767036269 0 -0.012368614949699638 -0.00049272807395454648 0 -0.0098998745076198744 -0.00055563486476716906 0 -0.011594228242930476 -0.00046407721296171046 0 -0.010919242878313183 -0.00066574268767036269 0 -0.010650027457608182 -0.00051785071085539444 0 -0.0098998745076198744 -0.00055563486476716906 0 -0.010919242878313183 -0.00066574268767036269 0 -0.011986251848746488 -0.00026918255500823834 0 -0.011594228242930476 -0.00046407721296171046 0 -0.010919242878313183 -0.00066574268767036269 0 -0.011149334064110625 -0.001207057149453237 0 -0.010942184433730016 -0.00082123533647854871 0 -0.010136225624860632 -0.0022415511145580536 0 -0.010919242878313183 -0.00066574268767036269 0 -0.011501819728489401 -0.0017654723290916792 0 -0.010919242878313183 -0.00066574268767036269 0 -0.011501819728489401 -0.0017654723290916792 0 -0.012368614949699638 -0.00049272807395454648 0 -0.013230172897112131 -0.0023244852764849077 0 -0.011501819728489401 -0.0017654723290916792 0 -0.012368614949699638 -0.00049272807395454648 0 -0.014610838715313419 -0.001907291285495796 0 -0.013230172897112131 -0.0023244852764849077 0 -0.012368614949699638 -0.00049272807395454648 0 -0.010650027457608182 -0.00051785071085539444 0 -0.012368614949699638 -0.00049272807395454648 0 -0.011676007784600005 -0.00069359977617762156 0 -0.010460993611744787 0.00028074402975033201 0 -0.013737383441586311 -0.0011697881143186159 0 -0.010004052198248899 0.00063880896627292532 0 -0.0099637790937613779 0.00043964701295862862 0 -0.010035726667890489 0.0006203087296430404 0 -0.012368614949699638 -0.00049272807395454648 0 -0.011676007784600005 -0.00069359977617762156 0 -0.011820057766861517 -0.00015713068489527733 0 -0.014610838715313419 -0.001907291285495796 0 -0.012368614949699638 -0.00049272807395454648 0 -0.016148044547587399 -0.0013244933622908034 0 -0.012674238262490065 -0.00042738185716496282 0 -0.013737383441586311 -0.0011697881143186159 0 -0.01023258230085412 0.00030463069356529175 0 -0.010091899626253918 0.00029226538700483253 0 -0.010098872521500371 0.0004948806550370867 0 -0.0099637790937613779 0.00043964701295862862 0 -0.010098872521500371 0.0004948806550370867 0 -0.010035726667890489 0.0006203087296430404 0 -0.010091899626253918 0.00029226538700483253 0 -0.0099637790937613779 0.00043964701295862862 0 -0.010098872521500371 0.0004948806550370867 0 -0.01023258230085412 0.00030463069356529175 0 -0.010486084302165747 0.00039011877424169285 0 -0.010252671616831773 0.00049890294364866861 0 -0.01023258230085412 0.00030463069356529175 0 -0.010098872521500371 0.0004948806550370867 0 -0.010252671616831773 0.00049890294364866861 0 -0.010098872521500371 0.0004948806550370867 0 -0.010252671616831773 0.00049890294364866861 0 -0.010082476222688073 0.00072290889875617124 0 -0.010400432547280448 0.00061995195900109478 0 -0.010252671616831773 0.00049890294364866861 0 -0.010082476222688073 0.00072290889875617124 0 -0.010082476222688073 0.00072290889875617124 0 -0.010035726667890489 0.0006203087296430404 0 -0.010025209087365552 0.00065534425389785129 0 -0.010098872521500371 0.0004948806550370867 0 -0.010082476222688073 0.00072290889875617124 0 -0.010035726667890489 0.0006203087296430404 0 -0.010004052198248899 0.00063880896627292532 0 -0.010035726667890489 0.0006203087296430404 0 -0.010025209087365552 0.00065534425389785129 0 -0.010025209087365552 0.00065534425389785129 0 -0.0099831455778840016 0.00067271174213233344 0 -0.0099776444716331725 0.00061807416398466475 0 -0.0097581581661209133 0.00077915156547586693 0 -0.010082476222688073 0.00072290889875617124 0 -0.0099831455778840016 0.00067271174213233344 0 -0.010082476222688073 0.00072290889875617124 0 -0.010025209087365552 0.00065534425389785129 0 -0.0099831455778840016 0.00067271174213233344 0 -0.0098220990195335405 0.00066027184155401911 0 -0.0099831455778840016 0.00067271174213233344 0 -0.0098935855187781106 0.00059622519324977591 0 -0.0099831455778840016 0.00067271174213233344 0 -0.0099776444716331725 0.00061807416398466475 0 -0.0098935855187781106 0.00059622519324977591 0 -0.0099450469078900035 0.00055340675641964111 0 -0.0099776444716331725 0.00061807416398466475 0 -0.0098935855187781106 0.00059622519324977591 0 -0.0097822441122154824 0.00057486593094635584 0 -0.009807959464010271 0.00050335607595629502 0 -0.0098935855187781106 0.00059622519324977591 0 -0.010025209087365552 0.00065534425389785129 0 -0.0099776444716331725 0.00061807416398466475 0 -0.0100279237238819 0.00058188024110783585 0 -0.0099450469078900035 0.00055340675641964111 0 -0.0099776444716331725 0.00061807416398466475 0 -0.0100279237238819 0.00058188024110783585 0 -0.010025209087365552 0.00065534425389785129 0 -0.0100279237238819 0.00058188024110783585 0 -0.010080308329182391 0.00060286331740960438 0 -0.0097591140732349903 -0.00011976722108222643 0 -0.010650027457608182 -0.00051785071085539444 0 -0.01076924701801457 -0.00030841770775200941 0 -0.010650027457608182 -0.00051785071085539444 0 -0.011676007784600005 -0.00069359977617762156 0 -0.01076924701801457 -0.00030841770775200941 0 -0.010460993611744787 0.00028074402975033201 0 -0.010486802562602569 3.4893772869368127e-05 0 -0.010004052198248899 0.00063880896627292532 0 -0.010025209087365552 0.00065534425389785129 0 -0.010080308329182391 0.00060286331740960438 0 -0.0023459217397009879 -0.0052825305259016405 0 -0.0024786108517857453 -0.0055481993243497469 0 -0.0028845202600300476 -0.0048538774574937976 0 -0.0023459217397009879 -0.0052825305259016405 0 -0.0020799990761644679 -0.0052011185804132706 0 -0.0021394782453282336 -0.0053128503387138122 0 -0.0023459217397009879 -0.0052825305259016405 0 -0.0028845202600300476 -0.0048538774574937976 0 -0.0022157722857388804 -0.0046347944366669537 0 -0.0075305087584718764 -0.0067747824570943719 0 -0.004356245149548528 -0.0063112764515861411 0 -0.0023438621662105431 -0.0046592139749454219 0 -0.004356245149548528 -0.0063112764515861411 0 -0.0023459217397009879 -0.0052825305259016405 0 -0.0020799990761644679 -0.0052011185804132706 0 -0.002160622013998754 -0.0050740970712178203 0 -0.0020799990761644679 -0.0052011185804132706 0 -0.002160622013998754 -0.0050740970712178203 0 -0.0018460456825249937 -0.0051070396680141742 0 -0.0018884347282023268 -0.0052003749824126614 0 -0.0020799990761644679 -0.0052011185804132706 0 -0.0018460456825249937 -0.0051070396680141742 0 -0.0018884347282023268 -0.0052003749824126614 0 -0.001976085417494743 -0.0053466605640538163 0 -0.0017815402028581876 -0.0052624754554854089 0 -0.0018884347282023268 -0.0052003749824126614 0 -0.0020799990761644679 -0.0052011185804132706 0 -0.001976085417494743 -0.0053466605640538163 0 -0.0020799990761644679 -0.0052011185804132706 0 -0.0021394782453282336 -0.0053128503387138122 0 -0.001976085417494743 -0.0053466605640538163 0 -0.00200638924455065 -0.0054983268244827247 0 -0.0024786108517857453 -0.0055481993243497469 0 -0.0018169293224111665 -0.0057045818005536375 0 -0.0021394782453282336 -0.0053128503387138122 0 -0.001976085417494743 -0.0053466605640538163 0 -0.0021782189522091175 -0.0054145303297264526 0 -0.0024534309980793608 -0.0054254650135507811 0 -0.0018169293224111665 -0.0057045818005536375 0 -0.0018997635324986459 -0.0058127295178663661 0 -0.0018278286446394604 -0.005390347075266904 0 -0.0020977934616503908 -0.0056710249149981486 0 -0.001976085417494743 -0.0053466605640538163 0 -0.00200638924455065 -0.0054983268244827247 0 -0.0021782189522091175 -0.0054145303297264526 0 -0.001976085417494743 -0.0053466605640538163 0 -0.00200638924455065 -0.0054983268244827247 0 -0.0018128464767174803 -0.0054282461159124509 0 -0.001976085417494743 -0.0053466605640538163 0 -0.0018128464767174803 -0.0054282461159124509 0 -0.0017815402028581876 -0.0052624754554854089 0 -0.00200638924455065 -0.0054983268244827247 0 -0.0018270641110909966 -0.0055607419925968052 0 -0.0018169293224111665 -0.0057045818005536375 0 -0.00200638924455065 -0.0054983268244827247 0 -0.0018128464767174803 -0.0054282461159124509 0 -0.0018270641110909966 -0.0055607419925968052 0 -0.0025172560589117451 -0.0057436675064190847 0 -0.0024534309980793608 -0.0054254650135507811 0 -0.0018997635324986459 -0.0058127295178663661 0 -0.00200638924455065 -0.0054983268244827247 0 -0.0021782189522091175 -0.0054145303297264526 0 -0.0024786108517857453 -0.0055481993243497469 0 -0.0023459217397009879 -0.0052825305259016405 0 -0.0021782189522091175 -0.0054145303297264526 0 -0.0024786108517857453 -0.0055481993243497469 0 -0.0023459217397009879 -0.0052825305259016405 0 -0.0021394782453282336 -0.0053128503387138122 0 -0.0021782189522091175 -0.0054145303297264526 0 3.0028219677146876e-05 -0.0063423715910560933 0 -1.7069891518505973e-05 -0.0060872942940509754 0 0.0043737514551898419 -0.0073566658859438088 0 0.0015178077395171419 -0.0064776106761491271 0 0.0013839642573804294 -0.0088488595085438933 0 -0.0024534309980793608 -0.0054254650135507811 0 -0.0035801719391018094 -0.0055579424694337364 0 -0.0036473585907083861 -0.0048435730755216795 0 -0.0025172560589117451 -0.0057436675064190847 0 -0.0024534309980793608 -0.0054254650135507811 0 -0.0035801719391018094 -0.0055579424694337364 0 -0.0035801719391018094 -0.0055579424694337364 0 -0.0036473585907083861 -0.0048435730755216795 0 -0.0047995411270146289 -0.0052447374306393551 0 0.0015178077395171419 -0.0064776106761491271 0 -0.0014023936712963809 -0.0056039391408639234 0 -0.0016107926519811628 -0.0072242409373966992 0 -1.7069891518505973e-05 -0.0060872942940509754 0 -0.0084046477105921627 -0.0078925166758377543 0 0.0015178077395171419 -0.0064776106761491271 0 -0.00092079639176758895 -0.0089512836049804121 0 -0.0016107926519811628 -0.0072242409373966992 0 -0.012592118240046732 -0.008771536873516542 0 -0.013480362974853451 -0.0083532671777508064 0 -0.012178113533037887 -0.0072279081701706674 0 -0.0073224742571843839 -0.007002309329512635 0 -0.0084046477105921627 -0.0078925166758377543 0 -0.010509049119682376 -0.008227409167189996 0 -0.012609794431572667 -0.0072016017811231403 0 -0.014052590018578413 -0.0094612151869466529 0 -0.0073224742571843839 -0.007002309329512635 0 -0.018721442159411249 -0.0092233681036925277 0 -0.012592118240046732 -0.008771536873516542 0 -0.01147347200895968 -0.0083695456722264316 0 -0.012178113533037887 -0.0072279081701706674 0 -0.0024786108517857453 -0.0055481993243497469 0 -0.0036154969215257773 -0.0051120388831548237 0 -0.0028845202600300476 -0.0048538774574937976 0 -0.0018278286446394604 -0.005390347075266904 0 -0.0073224742571843839 -0.007002309329512635 0 -0.0073224742571843839 -0.007002309329512635 0 -0.0075305087584718764 -0.0067747824570943719 0 -0.01147347200895968 -0.0083695456722264316 0 -0.012178113533037887 -0.0072279081701706674 0 -0.010999403925074822 -0.0072395254255659455 0 -0.018721442159411249 -0.0092233681036925277 0 -0.016789423441954957 -0.0082434771304994055 0 -0.02344564003586469 -0.010932312837926429 0 -0.021524465258982169 -0.0092470318121111554 0 -0.02400964757132952 -0.0084300388465716487 0 -0.021524465258982169 -0.0092470318121111554 0 -0.022236112882623268 -0.00735414904138138 0 -0.02400964757132952 -0.0084300388465716487 0 -0.022236112882623268 -0.00735414904138138 0 -0.02400964757132952 -0.0084300388465716487 0 -0.024824332862541706 -0.0057347975676164164 0 -0.016789423441954957 -0.0082434771304994055 0 -0.01554598027320974 -0.0069914182948050988 0 -0.021524465258982169 -0.0092470318121111554 0 -0.022236112882623268 -0.00735414904138138 0 -0.01959396784601386 -0.0075508032936961898 0 -0.010925169847514619 -0.0061521572494816837 0 -0.010999403925074822 -0.0072395254255659455 0 -0.010065362917578523 -0.0065111030018658441 0 -0.004356245149548528 -0.0063112764515861411 0 -0.0058567468119829526 -0.0058973727380789483 0 -0.012178113533037887 -0.0072279081701706674 0 -0.010925169847514619 -0.0061521572494816837 0 -0.010999403925074822 -0.0072395254255659455 0 -0.010999403925074822 -0.0072395254255659455 0 -0.010384188248006155 -0.0079684854769661029 0 -0.010065362917578523 -0.0065111030018658441 0 -0.01147347200895968 -0.0083695456722264316 0 -0.010999403925074822 -0.0072395254255659455 0 -0.010384188248006155 -0.0079684854769661029 0 -0.004356245149548528 -0.0063112764515861411 0 -0.0015844542891400464 -0.0051138067700662402 0 -0.0021838167452161964 -0.0054503284345171574 0 -0.0020939346764699018 -0.0054089026410371714 0 -0.0021346994390961157 -0.0053698506441738096 0 -0.0058567468119829526 -0.0058973727380789483 0 -0.011922303175236864 -0.0052419501083055351 0 -0.0021346994390961157 -0.0053698506441738096 0 -0.002082747655238585 -0.0053545484033179587 0 -0.0021209333349630605 -0.0054243218978375172 0 -0.010925169847514619 -0.0061521572494816837 0 -0.010065362917578523 -0.0065111030018658441 0 -0.0097421300549455289 -0.0051071110469597817 0 -0.0020939346764699018 -0.0054089026410371714 0 -0.0021346994390961157 -0.0053698506441738096 0 -0.002082747655238585 -0.0053545484033179587 0 -0.002082747655238585 -0.0053545484033179587 0 -0.0019836707125045145 -0.0052978676614523152 0 -0.0021311679554692105 -0.0054130595425571628 0 -0.0021704844835898347 -0.0053564245283665244 0 -0.0019836707125045145 -0.0052978676614523152 0 -0.0021311679554692105 -0.0054130595425571628 0 -0.0019836707125045145 -0.0052978676614523152 0 -0.0020829088318662539 -0.0052194666056525531 0 -0.0018405855777354032 -0.0051814439560734218 0 -0.0021704844835898347 -0.0053564245283665244 0 -0.0019836707125045145 -0.0052978676614523152 0 -0.0020829088318662539 -0.0052194666056525531 0 -0.0018460456825249937 -0.0051070396680141742 0 -0.0018612594560644693 -0.0051827145387877104 0 -0.0019836707125045145 -0.0052978676614523152 0 -0.0018612594560644693 -0.0051827145387877104 0 -0.0019836707125045145 -0.0052978676614523152 0 -0.0018405855777354032 -0.0051814439560734218 0 -0.0020939346764699018 -0.0054089026410371714 0 -0.002082747655238585 -0.0053545484033179587 0 -0.0019836707125045145 -0.0052978676614523152 0 -0.0015844542891400464 -0.0051138067700662402 0 -0.0021352860027557697 -0.0053404171594270845 0 -0.0018460456825249937 -0.0051070396680141742 0 -0.0018612594560644693 -0.0051827145387877104 0 -0.0017997155325783689 -0.0051767354917256654 0 -0.0021704844835898347 -0.0053564245283665244 0 -0.0024509202455465099 -0.0052951638600044161 0 -0.0022992695820025287 -0.0055202930457145943 0 -0.0021704844835898347 -0.0053564245283665244 0 -0.0024509202455465099 -0.0052951638600044161 0 -0.0020829088318662539 -0.0052194666056525531 0 -0.0024509202455465099 -0.0052951638600044161 0 -0.0020829088318662539 -0.0052194666056525531 0 -0.0022305706749431529 -0.0051622723655603666 0 -0.0024509202455465099 -0.0052951638600044161 0 -0.0022305706749431529 -0.0051622723655603666 0 -0.002429084333515844 -0.00518072498798418 0 -0.0020829088318662539 -0.0052194666056525531 0 -0.0022305706749431529 -0.0051622723655603666 0 -0.0018094893429509166 -0.0051289626439635048 0 -0.0022305706749431529 -0.0051622723655603666 0 -0.0019866044382100337 -0.0050034792700931552 0 -0.0018094893429509166 -0.0051289626439635048 0 -0.0019866044382100337 -0.0050034792700931552 0 -0.0018094893429509166 -0.0051289626439635048 0 -0.001617975298624539 -0.0049048279025231409 0 -0.0019866044382100337 -0.0050034792700931552 0 -0.001617975298624539 -0.0049048279025231409 0 -0.0018172376567298753 -0.0047538441366973758 0 -0.0019866044382100337 -0.0050034792700931552 0 -0.002027690085612285 -0.0047730650993341485 0 -0.0023072646455089508 -0.0048861769287606048 0 -0.0022305706749431529 -0.0051622723655603666 0 -0.0019866044382100337 -0.0050034792700931552 0 -0.0023072646455089508 -0.0048861769287606048 0 -0.0019866044382100337 -0.0050034792700931552 0 -0.002027690085612285 -0.0047730650993341485 0 -0.0018172376567298753 -0.0047538441366973758 0 -0.0018884347282023268 -0.0052003749824126614 0 -0.0017815402028581876 -0.0052624754554854089 0 -0.0017997155325783689 -0.0051767354917256654 0 -0.0016739156396615639 -0.0051948437602554152 0 -0.0017815402028581876 -0.0052624754554854089 0 -0.0017997155325783689 -0.0051767354917256654 0 -0.0018884347282023268 -0.0052003749824126614 0 -0.0018460456825249937 -0.0051070396680141742 0 -0.0017997155325783689 -0.0051767354917256654 0 -0.0018612594560644693 -0.0051827145387877104 0 -0.0017997155325783689 -0.0051767354917256654 0 -0.0018405855777354032 -0.0051814439560734218 0 -0.0016739156396615639 -0.0051948437602554152 0 -0.0017997155325783689 -0.0051767354917256654 0 -0.0018405855777354032 -0.0051814439560734218 0 -0.0016739156396615639 -0.0051948437602554152 0 -0.0018094893429509166 -0.0051289626439635048 0 -0.0018405855777354032 -0.0051814439560734218 0 -0.0020829088318662539 -0.0052194666056525531 0 -0.0018094893429509166 -0.0051289626439635048 0 -0.0018405855777354032 -0.0051814439560734218 0 -0.0018094893429509166 -0.0051289626439635048 0 -0.0014991244692559107 -0.005183499722014223 0 -0.001617975298624539 -0.0049048279025231409 0 -0.0016739156396615639 -0.0051948437602554152 0 -0.0018094893429509166 -0.0051289626439635048 0 -0.0014991244692559107 -0.005183499722014223 0 -0.0014991244692559107 -0.005183499722014223 0 -0.0012156997314777993 -0.0048789772346286998 0 -0.001617975298624539 -0.0049048279025231409 0 -0.0016581331813082041 -0.0059594107549703918 0 0.0019558267300772239 -0.0067210865952234584 0 -0.0014991244692559107 -0.005183499722014223 0 -0.00087909197069916745 -0.0050876868895188155 0 -0.0012156997314777993 -0.0048789772346286998 0 -0.0014991244692559107 -0.005183499722014223 0 -0.0016560057486270793 -0.0052890441246722392 0 -0.0016581388836285273 -0.0053806441925547017 0 -0.0016739156396615639 -0.0051948437602554152 0 -0.0017815402028581876 -0.0052624754554854089 0 -0.0016560057486270793 -0.0052890441246722392 0 -0.0016739156396615639 -0.0051948437602554152 0 -0.0014991244692559107 -0.005183499722014223 0 -0.0016560057486270793 -0.0052890441246722392 0 -0.0018128464767174803 -0.0054282461159124509 0 -0.0017815402028581876 -0.0052624754554854089 0 -0.0016560057486270793 -0.0052890441246722392 0 0.00016215088048799904 -0.0057316751297598447 0 0.0019558267300772239 -0.0067210865952234584 0 -0.0018128464767174803 -0.0054282461159124509 0 -0.0018270641110909966 -0.0055607419925968052 0 -0.0016206515995595911 -0.0055916541426414921 0 -0.0018128464767174803 -0.0054282461159124509 0 -0.0016560057486270793 -0.0052890441246722392 0 -0.0016206515995595911 -0.0055916541426414921 0 -0.0018270641110909966 -0.0055607419925968052 0 -0.0016206515995595911 -0.0055916541426414921 0 -0.0018169293224111665 -0.0057045818005536375 0 0.0093539147320949468 -0.008614297222273604 0 0.0099400963143577315 -0.007409560352970827 0 0.010213702495459118 -0.0050865540349145965 0 -0.00087909197069916745 -0.0050876868895188155 0 -0.00092508591044954439 -0.0046383136696840476 0 -0.00038257767452925579 -0.004361474524218938 0 0.0019558267300772239 -0.0067210865952234584 0 0.0053571911973455252 -0.0046986408467382824 0 -0.00087909197069916745 -0.0050876868895188155 0 -0.00092508591044954439 -0.0046383136696840476 0 -0.0012156997314777993 -0.0048789772346286998 0 0.0093539147320949468 -0.008614297222273604 0 0.0099400963143577315 -0.007409560352970827 0 0.011109879407504811 -0.0077772242574225938 0 -0.001617975298624539 -0.0049048279025231409 0 -0.0012236393329207137 -0.0045979671488601721 0 -0.001542949022471261 -0.00446356517820461 0 -0.0012156997314777993 -0.0048789772346286998 0 -0.001617975298624539 -0.0049048279025231409 0 -0.0012236393329207137 -0.0045979671488601721 0 -0.00092508591044954439 -0.0046383136696840476 0 -0.0012156997314777993 -0.0048789772346286998 0 -0.0012236393329207137 -0.0045979671488601721 0 -0.00088790071395142636 -0.0042796742931206283 0 -0.001542949022471261 -0.00446356517820461 0 -0.001358466167980969 -0.0040360374500367328 0 -0.0012236393329207137 -0.0045979671488601721 0 -0.00088790071395142636 -0.0042796742931206283 0 -0.001542949022471261 -0.00446356517820461 0 -0.00092508591044954439 -0.0046383136696840476 0 -0.0012236393329207137 -0.0045979671488601721 0 -0.00088790071395142636 -0.0042796742931206283 0 -0.00088790071395142636 -0.0042796742931206283 0 -0.00038257767452925579 -0.004361474524218938 0 -0.00060004666191433077 -0.0038193327610107192 0 -0.00092508591044954439 -0.0046383136696840476 0 -0.00088790071395142636 -0.0042796742931206283 0 -0.00038257767452925579 -0.004361474524218938 0 -0.002027690085612285 -0.0047730650993341485 0 -0.0018022303615519476 -0.0045075051544898543 0 -0.0020164951775066327 -0.0045224136520074058 0 -0.002027690085612285 -0.0047730650993341485 0 -0.0018172376567298753 -0.0047538441366973758 0 -0.0018022303615519476 -0.0045075051544898543 0 -0.001617975298624539 -0.0049048279025231409 0 -0.0018172376567298753 -0.0047538441366973758 0 -0.001542949022471261 -0.00446356517820461 0 -0.0018172376567298753 -0.0047538441366973758 0 -0.001542949022471261 -0.00446356517820461 0 -0.0018022303615519476 -0.0045075051544898543 0 -0.001542949022471261 -0.00446356517820461 0 -0.0016295314863091182 -0.0042204505260342645 0 -0.001358466167980969 -0.0040360374500367328 0 -0.001542949022471261 -0.00446356517820461 0 -0.0016295314863091182 -0.0042204505260342645 0 -0.0018022303615519476 -0.0045075051544898543 0 -0.0016295314863091182 -0.0042204505260342645 0 -0.0018022303615519476 -0.0045075051544898543 0 -0.0018113812345752849 -0.0042286272107430762 0 -0.0020164951775066327 -0.0045224136520074058 0 -0.0018113812345752849 -0.0042286272107430762 0 -0.0019768728777288256 -0.0043221002458378698 0 -0.0018022303615519476 -0.0045075051544898543 0 -0.0020164951775066327 -0.0045224136520074058 0 -0.0018113812345752849 -0.0042286272107430762 0 -0.0017205614115950749 -0.0040243893450166964 0 -0.0018113812345752849 -0.0042286272107430762 0 -0.00157659041129489 -0.0039517532673165852 0 -0.0016295314863091182 -0.0042204505260342645 0 -0.0018113812345752849 -0.0042286272107430762 0 -0.00157659041129489 -0.0039517532673165852 0 -0.0017205614115950749 -0.0040243893450166964 0 -0.0018113812345752849 -0.0042286272107430762 0 -0.0019026970728037442 -0.004171726529427904 0 -0.0016295314863091182 -0.0042204505260342645 0 -0.00157659041129489 -0.0039517532673165852 0 -0.001358466167980969 -0.0040360374500367328 0 -0.0020941188547491008 -0.0035189300657341412 0 0.0012218250137166456 -0.0042495506486125954 0 -0.00157659041129489 -0.0039517532673165852 0 -0.0014655376137861966 -0.0041467042914084887 0 -0.0015743317281890362 -0.0041096649868327152 0 -0.00157659041129489 -0.0039517532673165852 0 -0.001358466167980969 -0.0040360374500367328 0 -0.0013964458258903555 -0.0037837724618375204 0 -0.0022454448235878621 -0.0041991705334793478 0 0.0012218250137166456 -0.0042495506486125954 0 -0.00157659041129489 -0.0039517532673165852 0 -0.0014410574430911522 -0.0039298292490041993 0 -0.0014655376137861966 -0.0041467042914084887 0 -0.0017205614115950749 -0.0040243893450166964 0 -0.00157659041129489 -0.0039517532673165852 0 -0.0014410574430911522 -0.0039298292490041993 0 -0.00038257767452925579 -0.004361474524218938 0 -0.00060004666191433077 -0.0038193327610107192 0 0.00023468900395374459 -0.0033670179426352064 0 -0.00088790071395142636 -0.0042796742931206283 0 -0.00060004666191433077 -0.0038193327610107192 0 -0.001358466167980969 -0.0040360374500367328 0 -0.00060004666191433077 -0.0038193327610107192 0 -0.001358466167980969 -0.0040360374500367328 0 -0.00057035356724520817 -0.0030011075197515073 0 -0.001358466167980969 -0.0040360374500367328 0 -0.00057035356724520817 -0.0030011075197515073 0 -0.0014499270705240184 -0.0027569306246416907 0 -0.00060004666191433077 -0.0038193327610107192 0 -0.00057035356724520817 -0.0030011075197515073 0 0.00023468900395374459 -0.0033670179426352064 0 -0.00057035356724520817 -0.0030011075197515073 0 0.00023468900395374459 -0.0033670179426352064 0 0.00073933183084599083 -0.0021318107824686663 0 0.010906367827947258 -0.0015202746839080381 0 0.013571719685845671 -0.0023097199467967669 0 0.013792420386655449 0.00047753938345706078 0 0.013571719685845671 -0.0023097199467967669 0 0.015748826349485174 -0.001110735740033152 0 0.013792420386655449 0.00047753938345706078 0 0.013571719685845671 -0.0023097199467967669 0 0.012771519967915444 -0.0047306041378000659 0 0.015092266887286255 -0.004506774255123345 0 0.013571719685845671 -0.0023097199467967669 0 0.015092266887286255 -0.004506774255123345 0 0.01523625663209865 -0.0025843938122406176 0 0.010213702495459118 -0.0050865540349145965 0 0.010906367827947258 -0.0015202746839080381 0 0.012771519967915444 -0.0047306041378000659 0 0.0053571911973455252 -0.0046986408467382824 0 0.0042828654333897731 -0.00226276710993657 0 0.010906367827947258 -0.0015202746839080381 0 0.013571719685845671 -0.0023097199467967669 0 0.012771519967915444 -0.0047306041378000659 0 0.010213702495459118 -0.0050865540349145965 0 0.011846050083324872 -0.0061701350036260988 0 0.012771519967915444 -0.0047306041378000659 0 0.0099400963143577315 -0.007409560352970827 0 0.010213702495459118 -0.0050865540349145965 0 0.011846050083324872 -0.0061701350036260988 0 0.011846050083324872 -0.0061701350036260988 0 0.012771519967915444 -0.0047306041378000659 0 0.014846240453155626 -0.0057468918099923983 0 0.012771519967915444 -0.0047306041378000659 0 0.014846240453155626 -0.0057468918099923983 0 0.015092266887286255 -0.004506774255123345 0 0.011846050083324872 -0.0061701350036260988 0 0.011261135809249494 -0.0078259762604037091 0 0.014846240453155626 -0.0057468918099923983 0 0.0043737514551898419 -0.0073566658859438088 0 0.0071863261598876403 -0.008224413294237903 0 0.0034617342823873958 -0.010012996959240451 0 0.0064834030889762825 -0.0072368110950545425 0 0.0093818017906280998 -0.0081901231857134053 0 3.0028219677146876e-05 -0.0063423715910560933 0 0.0064834030889762825 -0.0072368110950545425 0 0.0019558267300772239 -0.0067210865952234584 0 0.0064834030889762825 -0.0072368110950545425 0 -0.0016206515995595911 -0.0055916541426414921 0 -0.0018169293224111665 -0.0057045818005536375 0 -0.0018997635324986459 -0.0058127295178663661 0 0.010473948345841222 -0.0079694536404247684 0 0.0064834030889762825 -0.0072368110950545425 0 0.0099400963143577315 -0.007409560352970827 0 0.011846050083324872 -0.0061701350036260988 0 0.011261135809249494 -0.0078259762604037091 0 0.0015178077395171419 -0.0064776106761491271 0 0.0013839642573804294 -0.0088488595085438933 0 -0.00092079639176758895 -0.0089512836049804121 0 0.0013839642573804294 -0.0088488595085438933 0 -0.00030898730552029313 -0.011829922521768049 0 -0.00092079639176758895 -0.0089512836049804121 0 0.0043737514551898419 -0.0073566658859438088 0 0.0013839642573804294 -0.0088488595085438933 0 0.0034617342823873958 -0.010012996959240451 0 0.014846240453155626 -0.0057468918099923983 0 0.015376638440579578 -0.0045477557526261304 0 0.015092266887286255 -0.004506774255123345 0 0.014846240453155626 -0.0057468918099923983 0 0.015376638440579578 -0.0045477557526261304 0 0.015478234088300799 -0.0045432743199674327 0 0.0093818017906280998 -0.0081901231857134053 0 0.0085202890036482366 -0.0066900713890735482 0 0.0013839642573804294 -0.0088488595085438933 0 0.0034617342823873958 -0.010012996959240451 0 -0.00030898730552029313 -0.011829922521768049 0 0.011052668713234978 -0.006957999264040198 0 0.0085202890036482366 -0.0066900713890735482 0 0.01712355035466628 -0.0038276248034256411 0 0.015267050026351713 -0.0044933988207881154 0 0.015376638440579578 -0.0045477557526261304 0 0.015175777395782963 -0.0043644823166454393 0 0.015314582104207395 -0.0047882584383516476 0 0.015376638440579578 -0.0045477557526261304 0 0.015314582104207395 -0.0047882584383516476 0 0.015092266887286255 -0.004506774255123345 0 0.01923575613585779 -0.0029014907163433155 0 0.01667802062610391 -0.0025147628611318163 0 0.018205735050395223 -0.0014319582678610783 0 0.01923575613585779 -0.0029014907163433155 0 0.015092266887286255 -0.004506774255123345 0 0.01667802062610391 -0.0025147628611318163 0 0.015092266887286255 -0.004506774255123345 0 0.01667802062610391 -0.0025147628611318163 0 0.01523625663209865 -0.0025843938122406176 0 0.01667802062610391 -0.0025147628611318163 0 0.01523625663209865 -0.0025843938122406176 0 0.015748826349485174 -0.001110735740033152 0 0.013571719685845671 -0.0023097199467967669 0 0.01523625663209865 -0.0025843938122406176 0 0.015748826349485174 -0.001110735740033152 0 0.01667802062610391 -0.0025147628611318163 0 0.015748826349485174 -0.001110735740033152 0 0.018205735050395223 -0.0014319582678610783 0 0.015748826349485174 -0.001110735740033152 0 0.018205735050395223 -0.0014319582678610783 0 0.018136154923399237 0.00022543417247206684 0 0.015748826349485174 -0.001110735740033152 0 0.018136154923399237 0.00022543417247206684 0 0.015955383287307688 0.00047346996925085592 0 0.015748826349485174 -0.001110735740033152 0 0.015955383287307688 0.00047346996925085592 0 0.013792420386655449 0.00047753938345706078 0 0.01923575613585779 -0.0029014907163433155 0 0.018205735050395223 -0.0014319582678610783 0 0.020127837037527564 -0.00090187556521502768 0 0.018205735050395223 -0.0014319582678610783 0 0.019166749031166469 -0.00053919628062170061 0 0.020127837037527564 -0.00090187556521502768 0 0.018205735050395223 -0.0014319582678610783 0 0.018136154923399237 0.00022543417247206684 0 0.019166749031166469 -0.00053919628062170061 0 0.018136154923399237 0.00022543417247206684 0 0.019166749031166469 -0.00053919628062170061 0 0.020139789729401423 4.8463702792214358e-05 0 0.019166749031166469 -0.00053919628062170061 0 0.020139789729401423 4.8463702792214358e-05 0 0.020127837037527564 -0.00090187556521502768 0 0.020139789729401423 4.8463702792214358e-05 0 0.021264254651527877 0.00012143687904295276 0 0.020127837037527564 -0.00090187556521502768 0 0.01923575613585779 -0.0029014907163433155 0 0.020127837037527564 -0.00090187556521502768 0 0.021789333436206246 -0.0010307447356071294 0 0.021264254651527877 0.00012143687904295276 0 0.020127837037527564 -0.00090187556521502768 0 0.021789333436206246 -0.0010307447356071294 0 0.015175777395782963 -0.0043644823166454393 0 0.015314582104207395 -0.0047882584383516476 0 0.013852609595065617 -0.0046022255542025508 0 0.0085202890036482366 -0.0066900713890735482 0 0.013745744043085399 -0.004629317957664825 0 0.01712355035466628 -0.0038276248034256411 0 0.01776198511803374 -0.0031548732433346318 0 0.015314582104207395 -0.0047882584383516476 0 0.013852609595065617 -0.0046022255542025508 0 0.013584245068446242 -0.0053249247536638795 0 0.013852609595065617 -0.0046022255542025508 0 0.013584245068446242 -0.0053249247536638795 0 0.012833451302528449 -0.0051044790395616503 0 0.011887846995206574 -0.0053521133251183224 0 0.012474357744131023 -0.0055988262597639078 0 0.012833451302528449 -0.0051044790395616503 0 0.013745744043085399 -0.004629317957664825 0 0.012501184619069522 -0.0052247120492870504 0 0.01776198511803374 -0.0031548732433346318 0 0.017645312021635214 -0.002750982796398703 0 0.021789333436206246 -0.0010307447356071294 0 0.023153093531666502 -6.7915197267435069e-05 0 0.022125567745284944 0.00025248620827463312 0 0.013584245068446242 -0.0053249247536638795 0 0.012794829460944412 -0.005103791905634261 0 0.012833451302528449 -0.0051044790395616503 0 0.021264254651527877 0.00012143687904295276 0 0.021789333436206246 -0.0010307447356071294 0 0.022125567745284944 0.00025248620827463312 0 0.012794829460944412 -0.005103791905634261 0 0.013096986441475089 -0.0052583863085627217 0 0.012833451302528449 -0.0051044790395616503 0 0.012794829460944412 -0.005103791905634261 0 0.013229214464908313 -0.004876984202715217 0 0.013523354167877486 -0.0046032858992968084 0 0.013229214464908313 -0.004876984202715217 0 0.013096986441475089 -0.0052583863085627217 0 0.013443116342925202 -0.0050230886508450222 0 0.012794829460944412 -0.005103791905634261 0 0.013229214464908313 -0.004876984202715217 0 0.013096986441475089 -0.0052583863085627217 0 0.013096986441475089 -0.0052583863085627217 0 0.013257630212309636 -0.0057071728380129246 0 0.013712017036907709 -0.0053389807399372219 0 0.013096986441475089 -0.0052583863085627217 0 0.012897862384457474 -0.005553255014874239 0 0.013257630212309636 -0.0057071728380129246 0 0.013096986441475089 -0.0052583863085627217 0 0.012833451302528449 -0.0051044790395616503 0 0.012897862384457474 -0.005553255014874239 0 0.012474357744131023 -0.0055988262597639078 0 0.012833451302528449 -0.0051044790395616503 0 0.012897862384457474 -0.005553255014874239 0 0.012474357744131023 -0.0055988262597639078 0 0.012897862384457474 -0.005553255014874239 0 0.012750958257392515 -0.006210317386029624 0 0.012897862384457474 -0.005553255014874239 0 0.013257630212309636 -0.0057071728380129246 0 0.012750958257392515 -0.006210317386029624 0 0.00086349671527287809 -0.007835797795743768 0 0.00050893013597279628 -0.012571646140377896 0 0.0032302882676482889 -0.008704215063158981 0 0.00086349671527287809 -0.007835797795743768 0 0.00050893013597279628 -0.012571646140377896 0 -0.0030949619584433119 -0.01126109425967025 0 0.0085523518992478287 -0.0061066547862311613 0 -0.0050784476540593161 -0.0095936030983050247 0 -0.025305625660021088 -0.012048428059165331 0 -0.02404305997595324 -0.011519850423135646 0 -0.026160743968265208 -0.011159050581354347 0 -0.0095730151254929865 -0.01288389016603003 0 -0.0050784476540593161 -0.0095936030983050247 0 -0.02394738526692736 -0.011426374434454312 0 -0.024365755955548275 -0.012001247363930337 0 -0.022329584609989128 -0.01381723645191028 0 -0.025305625660021088 -0.012048428059165331 0 -0.024365755955548275 -0.012001247363930337 0 -0.025175656020425534 -0.013090402607020062 0 -0.025305625660021088 -0.012048428059165331 0 -0.02404305997595324 -0.011519850423135646 0 -0.024365755955548275 -0.012001247363930337 0 -0.0095730151254929865 -0.01288389016603003 0 -0.013607477389351504 -0.014814460897201195 0 -0.025305625660021088 -0.012048428059165331 0 -0.026160743968265208 -0.011159050581354347 0 -0.026684588859244528 -0.012557809218316601 0 -0.026160743968265208 -0.011159050581354347 0 -0.026843125378433877 -0.012528303182062382 0 -0.026684588859244528 -0.012557809218316601 0 -0.0050784476540593161 -0.0095936030983050247 0 -0.016779827966216351 -0.01091550271712409 0 -0.0047955012120405012 -0.0078750455424641229 0 -0.0028551208829946722 -0.0083774442379456731 0 -0.0035238475618453572 -0.010732109979604325 0 -0.0067238312350311451 -0.0096056035030223433 0 -0.0047955012120405012 -0.0078750455424641229 0 -0.0035238475618453572 -0.010732109979604325 0 -0.0028551208829946722 -0.0083774442379456731 0 -0.00092079639176758895 -0.0089512836049804121 0 -0.0035238475618453572 -0.010732109979604325 0 -0.0028551208829946722 -0.0083774442379456731 0 -0.00092079639176758895 -0.0089512836049804121 0 -0.0016107926519811628 -0.0072242409373966992 0 -0.00030898730552029313 -0.011829922521768049 0 -0.00092079639176758895 -0.0089512836049804121 0 -0.0035238475618453572 -0.010732109979604325 0 0.01105342420612352 -0.0057273090287096855 0 0.011887846995206574 -0.0053521133251183224 0 0.012056233927264402 -0.0060324725231068995 0 0.0085202890036482366 -0.0066900713890735482 0 0.0052026230755176581 -0.0085954264532772488 0 0.012474357744131023 -0.0055988262597639078 0 0.012750958257392515 -0.006210317386029624 0 0.012056233927264402 -0.0060324725231068995 0 -0.0050784476540593161 -0.0095936030983050247 0 0.0052026230755176581 -0.0085954264532772488 0 0.011887846995206574 -0.0053521133251183224 0 0.012474357744131023 -0.0055988262597639078 0 0.012056233927264402 -0.0060324725231068995 0 0.011937482392643492 -0.0058607458828501451 0 0.0094781984387160671 -0.0073015381301212339 0 0.012217977588159767 -0.010033946231658535 0 0.014457546009241947 -0.0073870411828221546 0 0.011937482392643492 -0.0058607458828501451 0 0.012217977588159767 -0.010033946231658535 0 0.011937482392643492 -0.0058607458828501451 0 0.01274144211913833 -0.0030162066328818567 0 0.010731465137401064 -0.0035755204394890324 0 0.013999503815235652 -0.0047755871734943582 0 0.011937482392643492 -0.0058607458828501451 0 0.01274144211913833 -0.0030162066328818567 0 0.011937482392643492 -0.0058607458828501451 0 0.0098431228837425524 -0.0050863098233319432 0 0.010731465137401064 -0.0035755204394890324 0 0.011937482392643492 -0.0058607458828501451 0 0.0098431228837425524 -0.0050863098233319432 0 0.0094781984387160671 -0.0073015381301212339 0 0.0098431228837425524 -0.0050863098233319432 0 0.0082848205753072099 -0.0052232889291398167 0 0.0094781984387160671 -0.0073015381301212339 0 0.0098431228837425524 -0.0050863098233319432 0 0.0092941932608187911 -0.003983343880144494 0 0.010731465137401064 -0.0035755204394890324 0 0.0098431228837425524 -0.0050863098233319432 0 0.0092941932608187911 -0.003983343880144494 0 0.0082848205753072099 -0.0052232889291398167 0 0.0090251703920726824 -0.0039326329055828077 0 0.0081095659882896159 -0.00437176863238555 0 0.0082848205753072099 -0.0052232889291398167 0 0.0067994658322681869 -0.0046081391092061968 0 0.0078862959666438862 -0.0038449291741906532 0 0.0092941932608187911 -0.003983343880144494 0 0.0082848205753072099 -0.0052232889291398167 0 0.0078862959666438862 -0.0038449291741906532 0 0.0082848205753072099 -0.0052232889291398167 0 0.0072504258626209491 -0.0071592392865037465 0 0.0067994658322681869 -0.0046081391092061968 0 0.0082848205753072099 -0.0052232889291398167 0 0.0072504258626209491 -0.0071592392865037465 0 0.0094781984387160671 -0.0073015381301212339 0 0.0072504258626209491 -0.0071592392865037465 0 0.0094781984387160671 -0.0073015381301212339 0 0.0077693864686730124 -0.010908510939979537 0 0.0094781984387160671 -0.0073015381301212339 0 0.0077693864686730124 -0.010908510939979537 0 0.012217977588159767 -0.010033946231658535 0 0.0072504258626209491 -0.0071592392865037465 0 0.0040711485397218698 -0.0079410298799471833 0 0.0077693864686730124 -0.010908510939979537 0 0.014287302685567622 -0.0049044895680166361 0 0.01391448594538435 -0.0048817432708419218 0 0.013712017036907709 -0.0053389807399372219 0 0.0072504258626209491 -0.0071592392865037465 0 0.0040711485397218698 -0.0079410298799471833 0 0.0067994658322681869 -0.0046081391092061968 0 0.0090251703920726824 -0.0039326329055828077 0 0.0093324132479307431 -0.0048973183564994588 0 0.0047451193871943763 -0.0065676280505121793 0 0.0090251703920726824 -0.0039326329055828077 0 0.005843529524991461 -0.004977129385298441 0 0.0083508143287458463 -0.0014656390893018358 0 0.0047141109531647265 -0.0045598452856783255 0 0.013096986441475089 -0.0052583863085627217 0 0.013443116342925202 -0.0050230886508450222 0 0.013712017036907709 -0.0053389807399372219 0 0.013657919532953458 -0.0049002270422575768 0 0.013443116342925202 -0.0050230886508450222 0 0.013712017036907709 -0.0053389807399372219 0 0.01391448594538435 -0.0048817432708419218 0 0.013657919532953458 -0.0049002270422575768 0 0.013712017036907709 -0.0053389807399372219 0 0.01391448594538435 -0.0048817432708419218 0 0.013657919532953458 -0.0049002270422575768 0 0.013822076545584379 -0.0047245682572235499 0 0.013229214464908313 -0.004876984202715217 0 0.013443116342925202 -0.0050230886508450222 0 0.013538948128011581 -0.0046986235694585002 0 0.013657919532953458 -0.0049002270422575768 0 0.013443116342925202 -0.0050230886508450222 0 0.013538948128011581 -0.0046986235694585002 0 0.0085523518992478287 -0.0061066547862311613 0 0.0093324132479307431 -0.0048973183564994588 0 0.0047451193871943763 -0.0065676280505121793 0 0.0031627830209089458 -0.0096334398611716034 0 0.00086349671527287809 -0.007835797795743768 0 0.0047141109531647265 -0.0045598452856783255 0 0.0032302882676482889 -0.008704215063158981 0 0.005843529524991461 -0.004977129385298441 0 0.0047141109531647265 -0.0045598452856783255 0 0.0032302882676482889 -0.008704215063158981 0 -0.0013109251665472616 -0.015057869773907138 0 0.0013407934043648798 -0.011459909804239915 0 0.0043690029663006908 -0.013313656619667068 0 -0.0095730151254929865 -0.01288389016603003 0 0.0031627830209089458 -0.0096334398611716034 0 -0.0013109251665472616 -0.015057869773907138 0 0.0043690029663006908 -0.013313656619667068 0 0.0045793349348766405 -0.017181900399542809 0 -0.0095730151254929865 -0.01288389016603003 0 -0.016734462640129615 -0.012598042927490765 0 0.0043690029663006908 -0.013313656619667068 0 0.0087184210287927014 -0.01575349148701341 0 0.0045793349348766405 -0.017181900399542809 0 0.0040711485397218698 -0.0079410298799471833 0 0.0013407934043648798 -0.011459909804239915 0 0.0043690029663006908 -0.013313656619667068 0 0.0040711485397218698 -0.0079410298799471833 0 0.0043690029663006908 -0.013313656619667068 0 0.0077693864686730124 -0.010908510939979537 0 0.0077693864686730124 -0.010908510939979537 0 0.0087184210287927014 -0.01575349148701341 0 0.010371734272489016 -0.012758383447387986 0 0.0043690029663006908 -0.013313656619667068 0 0.0077693864686730124 -0.010908510939979537 0 0.0087184210287927014 -0.01575349148701341 0 -0.010383651648702554 -0.014576606939964277 0 -0.016734462640129615 -0.012598042927490765 0 -0.029437759198910691 -0.012692275967346265 0 -0.034393668165852834 -0.014218949906397523 0 -0.032639569553765582 -0.010065074505496825 0 -0.010383651648702554 -0.014576606939964277 0 -0.0049567967269475068 -0.0093559269244035889 0 0.0087184210287927014 -0.01575349148701341 0 0.012802012391407889 -0.014319217975171841 0 0.010371734272489016 -0.012758383447387986 0 0.0077693864686730124 -0.010908510939979537 0 0.010371734272489016 -0.012758383447387986 0 0.012217977588159767 -0.010033946231658535 0 -0.0049567967269475068 -0.0093559269244035889 0 0.014470492839203758 -0.012908447308659457 0 0.012802012391407889 -0.014319217975171841 0 0.010371734272489016 -0.012758383447387986 0 0.012217977588159767 -0.010033946231658535 0 -0.034559272883788725 -0.0075855132608766539 0 -0.034784894371106288 -0.0079097921794718442 0 -0.034301193029950224 -0.0081742287085586236 0 -0.035614666697363198 -0.0068788714975897844 0 -0.034823568917109193 -0.0074700875132171409 0 -0.034784894371106288 -0.0079097921794718442 0 -0.035614666697363198 -0.0068788714975897844 0 -0.034823568917109193 -0.0074700875132171409 0 -0.035026973081436048 -0.0070235305915575001 0 -0.034823568917109193 -0.0074700875132171409 0 -0.035026973081436048 -0.0070235305915575001 0 -0.034559272883788725 -0.0075855132608766539 0 -0.034823568917109193 -0.0074700875132171409 0 -0.034559272883788725 -0.0075855132608766539 0 -0.034784894371106288 -0.0079097921794718442 0 -0.035439226636332831 -0.0087880988728488412 0 -0.034784894371106288 -0.0079097921794718442 0 -0.032639569553765582 -0.010065074505496825 0 -0.033587050903862277 -0.0082174411577561925 0 -0.03412949493439358 -0.0078637050746177672 0 -0.035439226636332831 -0.0087880988728488412 0 -0.034393668165852834 -0.014218949906397523 0 -0.032639569553765582 -0.010065074505496825 0 -0.034784894371106288 -0.0079097921794718442 0 -0.032639569553765582 -0.010065074505496825 0 -0.029354463614874319 -0.0089528437232550568 0 -0.03412949493439358 -0.0078637050746177672 0 -0.016734462640129615 -0.012598042927490765 0 -0.029437759198910691 -0.012692275967346265 0 -0.029354463614874319 -0.0089528437232550568 0 -0.02382296207596175 -0.010875848603742008 0 -0.029437759198910691 -0.012692275967346265 0 -0.032639569553765582 -0.010065074505496825 0 -0.029354463614874319 -0.0089528437232550568 0 -0.034559272883788725 -0.0075855132608766539 0 -0.033590684111283811 -0.0078053342029953763 0 -0.033981675359545369 -0.0070127610211554933 0 -0.034559272883788725 -0.0075855132608766539 0 -0.034301193029950224 -0.0081742287085586236 0 -0.033590684111283811 -0.0078053342029953763 0 -0.033590684111283811 -0.0078053342029953763 0 -0.032628792502681275 -0.0069480138072204895 0 -0.033981675359545369 -0.0070127610211554933 0 -0.033590684111283811 -0.0078053342029953763 0 -0.033312029577175536 -0.0086687405509273483 0 -0.032395633107913394 -0.0084153911774375763 0 -0.034301193029950224 -0.0081742287085586236 0 -0.033590684111283811 -0.0078053342029953763 0 -0.033312029577175536 -0.0086687405509273483 0 -0.02394738526692736 -0.011426374434454312 0 -0.019650286391666397 -0.012891037431252297 0 -0.022329584609989128 -0.01381723645191028 0 -0.016734462640129615 -0.012598042927490765 0 -0.028808804648021991 -0.011539097923812471 0 -0.033590684111283811 -0.0078053342029953763 0 -0.032395633107913394 -0.0084153911774375763 0 -0.032628792502681275 -0.0069480138072204895 0 -0.032395633107913394 -0.0084153911774375763 0 -0.032628792502681275 -0.0069480138072204895 0 -0.031408135146274059 -0.0081117760035158779 0 -0.032275491995923514 -0.010008003757351917 0 -0.031705260610182764 -0.007724544191569864 0 -0.030103070043985804 -0.0092539456106910771 0 -0.032275491995923514 -0.010008003757351917 0 -0.031705260610182764 -0.007724544191569864 0 -0.034694439221032609 -0.0073882832491646228 0 -0.031705260610182764 -0.007724544191569864 0 -0.034694439221032609 -0.0073882832491646228 0 -0.032842712073563589 -0.0059130579214895836 0 -0.032628792502681275 -0.0069480138072204895 0 -0.033965560436550753 -0.0058586487084358796 0 -0.033981675359545369 -0.0070127610211554933 0 -0.032922412296393783 -0.0082136140684570692 0 -0.034222245014625896 -0.0067179362845119469 0 -0.033965560436550753 -0.0058586487084358796 0 -0.033981675359545369 -0.0070127610211554933 0 -0.03490253805645336 -0.0066688900859343961 0 -0.034559272883788725 -0.0075855132608766539 0 -0.033981675359545369 -0.0070127610211554933 0 -0.03490253805645336 -0.0066688900859343961 0 -0.033965560436550753 -0.0058586487084358796 0 -0.035304012527351894 -0.0057568529903560322 0 -0.03490253805645336 -0.0066688900859343961 0 -0.036073307191665523 -0.0055980210247626623 0 -0.035304012527351894 -0.0057568529903560322 0 -0.035672419225126428 -0.0063496159241872678 0 -0.035304012527351894 -0.0057568529903560322 0 -0.035672419225126428 -0.0063496159241872678 0 -0.03490253805645336 -0.0066688900859343961 0 -0.035098304833889565 -0.0068242611510379711 0 -0.03525613898582422 -0.0059666242888097186 0 -0.035026973081436048 -0.0070235305915575001 0 -0.035672419225126428 -0.0063496159241872678 0 -0.03490253805645336 -0.0066688900859343961 0 -0.035026973081436048 -0.0070235305915575001 0 -0.034559272883788725 -0.0075855132608766539 0 -0.03490253805645336 -0.0066688900859343961 0 -0.02684306030100627 -0.011484942393306439 0 -0.025231209509788504 -0.011058707678890826 0 -0.024787102761064876 -0.012153528604718303 0 -0.026364978969222731 -0.011592772168249282 0 -0.025456844575645399 -0.011882582919675434 0 -0.026194923375462278 -0.012045347836579685 0 -0.02684306030100627 -0.011484942393306439 0 -0.027482947874495494 -0.010176262159149116 0 -0.025919647685551949 -0.0097168190842845358 0 -0.027548340284686394 -0.011335974248202162 0 -0.019361771609628844 -0.0096389381560681459 0 -0.02684306030100627 -0.011484942393306439 0 -0.025231209509788504 -0.011058707678890826 0 -0.025919647685551949 -0.0097168190842845358 0 -0.023334322783706108 -0.010870467286442306 0 -0.025231209509788504 -0.011058707678890826 0 -0.024787102761064876 -0.012153528604718303 0 -0.023334322783706108 -0.010870467286442306 0 -0.025231209509788504 -0.011058707678890826 0 -0.025919647685551949 -0.0097168190842845358 0 -0.012609794431572667 -0.0072016017811231403 0 -0.01488177801612524 -0.0092037012060991723 0 -0.014052590018578413 -0.0094612151869466529 0 -0.018721442159411249 -0.0092233681036925277 0 -0.019361771609628844 -0.0096389381560681459 0 -0.014976974361009246 -0.0082101833410783785 0 -0.016596710589686991 -0.0096217000777329489 0 -0.01367703767196045 -0.0086193631190640031 0 -0.0028551208829946722 -0.0083774442379456731 0 -0.0028636023483613322 -0.006132401763029453 0 -0.0016107926519811628 -0.0072242409373966992 0 -0.025456844575645399 -0.011882582919675434 0 -0.025770933421324155 -0.012156491544240432 0 -0.026194923375462278 -0.012045347836579685 0 -0.0028636023483613322 -0.006132401763029453 0 -0.0014023936712963809 -0.0056039391408639234 0 -0.0016107926519811628 -0.0072242409373966992 0 -0.016308435352326889 -0.0092115723408239831 0 -0.0084046477105921627 -0.0078925166758377543 0 -0.019361771609628844 -0.0096389381560681459 0 -0.016308435352326889 -0.0092115723408239831 0 -0.019361771609628844 -0.0096389381560681459 0 -0.0084046477105921627 -0.0078925166758377543 0 -0.0047955012120405012 -0.0078750455424641229 0 -0.0028551208829946722 -0.0083774442379456731 0 -0.0028636023483613322 -0.006132401763029453 0 -0.026843125378433877 -0.012528303182062382 0 -0.025700044999778387 -0.012251094788408586 0 -0.026059459053535183 -0.012254081108359186 0 -0.016779827966216351 -0.01091550271712409 0 -0.016308435352326889 -0.0092115723408239831 0 -0.025770933421324155 -0.012156491544240432 0 -0.026059459053535183 -0.012254081108359186 0 -0.026194923375462278 -0.012045347836579685 0 -0.016308435352326889 -0.0092115723408239831 0 -0.022006388813211954 -0.011144714220029869 0 -0.026059459053535183 -0.012254081108359186 0 -0.026194923375462278 -0.012045347836579685 0 -0.026480266677271828 -0.01230037132983439 0 -0.026194923375462278 -0.012045347836579685 0 -0.026480266677271828 -0.01230037132983439 0 -0.026790947166747153 -0.012299844601737829 0 -0.026364978969222731 -0.011592772168249282 0 -0.026194923375462278 -0.012045347836579685 0 -0.026790947166747153 -0.012299844601737829 0 -0.026843125378433877 -0.012528303182062382 0 -0.026059459053535183 -0.012254081108359186 0 -0.026480266677271828 -0.01230037132983439 0 -0.026843125378433877 -0.012528303182062382 0 -0.026480266677271828 -0.01230037132983439 0 -0.026790947166747153 -0.012299844601737829 0 -0.026684588859244528 -0.012557809218316601 0 -0.027161431207528071 -0.012212999810342009 0 -0.026790947166747153 -0.012299844601737829 0 -0.026843125378433877 -0.012528303182062382 0 -0.026684588859244528 -0.012557809218316601 0 -0.026790947166747153 -0.012299844601737829 0 -0.026684588859244528 -0.012557809218316601 0 -0.025175656020425534 -0.013090402607020062 0 -0.024928818765869071 -0.014646849272385742 0 -0.025305625660021088 -0.012048428059165331 0 -0.026684588859244528 -0.012557809218316601 0 -0.025175656020425534 -0.013090402607020062 0 -0.026036199370367278 -0.013370861901684836 0 -0.028055814372224777 -0.011190887622289061 0 -0.026684588859244528 -0.012557809218316601 0 -0.027161431207528071 -0.012212999810342009 0 -0.027667591621842687 -0.012101754044249005 0 -0.027161431207528071 -0.012212999810342009 0 -0.027667591621842687 -0.012101754044249005 0 -0.027445675407323209 -0.011861899135001163 0 -0.027161431207528071 -0.012212999810342009 0 -0.026790947166747153 -0.012299844601737829 0 -0.027445675407323209 -0.011861899135001163 0 -0.028808804648021991 -0.011539097923812471 0 -0.028055814372224777 -0.011190887622289061 0 -0.022329584609989128 -0.01381723645191028 0 -0.025175656020425534 -0.013090402607020062 0 -0.024928818765869071 -0.014646849272385742 0 -0.024365755955548275 -0.012001247363930337 0 -0.022329584609989128 -0.01381723645191028 0 -0.025175656020425534 -0.013090402607020062 0 -0.032275491995923514 -0.010008003757351917 0 -0.029536677532592169 -0.012619526376218979 0 -0.028584541632410199 -0.010916393561002153 0 -0.032922412296393783 -0.0082136140684570692 0 -0.028055814372224777 -0.011190887622289061 0 -0.027548340284686394 -0.011335974248202162 0 -0.028061584061691021 -0.011076868534217476 0 -0.026364978969222731 -0.011592772168249282 0 -0.027445675407323209 -0.011861899135001163 0 -0.028584541632410199 -0.010916393561002153 0 -0.02684306030100627 -0.011484942393306439 0 -0.028584541632410199 -0.010916393561002153 0 -0.027482947874495494 -0.010176262159149116 0 -0.026364978969222731 -0.011592772168249282 0 -0.026790947166747153 -0.012299844601737829 0 -0.027445675407323209 -0.011861899135001163 0 -0.028055814372224777 -0.011190887622289061 0 -0.027867424410393454 -0.011935121368724011 0 -0.029536677532592169 -0.012619526376218979 0 -0.027445675407323209 -0.011861899135001163 0 -0.028584541632410199 -0.010916393561002153 0 -0.028584541632410199 -0.010916393561002153 0 -0.027482947874495494 -0.010176262159149116 0 -0.028629178091034227 -0.0095518781399493054 0 -0.027482947874495494 -0.010176262159149116 0 -0.028629178091034227 -0.0095518781399493054 0 -0.027898679584446799 -0.008491327802020332 0 -0.032275491995923514 -0.010008003757351917 0 -0.028584541632410199 -0.010916393561002153 0 -0.030103070043985804 -0.0092539456106910771 0 -0.028584541632410199 -0.010916393561002153 0 -0.028629178091034227 -0.0095518781399493054 0 -0.030103070043985804 -0.0092539456106910771 0 -0.028629178091034227 -0.0095518781399493054 0 -0.030103070043985804 -0.0092539456106910771 0 -0.029503400157226765 -0.0079322475845806147 0 -0.031705260610182764 -0.007724544191569864 0 -0.030103070043985804 -0.0092539456106910771 0 -0.029503400157226765 -0.0079322475845806147 0 -0.031705260610182764 -0.007724544191569864 0 -0.029503400157226765 -0.0079322475845806147 0 -0.03080454995337676 -0.0062340896973245713 0 -0.029503400157226765 -0.0079322475845806147 0 -0.029089905667387526 -0.0064790741664648042 0 -0.03080454995337676 -0.0062340896973245713 0 -0.027898679584446799 -0.008491327802020332 0 -0.027251383407126472 -0.0064035952368534186 0 -0.029089905667387526 -0.0064790741664648042 0 -0.029503400157226765 -0.0079322475845806147 0 -0.027898679584446799 -0.008491327802020332 0 -0.029089905667387526 -0.0064790741664648042 0 -0.028629178091034227 -0.0095518781399493054 0 -0.029503400157226765 -0.0079322475845806147 0 -0.027898679584446799 -0.008491327802020332 0 -0.027898679584446799 -0.008491327802020332 0 -0.026022135762049967 -0.0077260097606560822 0 -0.027251383407126472 -0.0064035952368534186 0 -0.027898679584446799 -0.008491327802020332 0 -0.026022135762049967 -0.0077260097606560822 0 -0.025919647685551949 -0.0097168190842845358 0 -0.027482947874495494 -0.010176262159149116 0 -0.027898679584446799 -0.008491327802020332 0 -0.025919647685551949 -0.0097168190842845358 0 -0.02344564003586469 -0.010932312837926429 0 -0.025919647685551949 -0.0097168190842845358 0 -0.02400964757132952 -0.0084300388465716487 0 -0.018721442159411249 -0.0092233681036925277 0 -0.027323348139085813 -0.0097772793213443971 0 -0.026022135762049967 -0.0077260097606560822 0 -0.02400964757132952 -0.0084300388465716487 0 -0.024824332862541706 -0.0057347975676164164 0 -0.026022135762049967 -0.0077260097606560822 0 -0.025919647685551949 -0.0097168190842845358 0 -0.02400964757132952 -0.0084300388465716487 0 -0.024824332862541706 -0.0057347975676164164 0 -0.025756976793575474 -0.0034882349207708495 0 -0.023331901045554475 -0.0032236615023166627 0 -0.024824332862541706 -0.0057347975676164164 0 -0.025756976793575474 -0.0034882349207708495 0 -0.027472179293152179 -0.0045171521674220007 0 -0.025756976793575474 -0.0034882349207708495 0 -0.027472179293152179 -0.0045171521674220007 0 -0.029021090286859057 -0.0021902843166225539 0 -0.026022135762049967 -0.0077260097606560822 0 -0.024824332862541706 -0.0057347975676164164 0 -0.027251383407126472 -0.0064035952368534186 0 -0.024824332862541706 -0.0057347975676164164 0 -0.027472179293152179 -0.0045171521674220007 0 -0.027251383407126472 -0.0064035952368534186 0 -0.027472179293152179 -0.0045171521674220007 0 -0.029089905667387526 -0.0064790741664648042 0 -0.029826683793713143 -0.0045955879513535306 0 -0.027472179293152179 -0.0045171521674220007 0 -0.027251383407126472 -0.0064035952368534186 0 -0.029089905667387526 -0.0064790741664648042 0 -0.03080454995337676 -0.0062340896973245713 0 -0.029826683793713143 -0.0045955879513535306 0 -0.031801232933102219 -0.004805409800221757 0 -0.029089905667387526 -0.0064790741664648042 0 -0.03080454995337676 -0.0062340896973245713 0 -0.029826683793713143 -0.0045955879513535306 0 -0.029826683793713143 -0.0045955879513535306 0 -0.03076175987591754 -0.0032830350512794843 0 -0.031801232933102219 -0.004805409800221757 0 -0.027472179293152179 -0.0045171521674220007 0 -0.029826683793713143 -0.0045955879513535306 0 -0.029021090286859057 -0.0021902843166225539 0 -0.029021090286859057 -0.0021902843166225539 0 -0.031306318918926782 -0.0020822740374524295 0 -0.03046623786198397 -0.00085970515615095653 0 -0.029021090286859057 -0.0021902843166225539 0 -0.03076175987591754 -0.0032830350512794843 0 -0.031306318918926782 -0.0020822740374524295 0 -0.029826683793713143 -0.0045955879513535306 0 -0.029021090286859057 -0.0021902843166225539 0 -0.03076175987591754 -0.0032830350512794843 0 -0.03076175987591754 -0.0032830350512794843 0 -0.031306318918926782 -0.0020822740374524295 0 -0.032339243707043809 -0.003302157556824485 0 -0.03046623786198397 -0.00085970515615095653 0 -0.028034359208867161 0.00049435743911497275 0 -0.031768492086016814 0.00040444956839569339 0 -0.031306318918926782 -0.0020822740374524295 0 -0.03046623786198397 -0.00085970515615095653 0 -0.03225698863473217 -0.00091166427086197019 0 -0.03046623786198397 -0.00085970515615095653 0 -0.03225698863473217 -0.00091166427086197019 0 -0.031768492086016814 0.00040444956839569339 0 -0.029021090286859057 -0.0021902843166225539 0 -0.03046623786198397 -0.00085970515615095653 0 -0.028034359208867161 0.00049435743911497275 0 -0.025933067811921295 -0.0015318571795037905 0 -0.024618533042939688 0.00052714482961541674 0 -0.028034359208867161 0.00049435743911497275 0 -0.029021090286859057 -0.0021902843166225539 0 -0.025933067811921295 -0.0015318571795037905 0 -0.028034359208867161 0.00049435743911497275 0 -0.025824260627136251 -0.0014949705158787503 0 -0.022558081115894645 -0.00086903102272893086 0 -0.025933067811921295 -0.0015318571795037905 0 -0.024618533042939688 0.00052714482961541674 0 -0.022792477130244675 -0.00092779994551539437 0 -0.025756976793575474 -0.0034882349207708495 0 -0.025620645276271056 -0.0014208162375607073 0 -0.023331901045554475 -0.0032236615023166627 0 -0.025756976793575474 -0.0034882349207708495 0 -0.029021090286859057 -0.0021902843166225539 0 -0.025620645276271056 -0.0014208162375607073 0 -0.028847049048776482 -0.0021495561181876931 0 -0.025824260627136251 -0.0014949705158787503 0 -0.038631619286615959 -0.0031796724203985945 0 -0.037552434771219917 -0.0041262331880989279 0 -0.03732252562263505 -0.0031632604822449607 0 -0.03682251706547561 -0.0039513510037193691 0 -0.036141511573703704 -0.0038833336211709637 0 -0.03732252562263505 -0.0031632604822449607 0 -0.03682251706547561 -0.0039513510037193691 0 -0.037552434771219917 -0.0041262331880989279 0 -0.03732252562263505 -0.0031632604822449607 0 -0.03682251706547561 -0.0039513510037193691 0 -0.036332318248567128 -0.0047552201525902964 0 -0.037552434771219917 -0.0041262331880989279 0 -0.03682251706547561 -0.0039513510037193691 0 -0.036332318248567128 -0.0047552201525902964 0 -0.036173644091441103 -0.0043947693094506428 0 -0.036332318248567128 -0.0047552201525902964 0 -0.036155557303150912 -0.004941761809922591 0 -0.036059261280507952 -0.0047586106139864016 0 -0.038411213399200415 -0.0048338622763512617 0 -0.037552434771219917 -0.0041262331880989279 0 -0.037614564852897263 -0.0050982663122746043 0 -0.036332318248567128 -0.0047552201525902964 0 -0.037552434771219917 -0.0041262331880989279 0 -0.037614564852897263 -0.0050982663122746043 0 -0.038141767007571638 -0.0067120479699126585 0 -0.036332318248567128 -0.0047552201525902964 0 -0.037614564852897263 -0.0050982663122746043 0 -0.036073307191665523 -0.0055980210247626623 0 -0.035304012527351894 -0.0057568529903560322 0 -0.035964525839899654 -0.0052677777065342525 0 -0.036073307191665523 -0.0055980210247626623 0 -0.036332318248567128 -0.0047552201525902964 0 -0.035964525839899654 -0.0052677777065342525 0 -0.035304012527351894 -0.0057568529903560322 0 -0.035964525839899654 -0.0052677777065342525 0 -0.036155557303150912 -0.004941761809922591 0 -0.033798569803660451 -0.0046392461245559156 0 -0.037364845608899737 -0.005668581348687007 0 -0.036332318248567128 -0.0047552201525902964 0 -0.035964525839899654 -0.0052677777065342525 0 -0.036155557303150912 -0.004941761809922591 0 -0.033965560436550753 -0.0058586487084358796 0 -0.035304012527351894 -0.0057568529903560322 0 -0.036155557303150912 -0.004941761809922591 0 -0.034222245014625896 -0.0067179362845119469 0 -0.03604135352926232 -0.0050324612675640944 0 -0.034694439221032609 -0.0073882832491646228 0 -0.035559703342704731 -0.0049316888662700991 0 -0.034525248378832481 -0.0050619818290492885 0 -0.034694439221032609 -0.0073882832491646228 0 -0.036155557303150912 -0.004941761809922591 0 -0.035559703342704731 -0.0049316888662700991 0 -0.036155557303150912 -0.004941761809922591 0 -0.035559703342704731 -0.0049316888662700991 0 -0.036059261280507952 -0.0047586106139864016 0 -0.035559703342704731 -0.0049316888662700991 0 -0.035356683923400516 -0.004125500929449355 0 -0.034525248378832481 -0.0050619818290492885 0 -0.035559703342704731 -0.0049316888662700991 0 -0.036141511573703704 -0.0038833336211709637 0 -0.035356683923400516 -0.004125500929449355 0 -0.035559703342704731 -0.0049316888662700991 0 -0.036173644091441103 -0.0043947693094506428 0 -0.036141511573703704 -0.0038833336211709637 0 -0.036332318248567128 -0.0047552201525902964 0 -0.036059261280507952 -0.0047586106139864016 0 -0.036173644091441103 -0.0043947693094506428 0 -0.035559703342704731 -0.0049316888662700991 0 -0.036059261280507952 -0.0047586106139864016 0 -0.036173644091441103 -0.0043947693094506428 0 -0.03682251706547561 -0.0039513510037193691 0 -0.036173644091441103 -0.0043947693094506428 0 -0.036141511573703704 -0.0038833336211709637 0 -0.036141511573703704 -0.0038833336211709637 0 -0.035356683923400516 -0.004125500929449355 0 -0.035897058068557156 -0.0029834775065820693 0 -0.035356683923400516 -0.004125500929449355 0 -0.034662908072569741 -0.0036994404977372815 0 -0.035897058068557156 -0.0029834775065820693 0 -0.034662908072569741 -0.0036994404977372815 0 -0.033429287428417748 -0.004352648778663001 0 -0.033692093530280763 -0.0031190054459594341 0 -0.035356683923400516 -0.004125500929449355 0 -0.034662908072569741 -0.0036994404977372815 0 -0.034525248378832481 -0.0050619818290492885 0 -0.034662908072569741 -0.0036994404977372815 0 -0.033429287428417748 -0.004352648778663001 0 -0.034525248378832481 -0.0050619818290492885 0 -0.034694439221032609 -0.0073882832491646228 0 -0.034525248378832481 -0.0050619818290492885 0 -0.032842712073563589 -0.0059130579214895836 0 -0.033429287428417748 -0.004352648778663001 0 -0.034525248378832481 -0.0050619818290492885 0 -0.032842712073563589 -0.0059130579214895836 0 -0.03080454995337676 -0.0062340896973245713 0 -0.032842712073563589 -0.0059130579214895836 0 -0.031801232933102219 -0.004805409800221757 0 -0.031705260610182764 -0.007724544191569864 0 -0.03080454995337676 -0.0062340896973245713 0 -0.032842712073563589 -0.0059130579214895836 0 -0.033429287428417748 -0.004352648778663001 0 -0.032842712073563589 -0.0059130579214895836 0 -0.031801232933102219 -0.004805409800221757 0 -0.033429287428417748 -0.004352648778663001 0 -0.032339243707043809 -0.003302157556824485 0 -0.033692093530280763 -0.0031190054459594341 0 -0.033429287428417748 -0.004352648778663001 0 -0.031801232933102219 -0.004805409800221757 0 -0.032339243707043809 -0.003302157556824485 0 -0.03076175987591754 -0.0032830350512794843 0 -0.031801232933102219 -0.004805409800221757 0 -0.032339243707043809 -0.003302157556824485 0 -0.032339243707043809 -0.003302157556824485 0 -0.033041678378796888 -0.0021017874668448843 0 -0.033692093530280763 -0.0031190054459594341 0 -0.031306318918926782 -0.0020822740374524295 0 -0.033041678378796888 -0.0021017874668448843 0 -0.03225698863473217 -0.00091166427086197019 0 -0.031306318918926782 -0.0020822740374524295 0 -0.032339243707043809 -0.003302157556824485 0 -0.033041678378796888 -0.0021017874668448843 0 -0.03225698863473217 -0.00091166427086197019 0 -0.033431371099276186 0.00036151384592157426 0 -0.031768492086016814 0.00040444956839569339 0 -0.03225698863473217 -0.00091166427086197019 0 -0.033712246331073281 -0.0010114907804787789 0 -0.033431371099276186 0.00036151384592157426 0 -0.033041678378796888 -0.0021017874668448843 0 -0.03225698863473217 -0.00091166427086197019 0 -0.033712246331073281 -0.0010114907804787789 0 -0.033041678378796888 -0.0021017874668448843 0 -0.033712246331073281 -0.0010114907804787789 0 -0.035187404670521276 -0.0017755101411302946 0 -0.033712246331073281 -0.0010114907804787789 0 -0.035187404670521276 -0.0017755101411302946 0 -0.036842712987237368 0.00091689888831980918 0 -0.034662908072569741 -0.0036994404977372815 0 -0.035187404670521276 -0.0017755101411302946 0 -0.033692093530280763 -0.0031190054459594341 0 -0.033041678378796888 -0.0021017874668448843 0 -0.035187404670521276 -0.0017755101411302946 0 -0.033692093530280763 -0.0031190054459594341 0 -0.035187404670521276 -0.0017755101411302946 0 -0.035897058068557156 -0.0029834775065820693 0 -0.037238980689322333 -0.00093769272329850557 0 -0.035897058068557156 -0.0029834775065820693 0 -0.037238980689322333 -0.00093769272329850557 0 -0.03732252562263505 -0.0031632604822449607 0 -0.034662908072569741 -0.0036994404977372815 0 -0.035187404670521276 -0.0017755101411302946 0 -0.035897058068557156 -0.0029834775065820693 0 -0.036141511573703704 -0.0038833336211709637 0 -0.035897058068557156 -0.0029834775065820693 0 -0.03732252562263505 -0.0031632604822449607 0 -0.035187404670521276 -0.0017755101411302946 0 -0.037238980689322333 -0.00093769272329850557 0 -0.036842712987237368 0.00091689888831980918 0 -0.03941052158515241 -0.00048593464711870068 0 -0.037238980689322333 -0.00093769272329850557 0 -0.038329380164777591 -0.001681916827458966 0 -0.030464294299117768 -0.0018225341927811396 0 -0.040044303658461837 -0.0030534808408861028 0 -0.037238980689322333 -0.00093769272329850557 0 -0.038329380164777591 -0.001681916827458966 0 -0.03732252562263505 -0.0031632604822449607 0 -0.039062938688738037 -0.0030624198643951412 0 -0.038329380164777591 -0.001681916827458966 0 -0.03732252562263505 -0.0031632604822449607 0 -0.038365926563969976 0.00081811915759160499 0 -0.0379203771108916 0.0013505661368859558 0 -0.038936945142150389 0.0016214421287344303 0 -0.03941052158515241 -0.00048593464711870068 0 -0.037238980689322333 -0.00093769272329850557 0 -0.038365926563969976 0.00081811915759160499 0 -0.037238980689322333 -0.00093769272329850557 0 -0.038365926563969976 0.00081811915759160499 0 -0.036842712987237368 0.00091689888831980918 0 -0.036842712987237368 0.00091689888831980918 0 -0.0379203771108916 0.0013505661368859558 0 -0.037494890910701489 0.0011916112582888859 0 -0.038365926563969976 0.00081811915759160499 0 -0.036842712987237368 0.00091689888831980918 0 -0.0379203771108916 0.0013505661368859558 0 -0.036842712987237368 0.00091689888831980918 0 -0.037494890910701489 0.0011916112582888859 0 -0.037473992137105783 0.0011120958234232536 0 -0.03675613961202049 0.00099657442407599162 0 -0.034955027494788911 0.0014787775744322031 0 -0.036842712987237368 0.00091689888831980918 0 -0.033431371099276186 0.00036151384592157426 0 -0.03242467235037011 0.0019559763427164844 0 -0.033712246331073281 -0.0010114907804787789 0 -0.036842712987237368 0.00091689888831980918 0 -0.033431371099276186 0.00036151384592157426 0 -0.033431371099276186 0.00036151384592157426 0 -0.03242467235037011 0.0019559763427164844 0 -0.031768492086016814 0.00040444956839569339 0 -0.037494890910701489 0.0011916112582888859 0 -0.037473992137105783 0.0011120958234232536 0 -0.037400227877097653 0.0012705926450664383 0 -0.037540039469853854 0.0014630664525661693 0 -0.037558968965543081 0.0019160978617428414 0 -0.03734769569838136 0.0015644783607882634 0 -0.037494890910701489 0.0011916112582888859 0 -0.037540039469853854 0.0014630664525661693 0 -0.037873194890792522 0.0017032398910912124 0 -0.037494890910701489 0.0011916112582888859 0 -0.037540039469853854 0.0014630664525661693 0 -0.037400227877097653 0.0012705926450664383 0 -0.037540039469853854 0.0014630664525661693 0 -0.037558968965543081 0.0019160978617428414 0 -0.037873194890792522 0.0017032398910912124 0 -0.037980205951468386 0.0020924536283081904 0 -0.037558968965543081 0.0019160978617428414 0 -0.037873194890792522 0.0017032398910912124 0 -0.037873194890792522 0.0017032398910912124 0 -0.038526084321511667 0.0021002880228862017 0 -0.038076785408744214 0.0016216394588861023 0 -0.037980205951468386 0.0020924536283081904 0 -0.037873194890792522 0.0017032398910912124 0 -0.038526084321511667 0.0021002880228862017 0 -0.037494890910701489 0.0011916112582888859 0 -0.037873194890792522 0.0017032398910912124 0 -0.038076785408744214 0.0016216394588861023 0 -0.0379203771108916 0.0013505661368859558 0 -0.037494890910701489 0.0011916112582888859 0 -0.038076785408744214 0.0016216394588861023 0 -0.0379203771108916 0.0013505661368859558 0 -0.038076785408744214 0.0016216394588861023 0 -0.038636615659782901 0.0018779033583306568 0 -0.038526084321511667 0.0021002880228862017 0 -0.038636615659782901 0.0018779033583306568 0 -0.039160771728321282 0.0022844823842131023 0 -0.038526084321511667 0.0021002880228862017 0 -0.038076785408744214 0.0016216394588861023 0 -0.038636615659782901 0.0018779033583306568 0 -0.0396228046958211 0.002464685540026974 0 -0.039221525948065133 0.0020903949137605765 0 -0.039160771728321282 0.0022844823842131023 0 -0.038636615659782901 0.0018779033583306568 0 -0.039221525948065133 0.0020903949137605765 0 -0.039160771728321282 0.0022844823842131023 0 -0.038636615659782901 0.0018779033583306568 0 -0.039221525948065133 0.0020903949137605765 0 -0.038936945142150389 0.0016214421287344303 0 -0.0379203771108916 0.0013505661368859558 0 -0.038636615659782901 0.0018779033583306568 0 -0.038936945142150389 0.0016214421287344303 0 -0.036908048238228838 0.00082530729749272702 0 -0.036683760926462292 0.0014695023984114875 0 -0.035955299550012108 0.0013690065244230227 0 -0.030434419738145833 0.0016843502898847818 0 -0.033029729119680114 0.0015845558811451714 0 -0.035280954662859056 0.00052424142379163205 0 -0.036908048238228838 0.00082530729749272702 0 -0.035955299550012108 0.0013690065244230227 0 -0.025850244005093313 0.0028534216163781136 0 -0.024921724107940253 0.00050764864684092075 0 -0.028459692974868819 0.00049655212184335055 0 -0.025850244005093313 0.0028534216163781136 0 -0.024921724107940253 0.00050764864684092075 0 -0.023032079783009297 0.0017184159032047415 0 -0.024716457652548384 0.00052241986954497637 0 -0.02829494066238121 0.00048849112952415689 0 -0.025850244005093313 0.0028534216163781136 0 -0.028459692974868819 0.00049655212184335055 0 -0.02917481645590924 0.002319679139747316 0 -0.028459692974868819 0.00049655212184335055 0 -0.031768492086016814 0.00040444956839569339 0 -0.02917481645590924 0.002319679139747316 0 -0.03242467235037011 0.0019559763427164844 0 -0.031768492086016814 0.00040444956839569339 0 -0.02917481645590924 0.002319679139747316 0 -0.02829494066238121 0.00048849112952415689 0 -0.031606205751351063 0.00041117300765822207 0 -0.034955027494788911 0.0014787775744322031 0 -0.033029729119680114 0.0015845558811451714 0 -0.037400227877097653 0.0012705926450664383 0 -0.036908048238228838 0.00082530729749272702 0 -0.037114445836276572 0.0013742055130954345 0 -0.037473992137105783 0.0011120958234232536 0 -0.037400227877097653 0.0012705926450664383 0 -0.036908048238228838 0.00082530729749272702 0 -0.036908048238228838 0.00082530729749272702 0 -0.036683760926462292 0.0014695023984114875 0 -0.037114445836276572 0.0013742055130954345 0 -0.036683760926462292 0.0014695023984114875 0 -0.037114445836276572 0.0013742055130954345 0 -0.03708969012460038 0.0017785279488060995 0 -0.036683760926462292 0.0014695023984114875 0 -0.036699087649683451 0.0018295814697276182 0 -0.03708969012460038 0.0017785279488060995 0 -0.037400227877097653 0.0012705926450664383 0 -0.037114445836276572 0.0013742055130954345 0 -0.03734769569838136 0.0015644783607882634 0 -0.037540039469853854 0.0014630664525661693 0 -0.037400227877097653 0.0012705926450664383 0 -0.03734769569838136 0.0015644783607882634 0 -0.037114445836276572 0.0013742055130954345 0 -0.03734769569838136 0.0015644783607882634 0 -0.03708969012460038 0.0017785279488060995 0 -0.037558968965543081 0.0019160978617428414 0 -0.03734769569838136 0.0015644783607882634 0 -0.03708969012460038 0.0017785279488060995 0 -0.037558968965543081 0.0019160978617428414 0 -0.0372829673994865 0.0020861270807387483 0 -0.03708969012460038 0.0017785279488060995 0 -0.037558968965543081 0.0019160978617428414 0 -0.0372829673994865 0.0020861270807387483 0 -0.037423695602352987 0.0024137119806704175 0 -0.036699087649683451 0.0018295814697276182 0 -0.03708969012460038 0.0017785279488060995 0 -0.036833686282708562 0.0023425841341799172 0 -0.0372829673994865 0.0020861270807387483 0 -0.03708969012460038 0.0017785279488060995 0 -0.036833686282708562 0.0023425841341799172 0 -0.036277949921293483 0.0019166030851654359 0 -0.035779737215201057 0.0021463447148796075 0 -0.036356127376798414 0.0024654264233803921 0 -0.036277949921293483 0.0019166030851654359 0 -0.036833686282708562 0.0023425841341799172 0 -0.036356127376798414 0.0024654264233803921 0 -0.036699087649683451 0.0018295814697276182 0 -0.036277949921293483 0.0019166030851654359 0 -0.036833686282708562 0.0023425841341799172 0 -0.036683760926462292 0.0014695023984114875 0 -0.036277949921293483 0.0019166030851654359 0 -0.035955299550012108 0.0013690065244230227 0 -0.036683760926462292 0.0014695023984114875 0 -0.036699087649683451 0.0018295814697276182 0 -0.036277949921293483 0.0019166030851654359 0 -0.035955299550012108 0.0013690065244230227 0 -0.034747178600759994 0.0041011974987910857 0 -0.034061106300266313 0.0020213404003499515 0 -0.035280954662859056 0.00052424142379163205 0 -0.035955299550012108 0.0013690065244230227 0 -0.034061106300266313 0.0020213404003499515 0 -0.036002269358908705 0.0013670112218241658 0 -0.035099013936187688 0.0032951982775664165 0 -0.036277949921293483 0.0019166030851654359 0 -0.035955299550012108 0.0013690065244230227 0 -0.035779737215201057 0.0021463447148796075 0 -0.034747178600759994 0.0041011974987910857 0 -0.031960805511676058 0.0035136088808085195 0 -0.034061106300266313 0.0020213404003499515 0 -0.034747178600759994 0.0041011974987910857 0 -0.031960805511676058 0.0035136088808085195 0 -0.032394986782970238 0.0052877828098390235 0 -0.031960805511676058 0.0035136088808085195 0 -0.030092414197114763 0.0037138674731881163 0 -0.030600227689169215 0.0023315485008644429 0 -0.031960805511676058 0.0035136088808085195 0 -0.030600227689169215 0.0023315485008644429 0 -0.032185312107542642 0.00071287742864442182 0 -0.031960805511676058 0.0035136088808085195 0 -0.034061106300266313 0.0020213404003499515 0 -0.032185312107542642 0.00071287742864442182 0 -0.019669944306357979 0.0016147870699765431 0 -0.02128627941029014 0.0011985182320659346 0 -0.020627145138954934 0.0050044136641242245 0 -0.028793356370029197 0.0029457116179670666 0 -0.030092414197114763 0.0037138674731881163 0 -0.028486388035461621 0.0047685980096312383 0 -0.025169640847618781 0.0015795771301048214 0 -0.022341899995667349 0.0050116666006343024 0 -0.019612052002621155 0.0014976789031456526 0 -0.018784866296388401 0.0025468189337893147 0 -0.018235601349988948 0.00066258417097735263 0 -0.019612052002621155 0.0014976789031456526 0 -0.018784866296388401 0.0025468189337893147 0 -0.020582962013054189 0.0047996762355643372 0 -0.018784866296388401 0.0025468189337893147 0 -0.018420286151238738 0.0039399424078299461 0 -0.020582962013054189 0.0047996762355643372 0 -0.019644200972761153 0.0013875656551950084 0 -0.022341899995667349 0.0050116666006343024 0 -0.028793356370029197 0.0029457116179670666 0 -0.030092414197114763 0.0037138674731881163 0 -0.030600227689169215 0.0023315485008644429 0 -0.031960805511676058 0.0035136088808085195 0 -0.030092414197114763 0.0037138674731881163 0 -0.030542799379835242 0.0051868292476914902 0 -0.028793356370029197 0.0029457116179670666 0 -0.030600227689169215 0.0023315485008644429 0 -0.029086097474885296 0.0011080895916715709 0 -0.030600227689169215 0.0023315485008644429 0 -0.029086097474885296 0.0011080895916715709 0 -0.032185312107542642 0.00071287742864442182 0 -0.025169640847618781 0.0015795771301048214 0 -0.021919199444733944 0.0011179879951456495 0 -0.02128627941029014 0.0011985182320659346 0 -0.018716850036749621 -0.001787955469121448 0 -0.021942304468087693 -0.0025910607465040761 0 -0.021919199444733944 0.0011179879951456495 0 -0.015333862603290168 -6.5907173181874621e-05 0 -0.018716850036749621 -0.001787955469121448 0 -0.021942304468087693 -0.0025910607465040761 0 -0.016127489149705781 -0.0018087717616321278 0 -0.019612052002621155 0.0014976789031456526 0 -0.018716850036749621 -0.001787955469121448 0 -0.018235601349988948 0.00066258417097735263 0 -0.019644200972761153 0.0013875656551950084 0 -0.018850090983377137 -0.001320915409362855 0 -0.019669944306357979 0.0016147870699765431 0 -0.02128627941029014 0.0011985182320659346 0 -0.018716850036749621 -0.001787955469121448 0 -0.017094926192068816 0.0021805249031992173 0 -0.018493528942448944 0.0033113915656025053 0 -0.015588895905695345 0.0037059059293505317 0 -0.017094926192068816 0.0021805249031992173 0 -0.018493528942448944 0.0033113915656025053 0 -0.018806215971542313 0.0016167484966813403 0 -0.021919199444733944 0.0011179879951456495 0 -0.027618350187994762 0.0022462271742031532 0 -0.018588856146388666 0.0039102316509695891 0 -0.018920364573975543 0.0019291771654628112 0 -0.020618253234751738 0.0021049527767567772 0 -0.021919199444733944 0.0011179879951456495 0 -0.018842082069337383 0.0022337135597729949 0 -0.018588856146388666 0.0039102316509695891 0 -0.022214077439246749 0.0034282645292263753 0 -0.020618253234751738 0.0021049527767567772 0 -0.018842082069337383 0.0022337135597729949 0 -0.019184702954734543 -9.5563680619547694e-06 0 -0.018806215971542313 0.0016167484966813403 0 -0.018208322440705939 0.00018812214693831458 0 -0.019193595182069922 -8.1685430814554253e-05 0 -0.019942247481410144 0.0010393901793575167 0 -0.018920364573975543 0.0019291771654628112 0 -0.019193595182069922 -8.1685430814554253e-05 0 -0.019942247481410144 0.0010393901793575167 0 -0.020618253234751738 0.0021049527767567772 0 -0.0210637692625372 0.00058796715271619646 0 -0.019942247481410144 0.0010393901793575167 0 -0.018920364573975543 0.0019291771654628112 0 -0.020618253234751738 0.0021049527767567772 0 -0.019942247481410144 0.0010393901793575167 0 -0.020194154705776127 0.00023246856174943465 0 -0.019193595182069922 -8.1685430814554253e-05 0 -0.019942247481410144 0.0010393901793575167 0 -0.020194154705776127 0.00023246856174943465 0 -0.0210637692625372 0.00058796715271619646 0 -0.017094926192068816 0.0021805249031992173 0 -0.018806215971542313 0.0016167484966813403 0 -0.01708995667646691 0.00054712130027774269 0 -0.018806215971542313 0.0016167484966813403 0 -0.018208322440705939 0.00018812214693831458 0 -0.01708995667646691 0.00054712130027774269 0 -0.018208322440705939 0.00018812214693831458 0 -0.01708995667646691 0.00054712130027774269 0 -0.01771530284755719 -0.00044434082927548551 0 -0.025850244005093313 0.0028534216163781136 0 -0.022214077439246749 0.0034282645292263753 0 -0.023032079783009297 0.0017184159032047415 0 -0.035280954662859056 0.00052424142379163205 0 -0.034061106300266313 0.0020213404003499515 0 -0.032185312107542642 0.00071287742864442182 0 -0.030434419738145833 0.0016843502898847818 0 -0.027618350187994762 0.0022462271742031532 0 -0.022214077439246749 0.0034282645292263753 0 -0.020618253234751738 0.0021049527767567772 0 -0.023032079783009297 0.0017184159032047415 0 -0.020618253234751738 0.0021049527767567772 0 -0.0210637692625372 0.00058796715271619646 0 -0.023032079783009297 0.0017184159032047415 0 -0.024716457652548384 0.00052241986954497637 0 -0.021237568301959716 0.00058512475273006384 0 -0.024921724107940253 0.00050764864684092075 0 -0.0210637692625372 0.00058796715271619646 0 -0.023032079783009297 0.0017184159032047415 0 -0.024618533042939688 0.00052714482961541674 0 -0.0210637692625372 0.00058796715271619646 0 -0.022792477130244675 -0.00092779994551539437 0 -0.022416956044326152 -0.00082754427702192866 0 -0.023331901045554475 -0.0032236615023166627 0 -0.021197521515171451 -0.0018660426444564795 0 -0.025620645276271056 -0.0014208162375607073 0 -0.022416956044326152 -0.00082754427702192866 0 -0.023331901045554475 -0.0032236615023166627 0 -0.023331901045554475 -0.0032236615023166627 0 -0.021197521515171451 -0.0018660426444564795 0 -0.021630263535290808 -0.0037861824559797283 0 -0.021197521515171451 -0.0018660426444564795 0 -0.020254988902826419 -0.0031501684624339566 0 -0.021630263535290808 -0.0037861824559797283 0 -0.021197521515171451 -0.0018660426444564795 0 -0.019776832454636614 -0.0016150151822357289 0 -0.020254988902826419 -0.0031501684624339566 0 -0.022558081115894645 -0.00086903102272893086 0 -0.019573785623278838 -0.00029845724025255257 0 -0.020194154705776127 0.00023246856174943465 0 -0.022792477130244675 -0.00092779994551539437 0 -0.019401281608494889 -0.00027771447943122831 0 -0.020194154705776127 0.00023246856174943465 0 -0.0210637692625372 0.00058796715271619646 0 -0.022792477130244675 -0.00092779994551539437 0 -0.022416956044326152 -0.00082754427702192866 0 -0.021197521515171451 -0.0018660426444564795 0 -0.019401281608494889 -0.00027771447943122831 0 -0.021197521515171451 -0.0018660426444564795 0 -0.019401281608494889 -0.00027771447943122831 0 -0.019776832454636614 -0.0016150151822357289 0 -0.020194154705776127 0.00023246856174943465 0 -0.019193595182069922 -8.1685430814554253e-05 0 -0.019401281608494889 -0.00027771447943122831 0 -0.018208322440705939 0.00018812214693831458 0 -0.019193595182069922 -8.1685430814554253e-05 0 -0.018518070910414405 -0.0003493048813565885 0 -0.019193595182069922 -8.1685430814554253e-05 0 -0.019401281608494889 -0.00027771447943122831 0 -0.018968186899389197 -0.00049229810832745894 0 -0.019193595182069922 -8.1685430814554253e-05 0 -0.018968186899389197 -0.00049229810832745894 0 -0.018518070910414405 -0.0003493048813565885 0 -0.018968186899389197 -0.00049229810832745894 0 -0.018518070910414405 -0.0003493048813565885 0 -0.018512922369229974 -0.00092375591746108655 0 -0.019401281608494889 -0.00027771447943122831 0 -0.018968186899389197 -0.00049229810832745894 0 -0.019081413789523931 -0.0010168727502505605 0 -0.019081413789523931 -0.0010168727502505605 0 -0.018512922369229974 -0.00092375591746108655 0 -0.018599714921299401 -0.0018488087898997265 0 -0.019081413789523931 -0.0010168727502505605 0 -0.019776832454636614 -0.0016150151822357289 0 -0.018599714921299401 -0.0018488087898997265 0 -0.019401281608494889 -0.00027771447943122831 0 -0.019081413789523931 -0.0010168727502505605 0 -0.019776832454636614 -0.0016150151822357289 0 -0.018968186899389197 -0.00049229810832745894 0 -0.019081413789523931 -0.0010168727502505605 0 -0.018512922369229974 -0.00092375591746108655 0 -0.01708995667646691 0.00054712130027774269 0 -0.01771530284755719 -0.00044434082927548551 0 -0.016519918397476151 -0.00077277873192307272 0 -0.018208322440705939 0.00018812214693831458 0 -0.01771530284755719 -0.00044434082927548551 0 -0.018518070910414405 -0.0003493048813565885 0 -0.01771530284755719 -0.00044434082927548551 0 -0.018518070910414405 -0.0003493048813565885 0 -0.018512922369229974 -0.00092375591746108655 0 -0.01771530284755719 -0.00044434082927548551 0 -0.018512922369229974 -0.00092375591746108655 0 -0.017641069434994081 -0.0015048102159234923 0 -0.018512922369229974 -0.00092375591746108655 0 -0.017641069434994081 -0.0015048102159234923 0 -0.018599714921299401 -0.0018488087898997265 0 -0.01771530284755719 -0.00044434082927548551 0 -0.017641069434994081 -0.0015048102159234923 0 -0.016519918397476151 -0.00077277873192307272 0 -0.017641069434994081 -0.0015048102159234923 0 -0.016689411996598683 -0.002327429600477719 0 -0.016519918397476151 -0.00077277873192307272 0 -0.017641069434994081 -0.0015048102159234923 0 -0.017806330034208707 -0.0025977365596595641 0 -0.016689411996598683 -0.002327429600477719 0 -0.017641069434994081 -0.0015048102159234923 0 -0.017806330034208707 -0.0025977365596595641 0 -0.018599714921299401 -0.0018488087898997265 0 -0.017806330034208707 -0.0025977365596595641 0 -0.018599714921299401 -0.0018488087898997265 0 -0.018751354108747693 -0.0033980367955286678 0 -0.017806330034208707 -0.0025977365596595641 0 -0.018751354108747693 -0.0033980367955286678 0 -0.01707425839421281 -0.0034493912883376671 0 -0.017806330034208707 -0.0025977365596595641 0 -0.01707425839421281 -0.0034493912883376671 0 -0.016689411996598683 -0.002327429600477719 0 -0.019776832454636614 -0.0016150151822357289 0 -0.018599714921299401 -0.0018488087898997265 0 -0.018751354108747693 -0.0033980367955286678 0 -0.019776832454636614 -0.0016150151822357289 0 -0.020254988902826419 -0.0031501684624339566 0 -0.018751354108747693 -0.0033980367955286678 0 -0.020254988902826419 -0.0031501684624339566 0 -0.019819480805397707 -0.005113819011789816 0 -0.018751354108747693 -0.0033980367955286678 0 -0.019819480805397707 -0.005113819011789816 0 -0.018751354108747693 -0.0033980367955286678 0 -0.017673247464204119 -0.0058552279760290919 0 -0.018048702624477046 -0.0041413442069552506 0 -0.011922303175236864 -0.0052419501083055351 0 -0.018751354108747693 -0.0033980367955286678 0 -0.01707425839421281 -0.0034493912883376671 0 -0.017673247464204119 -0.0058552279760290919 0 -0.01707425839421281 -0.0034493912883376671 0 -0.017541716515996543 -0.0056823041668644598 0 -0.015639466296232956 -0.0039832697592012706 0 -0.01959396784601386 -0.0075508032936961898 0 -0.019819480805397707 -0.005113819011789816 0 -0.017673247464204119 -0.0058552279760290919 0 -0.01554598027320974 -0.0069914182948050988 0 -0.011922303175236864 -0.0052419501083055351 0 -0.022236112882623268 -0.00735414904138138 0 -0.01959396784601386 -0.0075508032936961898 0 -0.021919076529132862 -0.0055146088233876522 0 -0.01959396784601386 -0.0075508032936961898 0 -0.019819480805397707 -0.005113819011789816 0 -0.021919076529132862 -0.0055146088233876522 0 -0.022236112882623268 -0.00735414904138138 0 -0.024824332862541706 -0.0057347975676164164 0 -0.021919076529132862 -0.0055146088233876522 0 -0.023331901045554475 -0.0032236615023166627 0 -0.021919076529132862 -0.0055146088233876522 0 -0.021630263535290808 -0.0037861824559797283 0 -0.024824332862541706 -0.0057347975676164164 0 -0.023331901045554475 -0.0032236615023166627 0 -0.021919076529132862 -0.0055146088233876522 0 -0.020254988902826419 -0.0031501684624339566 0 -0.019819480805397707 -0.005113819011789816 0 -0.021630263535290808 -0.0037861824559797283 0 -0.019819480805397707 -0.005113819011789816 0 -0.021919076529132862 -0.0055146088233876522 0 -0.021630263535290808 -0.0037861824559797283 0 -0.0020644378491140006 -0.0053512139263982416 0 -0.0074034629153171359 -0.0054200368877038276 0 -0.0030908796280189835 -0.0050417279892600638 0 -0.0028807202082371851 -0.0050416127775097085 0 -0.0032060081266844028 -0.004813239014475201 0 -0.0028807202082371851 -0.0050416127775097085 0 -0.0032060081266844028 -0.004813239014475201 0 -0.0028998910262267377 -0.0048782458769096341 0 -0.0024509202455465099 -0.0052951638600044161 0 -0.0028807202082371851 -0.0050416127775097085 0 -0.0026220871306598401 -0.0051817515926912451 0 -0.0024509202455465099 -0.0052951638600044161 0 -0.0030908796280189835 -0.0050417279892600638 0 -0.0028807202082371851 -0.0050416127775097085 0 -0.0026717905161082901 -0.0052034750031173804 0 -0.0020644378491140006 -0.0053512139263982416 0 -0.0022992695820025287 -0.0055202930457145943 0 -0.0021311679554692105 -0.0054130595425571628 0 -0.0021857456738772082 -0.0055416585931523966 0 -0.0021704844835898347 -0.0053564245283665244 0 -0.0022992695820025287 -0.0055202930457145943 0 -0.0021311679554692105 -0.0054130595425571628 0 -0.002082747655238585 -0.0053545484033179587 0 -0.0021209333349630605 -0.0054243218978375172 0 -0.0021311679554692105 -0.0054130595425571628 0 -0.0021209333349630605 -0.0054243218978375172 0 -0.0021311679554692105 -0.0054130595425571628 0 -0.0021857456738772082 -0.0055416585931523966 0 -0.011922303175236864 -0.0052419501083055351 0 -0.0086043359946606432 -0.0045066376009979909 0 -0.0022992695820025287 -0.0055202930457145943 0 -0.0021857456738772082 -0.0055416585931523966 0 -0.0023173850932303648 -0.0056354326570142148 0 -0.0086043359946606432 -0.0045066376009979909 0 -0.0074034629153171359 -0.0054200368877038276 0 -0.015639466296232956 -0.0039832697592012706 0 -0.013603032104089316 -0.0022249632122914899 0 -0.015390639799222595 -0.0016922421961291039 0 -0.015639466296232956 -0.0039832697592012706 0 -0.016689411996598683 -0.002327429600477719 0 -0.015390639799222595 -0.0016922421961291039 0 -0.01707425839421281 -0.0034493912883376671 0 -0.015639466296232956 -0.0039832697592012706 0 -0.016689411996598683 -0.002327429600477719 0 -0.015390639799222595 -0.0016922421961291039 0 -0.016519918397476151 -0.00077277873192307272 0 -0.014612159995703894 0.00076836956438439033 0 -0.016689411996598683 -0.002327429600477719 0 -0.015390639799222595 -0.0016922421961291039 0 -0.016519918397476151 -0.00077277873192307272 0 -0.013603032104089316 -0.0022249632122914899 0 -0.015390639799222595 -0.0016922421961291039 0 -0.014612159995703894 0.00076836956438439033 0 -0.0074034629153171359 -0.0054200368877038276 0 -0.014251936224329602 -0.0020907307798701956 0 -0.0074034629153171359 -0.0054200368877038276 0 -0.0057297622094648077 -0.0059263956130978816 0 -0.0034004792209674354 -0.004793039625554516 0 -0.0032060081266844028 -0.004813239014475201 0 -0.0035278902231997587 -0.0045674329006601703 0 -0.011225594066524066 -0.0096950227495021888 0 -0.0078347115503412338 -0.0067996586538633533 0 -0.012621870460455037 -0.0054535027018748836 0 -0.0030908796280189835 -0.0050417279892600638 0 -0.0034004792209674354 -0.004793039625554516 0 -0.0032060081266844028 -0.004813239014475201 0 -0.0032060081266844028 -0.004813239014475201 0 -0.0035278902231997587 -0.0045674329006601703 0 -0.0032740932842732547 -0.0045463025729122006 0 -0.0078347115503412338 -0.0067996586538633533 0 -0.0061694725036900789 -0.0034456743244514472 0 -0.0080144530594566266 -0.0035406058799305339 0 -0.0078347115503412338 -0.0067996586538633533 0 -0.0061694725036900789 -0.0034456743244514472 0 -0.0039231338939133657 -0.0032967566255946907 0 -0.0057297622094648077 -0.0059263956130978816 0 -0.0038612381023741074 -0.0033104358249679612 0 -0.0078347115503412338 -0.0067996586538633533 0 -0.010097279667722584 -0.003748863327272616 0 -0.0080144530594566266 -0.0035406058799305339 0 -0.0078347115503412338 -0.0067996586538633533 0 -0.010097279667722584 -0.003748863327272616 0 -0.012621870460455037 -0.0054535027018748836 0 -0.010097279667722584 -0.003748863327272616 0 -0.0088518036778300908 -0.0018105921283433752 0 -0.0080144530594566266 -0.0035406058799305339 0 -0.010097279667722584 -0.003748863327272616 0 -0.010295303131386102 -0.002207481785307803 0 -0.0088518036778300908 -0.0018105921283433752 0 -0.010097279667722584 -0.003748863327272616 0 -0.010295303131386102 -0.002207481785307803 0 -0.011683844671208367 -0.0023844963422231134 0 -0.0088518036778300908 -0.0018105921283433752 0 -0.0071235903820498154 -0.0021327545014136469 0 -0.0080144530594566266 -0.0035406058799305339 0 -0.0071235903820498154 -0.0021327545014136469 0 -0.0061694725036900789 -0.0034456743244514472 0 -0.0056976548652130522 -0.0019822828402618581 0 -0.0071235903820498154 -0.0021327545014136469 0 -0.0061694725036900789 -0.0034456743244514472 0 -0.0080144530594566266 -0.0035406058799305339 0 -0.01708995667646691 0.00054712130027774269 0 -0.016519918397476151 -0.00077277873192307272 0 -0.014612159995703894 0.00076836956438439033 0 -0.017094926192068816 0.0021805249031992173 0 -0.01708995667646691 0.00054712130027774269 0 -0.014612159995703894 0.00076836956438439033 0 -0.010097279667722584 -0.003748863327272616 0 -0.012621870460455037 -0.0054535027018748836 0 -0.011683844671208367 -0.0023844963422231134 0 -0.014251936224329602 -0.0020907307798701956 0 -0.015333862603290168 -6.5907173181874621e-05 0 -0.012621870460455037 -0.0054535027018748836 0 -0.011683844671208367 -0.0023844963422231134 0 -0.013869258881640338 -0.0013143269316199574 0 -0.017094926192068816 0.0021805249031992173 0 -0.014612159995703894 0.00076836956438439033 0 -0.015588895905695345 0.0037059059293505317 0 -0.018716850036749621 -0.001787955469121448 0 -0.018235601349988948 0.00066258417097735263 0 -0.016718816648532663 4.6358803227467522e-05 0 -0.018716850036749621 -0.001787955469121448 0 -0.016127489149705781 -0.0018087717616321278 0 -0.016718816648532663 4.6358803227467522e-05 0 -0.015333862603290168 -6.5907173181874621e-05 0 -0.015947265221420204 -0.00043019167725219 0 -0.016094889437310616 -0.0019717187690119682 0 -0.016718816648532663 4.6358803227467522e-05 0 -0.015139441533786081 0.00054367892378849331 0 -0.016094889437310616 -0.0019717187690119682 0 -0.012960839981913224 9.5835875555899788e-05 0 -0.010208145437694122 -0.00084807460658908027 0 -0.011683844671208367 -0.0023844963422231134 0 -0.013869258881640338 -0.0013143269316199574 0 -0.010208145437694122 -0.00084807460658908027 0 -0.015333862603290168 -6.5907173181874621e-05 0 -0.010381742640772898 -0.0012571485567071555 0 -0.016094889437310616 -0.0019717187690119682 0 -0.015139441533786081 0.00054367892378849331 0 -0.012960839981913224 9.5835875555899788e-05 0 -0.015139441533786081 0.00054367892378849331 0 -0.012960839981913224 9.5835875555899788e-05 0 -0.014209204705393877 0.0019502656340280662 0 -0.012960839981913224 9.5835875555899788e-05 0 -0.012606489416418216 0.0023525511123661416 0 -0.010750438055316881 0.0012027199335339811 0 -0.012960839981913224 9.5835875555899788e-05 0 -0.012606489416418216 0.0023525511123661416 0 -0.014209204705393877 0.0019502656340280662 0 -0.012606489416418216 0.0023525511123661416 0 -0.012488085599398032 0.0040575425282960396 0 -0.013978564470529972 0.0037998849335799429 0 -0.012606489416418216 0.0023525511123661416 0 -0.012488085599398032 0.0040575425282960396 0 -0.011415253663613473 0.0034202800826936526 0 -0.013978564470529972 0.0037998849335799429 0 -0.014209204705393877 0.0019502656340280662 0 -0.01572419995356774 0.0024495188478170786 0 -0.013978564470529972 0.0037998849335799429 0 -0.01572419995356774 0.0024495188478170786 0 -0.015538668304623669 0.0042589049858706022 0 -0.012606489416418216 0.0023525511123661416 0 -0.013978564470529972 0.0037998849335799429 0 -0.014209204705393877 0.0019502656340280662 0 -0.015139441533786081 0.00054367892378849331 0 -0.014209204705393877 0.0019502656340280662 0 -0.01572419995356774 0.0024495188478170786 0 -0.016718816648532663 4.6358803227467522e-05 0 -0.01572419995356774 0.0024495188478170786 0 -0.017507804381758835 0.0021582374000548225 0 -0.016718816648532663 4.6358803227467522e-05 0 -0.015139441533786081 0.00054367892378849331 0 -0.01572419995356774 0.0024495188478170786 0 -0.01572419995356774 0.0024495188478170786 0 -0.016901029427898177 0.0038774564116063519 0 -0.017507804381758835 0.0021582374000548225 0 -0.01572419995356774 0.0024495188478170786 0 -0.016901029427898177 0.0038774564116063519 0 -0.015538668304623669 0.0042589049858706022 0 -0.018784866296388401 0.0025468189337893147 0 -0.018420286151238738 0.0039399424078299461 0 -0.017507804381758835 0.0021582374000548225 0 -0.016901029427898177 0.0038774564116063519 0 -0.018420286151238738 0.0039399424078299461 0 -0.017507804381758835 0.0021582374000548225 0 -0.018235601349988948 0.00066258417097735263 0 -0.016718816648532663 4.6358803227467522e-05 0 -0.017507804381758835 0.0021582374000548225 0 -0.018784866296388401 0.0025468189337893147 0 -0.018235601349988948 0.00066258417097735263 0 -0.017507804381758835 0.0021582374000548225 0 -0.0078756085225964324 -0.00043596072002370108 0 -0.0091140975713999567 8.3821930282666353e-05 0 -0.0080665387126776025 0.0015515751001095512 0 -0.0078756085225964324 -0.00043596072002370108 0 -0.0080665387126776025 0.0015515751001095512 0 -0.0068910738287651357 0.00084771573891603044 0 -0.0062046841451117146 -8.9936914003624672e-05 0 -0.0067614614216419244 -0.0010470885044433528 0 -0.0068910738287651357 0.00084771573891603044 0 -0.0078756085225964324 -0.00043596072002370108 0 -0.0067614614216419244 -0.0010470885044433528 0 -0.0068910738287651357 0.00084771573891603044 0 -0.0062046841451117146 -8.9936914003624672e-05 0 -0.0068910738287651357 0.00084771573891603044 0 -0.0059501670926883302 0.00086197553760542834 0 -0.0067614614216419244 -0.0010470885044433528 0 -0.0056976548652130522 -0.0019822828402618581 0 -0.0054338168549006756 -0.00061873117698228112 0 -0.0071235903820498154 -0.0021327545014136469 0 -0.0067614614216419244 -0.0010470885044433528 0 -0.0056976548652130522 -0.0019822828402618581 0 -0.0062046841451117146 -8.9936914003624672e-05 0 -0.0067614614216419244 -0.0010470885044433528 0 -0.0054338168549006756 -0.00061873117698228112 0 -0.0088518036778300908 -0.0018105921283433752 0 -0.0071235903820498154 -0.0021327545014136469 0 -0.0078756085225964324 -0.00043596072002370108 0 -0.0071235903820498154 -0.0021327545014136469 0 -0.0078756085225964324 -0.00043596072002370108 0 -0.0067614614216419244 -0.0010470885044433528 0 -0.010295303131386102 -0.002207481785307803 0 -0.0088518036778300908 -0.0018105921283433752 0 -0.010208145437694122 -0.00084807460658908027 0 -0.0088518036778300908 -0.0018105921283433752 0 -0.010208145437694122 -0.00084807460658908027 0 -0.0091140975713999567 8.3821930282666353e-05 0 -0.0088518036778300908 -0.0018105921283433752 0 -0.0078756085225964324 -0.00043596072002370108 0 -0.0091140975713999567 8.3821930282666353e-05 0 -0.010295303131386102 -0.002207481785307803 0 -0.011683844671208367 -0.0023844963422231134 0 -0.010208145437694122 -0.00084807460658908027 0 -0.010208145437694122 -0.00084807460658908027 0 -0.0091140975713999567 8.3821930282666353e-05 0 -0.010750438055316881 0.0012027199335339811 0 -0.012960839981913224 9.5835875555899788e-05 0 -0.010208145437694122 -0.00084807460658908027 0 -0.010750438055316881 0.0012027199335339811 0 -0.0091140975713999567 8.3821930282666353e-05 0 -0.0092125487006035761 0.0013019388581345561 0 -0.010750438055316881 0.0012027199335339811 0 -0.010734176633823622 0.0012988225334307321 0 -0.0089992679558678779 0.0045888620042528394 0 -0.010750438055316881 0.0012027199335339811 0 -0.0089810902610621985 0.0023929066076417453 0 -0.0089202182026421242 0.0038785390567814496 0 -0.010750438055316881 0.0012027199335339811 0 -0.011415253663613473 0.0034202800826936526 0 -0.010114660424647525 0.0049054242112927266 0 -0.010750438055316881 0.0012027199335339811 0 -0.010114660424647525 0.0049054242112927266 0 -0.0097972640165454143 0.0050037515079513727 0 -0.0092125487006035761 0.0013019388581345561 0 -0.010750438055316881 0.0012027199335339811 0 -0.0089810902610621985 0.0023929066076417453 0 -0.0091140975713999567 8.3821930282666353e-05 0 -0.0092125487006035761 0.0013019388581345561 0 -0.0080665387126776025 0.0015515751001095512 0 -0.0092125487006035761 0.0013019388581345561 0 -0.0089810902610621985 0.0023929066076417453 0 -0.0080665387126776025 0.0015515751001095512 0 -0.012606489416418216 0.0023525511123661416 0 -0.010750438055316881 0.0012027199335339811 0 -0.011415253663613473 0.0034202800826936526 0 -0.012488085599398032 0.0040575425282960396 0 -0.011415253663613473 0.0034202800826936526 0 -0.011285922761277642 0.0046881882020239031 0 -0.0089810902610621985 0.0023929066076417453 0 -0.0085418571755779046 0.0031789214013710153 0 -0.0089202182026421242 0.0038785390567814496 0 -0.0089810902610621985 0.0023929066076417453 0 -0.0085418571755779046 0.0031789214013710153 0 -0.0081826254686946133 0.0025957381095236677 0 -0.0085418571755779046 0.0031789214013710153 0 -0.0081826254686946133 0.0025957381095236677 0 -0.0079022755489610592 0.0032180404956880498 0 -0.0081826254686946133 0.0025957381095236677 0 -0.0071172799427585932 0.0026019743734904187 0 -0.0079022755489610592 0.0032180404956880498 0 -0.0081826254686946133 0.0025957381095236677 0 -0.0080665387126776025 0.0015515751001095512 0 -0.0071172799427585932 0.0026019743734904187 0 -0.0089810902610621985 0.0023929066076417453 0 -0.0081826254686946133 0.0025957381095236677 0 -0.0080665387126776025 0.0015515751001095512 0 -0.0080665387126776025 0.0015515751001095512 0 -0.0068910738287651357 0.00084771573891603044 0 -0.0071172799427585932 0.0026019743734904187 0 -0.0068910738287651357 0.00084771573891603044 0 -0.0071172799427585932 0.0026019743734904187 0 -0.0060103159254970267 0.0019761159010933558 0 -0.0068910738287651357 0.00084771573891603044 0 -0.0060103159254970267 0.0019761159010933558 0 -0.0059501670926883302 0.00086197553760542834 0 -0.0071172799427585932 0.0026019743734904187 0 -0.0058812436617996728 0.0029223164901908127 0 -0.0060103159254970267 0.0019761159010933558 0 -0.0071172799427585932 0.0026019743734904187 0 -0.0065356102060411484 0.0037112825353047287 0 -0.0058812436617996728 0.0029223164901908127 0 -0.0077748511533939245 0.0045594689026577477 0 -0.0089202182026421242 0.0038785390567814496 0 -0.0075546769231933887 0.0055774084557812433 0 -0.0071172799427585932 0.0026019743734904187 0 -0.0065356102060411484 0.0037112825353047287 0 -0.0073981969067951426 0.0037124499263489455 0 -0.0089992679558678779 0.0045888620042528394 0 -0.01419907581119278 0.0066516347353871895 0 -0.0065356102060411484 0.0037112825353047287 0 -0.0073981969067951426 0.0037124499263489455 0 -0.0070428289846007587 0.0042032438682057258 0 -0.0071172799427585932 0.0026019743734904187 0 -0.0079022755489610592 0.0032180404956880498 0 -0.0073981969067951426 0.0037124499263489455 0 -0.0081865298649623636 0.0038488144975445623 0 -0.0077748511533939245 0.0045594689026577477 0 -0.0089202182026421242 0.0038785390567814496 0 -0.0079022755489610592 0.0032180404956880498 0 -0.0081865298649623636 0.0038488144975445623 0 -0.0073981969067951426 0.0037124499263489455 0 -0.0079022755489610592 0.0032180404956880498 0 -0.0081865298649623636 0.0038488144975445623 0 -0.0084756282133175848 0.0035996003390812562 0 -0.0085418571755779046 0.0031789214013710153 0 -0.0079022755489610592 0.0032180404956880498 0 -0.0084756282133175848 0.0035996003390812562 0 -0.0081865298649623636 0.0038488144975445623 0 -0.0073981969067951426 0.0037124499263489455 0 -0.0077748511533939245 0.0045594689026577477 0 -0.0073981969067951426 0.0037124499263489455 0 -0.0077748511533939245 0.0045594689026577477 0 -0.0070428289846007587 0.0042032438682057258 0 -0.0077748511533939245 0.0045594689026577477 0 -0.007214400609180896 0.0046954006898463716 0 -0.0075653845787538978 0.0054296731627648046 0 -0.007214400609180896 0.0046954006898463716 0 -0.0075653845787538978 0.0054296731627648046 0 -0.0062667968008711409 0.0044249988041674352 0 -0.0065356102060411484 0.0037112825353047287 0 -0.0070428289846007587 0.0042032438682057258 0 -0.0062667968008711409 0.0044249988041674352 0 -0.007214400609180896 0.0046954006898463716 0 -0.0070428289846007587 0.0042032438682057258 0 -0.0062667968008711409 0.0044249988041674352 0 -0.0077748511533939245 0.0045594689026577477 0 -0.007214400609180896 0.0046954006898463716 0 -0.0070428289846007587 0.0042032438682057258 0 -0.010114660424647525 0.0049054242112927266 0 -0.0097972640165454143 0.0050037515079513727 0 -0.0090729190581667445 0.0076208923153525746 0 -0.0087943677648338013 0.0063512318502153848 0 -0.016275493241304225 0.0066170755090041106 0 -0.010114660424647525 0.0049054242112927266 0 -0.01036006753317721 0.006038387078229927 0 -0.0087741095826396349 0.0083331079439481724 0 -0.011285922761277642 0.0046881882020239031 0 -0.011247742061311083 0.0057413733136061264 0 -0.012764315200302341 0.0055536336100702943 0 -0.011415253663613473 0.0034202800826936526 0 -0.011285922761277642 0.0046881882020239031 0 -0.010114660424647525 0.0049054242112927266 0 -0.011285922761277642 0.0046881882020239031 0 -0.010748762698910124 0.0053200111242689514 0 -0.010114660424647525 0.0049054242112927266 0 -0.011285922761277642 0.0046881882020239031 0 -0.010748762698910124 0.0053200111242689514 0 -0.011247742061311083 0.0057413733136061264 0 -0.010748762698910124 0.0053200111242689514 0 -0.010114660424647525 0.0049054242112927266 0 -0.01036006753317721 0.006038387078229927 0 -0.0085418571755779046 0.0031789214013710153 0 -0.0084756282133175848 0.0035996003390812562 0 -0.0089202182026421242 0.0038785390567814496 0 -0.0081865298649623636 0.0038488144975445623 0 -0.0084756282133175848 0.0035996003390812562 0 -0.0089202182026421242 0.0038785390567814496 0 -0.010409657717742335 0.0068831048483368384 0 -0.01036006753317721 0.006038387078229927 0 -0.010869410420701192 0.0063147918359229309 0 -0.010409657717742335 0.0068831048483368384 0 -0.011457713036044254 0.0065995453635815217 0 -0.012085692317323971 0.0075857296559634739 0 -0.011457713036044254 0.0065995453635815217 0 -0.011247742061311083 0.0057413733136061264 0 -0.012764315200302341 0.0055536336100702943 0 -0.010748762698910124 0.0053200111242689514 0 -0.01036006753317721 0.006038387078229927 0 -0.011247742061311083 0.0057413733136061264 0 -0.01036006753317721 0.006038387078229927 0 -0.010869410420701192 0.0063147918359229309 0 -0.011247742061311083 0.0057413733136061264 0 -0.010869410420701192 0.0063147918359229309 0 -0.011457713036044254 0.0065995453635815217 0 -0.011247742061311083 0.0057413733136061264 0 -0.010409657717742335 0.0068831048483368384 0 -0.010869410420701192 0.0063147918359229309 0 -0.011457713036044254 0.0065995453635815217 0 -0.026764901215165639 0.0066342921417599501 0 -0.026331694610949054 0.0061799219568148293 0 -0.025549192362812237 0.0066274801693953968 0 -0.015074332455673991 0.007350194132795698 0 -0.02117691727115208 0.0069179648016662225 0 -0.026331694610949054 0.0061799219568148293 0 -0.027029256016241898 0.0066369071969835996 0 -0.026667986658613724 0.0054192556745550858 0 -0.010138446398366665 0.0080577134678968768 0 -0.012085692317323971 0.0075857296559634739 0 -0.012422309639097372 0.0082166779702289756 0 -0.015074332455673991 0.007350194132795698 0 -0.010267056362038887 0.0081217607306487884 0 -0.010409657717742335 0.0068831048483368384 0 -0.0094149654712005378 0.0083285961827782948 0 -0.012085692317323971 0.0075857296559634739 0 -0.010409657717742335 0.0068831048483368384 0 -0.0094149654712005378 0.0083285961827782948 0 -0.0087741095826396349 0.0083331079439481724 0 -0.010409657717742335 0.0068831048483368384 0 -0.01036006753317721 0.006038387078229927 0 -0.0087741095826396349 0.0083331079439481724 0 -0.026764901215165639 0.0066342921417599501 0 -0.026331694610949054 0.0061799219568148293 0 -0.027029256016241898 0.0066369071969835996 0 -0.026331694610949054 0.0061799219568148293 0 -0.025608915027768648 0.0061526001487473888 0 -0.025549192362812237 0.0066274801693953968 0 -0.015424326408054688 0.0052332116169113265 0 -0.015460317377223087 0.0051512154315052072 0 -0.016614188516416824 0.0052008880841512952 0 -0.0075653845787538978 0.0054296731627648046 0 -0.0075546769231933887 0.0055774084557812433 0 -0.0083728182673824154 0.0051742992092116804 0 -0.0097972640165454143 0.0050037515079513727 0 -0.0090729190581667445 0.0076208923153525746 0 -0.0088566313707797804 0.0076211878328792185 0 -0.020931816479564838 0.0071398938824289489 0 -0.021218095984468565 0.0069570973776830365 0 -0.022203066629067424 0.0050341629710721229 0 -0.0077748511533939245 0.0045594689026577477 0 -0.0075653845787538978 0.0054296731627648046 0 -0.0075546769231933887 0.0055774084557812433 0 -0.016275493241304225 0.0066170755090041106 0 -0.016813348371284571 0.0062146300981056552 0 -0.015113520840747668 0.0078583152128753227 0 -0.015827078110984865 0.007857903334440846 0 -0.016138090251067785 0.007128490296047639 0 -0.016275493241304225 0.0066170755090041106 0 -0.01419907581119278 0.0066516347353871895 0 -0.015074332455673991 0.007350194132795698 0 -0.016275493241304225 0.0066170755090041106 0 -0.01419907581119278 0.0066516347353871895 0 -0.016813348371284571 0.0062146300981056552 0 -0.027864380388632617 0.0049557003697889663 0 -0.026667986658613724 0.0054192556745550858 0 -0.026322095098029887 0.0042635604443159048 0 -0.020931816479564838 0.0071398938824289489 0 -0.022309820567065982 0.0045029164712439727 0 -0.022203066629067424 0.0050341629710721229 0 -0.016275493241304225 0.0066170755090041106 0 -0.026073984986040223 0.0044588865603214728 0 -0.016813348371284571 0.0062146300981056552 0 -0.022405259282791096 0.004824950263059756 0 -0.027029256016241898 0.0066369071969835996 0 -0.027864380388632617 0.0049557003697889663 0 -0.026667986658613724 0.0054192556745550858 0 -0.021450206240698523 0.0068759271205383037 0 -0.022264362806121509 0.0050315368236695194 0 -0.023030511886215105 0.0052383450549805402 0 -0.031020158311021014 0.0042205210608481335 0 -0.028878668804907463 0.0042704729640320564 0 -0.026667986658613724 0.0054192556745550858 0 -0.026322095098029887 0.0042635604443159048 0 -0.025608915027768648 0.0061526001487473888 0 -0.026331694610949054 0.0061799219568148293 0 -0.026667986658613724 0.0054192556745550858 0 -0.025608915027768648 0.0061526001487473888 0 -0.035299972781275939 0.0038949551230513754 0 -0.035299700726576851 0.0038842246225005033 0 -0.035010142617510884 0.0040977253285382036 0 -0.022405259282791096 0.004824950263059756 0 -0.022992516031632763 0.0033959491932878416 0 -0.022309820567065982 0.0045029164712439727 0 -0.022203066629067424 0.0050341629710721229 0 -0.023134995907597735 0.0031333105971005702 0 -0.027864380388632617 0.0049557003697889663 0 -0.027518145581099378 0.003726830435615996 0 -0.028623926643100681 0.0033779941403886092 0 -0.027864380388632617 0.0049557003697889663 0 -0.026322095098029887 0.0042635604443159048 0 -0.027518145581099378 0.003726830435615996 0 -0.036077295121107356 0.0033207084061096744 0 -0.036295762815936862 0.0032886648905394097 0 -0.036374267586462637 0.0035255897829992232 0 -0.036035639165741339 0.0035202378270691136 0 -0.036077295121107356 0.0033207084061096744 0 -0.036374267586462637 0.0035255897829992232 0 -0.036035639165741339 0.0035202378270691136 0 -0.035875910960494486 0.0033402853884656213 0 -0.036077295121107356 0.0033207084061096744 0 -0.035756169250797651 0.0034535925633706038 0 -0.036035639165741339 0.0035202378270691136 0 -0.035875910960494486 0.0033402853884656213 0 -0.035875910960494486 0.0033402853884656213 0 -0.0358847377117993 0.0031724381144039699 0 -0.036077295121107356 0.0033207084061096744 0 -0.036421531271143226 0.0034777528192570985 0 -0.028878668804907463 0.0042704729640320564 0 -0.035756169250797651 0.0034535925633706038 0 -0.035875910960494486 0.0033402853884656213 0 -0.035720622953053144 0.0031240258702139104 0 -0.035875910960494486 0.0033402853884656213 0 -0.0358847377117993 0.0031724381144039699 0 -0.035720622953053144 0.0031240258702139104 0 -0.0358847377117993 0.0031724381144039699 0 -0.036077295121107356 0.0033207084061096744 0 -0.036048488113425391 0.0030333756262468114 0 -0.036077295121107356 0.0033207084061096744 0 -0.036048488113425391 0.0030333756262468114 0 -0.036295762815936862 0.0032886648905394097 0 -0.017342713435914103 0.0090267007914512417 0 -0.017816310412227081 0.0065040453088599159 0 -0.015436258540939858 0.0071611124952792368 0 -0.026588324884729845 0.0060188763580639217 0 -0.022993889150076299 0.0064420219311352236 0 -0.0358847377117993 0.0031724381144039699 0 -0.036048488113425391 0.0030333756262468114 0 -0.03571585414589442 0.0030390657530244575 0 -0.012085692317323971 0.0075857296559634739 0 -0.012422309639097372 0.0082166779702289756 0 -0.012764315200302341 0.0055536336100702943 0 -0.017342713435914103 0.0090267007914512417 0 -0.012903433111852023 0.0089713894361969655 0 -0.015436258540939858 0.0071611124952792368 0 -0.0358847377117993 0.0031724381144039699 0 -0.035720622953053144 0.0031240258702139104 0 -0.03571585414589442 0.0030390657530244575 0 -0.028878668804907463 0.0042704729640320564 0 -0.022993889150076299 0.0064420219311352236 0 -0.02561648147187038 0.0037645797811456006 0 -0.024232236849348013 0.0079467954163937159 0 -0.025213169955863604 0.0079485976323633387 0 -0.028878668804907463 0.0042704729640320564 0 -0.02117691727115208 0.0069179648016662225 0 -0.012903433111852023 0.0089713894361969655 0 -0.013422728716209215 0.0072640689142030443 0 -0.015436258540939858 0.0071611124952792368 0 -0.012944559079982161 0.0089754232603494709 0 -0.012625374310507656 0.0089775892201853294 0 -0.013422728716209215 0.0072640689142030443 0 -0.022993889150076299 0.0064420219311352236 0 -0.017630832823545498 0.0091828418919114533 0 -0.022993889150076299 0.0064420219311352236 0 -0.02117691727115208 0.0069179648016662225 0 -0.02117691727115208 0.0069179648016662225 0 -0.013149452700754008 0.0067162951150871973 0 -0.012625374310507656 0.0089775892201853294 0 -0.013422728716209215 0.0072640689142030443 0 -0.012764315200302341 0.0055536336100702943 0 -0.013422728716209215 0.0072640689142030443 0 -0.014667228129379713 0.0057087036916526317 0 -0.012764315200302341 0.0055536336100702943 0 -0.011457713036044254 0.0065995453635815217 0 -0.012085692317323971 0.0075857296559634739 0 -0.012764315200302341 0.0055536336100702943 0 -0.013422728716209215 0.0072640689142030443 0 -0.014667228129379713 0.0057087036916526317 0 -0.015436258540939858 0.0071611124952792368 0 -0.013978564470529972 0.0037998849335799429 0 -0.014667228129379713 0.0057087036916526317 0 -0.012764315200302341 0.0055536336100702943 0 -0.013978564470529972 0.0037998849335799429 0 -0.014667228129379713 0.0057087036916526317 0 -0.015538668304623669 0.0042589049858706022 0 -0.012488085599398032 0.0040575425282960396 0 -0.013978564470529972 0.0037998849335799429 0 -0.012764315200302341 0.0055536336100702943 0 -0.012488085599398032 0.0040575425282960396 0 -0.011285922761277642 0.0046881882020239031 0 -0.012764315200302341 0.0055536336100702943 0 -0.017342713435914103 0.0090267007914512417 0 -0.017816310412227081 0.0065040453088599159 0 -0.020293639701401727 0.0067788548256335788 0 -0.014667228129379713 0.0057087036916526317 0 -0.015436258540939858 0.0071611124952792368 0 -0.0164254428901436 0.0054531225043527396 0 -0.017816310412227081 0.0065040453088599159 0 -0.015436258540939858 0.0071611124952792368 0 -0.0164254428901436 0.0054531225043527396 0 -0.014667228129379713 0.0057087036916526317 0 -0.0164254428901436 0.0054531225043527396 0 -0.015538668304623669 0.0042589049858706022 0 -0.016901029427898177 0.0038774564116063519 0 -0.0164254428901436 0.0054531225043527396 0 -0.015538668304623669 0.0042589049858706022 0 -0.016901029427898177 0.0038774564116063519 0 -0.018420286151238738 0.0039399424078299461 0 -0.017710020239939527 0.0050323803296454224 0 -0.016901029427898177 0.0038774564116063519 0 -0.0164254428901436 0.0054531225043527396 0 -0.017710020239939527 0.0050323803296454224 0 -0.017816310412227081 0.0065040453088599159 0 -0.0164254428901436 0.0054531225043527396 0 -0.017710020239939527 0.0050323803296454224 0 -0.017816310412227081 0.0065040453088599159 0 -0.017710020239939527 0.0050323803296454224 0 -0.018989573662513096 0.0053926797825319638 0 -0.018420286151238738 0.0039399424078299461 0 -0.017710020239939527 0.0050323803296454224 0 -0.018989573662513096 0.0053926797825319638 0 -0.020293639701401727 0.0067788548256335788 0 -0.020661351412088805 0.0047245832846860769 0 -0.021903597116839334 0.0090602230524502343 0 -0.022341899995667349 0.0050116666006343024 0 -0.031055798140656364 0.0058126762078027716 0 -0.018989573662513096 0.0053926797825319638 0 -0.020293639701401727 0.0067788548256335788 0 -0.020582962013054189 0.0047996762355643372 0 -0.018420286151238738 0.0039399424078299461 0 -0.018989573662513096 0.0053926797825319638 0 -0.020582962013054189 0.0047996762355643372 0 -0.017816310412227081 0.0065040453088599159 0 -0.018989573662513096 0.0053926797825319638 0 -0.020293639701401727 0.0067788548256335788 0 -0.021128247843507923 0.0063289405333884574 0 -0.022341899995667349 0.0050116666006343024 0 -0.030092414197114763 0.0037138674731881163 0 -0.028486388035461621 0.0047685980096312383 0 -0.030542799379835242 0.0051868292476914902 0 -0.028486388035461621 0.0047685980096312383 0 -0.030542799379835242 0.0051868292476914902 0 -0.02908613008484286 0.0068284047238159618 0 -0.031055798140656364 0.0058126762078027716 0 -0.034218620005771853 0.0051129051671793728 0 -0.036461636510781797 0.0033871329851462204 0 -0.036581900380149454 0.0033776124600117573 0 -0.036591924614597579 0.0034332891520028677 0 -0.030542799379835242 0.0051868292476914902 0 -0.02908613008484286 0.0068284047238159618 0 -0.031272652093454069 0.0068254856638030352 0 -0.026588324884729845 0.0060188763580639217 0 -0.031055798140656364 0.0058126762078027716 0 -0.036048488113425391 0.0030333756262468114 0 -0.036389016616159786 0.0030468166991253691 0 -0.036295762815936862 0.0032886648905394097 0 -0.017342713435914103 0.0090267007914512417 0 -0.020293639701401727 0.0067788548256335788 0 -0.021903597116839334 0.0090602230524502343 0 -0.035099013936187688 0.0032951982775664165 0 -0.035217788185040899 0.0042045617383165293 0 -0.034747178600759994 0.0041011974987910857 0 -0.032394986782970238 0.0052877828098390235 0 -0.033443516721148127 0.006813409884854695 0 -0.031960805511676058 0.0035136088808085195 0 -0.030542799379835242 0.0051868292476914902 0 -0.032394986782970238 0.0052877828098390235 0 -0.030542799379835242 0.0051868292476914902 0 -0.032394986782970238 0.0052877828098390235 0 -0.031272652093454069 0.0068254856638030352 0 -0.034218620005771853 0.0051129051671793728 0 -0.035217788185040899 0.0042045617383165293 0 -0.032394986782970238 0.0052877828098390235 0 -0.031272652093454069 0.0068254856638030352 0 -0.033443516721148127 0.006813409884854695 0 -0.036581900380149454 0.0033776124600117573 0 -0.036651246238910973 0.003384129390279949 0 -0.036656960080177513 0.0034245299206892518 0 -0.036681165354347442 0.0032521906041763859 0 -0.036656960080177513 0.0034245299206892518 0 -0.036775539273871734 0.0033994300858764684 0 -0.035217788185040899 0.0042045617383165293 0 -0.036922461696453517 0.0029713080882866763 0 -0.036656960080177513 0.0034245299206892518 0 -0.036693125460510248 0.0035316577590246276 0 -0.036775539273871734 0.0033994300858764684 0 -0.036656960080177513 0.0034245299206892518 0 -0.036591924614597579 0.0034332891520028677 0 -0.036693125460510248 0.0035316577590246276 0 -0.036581900380149454 0.0033776124600117573 0 -0.036656960080177513 0.0034245299206892518 0 -0.036591924614597579 0.0034332891520028677 0 -0.036591924614597579 0.0034332891520028677 0 -0.036693125460510248 0.0035316577590246276 0 -0.036570035388531007 0.0034855710730789342 0 -0.036693125460510248 0.0035316577590246276 0 -0.036570035388531007 0.0034855710730789342 0 -0.036703334121089233 0.0036484505870798211 0 -0.036693125460510248 0.0035316577590246276 0 -0.036783297537026853 0.003645503643786986 0 -0.036826354455157084 0.0035678216056344988 0 -0.036693125460510248 0.0035316577590246276 0 -0.036775539273871734 0.0033994300858764684 0 -0.036826354455157084 0.0035678216056344988 0 -0.036389016616159786 0.0030468166991253691 0 -0.036295762815936862 0.0032886648905394097 0 -0.036570035388531007 0.0034855710730789342 0 -0.036461636510781797 0.0033871329851462204 0 -0.036591924614597579 0.0034332891520028677 0 -0.036570035388531007 0.0034855710730789342 0 -0.031055798140656364 0.0058126762078027716 0 -0.038061187443245138 0.0025679955535901086 0 -0.036295762815936862 0.0032886648905394097 0 -0.036570035388531007 0.0034855710730789342 0 -0.036374267586462637 0.0035255897829992232 0 -0.036570035388531007 0.0034855710730789342 0 -0.036374267586462637 0.0035255897829992232 0 -0.036614246187061265 0.0037002238387073196 0 -0.036374267586462637 0.0035255897829992232 0 -0.036614246187061265 0.0037002238387073196 0 -0.036480835368352046 0.0038160872187588757 0 -0.036570035388531007 0.0034855710730789342 0 -0.036614246187061265 0.0037002238387073196 0 -0.036703334121089233 0.0036484505870798211 0 -0.036614246187061265 0.0037002238387073196 0 -0.036762590433121502 0.0037333814180629159 0 -0.036695785010971108 0.0037478212470841909 0 -0.036614246187061265 0.0037002238387073196 0 -0.036703334121089233 0.0036484505870798211 0 -0.036762590433121502 0.0037333814180629159 0 -0.036614246187061265 0.0037002238387073196 0 -0.036695785010971108 0.0037478212470841909 0 -0.036480835368352046 0.0038160872187588757 0 -0.036693125460510248 0.0035316577590246276 0 -0.036783297537026853 0.003645503643786986 0 -0.036703334121089233 0.0036484505870798211 0 -0.036783297537026853 0.003645503643786986 0 -0.036703334121089233 0.0036484505870798211 0 -0.036777143903276466 0.0037093483581864544 0 -0.036783297537026853 0.003645503643786986 0 -0.036777143903276466 0.0037093483581864544 0 -0.036834033091616536 0.003754054454504848 0 -0.036762590433121502 0.0037333814180629159 0 -0.036777143903276466 0.0037093483581864544 0 -0.036821353293982492 0.0037508232796418361 0 -0.036703334121089233 0.0036484505870798211 0 -0.036762590433121502 0.0037333814180629159 0 -0.036777143903276466 0.0037093483581864544 0 -0.036821353293982492 0.0037508232796418361 0 -0.036834033091616536 0.003754054454504848 0 -0.036852734617546672 0.0037745728863344623 0 -0.036777143903276466 0.0037093483581864544 0 -0.036821353293982492 0.0037508232796418361 0 -0.036834033091616536 0.003754054454504848 0 -0.036861443906644406 0.00373332900975851 0 -0.036852734617546672 0.0037745728863344623 0 -0.036847137751270909 0.0037193195380298811 0 -0.036821353293982492 0.0037508232796418361 0 -0.036861443906644406 0.00373332900975851 0 -0.036852734617546672 0.0037745728863344623 0 -0.036762590433121502 0.0037333814180629159 0 -0.036821353293982492 0.0037508232796418361 0 -0.036861443906644406 0.00373332900975851 0 -0.036762590433121502 0.0037333814180629159 0 -0.036861443906644406 0.00373332900975851 0 -0.036818835639223613 0.0037277092265326538 0 -0.036861443906644406 0.00373332900975851 0 -0.036896662282104753 0.0036884725948925709 0 -0.036818835639223613 0.0037277092265326538 0 -0.036861443906644406 0.00373332900975851 0 -0.036896662282104753 0.0036884725948925709 0 -0.036929981086951884 0.0036371328231588375 0 -0.036861443906644406 0.00373332900975851 0 -0.036847137751270909 0.0037193195380298811 0 -0.036929981086951884 0.0036371328231588375 0 -0.03713283101633575 0.0034282291280036026 0 -0.037050062857745023 0.0036682157155130185 0 -0.036929981086951884 0.0036371328231588375 0 -0.036766168190104795 0.0037674376622614677 0 -0.037012792415200092 0.003570669501036064 0 -0.036695785010971108 0.0037478212470841909 0 -0.036770852390187458 0.0037035019555685255 0 -0.036670991945692337 0.0037353108501197228 0 -0.036762590433121502 0.0037333814180629159 0 -0.036695785010971108 0.0037478212470841909 0 -0.036818835639223613 0.0037277092265326538 0 -0.036695785010971108 0.0037478212470841909 0 -0.036818835639223613 0.0037277092265326538 0 -0.036846525612948856 0.0037006020696525705 0 -0.036896662282104753 0.0036884725948925709 0 -0.036818835639223613 0.0037277092265326538 0 -0.036846525612948856 0.0037006020696525705 0 -0.036695785010971108 0.0037478212470841909 0 -0.036846525612948856 0.0037006020696525705 0 -0.036770852390187458 0.0037035019555685255 0 -0.036846525612948856 0.0037006020696525705 0 -0.036770852390187458 0.0037035019555685255 0 -0.036847625501044506 0.0036801861633799595 0 -0.036770852390187458 0.0037035019555685255 0 -0.036772376346606343 0.0037022233529350858 0 -0.036818016297208413 0.003679345252196924 0 -0.036770852390187458 0.0037035019555685255 0 -0.036818016297208413 0.003679345252196924 0 -0.036847625501044506 0.0036801861633799595 0 -0.036770852390187458 0.0037035019555685255 0 -0.036670991945692337 0.0037353108501197228 0 -0.036772376346606343 0.0037022233529350858 0 -0.036670991945692337 0.0037353108501197228 0 -0.036810728697818637 0.0037628964768222921 0 -0.036772376346606343 0.0037022233529350858 0 -0.036810728697818637 0.0037628964768222921 0 -0.036772376346606343 0.0037022233529350858 0 -0.036825574425779536 0.0037051011422230954 0 -0.036772376346606343 0.0037022233529350858 0 -0.036809103509036982 0.0036877349064714949 0 -0.036825574425779536 0.0037051011422230954 0 -0.036772376346606343 0.0037022233529350858 0 -0.036809103509036982 0.0036877349064714949 0 -0.036818016297208413 0.003679345252196924 0 -0.036809103509036982 0.0036877349064714949 0 -0.036818016297208413 0.003679345252196924 0 -0.036825450095592689 0.003678807932829326 0 -0.036809103509036982 0.0036877349064714949 0 -0.036825450095592689 0.003678807932829326 0 -0.036827740157847851 0.0036885262177353989 0 -0.036840820998558142 0.0036904569221133917 0 -0.036852325847196686 0.0037010256114871029 0 -0.036825574425779536 0.0037051011422230954 0 -0.036825450095592689 0.003678807932829326 0 -0.036838763371105587 0.003679603356176665 0 -0.036834858487654575 0.00367408577023211 0 -0.036825450095592689 0.003678807932829326 0 -0.036838763371105587 0.003679603356176665 0 -0.036827740157847851 0.0036885262177353989 0 -0.036838763371105587 0.003679603356176665 0 -0.036840820998558142 0.0036904569221133917 0 -0.036827740157847851 0.0036885262177353989 0 -0.036840820998558142 0.0036904569221133917 0 -0.036827740157847851 0.0036885262177353989 0 -0.036825574425779536 0.0037051011422230954 0 -0.036809103509036982 0.0036877349064714949 0 -0.036827740157847851 0.0036885262177353989 0 -0.036825574425779536 0.0037051011422230954 0 -0.036838763371105587 0.003679603356176665 0 -0.036840820998558142 0.0036904569221133917 0 -0.036855981064673533 0.0036803883878162636 0 -0.036840820998558142 0.0036904569221133917 0 -0.036855981064673533 0.0036803883878162636 0 -0.036852325847196686 0.0037010256114871029 0 -0.03393559792553881 0.0030814226080627225 0 -0.032936150229648839 0.0011120085901744126 0 -0.034616672273270525 0.0019665951233487819 0 -0.03449693461462261 0.0023190145814259455 0 -0.034816899964487343 0.0021463825666506301 0 -0.036526756529500735 0.0024211524935752451 0 -0.03393559792553881 0.0030814226080627225 0 -0.036526756529500735 0.0024211524935752451 0 -0.032936150229648839 0.0011120085901744126 0 -0.035129357297371461 0.0044577487265564618 0 -0.035361661478504149 0.0042411835830619866 0 -0.035355907562603373 0.0039980991758756732 0 -0.03393559792553881 0.0030814226080627225 0 -0.030839959077523776 0.0031413608363460984 0 -0.027716076552003741 0.00059275805472376662 0 -0.028122959801167843 0.001394752692335095 0 -0.028417719612295403 0.00023080574524247897 0 -0.027716076552003741 0.00059275805472376662 0 -0.028122959801167843 0.001394752692335095 0 -0.027034704448146627 0.002410943347261683 0 -0.03568939390139568 0.0042580002498110508 0 -0.035129357297371461 0.0044577487265564618 0 -0.035361661478504149 0.0042411835830619866 0 -0.036810728697818637 0.0037628964768222921 0 -0.036852325847196686 0.0037010256114871029 0 -0.036825574425779536 0.0037051011422230954 0 -0.036660309621458741 0.0040744983810123018 0 -0.03393559792553881 0.0030814226080627225 0 -0.03568939390139568 0.0042580002498110508 0 -0.035361661478504149 0.0042411835830619866 0 -0.03553876618140217 0.0040479926846070042 0 -0.035361661478504149 0.0042411835830619866 0 -0.035355907562603373 0.0039980991758756732 0 -0.03553876618140217 0.0040479926846070042 0 -0.028122959801167843 0.001394752692335095 0 -0.027034704448146627 0.002410943347261683 0 -0.02833261756675691 0.0023155806752500961 0 -0.027034704448146627 0.002410943347261683 0 -0.027518145581099378 0.003726830435615996 0 -0.02833261756675691 0.0023155806752500961 0 -0.035299972781275939 0.0038949551230513754 0 -0.035299700726576851 0.0038842246225005033 0 -0.035355907562603373 0.0039980991758756732 0 -0.026322095098029887 0.0042635604443159048 0 -0.027034704448146627 0.002410943347261683 0 -0.027518145581099378 0.003726830435615996 0 -0.035299700726576851 0.0038842246225005033 0 -0.035355907562603373 0.0039980991758756732 0 -0.03553876618140217 0.0040479926846070042 0 -0.031020158311021014 0.0042205210608481335 0 -0.030839959077523776 0.0031413608363460984 0 -0.036421531271143226 0.0034777528192570985 0 -0.035289184221162208 0.0041531205186094476 0 -0.03553876618140217 0.0040479926846070042 0 -0.035931785731579235 0.0038059846252916319 0 -0.035834789017197249 0.0036937672215535916 0 -0.035756169250797651 0.0034535925633706038 0 -0.03553876618140217 0.0040479926846070042 0 -0.035834789017197249 0.0036937672215535916 0 -0.036035639165741339 0.0035202378270691136 0 -0.035931785731579235 0.0038059846252916319 0 -0.035834789017197249 0.0036937672215535916 0 -0.035756169250797651 0.0034535925633706038 0 -0.036035639165741339 0.0035202378270691136 0 -0.035834789017197249 0.0036937672215535916 0 -0.036035639165741339 0.0035202378270691136 0 -0.035931785731579235 0.0038059846252916319 0 -0.036480835368352046 0.0038160872187588757 0 -0.036035639165741339 0.0035202378270691136 0 -0.036374267586462637 0.0035255897829992232 0 -0.036480835368352046 0.0038160872187588757 0 -0.036695785010971108 0.0037478212470841909 0 -0.036670991945692337 0.0037353108501197228 0 -0.036480835368352046 0.0038160872187588757 0 -0.036670991945692337 0.0037353108501197228 0 -0.036810728697818637 0.0037628964768222921 0 -0.036480835368352046 0.0038160872187588757 0 -0.03568939390139568 0.0042580002498110508 0 -0.035931785731579235 0.0038059846252916319 0 -0.036480835368352046 0.0038160872187588757 0 -0.036660309621458741 0.0040744983810123018 0 -0.036318761910981136 0.0038367007173117063 0 -0.03568939390139568 0.0042580002498110508 0 -0.03553876618140217 0.0040479926846070042 0 -0.035931785731579235 0.0038059846252916319 0 -0.041820616023293358 0.002361986741973699 0 -0.042328785335961752 0.0022575871033392501 0 -0.041089308678234758 0.0025881981050770711 0 -0.042019188258906985 0.0022840677494939793 0 -0.041820616023293358 0.002361986741973699 0 -0.041089308678234758 0.0025881981050770711 0 -0.04090844239245911 0.0021596396696770756 0 -0.041138829935414831 0.0024679745947306874 0 -0.041820616023293358 0.002361986741973699 0 -0.042328785335961752 0.0022575871033392501 0 -0.042512839262142152 0.0020055730414976118 0 -0.042099745591838107 0.0022555451194848737 0 -0.042019188258906985 0.0022840677494939793 0 -0.041820616023293358 0.002361986741973699 0 -0.042328785335961752 0.0022575871033392501 0 -0.040574629582303727 0.0030778564608559141 0 -0.043342613344155664 0.0024848028027402813 0 -0.040679835778954711 0.0030792141076663618 0 -0.040968813343608031 0.0031359407048600785 0 -0.042328785335961752 0.0022575871033392501 0 -0.040574629582303727 0.0030778564608559141 0 -0.041089308678234758 0.0025881981050770711 0 -0.040574629582303727 0.0030778564608559141 0 -0.039709502627684683 0.0027185661997347591 0 -0.038892166050456083 0.0030947548068752913 0 -0.040574629582303727 0.0030778564608559141 0 -0.041089308678234758 0.0025881981050770711 0 -0.040140538271090584 0.002988933083390074 0 -0.03998126551576401 0.0028746125034710746 0 -0.039807837184110448 0.0018991608827534977 0 -0.041089308678234758 0.0025881981050770711 0 -0.03998126551576401 0.0028746125034710746 0 -0.041089308678234758 0.0025881981050770711 0 -0.040140538271090584 0.002988933083390074 0 -0.039838215014757448 0.0028046184587715763 0 -0.03998126551576401 0.0028746125034710746 0 -0.040140538271090584 0.002988933083390074 0 -0.040574629582303727 0.0030778564608559141 0 -0.040140538271090584 0.002988933083390074 0 -0.039709502627684683 0.0027185661997347591 0 -0.040140538271090584 0.002988933083390074 0 -0.039640880057112374 0.0026543773314937507 0 -0.039709502627684683 0.0027185661997347591 0 -0.039838215014757448 0.0028046184587715763 0 -0.040140538271090584 0.002988933083390074 0 -0.039640880057112374 0.0026543773314937507 0 -0.0396228046958211 0.002464685540026974 0 -0.039640880057112374 0.0026543773314937507 0 -0.039160771728321282 0.0022844823842131023 0 -0.039640880057112374 0.0026543773314937507 0 -0.039160771728321282 0.0022844823842131023 0 -0.039212506102111827 0.0024534265933719708 0 -0.038526084321511667 0.0021002880228862017 0 -0.039160771728321282 0.0022844823842131023 0 -0.039212506102111827 0.0024534265933719708 0 -0.038526084321511667 0.0021002880228862017 0 -0.039212506102111827 0.0024534265933719708 0 -0.038870202665089774 0.0025268804420321171 0 -0.039212506102111827 0.0024534265933719708 0 -0.039709502627684683 0.0027185661997347591 0 -0.038870202665089774 0.0025268804420321171 0 -0.039709502627684683 0.0027185661997347591 0 -0.038870202665089774 0.0025268804420321171 0 -0.038892166050456083 0.0030947548068752913 0 -0.039640880057112374 0.0026543773314937507 0 -0.039212506102111827 0.0024534265933719708 0 -0.039709502627684683 0.0027185661997347591 0 -0.038870202665089774 0.0025268804420321171 0 -0.038232358745188197 0.0025604947902276025 0 -0.038892166050456083 0.0030947548068752913 0 -0.037980205951468386 0.0020924536283081904 0 -0.038526084321511667 0.0021002880228862017 0 -0.038402772406659264 0.0023115891410694566 0 -0.037980205951468386 0.0020924536283081904 0 -0.038402772406659264 0.0023115891410694566 0 -0.038232358745188197 0.0025604947902276025 0 -0.038526084321511667 0.0021002880228862017 0 -0.038870202665089774 0.0025268804420321171 0 -0.038402772406659264 0.0023115891410694566 0 -0.038870202665089774 0.0025268804420321171 0 -0.038402772406659264 0.0023115891410694566 0 -0.038232358745188197 0.0025604947902276025 0 -0.037980205951468386 0.0020924536283081904 0 -0.037797414580246519 0.0023613965925404147 0 -0.038232358745188197 0.0025604947902276025 0 -0.037980205951468386 0.0020924536283081904 0 -0.037558968965543081 0.0019160978617428414 0 -0.037797414580246519 0.0023613965925404147 0 -0.037797414580246519 0.0023613965925404147 0 -0.037761023373785119 0.0029394686694671109 0 -0.038232358745188197 0.0025604947902276025 0 -0.037761023373785119 0.0029394686694671109 0 -0.038232358745188197 0.0025604947902276025 0 -0.038892166050456083 0.0030947548068752913 0 -0.037761023373785119 0.0029394686694671109 0 -0.038892166050456083 0.0030947548068752913 0 -0.037792286084450545 0.0036234154273509867 0 -0.038892166050456083 0.0030947548068752913 0 -0.038558503858168329 0.0039453741891230963 0 -0.037792286084450545 0.0036234154273509867 0 -0.040574629582303727 0.0030778564608559141 0 -0.038892166050456083 0.0030947548068752913 0 -0.038558503858168329 0.0039453741891230963 0 -0.038558503858168329 0.0039453741891230963 0 -0.037792286084450545 0.0036234154273509867 0 -0.037642029932793745 0.0039865792705485858 0 -0.037792286084450545 0.0036234154273509867 0 -0.037242188715968329 0.0037298702065921255 0 -0.037642029932793745 0.0039865792705485858 0 -0.037792286084450545 0.0036234154273509867 0 -0.037242188715968329 0.0037298702065921255 0 -0.037210702219782198 0.0033595292163639033 0 -0.037242188715968329 0.0037298702065921255 0 -0.037210702219782198 0.0033595292163639033 0 -0.036955587096973587 0.0035638532118595851 0 -0.037210702219782198 0.0033595292163639033 0 -0.036888425034433271 0.0030059574505583602 0 -0.036893062715365819 0.0032907177118187401 0 -0.037761023373785119 0.0029394686694671109 0 -0.037792286084450545 0.0036234154273509867 0 -0.037210702219782198 0.0033595292163639033 0 -0.037761023373785119 0.0029394686694671109 0 -0.037210702219782198 0.0033595292163639033 0 -0.037289230329782534 0.0028827694990970903 0 -0.037761023373785119 0.0029394686694671109 0 -0.037289230329782534 0.0028827694990970903 0 -0.037423695602352987 0.0024137119806704175 0 -0.037797414580246519 0.0023613965925404147 0 -0.037761023373785119 0.0029394686694671109 0 -0.037423695602352987 0.0024137119806704175 0 -0.0372829673994865 0.0020861270807387483 0 -0.037423695602352987 0.0024137119806704175 0 -0.036833686282708562 0.0023425841341799172 0 -0.037558968965543081 0.0019160978617428414 0 -0.037797414580246519 0.0023613965925404147 0 -0.037423695602352987 0.0024137119806704175 0 -0.037289230329782534 0.0028827694990970903 0 -0.037423695602352987 0.0024137119806704175 0 -0.036833686282708562 0.0023425841341799172 0 -0.037210702219782198 0.0033595292163639033 0 -0.037289230329782534 0.0028827694990970903 0 -0.036888425034433271 0.0030059574505583602 0 -0.037289230329782534 0.0028827694990970903 0 -0.036833686282708562 0.0023425841341799172 0 -0.036888425034433271 0.0030059574505583602 0 -0.036797338930900654 0.0030421749965332751 0 -0.03660431272651811 0.0030588420804178928 0 -0.036888425034433271 0.0030059574505583602 0 -0.036356127376798414 0.0024654264233803921 0 -0.03604380239434983 0.0030411761533409563 0 -0.036888425034433271 0.0030059574505583602 0 -0.036815583011439661 0.0031957859624382116 0 -0.036893062715365819 0.0032907177118187401 0 -0.036833686282708562 0.0023425841341799172 0 -0.036888425034433271 0.0030059574505583602 0 -0.036356127376798414 0.0024654264233803921 0 -0.035779737215201057 0.0021463447148796075 0 -0.035346132490174396 0.0030522075208987446 0 -0.03604380239434983 0.0030411761533409563 0 -0.035779737215201057 0.0021463447148796075 0 -0.036356127376798414 0.0024654264233803921 0 -0.03604380239434983 0.0030411761533409563 0 -0.035217788185040899 0.0042045617383165293 0 -0.03660431272651811 0.0030588420804178928 0 -0.036681165354347442 0.0032521906041763859 0 -0.036815583011439661 0.0031957859624382116 0 -0.036775539273871734 0.0033994300858764684 0 -0.036815583011439661 0.0031957859624382116 0 -0.036775539273871734 0.0033994300858764684 0 -0.036893062715365819 0.0032907177118187401 0 -0.037210702219782198 0.0033595292163639033 0 -0.036893062715365819 0.0032907177118187401 0 -0.036955587096973587 0.0035638532118595851 0 -0.036775539273871734 0.0033994300858764684 0 -0.036893062715365819 0.0032907177118187401 0 -0.036955587096973587 0.0035638532118595851 0 -0.036775539273871734 0.0033994300858764684 0 -0.036955587096973587 0.0035638532118595851 0 -0.036826354455157084 0.0035678216056344988 0 -0.036955587096973587 0.0035638532118595851 0 -0.036826354455157084 0.0035678216056344988 0 -0.036888114220091549 0.0037005034284701313 0 -0.036783297537026853 0.003645503643786986 0 -0.036888114220091549 0.0037005034284701313 0 -0.036834033091616536 0.003754054454504848 0 -0.036783297537026853 0.003645503643786986 0 -0.036826354455157084 0.0035678216056344988 0 -0.036888114220091549 0.0037005034284701313 0 -0.036888114220091549 0.0037005034284701313 0 -0.03703123813202288 0.003765753987673451 0 -0.03692061803049803 0.0038405767480896914 0 -0.037242188715968329 0.0037298702065921255 0 -0.036955587096973587 0.0035638532118595851 0 -0.03703123813202288 0.003765753987673451 0 -0.036955587096973587 0.0035638532118595851 0 -0.036888114220091549 0.0037005034284701313 0 -0.03703123813202288 0.003765753987673451 0 -0.03703123813202288 0.003765753987673451 0 -0.03692061803049803 0.0038405767480896914 0 -0.037194579866236005 0.003952134610406938 0 -0.036888114220091549 0.0037005034284701313 0 -0.03692061803049803 0.0038405767480896914 0 -0.036834033091616536 0.003754054454504848 0 -0.03692061803049803 0.0038405767480896914 0 -0.036834033091616536 0.003754054454504848 0 -0.036852734617546672 0.0037745728863344623 0 -0.03692061803049803 0.0038405767480896914 0 -0.036852734617546672 0.0037745728863344623 0 -0.036851533264895313 0.0037620044830701856 0 -0.036852734617546672 0.0037745728863344623 0 -0.036851533264895313 0.0037620044830701856 0 -0.036847137751270909 0.0037193195380298811 0 -0.036735948884658892 0.0043435509342882117 0 -0.038899366520451117 0.0026837056382619821 0 -0.038899366520451117 0.0026837056382619821 0 -0.036766168190104795 0.0037674376622614677 0 -0.03737062371043845 0.0032644716876913805 0 -0.03713283101633575 0.0034282291280036026 0 -0.037279919950426808 0.0036415690841175084 0 -0.038899366520451117 0.0026837056382619821 0 -0.047561639733953449 0.0023841581422526324 0 -0.044813422627601719 0.0012715982605341024 0 -0.044752364240161491 0.0011988223945846412 0 -0.044865942058821634 0.0010536290491834402 0 -0.0533820294379386 0.0027353810244138983 0 -0.052586059841047632 0.0022863855857300562 0 -0.053160784575621768 0.0023669183117594381 0 -0.044730318131894993 0.0011777017947079882 0 -0.044752364240161491 0.0011988223945846412 0 -0.044865942058821634 0.0010536290491834402 0 -0.0533820294379386 0.0027353810244138983 0 -0.05344782016044352 0.0023135881039987043 0 -0.053160784575621768 0.0023669183117594381 0 -0.049163612049939388 0.0010824078577209798 0 -0.047561639733953449 0.0023841581422526324 0 -0.0533820294379386 0.0027353810244138983 0 -0.05344782016044352 0.0023135881039987043 0 -0.053889325337302327 0.0021350625725180491 0 -0.049163612049939388 0.0010824078577209798 0 -0.047559349485326169 0.00043544648095326271 0 -0.044713313820909817 0.0011458571154654919 0 -0.044752364240161491 0.0011988223945846412 0 -0.044698153206825686 0.0011967241942137663 0 -0.044752364240161491 0.0011988223945846412 0 -0.044698153206825686 0.0011967241942137663 0 -0.044674241307920678 0.0012492435326375761 0 -0.044653254844229051 0.0011999597298960473 0 -0.044698153206825686 0.0011967241942137663 0 -0.044674241307920678 0.0012492435326375761 0 -0.044713313820909817 0.0011458571154654919 0 -0.044633497347972249 0.0011613681680120744 0 -0.04453647409376265 0.00108857596435241 0 -0.044653254844229051 0.0011999597298960473 0 -0.044674241307920678 0.0012492435326375761 0 -0.044557464682574564 0.0012350099397949971 0 -0.044713313820909817 0.0011458571154654919 0 -0.044653254844229051 0.0011999597298960473 0 -0.044698153206825686 0.0011967241942137663 0 -0.044713313820909817 0.0011458571154654919 0 -0.044653254844229051 0.0011999597298960473 0 -0.044633497347972249 0.0011613681680120744 0 -0.044653254844229051 0.0011999597298960473 0 -0.044633497347972249 0.0011613681680120744 0 -0.044557464682574564 0.0012350099397949971 0 -0.044813422627601719 0.0012715982605341024 0 -0.044674241307920678 0.0012492435326375761 0 -0.044498717202167339 0.0015145532190652714 0 -0.03692061803049803 0.0038405767480896914 0 -0.036918291734016034 0.004033574857920972 0 -0.037194579866236005 0.003952134610406938 0 -0.038899366520451117 0.0026837056382619821 0 -0.041251329010346977 0.0026453670205467687 0 -0.044813422627601719 0.0012715982605341024 0 -0.044752364240161491 0.0011988223945846412 0 -0.044674241307920678 0.0012492435326375761 0 -0.044365899997545886 0.001217681045002076 0 -0.044557464682574564 0.0012350099397949971 0 -0.044498717202167339 0.0015145532190652714 0 -0.044674241307920678 0.0012492435326375761 0 -0.044557464682574564 0.0012350099397949971 0 -0.044498717202167339 0.0015145532190652714 0 -0.044713313820909817 0.0011458571154654919 0 -0.04453647409376265 0.00108857596435241 0 -0.044465948981770607 0.00091655601225083729 0 -0.049163612049939388 0.0010824078577209798 0 -0.048530838303722811 0.0016732360166532094 0 -0.044365899997545886 0.001217681045002076 0 -0.044557464682574564 0.0012350099397949971 0 -0.04453647409376265 0.00108857596435241 0 -0.044633497347972249 0.0011613681680120744 0 -0.044557464682574564 0.0012350099397949971 0 -0.04453647409376265 0.00108857596435241 0 -0.044365899997545886 0.001217681045002076 0 -0.04453647409376265 0.00108857596435241 0 -0.044357843778822723 0.0010319862741130711 0 -0.04453647409376265 0.00108857596435241 0 -0.044357843778822723 0.0010319862741130711 0 -0.044465948981770607 0.00091655601225083729 0 -0.044137971289178769 0.0010285931613981192 0 -0.044357843778822723 0.0010319862741130711 0 -0.044279059513821724 0.00090472423026675985 0 -0.044365899997545886 0.001217681045002076 0 -0.044137971289178769 0.0010285931613981192 0 -0.044357843778822723 0.0010319862741130711 0 -0.044365899997545886 0.001217681045002076 0 -0.044137971289178769 0.0010285931613981192 0 -0.044139552791429067 0.0013661465296031818 0 -0.044365899997545886 0.001217681045002076 0 -0.044139552791429067 0.0013661465296031818 0 -0.044498717202167339 0.0015145532190652714 0 -0.041251329010346977 0.0026453670205467687 0 -0.040832957866292541 0.0029431761006047425 0 -0.044139552791429067 0.0013661465296031818 0 -0.044498717202167339 0.0015145532190652714 0 -0.044156371083392362 0.0018223029122278584 0 -0.037242188715968329 0.0037298702065921255 0 -0.037194579866236005 0.003952134610406938 0 -0.037642029932793745 0.0039865792705485858 0 -0.037242188715968329 0.0037298702065921255 0 -0.03703123813202288 0.003765753987673451 0 -0.037194579866236005 0.003952134610406938 0 -0.040968813343608031 0.0031359407048600785 0 -0.040832957866292541 0.0029431761006047425 0 -0.043342613344155664 0.0024848028027402813 0 -0.044156371083392362 0.0018223029122278584 0 -0.043734166315913682 0.0015253408710292073 0 -0.042328785335961752 0.0022575871033392501 0 -0.043342613344155664 0.0024848028027402813 0 -0.043734166315913682 0.0015253408710292073 0 -0.042328785335961752 0.0022575871033392501 0 -0.043734166315913682 0.0015253408710292073 0 -0.043566926537660311 0.0014434498061843481 0 -0.043734166315913682 0.0015253408710292073 0 -0.043659866439515159 0.0011837806520039245 0 -0.043566926537660311 0.0014434498061843481 0 -0.044139552791429067 0.0013661465296031818 0 -0.044156371083392362 0.0018223029122278584 0 -0.043734166315913682 0.0015253408710292073 0 -0.044137971289178769 0.0010285931613981192 0 -0.044139552791429067 0.0013661465296031818 0 -0.043906610477248434 0.0011787997910463566 0 -0.044139552791429067 0.0013661465296031818 0 -0.043734166315913682 0.0015253408710292073 0 -0.043906610477248434 0.0011787997910463566 0 -0.044137971289178769 0.0010285931613981192 0 -0.043906610477248434 0.0011787997910463566 0 -0.043795811313696802 0.00083950602635240329 0 -0.044445506970083912 0.00038846806767526464 0 -0.044624553658290184 -0.00042340979345502399 0 -0.043906610477248434 0.0011787997910463566 0 -0.043659866439515159 0.0011837806520039245 0 -0.043795811313696802 0.00083950602635240329 0 -0.043734166315913682 0.0015253408710292073 0 -0.043906610477248434 0.0011787997910463566 0 -0.043659866439515159 0.0011837806520039245 0 -0.044445506970083912 0.00038846806767526464 0 -0.043720878361278109 0.0013432692270962574 0 -0.045273531656246993 -0.00034322590931380558 0 -0.044106888068365213 -0.00043161514625353732 0 -0.043566926537660311 0.0014434498061843481 0 -0.045273531656246993 -0.00034322590931380558 0 -0.045086034785168518 -0.001576253067226512 0 -0.045953843936343275 -0.0016895645011054993 0 -0.045273531656246993 -0.00034322590931380558 0 -0.044106888068365213 -0.00043161514625353732 0 -0.045086034785168518 -0.001576253067226512 0 -0.043099948036960822 -0.00013044288271980259 0 -0.043500818560466156 -0.0013154394643214188 0 -0.044106888068365213 -0.00043161514625353732 0 -0.044106888068365213 -0.00043161514625353732 0 -0.044305269624602871 -0.0016239247606117677 0 -0.045086034785168518 -0.001576253067226512 0 -0.043500818560466156 -0.0013154394643214188 0 -0.044106888068365213 -0.00043161514625353732 0 -0.044305269624602871 -0.0016239247606117677 0 -0.043099948036960822 -0.00013044288271980259 0 -0.044106888068365213 -0.00043161514625353732 0 -0.043040546337856554 0.001131221416506124 0 -0.044106888068365213 -0.00043161514625353732 0 -0.043040546337856554 0.001131221416506124 0 -0.043566926537660311 0.0014434498061843481 0 -0.043040546337856554 0.001131221416506124 0 -0.043566926537660311 0.0014434498061843481 0 -0.042512839262142152 0.0020055730414976118 0 -0.042222808004621457 0.0020868373072666139 0 -0.043040546337856554 0.001131221416506124 0 -0.042512839262142152 0.0020055730414976118 0 -0.042328785335961752 0.0022575871033392501 0 -0.043566926537660311 0.0014434498061843481 0 -0.042512839262142152 0.0020055730414976118 0 -0.042099745591838107 0.0022555451194848737 0 -0.041820616023293358 0.002361986741973699 0 -0.042512839262142152 0.0020055730414976118 0 -0.048128789432970116 -0.0023172523057286344 0 -0.046736377575513084 -0.0022777831183398247 0 -0.046833057111363999 -0.002259836954147376 0 -0.046492352811968278 -0.0022364127727772134 0 -0.048128789432970116 -0.0023172523057286344 0 -0.046833057111363999 -0.002259836954147376 0 -0.049888389759057322 -0.0026267001421720502 0 -0.050678201459946288 -0.0015216676205355732 0 -0.050336278524962946 -0.0033666962710664225 0 -0.047898134864429474 -0.0022623282076673443 0 -0.048435718927120508 -0.0017857038844968235 0 -0.048128789432970116 -0.0023172523057286344 0 -0.046736377575513084 -0.0022777831183398247 0 -0.045776322342458431 -0.0021354194580639318 0 -0.050274175408457238 -0.0010130243718393492 0 -0.051164051092517204 -0.0023165390914201222 0 -0.048128789432970116 -0.0023172523057286344 0 -0.049888389759057322 -0.0026267001421720502 0 -0.050482440941118235 -0.0014189900284777904 0 -0.048128789432970116 -0.0023172523057286344 0 -0.050482440941118235 -0.0014189900284777904 0 -0.05054371985901341 -0.001033262316965568 0 -0.049888389759057322 -0.0026267001421720502 0 -0.050482440941118235 -0.0014189900284777904 0 -0.050678201459946288 -0.0015216676205355732 0 -0.050482440941118235 -0.0014189900284777904 0 -0.050708312350919188 -0.0014876838151682784 0 -0.05054371985901341 -0.001033262316965568 0 -0.050331827611380033 -0.001047837296581865 0 -0.050274175408457238 -0.0010130243718393492 0 -0.046736377575513084 -0.0022777831183398247 0 -0.046170500520930816 -0.0022913378458706917 0 -0.045776322342458431 -0.0021354194580639318 0 -0.046736377575513084 -0.0022777831183398247 0 -0.046170500520930816 -0.0022913378458706917 0 -0.046328213703412689 -0.0022993497308927465 0 -0.046170500520930816 -0.0022913378458706917 0 -0.046328213703412689 -0.0022993497308927465 0 -0.045997985736360408 -0.0023084235336663528 0 -0.045776322342458431 -0.0021354194580639318 0 -0.045782477930361103 -0.0021698264218072789 0 -0.045822817786805324 -0.0022672441215144021 0 -0.045776322342458431 -0.0021354194580639318 0 -0.045822817786805324 -0.0022672441215144021 0 -0.045949777541511208 -0.0022804878301542334 0 -0.050274175408457238 -0.0010130243718393492 0 -0.048694869139925288 -0.001686799318153748 0 -0.050708312350919188 -0.0014876838151682784 0 -0.05054371985901341 -0.001033262316965568 0 -0.050689939963384029 -0.00092703190099487336 0 -0.048435718927120508 -0.0017857038844968235 0 -0.048694869139925288 -0.001686799318153748 0 -0.046170500520930816 -0.0022913378458706917 0 -0.045776322342458431 -0.0021354194580639318 0 -0.045949777541511208 -0.0022804878301542334 0 -0.045822817786805324 -0.0022672441215144021 0 -0.045997985736360408 -0.0023084235336663528 0 -0.045734000663539665 -0.0022362842497700344 0 -0.045822817786805324 -0.0022672441215144021 0 -0.045949777541511208 -0.0022804878301542334 0 -0.045997985736360408 -0.0023084235336663528 0 -0.046170500520930816 -0.0022913378458706917 0 -0.045949777541511208 -0.0022804878301542334 0 -0.045997985736360408 -0.0023084235336663528 0 -0.04619243530216089 -0.0022769245456911304 0 -0.045691211959036755 -0.0021928439405902353 0 -0.045723993334147894 -0.0022371580931408522 0 -0.046328213703412689 -0.0022993497308927465 0 -0.045997985736360408 -0.0023084235336663528 0 -0.04619243530216089 -0.0022769245456911304 0 -0.045997985736360408 -0.0023084235336663528 0 -0.04619243530216089 -0.0022769245456911304 0 -0.045723993334147894 -0.0022371580931408522 0 -0.046328213703412689 -0.0022993497308927465 0 -0.04619243530216089 -0.0022769245456911304 0 -0.046833057111363999 -0.002259836954147376 0 -0.046736377575513084 -0.0022777831183398247 0 -0.046328213703412689 -0.0022993497308927465 0 -0.046833057111363999 -0.002259836954147376 0 -0.046492352811968278 -0.0022364127727772134 0 -0.046172617489897025 -0.0022290278629880146 0 -0.046833057111363999 -0.002259836954147376 0 -0.04619243530216089 -0.0022769245456911304 0 -0.046172617489897025 -0.0022290278629880146 0 -0.046833057111363999 -0.002259836954147376 0 -0.04543701070639708 -0.0021232887161374931 0 -0.046172617489897025 -0.0022290278629880146 0 -0.045691211959036755 -0.0021928439405902353 0 -0.04619243530216089 -0.0022769245456911304 0 -0.046172617489897025 -0.0022290278629880146 0 -0.045691211959036755 -0.0021928439405902353 0 -0.044993314213452484 -0.0020467651461184549 0 -0.04543701070639708 -0.0021232887161374931 0 -0.045691211959036755 -0.0021928439405902353 0 -0.044993314213452484 -0.0020467651461184549 0 -0.045691211959036755 -0.0021928439405902353 0 -0.04518981259527121 -0.0020776831320264907 0 -0.045691211959036755 -0.0021928439405902353 0 -0.045723993334147894 -0.0022371580931408522 0 -0.04518981259527121 -0.0020776831320264907 0 -0.045723993334147894 -0.0022371580931408522 0 -0.04518981259527121 -0.0020776831320264907 0 -0.04536138194562124 -0.0020608712551543657 0 -0.04518981259527121 -0.0020776831320264907 0 -0.044890681767412642 -0.0018840861741075963 0 -0.04536138194562124 -0.0020608712551543657 0 -0.044993314213452484 -0.0020467651461184549 0 -0.04518981259527121 -0.0020776831320264907 0 -0.044543181836633049 -0.0019603043512862006 0 -0.04518981259527121 -0.0020776831320264907 0 -0.044543181836633049 -0.0019603043512862006 0 -0.044890681767412642 -0.0018840861741075963 0 -0.044543181836633049 -0.0019603043512862006 0 -0.044890681767412642 -0.0018840861741075963 0 -0.044305269624602871 -0.0016239247606117677 0 -0.044890681767412642 -0.0018840861741075963 0 -0.044305269624602871 -0.0016239247606117677 0 -0.045086034785168518 -0.001576253067226512 0 -0.045086034785168518 -0.001576253067226512 0 -0.045582684696154827 -0.0020015815490063379 0 -0.045953843936343275 -0.0016895645011054993 0 -0.045086034785168518 -0.001576253067226512 0 -0.045582684696154827 -0.0020015815490063379 0 -0.04536138194562124 -0.0020608712551543657 0 -0.044890681767412642 -0.0018840861741075963 0 -0.045086034785168518 -0.001576253067226512 0 -0.04536138194562124 -0.0020608712551543657 0 -0.045582684696154827 -0.0020015815490063379 0 -0.045734000663539665 -0.0022362842497700344 0 -0.045826166932236116 -0.0021756877587831755 0 -0.045582684696154827 -0.0020015815490063379 0 -0.04536138194562124 -0.0020608712551543657 0 -0.045734000663539665 -0.0022362842497700344 0 -0.045997985736360408 -0.0023084235336663528 0 -0.045723993334147894 -0.0022371580931408522 0 -0.045734000663539665 -0.0022362842497700344 0 -0.045723993334147894 -0.0022371580931408522 0 -0.04536138194562124 -0.0020608712551543657 0 -0.045734000663539665 -0.0022362842497700344 0 -0.045822817786805324 -0.0022672441215144021 0 -0.045734000663539665 -0.0022362842497700344 0 -0.045826166932236116 -0.0021756877587831755 0 -0.044624553658290184 -0.00042340979345502399 0 -0.04721035752341831 -0.00049278499928313846 0 -0.045582684696154827 -0.0020015815490063379 0 -0.045826166932236116 -0.0021756877587831755 0 -0.045953843936343275 -0.0016895645011054993 0 -0.045826166932236116 -0.0021756877587831755 0 -0.045953843936343275 -0.0016895645011054993 0 -0.045996824313256413 -0.0022788095996872726 0 -0.045822817786805324 -0.0022672441215144021 0 -0.045826166932236116 -0.0021756877587831755 0 -0.045996824313256413 -0.0022788095996872726 0 -0.044137971289178769 0.0010285931613981192 0 -0.043795811313696802 0.00083950602635240329 0 -0.044202728576781085 0.00070087614584393449 0 -0.043795811313696802 0.00083950602635240329 0 -0.043943929285679896 0.00048566223455523611 0 -0.044202728576781085 0.00070087614584393449 0 -0.050136058014905692 0.00064805063165067128 0 -0.051062600224123539 -0.00024283344755393296 0 -0.051370429881605138 0.0015294719580385143 0 -0.04721035752341831 -0.00049278499928313846 0 -0.047812680262676127 0.0012142224348552909 0 -0.049821804644168501 -0.00049581358519977818 0 -0.049660976837739644 -0.00096483508767292159 0 -0.050118332161921082 -0.0013304930519052493 0 -0.050136058014905692 0.00064805063165067128 0 -0.051062600224123539 -0.00024283344755393296 0 -0.050735912322741564 -0.0011479304999899988 0 -0.04721035752341831 -0.00049278499928313846 0 -0.052308989760697019 -0.00051072275410748351 0 -0.048694869139925288 -0.001686799318153748 0 -0.04721035752341831 -0.00049278499928313846 0 -0.049265323063724352 -0.00091099134749080761 0 -0.049821804644168501 -0.00049581358519977818 0 -0.049660976837739644 -0.00096483508767292159 0 -0.045782477930361103 -0.0021698264218072789 0 -0.045822817786805324 -0.0022672441215144021 0 -0.045996824313256413 -0.0022788095996872726 0 -0.049275837396721325 -0.0010772733531148534 0 -0.049265323063724352 -0.00091099134749080761 0 -0.049660976837739644 -0.00096483508767292159 0 -0.05205319829121284 -0.00074244405826776722 0 -0.052200760272060734 -0.00087544585717815775 0 -0.052074121032891253 -0.00096623175362800713 0 -0.049275837396721325 -0.0010772733531148534 0 -0.049660976837739644 -0.00096483508767292159 0 -0.050118332161921082 -0.0013304930519052493 0 -0.05205319829121284 -0.00074244405826776722 0 -0.052200760272060734 -0.00087544585717815775 0 -0.05233328231241112 -0.00082045138442820469 0 -0.050274175408457238 -0.0010130243718393492 0 -0.052308989760697019 -0.00051072275410748351 0 -0.052200760272060734 -0.00087544585717815775 0 -0.052338467945669577 -0.00083560286690755644 0 -0.05233328231241112 -0.00082045138442820469 0 -0.053140715913406938 -0.00059872719775158883 0 -0.052308989760697019 -0.00051072275410748351 0 -0.054936596191072294 -0.00015303268747403359 0 -0.054936316490470753 -0.00015490929394041479 0 -0.054898009382493951 -0.00016116024572611804 0 -0.052091919238469217 0.00040965938699269162 0 -0.052647270946101089 0.00056967065559163749 0 -0.052798130895725708 0.00019452337984281941 0 -0.052091919238469217 0.00040965938699269162 0 -0.052647270946101089 0.00056967065559163749 0 -0.052607079320248634 0.0010560875482382062 0 -0.052308989760697019 -0.00051072275410748351 0 -0.054071658755245125 4.3546793164511805e-05 0 -0.05306619081344735 0.00060674246227751928 0 -0.053542502113418169 1.7212278719471643e-05 0 -0.052798130895725708 0.00019452337984281941 0 -0.052647270946101089 0.00056967065559163749 0 -0.05306619081344735 0.00060674246227751928 0 -0.052798130895725708 0.00019452337984281941 0 -0.052607079320248634 0.0010560875482382062 0 -0.053227623443093314 0.0014006310522806586 0 -0.053307685247101853 0.00097452779452507322 0 -0.052647270946101089 0.00056967065559163749 0 -0.05306619081344735 0.00060674246227751928 0 -0.052607079320248634 0.0010560875482382062 0 -0.05306619081344735 0.00060674246227751928 0 -0.052607079320248634 0.0010560875482382062 0 -0.053307685247101853 0.00097452779452507322 0 -0.051062600224123539 -0.00024283344755393296 0 -0.05189461095685096 0.00025006560427182512 0 -0.051370429881605138 0.0015294719580385143 0 -0.051062600224123539 -0.00024283344755393296 0 -0.050735912322741564 -0.0011479304999899988 0 -0.05189461095685096 0.00025006560427182512 0 -0.052308989760697019 -0.00051072275410748351 0 -0.052102526150901253 0.00064773313038439203 0 -0.05189461095685096 0.00025006560427182512 0 -0.051370429881605138 0.0015294719580385143 0 -0.052959679759165185 0.0016969602725029438 0 -0.044137971289178769 0.0010285931613981192 0 -0.044202728576781085 0.00070087614584393449 0 -0.044279059513821724 0.00090472423026675985 0 -0.047812680262676127 0.0012142224348552909 0 -0.048530838303722811 0.0016732360166532094 0 -0.044202728576781085 0.00070087614584393449 0 -0.044279059513821724 0.00090472423026675985 0 -0.044465948981770607 0.00091655601225083729 0 -0.044357843778822723 0.0010319862741130711 0 -0.044279059513821724 0.00090472423026675985 0 -0.044465948981770607 0.00091655601225083729 0 -0.051370429881605138 0.0015294719580385143 0 -0.052586059841047632 0.0022863855857300562 0 -0.052959679759165185 0.0016969602725029438 0 -0.052586059841047632 0.0022863855857300562 0 -0.053160784575621768 0.0023669183117594381 0 -0.053197230270902125 0.0021366077589716984 0 -0.052586059841047632 0.0022863855857300562 0 -0.052959679759165185 0.0016969602725029438 0 -0.053197230270902125 0.0021366077589716984 0 -0.052607079320248634 0.0010560875482382062 0 -0.052959679759165185 0.0016969602725029438 0 -0.053227623443093314 0.0014006310522806586 0 -0.052102526150901253 0.00064773313038439203 0 -0.052980221904611734 0.0016595814675340675 0 -0.053227623443093314 0.0014006310522806586 0 -0.053583146749944618 0.0012273341280834179 0 -0.053580319685430165 0.0016637907545818305 0 -0.052959679759165185 0.0016969602725029438 0 -0.053227623443093314 0.0014006310522806586 0 -0.053294703645829104 0.0017978317399674876 0 -0.053227623443093314 0.0014006310522806586 0 -0.053580319685430165 0.0016637907545818305 0 -0.053294703645829104 0.0017978317399674876 0 -0.052959679759165185 0.0016969602725029438 0 -0.053294703645829104 0.0017978317399674876 0 -0.053197230270902125 0.0021366077589716984 0 -0.053294703645829104 0.0017978317399674876 0 -0.05352625093919592 0.0020417390509914726 0 -0.053197230270902125 0.0021366077589716984 0 -0.053580319685430165 0.0016637907545818305 0 -0.05352625093919592 0.0020417390509914726 0 -0.053889325337302327 0.0021350625725180491 0 -0.053580319685430165 0.0016637907545818305 0 -0.053294703645829104 0.0017978317399674876 0 -0.05352625093919592 0.0020417390509914726 0 -0.05352625093919592 0.0020417390509914726 0 -0.05344782016044352 0.0023135881039987043 0 -0.053889325337302327 0.0021350625725180491 0 -0.05352625093919592 0.0020417390509914726 0 -0.05344782016044352 0.0023135881039987043 0 -0.053197230270902125 0.0021366077589716984 0 -0.05344782016044352 0.0023135881039987043 0 -0.053160784575621768 0.0023669183117594381 0 -0.053197230270902125 0.0021366077589716984 0 -0.047561639733953449 0.0023841581422526324 0 -0.045248262001827112 0.0027261039322025696 0 -0.03713283101633575 0.0034282291280036026 0 -0.037279919950426808 0.0036415690841175084 0 -0.037050062857745023 0.0036682157155130185 0 -0.053580319685430165 0.0016637907545818305 0 -0.053889325337302327 0.0021350625725180491 0 -0.054017507620148807 0.0012263474573171991 0 -0.047561639733953449 0.0023841581422526324 0 -0.054634377382428559 0.00098089815458870535 0 -0.053532082363866328 0.0019719923508245878 0 -0.053799169482224546 0.0010524812239000203 0 -0.054157177694552194 0.0013417383288132057 0 -0.053583146749944618 0.0012273341280834179 0 -0.053580319685430165 0.0016637907545818305 0 -0.054017507620148807 0.0012263474573171991 0 -0.054634377382428559 0.00098089815458870535 0 -0.053965437511127749 0.00057982070142722098 0 -0.053799169482224546 0.0010524812239000203 0 -0.054171175176194269 0.00044437534537952137 0 -0.054215518000428113 0.00079262487407047032 0 -0.054017507620148807 0.0012263474573171991 0 -0.053741541068629467 0.0008852885163041904 0 -0.054171175176194269 0.00044437534537952137 0 -0.053583146749944618 0.0012273341280834179 0 -0.054017507620148807 0.0012263474573171991 0 -0.053741541068629467 0.0008852885163041904 0 -0.053583146749944618 0.0012273341280834179 0 -0.053741541068629467 0.0008852885163041904 0 -0.053307685247101853 0.00097452779452507322 0 -0.053227623443093314 0.0014006310522806586 0 -0.053583146749944618 0.0012273341280834179 0 -0.053307685247101853 0.00097452779452507322 0 -0.053741541068629467 0.0008852885163041904 0 -0.053307685247101853 0.00097452779452507322 0 -0.053620346896721439 0.00056653988720358861 0 -0.05306619081344735 0.00060674246227751928 0 -0.053307685247101853 0.00097452779452507322 0 -0.053620346896721439 0.00056653988720358861 0 -0.05306619081344735 0.00060674246227751928 0 -0.053620346896721439 0.00056653988720358861 0 -0.053542502113418169 1.7212278719471643e-05 0 -0.053620346896721439 0.00056653988720358861 0 -0.054171175176194269 0.00044437534537952137 0 -0.053542502113418169 1.7212278719471643e-05 0 -0.053741541068629467 0.0008852885163041904 0 -0.053620346896721439 0.00056653988720358861 0 -0.054171175176194269 0.00044437534537952137 0 -0.054171175176194269 0.00044437534537952137 0 -0.054409704804265956 -6.830261802682046e-05 0 -0.053542502113418169 1.7212278719471643e-05 0 -0.054395491934303555 -8.678538456025059e-05 0 -0.054109229639573687 -6.5118693317820807e-05 0 -0.054409704804265956 -6.830261802682046e-05 0 -0.054774936940316682 -0.00019002563005468309 0 -0.054832945285726062 -5.8582299264382836e-05 0 -0.054409704804265956 -6.830261802682046e-05 0 -0.054832945285726062 -5.8582299264382836e-05 0 -0.054838579065130337 3.8331152960867118e-06 0 -0.054409704804265956 -6.830261802682046e-05 0 -0.054710580114312048 -2.1554078529798835e-05 0 -0.054838579065130337 3.8331152960867118e-06 0 -0.054710580114312048 -2.1554078529798835e-05 0 -0.054999266290649856 1.8471777195101097e-07 0 -0.054838579065130337 3.8331152960867118e-06 0 -0.054999266290649856 1.8471777195101097e-07 0 -0.054838579065130337 3.8331152960867118e-06 0 -0.054999989217378739 -2.0158986520873991e-08 0 -0.054832945285726062 -5.8582299264382836e-05 0 -0.054838579065130337 3.8331152960867118e-06 0 -0.054929272172370466 -2.6684853466295961e-05 0 -0.054838579065130337 3.8331152960867118e-06 0 -0.054929272172370466 -2.6684853466295961e-05 0 -0.054999989217378739 -2.0158986520873991e-08 0 -0.054929272172370466 -2.6684853466295961e-05 0 -0.054999989217378739 -2.0158986520873991e-08 0 -0.054968781919627133 -1.7438619545909368e-05 0 -0.054999989217378739 -2.0158986520873991e-08 0 -0.054968781919627133 -1.7438619545909368e-05 0 -0.054999903558446472 5.2026743208885393e-08 0 -0.054929272172370466 -2.6684853466295961e-05 0 -0.054968781919627133 -1.7438619545909368e-05 0 -0.05496709432281998 -5.7336465223920261e-05 0 -0.054913614033364838 -9.4059991256334314e-05 0 -0.054942476690374283 -0.00012007602946094798 0 -0.05496709432281998 -5.7336465223920261e-05 0 -0.054929272172370466 -2.6684853466295961e-05 0 -0.054913614033364838 -9.4059991256334314e-05 0 -0.05496709432281998 -5.7336465223920261e-05 0 -0.054774936940316682 -0.00019002563005468309 0 -0.054832945285726062 -5.8582299264382836e-05 0 -0.054913614033364838 -9.4059991256334314e-05 0 -0.054832945285726062 -5.8582299264382836e-05 0 -0.054929272172370466 -2.6684853466295961e-05 0 -0.054913614033364838 -9.4059991256334314e-05 0 -0.054774936940316682 -0.00019002563005468309 0 -0.054913614033364838 -9.4059991256334314e-05 0 -0.054898009382493951 -0.00016116024572611804 0 -0.054109229639573687 -6.5118693317820807e-05 0 -0.054071658755245125 4.3546793164511805e-05 0 -0.054936596191072294 -0.00015303268747403359 0 -0.054898009382493951 -0.00016116024572611804 0 -0.054942476690374283 -0.00012007602946094798 0 -0.054913614033364838 -9.4059991256334314e-05 0 -0.054898009382493951 -0.00016116024572611804 0 -0.054942476690374283 -0.00012007602946094798 0 -0.053140715913406938 -0.00059872719775158883 0 -0.05371148578598349 -0.00046221859879414298 0 -0.054941534063029797 -0.0001561134115096124 0 -0.054942476690374283 -0.00012007602946094798 0 -0.054979101135025105 -9.5899634641752858e-05 0 -0.052200760272060734 -0.00087544585717815775 0 -0.052338467945669577 -0.00083560286690755644 0 -0.052207432288334917 -0.0010078447772788361 0 -0.053140715913406938 -0.00059872719775158883 0 -0.054607688192968379 -0.00026280590877780796 0 -0.052200760272060734 -0.00087544585717815775 0 -0.052207432288334917 -0.0010078447772788361 0 -0.052074121032891253 -0.00096623175362800713 0 -0.05371148578598349 -0.00046221859879414298 0 -0.053136147417985856 -0.00074093253985731123 0 -0.052207432288334917 -0.0010078447772788361 0 -0.052093308905570908 -0.0011633039168755443 0 -0.052074121032891253 -0.00096623175362800713 0 -0.054979101135025105 -9.5899634641752858e-05 0 -0.05496709432281998 -5.7336465223920261e-05 0 -0.054985427223603896 -4.2164435592039514e-05 0 -0.054942476690374283 -0.00012007602946094798 0 -0.054979101135025105 -9.5899634641752858e-05 0 -0.05496709432281998 -5.7336465223920261e-05 0 -0.054968781919627133 -1.7438619545909368e-05 0 -0.05496709432281998 -5.7336465223920261e-05 0 -0.054985679628500178 -1.9855672356814422e-05 0 -0.054999903558446472 5.2026743208885393e-08 0 -0.054985679628500178 -1.9855672356814422e-05 0 -0.055000118918051406 -2.6943488139594409e-07 0 -0.054968781919627133 -1.7438619545909368e-05 0 -0.054999903558446472 5.2026743208885393e-08 0 -0.054985679628500178 -1.9855672356814422e-05 0 -0.054985679628500178 -1.9855672356814422e-05 0 -0.055000118918051406 -2.6943488139594409e-07 0 -0.054928783531811493 -2.9374247453078899e-05 0 -0.054985679628500178 -1.9855672356814422e-05 0 -0.054928783531811493 -2.9374247453078899e-05 0 -0.054985427223603896 -4.2164435592039514e-05 0 -0.05496709432281998 -5.7336465223920261e-05 0 -0.054985679628500178 -1.9855672356814422e-05 0 -0.054985427223603896 -4.2164435592039514e-05 0 -0.053784855773915174 -0.00010115594415472602 0 -0.053136147417985856 -0.00074093253985731123 0 -0.055401131532193594 0.00048598788842117453 0 -0.053136147417985856 -0.00074093253985731123 0 -0.054169157914081646 -1.9789281203444112e-05 0 -0.052839485810550813 -0.0015584880396668026 0 -0.050340187274039161 -0.0022830044007546395 0 -0.054928783531811493 -2.9374247453078899e-05 0 -0.054169157914081646 -1.9789281203444112e-05 0 -0.054835885148336719 0.00089820854214581246 0 -0.055000118918051406 -2.6943488139594409e-07 0 -0.054928783531811493 -2.9374247453078899e-05 0 -0.054996481506363548 -7.9469632113447263e-08 0 -0.054928783531811493 -2.9374247453078899e-05 0 -0.054169157914081646 -1.9789281203444112e-05 0 -0.054996481506363548 -7.9469632113447263e-08 0 -0.054554080513470951 -0.000388269659877318 0 -0.054169157914081646 -1.9789281203444112e-05 0 -0.054996481506363548 -7.9469632113447263e-08 0 -0.054554080513470951 -0.000388269659877318 0 -0.054169157914081646 -1.9789281203444112e-05 0 -0.052839485810550813 -0.0015584880396668026 0 -0.053427763623164273 -0.0024693651304098286 0 -0.052839485810550813 -0.0015584880396668026 0 -0.05051256364253736 -0.0037344549852079616 0 -0.052839485810550813 -0.0015584880396668026 0 -0.050340187274039161 -0.0022830044007546395 0 -0.05051256364253736 -0.0037344549852079616 0 -0.053136147417985856 -0.00074093253985731123 0 -0.051164051092517204 -0.0023165390914201222 0 -0.050340187274039161 -0.0022830044007546395 0 -0.050336278524962946 -0.0033666962710664225 0 -0.05051256364253736 -0.0037344549852079616 0 -0.049888389759057322 -0.0026267001421720502 0 -0.050336278524962946 -0.0033666962710664225 0 -0.05051256364253736 -0.0037344549852079616 0 -0.047055290008549883 -0.0026717690827328601 0 -0.048128789432970116 -0.0023172523057286344 0 -0.05051256364253736 -0.0037344549852079616 0 -0.048128789432970116 -0.0023172523057286344 0 -0.049888389759057322 -0.0026267001421720502 0 -0.05051256364253736 -0.0037344549852079616 0 -0.038392805539726502 0.0018364135061514192 0 -0.040295181755721242 0.0011721206942681716 0 -0.039768772162164442 0.0030339168776413478 0 -0.040295181755721242 0.0011721206942681716 0 -0.041094652757042445 0.0029023309243676899 0 -0.039768772162164442 0.0030339168776413478 0 -0.037701111402226907 0.0029939194250804585 0 -0.038363571812946667 0.0034275670626987918 0 -0.037701111402226907 0.0029939194250804585 0 -0.040623803109908589 0.0017948331510784803 0 -0.036976301205575365 0.0037951648994012659 0 -0.036866069051011363 0.0037002139976494951 0 -0.037004636075990041 0.0036921750510646996 0 -0.037990604628872889 0.0036096731881900485 0 -0.037857650756468193 0.0034871983983472002 0 -0.038224035968761422 0.0032450813203970261 0 -0.037701111402226907 0.0029939194250804585 0 -0.037832069491909717 0.0031550409154449343 0 -0.037990604628872889 0.0036096731881900485 0 -0.038224035968761422 0.0032450813203970261 0 -0.039032640125918769 0.0032762999427469936 0 -0.037857650756468193 0.0034871983983472002 0 -0.038224035968761422 0.0032450813203970261 0 -0.037890586160059449 0.0031597689909846466 0 -0.038224035968761422 0.0032450813203970261 0 -0.037890586160059449 0.0031597689909846466 0 -0.038230589795034194 0.0028231787299483361 0 -0.037890586160059449 0.0031597689909846466 0 -0.038230589795034194 0.0028231787299483361 0 -0.037612060916107352 0.0029864538937578312 0 -0.038224035968761422 0.0032450813203970261 0 -0.038459304599619736 0.0029379568581433704 0 -0.038230589795034194 0.0028231787299483361 0 -0.043732690319960105 0.0013464726452858109 0 -0.042228778879237892 0.00099863814989893012 0 -0.038224035968761422 0.0032450813203970261 0 -0.038459304599619736 0.0029379568581433704 0 -0.039032640125918769 0.0032762999427469936 0 -0.042337834756357828 0.0011140720049910944 0 -0.042455281426626731 0.0010975639655402844 0 -0.042531134385918767 0.0010167655665874078 0 -0.043732690319960105 0.0013464726452858109 0 -0.046012409467489364 0.00060189720806418958 0 -0.042337834756357828 0.0011140720049910944 0 -0.042415206216141199 0.0011527634676324792 0 -0.042455281426626731 0.0010975639655402844 0 -0.043732690319960105 0.0013464726452858109 0 -0.040623803109908589 0.0017948331510784803 0 -0.042415206216141199 0.0011527634676324792 0 -0.042455281426626731 0.0010975639655402844 0 -0.042559764424589974 0.0011297683561300733 0 -0.042455281426626731 0.0010975639655402844 0 -0.042559764424589974 0.0011297683561300733 0 -0.042531134385918767 0.0010167655665874078 0 -0.040623803109908589 0.0017948331510784803 0 -0.042472645369761364 0.001104273621830252 0 -0.040995881392486319 0.0015312547473356674 0 -0.041953367162647137 0.0012106451051514741 0 -0.042043562366607529 0.0017298571483498094 0 -0.041953367162647137 0.0012106451051514741 0 -0.04240417942135865 0.0014465497928398512 0 -0.042043562366607529 0.0017298571483498094 0 -0.041953367162647137 0.0012106451051514741 0 -0.042910084105967403 0.0010210653175326658 0 -0.04240417942135865 0.0014465497928398512 0 -0.042472645369761364 0.001104273621830252 0 -0.042751697555410272 0.0010508058852425443 0 -0.042559764424589974 0.0011297683561300733 0 -0.042910084105967403 0.0010210653175326658 0 -0.042531134385918767 0.0010167655665874078 0 -0.04240417942135865 0.0014465497928398512 0 -0.042760737952060611 0.0015248714572537925 0 -0.042585728445181097 0.0020106860055175077 0 -0.042910084105967403 0.0010210653175326658 0 -0.04240417942135865 0.0014465497928398512 0 -0.042760737952060611 0.0015248714572537925 0 -0.04303967227505829 0.0019241232770665093 0 -0.040932989141409672 0.0021932059411525935 0 -0.042760737952060611 0.0015248714572537925 0 -0.042585728445181097 0.0020106860055175077 0 -0.043313076864012541 0.0025603817577488312 0 -0.042585728445181097 0.0020106860055175077 0 -0.04235612252636603 0.0024839176010475806 0 -0.042043562366607529 0.0017298571483498094 0 -0.04240417942135865 0.0014465497928398512 0 -0.042585728445181097 0.0020106860055175077 0 -0.042043562366607529 0.0017298571483498094 0 -0.042585728445181097 0.0020106860055175077 0 -0.04235612252636603 0.0024839176010475806 0 -0.043313076864012541 0.0025603817577488312 0 -0.040995881392486319 0.0015312547473356674 0 -0.04235612252636603 0.0024839176010475806 0 -0.042043562366607529 0.0017298571483498094 0 -0.040623803109908589 0.0017948331510784803 0 -0.042268394648688555 0.0022936792225566795 0 -0.040295181755721242 0.0011721206942681716 0 -0.04235612252636603 0.0024839176010475806 0 -0.041094652757042445 0.0029023309243676899 0 -0.041094652757042445 0.0029023309243676899 0 -0.042318050313728331 0.0033603033789281001 0 -0.041132802931815177 0.0042198109520834503 0 -0.04235612252636603 0.0024839176010475806 0 -0.041094652757042445 0.0029023309243676899 0 -0.042318050313728331 0.0033603033789281001 0 -0.040632160479054449 0.0027123076491935112 0 -0.038815811770989986 0.0033735901606997214 0 -0.038704230308939311 0.0022377113914681768 0 -0.038798997039303548 0.0023485013409969887 0 -0.038859333562012134 0.0022096310079586547 0 -0.038704230308939311 0.0022377113914681768 0 -0.038834452818756374 0.0021428426377939837 0 -0.038859333562012134 0.0022096310079586547 0 -0.04235612252636603 0.0024839176010475806 0 -0.042318050313728331 0.0033603033789281001 0 -0.043313076864012541 0.0025603817577488312 0 -0.040632160479054449 0.0027123076491935112 0 -0.040932989141409672 0.0021932059411525935 0 -0.038704230308939311 0.0022377113914681768 0 -0.038582923223830612 0.0023285917964700515 0 -0.038798997039303548 0.0023485013409969887 0 -0.038743952606315135 0.002479072211434858 0 -0.038582923223830612 0.0023285917964700515 0 -0.038798997039303548 0.0023485013409969887 0 -0.036526756529500735 0.0024211524935752451 0 -0.037326734676404918 0.0017697640553172302 0 -0.036526756529500735 0.0024211524935752451 0 -0.038815811770989986 0.0033735901606997214 0 -0.036838763371105587 0.003679603356176665 0 -0.036855981064673533 0.0036803883878162636 0 -0.036842632432156019 0.0036666669077405293 0 -0.036838289790812731 0.0036717096591522983 0 -0.036842632432156019 0.0036666669077405293 0 -0.036834858487654575 0.00367408577023211 0 -0.037813673000345598 0.0038448621769240471 0 -0.038815811770989986 0.0033735901606997214 0 -0.036838763371105587 0.003679603356176665 0 -0.036842632432156019 0.0036666669077405293 0 -0.036834858487654575 0.00367408577023211 0 -0.036825450095592689 0.003678807932829326 0 -0.036834858487654575 0.00367408577023211 0 -0.036837465807779586 0.0036738561611835271 0 -0.036818016297208413 0.003679345252196924 0 -0.036825450095592689 0.003678807932829326 0 -0.036837465807779586 0.0036738561611835271 0 -0.036838289790812731 0.0036717096591522983 0 -0.036834858487654575 0.00367408577023211 0 -0.036837465807779586 0.0036738561611835271 0 -0.036818016297208413 0.003679345252196924 0 -0.036837465807779586 0.0036738561611835271 0 -0.036854937768595553 0.003674310163920507 0 -0.036838289790812731 0.0036717096591522983 0 -0.036837465807779586 0.0036738561611835271 0 -0.036854937768595553 0.003674310163920507 0 -0.036838289790812731 0.0036717096591522983 0 -0.036836218951223451 0.0036756748423530097 0 -0.036866069051011363 0.0037002139976494951 0 -0.036838289790812731 0.0036717096591522983 0 -0.036854937768595553 0.003674310163920507 0 -0.036866069051011363 0.0037002139976494951 0 -0.041094652757042445 0.0029023309243676899 0 -0.041132802931815177 0.0042198109520834503 0 -0.039768772162164442 0.0030339168776413478 0 -0.038815811770989986 0.0033735901606997214 0 -0.038363571812946667 0.0034275670626987918 0 -0.036854937768595553 0.003674310163920507 0 -0.036866069051011363 0.0037002139976494951 0 -0.036943271474748088 0.0036740290121519033 0 -0.036866069051011363 0.0037002139976494951 0 -0.037004636075990041 0.0036921750510646996 0 -0.036943271474748088 0.0036740290121519033 0 -0.036854937768595553 0.003674310163920507 0 -0.036847625501044506 0.0036801861633799595 0 -0.036943271474748088 0.0036740290121519033 0 -0.036818016297208413 0.003679345252196924 0 -0.036854937768595553 0.003674310163920507 0 -0.036847625501044506 0.0036801861633799595 0 -0.036846525612948856 0.0037006020696525705 0 -0.036847625501044506 0.0036801861633799595 0 -0.036943271474748088 0.0036740290121519033 0 -0.036846525612948856 0.0037006020696525705 0 -0.036950478361654396 0.0036950908103514615 0 -0.036943271474748088 0.0036740290121519033 0 -0.036896662282104753 0.0036884725948925709 0 -0.036846525612948856 0.0037006020696525705 0 -0.036950478361654396 0.0036950908103514615 0 -0.036950478361654396 0.0036950908103514615 0 -0.037011140287199228 0.0036739768595687107 0 -0.037046078674856708 0.0036818708622943083 0 -0.036950478361654396 0.0036950908103514615 0 -0.037011140287199228 0.0036739768595687107 0 -0.036947727881875191 0.0036957852974159201 0 -0.037011140287199228 0.0036739768595687107 0 -0.037046078674856708 0.0036818708622943083 0 -0.037209151900238227 0.0036874962806554036 0 -0.037046078674856708 0.0036818708622943083 0 -0.037004636075990041 0.0036921750510646996 0 -0.037209151900238227 0.0036874962806554036 0 -0.036950478361654396 0.0036950908103514615 0 -0.037046078674856708 0.0036818708622943083 0 -0.036943271474748088 0.0036740290121519033 0 -0.037046078674856708 0.0036818708622943083 0 -0.037004636075990041 0.0036921750510646996 0 -0.036943271474748088 0.0036740290121519033 0 -0.037050062857745023 0.0036682157155130185 0 -0.036947727881875191 0.0036957852974159201 0 -0.037024902968023465 0.0037118652569791471 0 -0.037279919950426808 0.0036415690841175084 0 -0.037050062857745023 0.0036682157155130185 0 -0.037024902968023465 0.0037118652569791471 0 -0.037050062857745023 0.0036682157155130185 0 -0.036929981086951884 0.0036371328231588375 0 -0.036947727881875191 0.0036957852974159201 0 -0.036896662282104753 0.0036884725948925709 0 -0.036929981086951884 0.0036371328231588375 0 -0.036947727881875191 0.0036957852974159201 0 -0.036896662282104753 0.0036884725948925709 0 -0.036950478361654396 0.0036950908103514615 0 -0.036947727881875191 0.0036957852974159201 0 -0.036947727881875191 0.0036957852974159201 0 -0.037024902968023465 0.0037118652569791471 0 -0.036941062266372712 0.0035940872241317311 0 -0.037011140287199228 0.0036739768595687107 0 -0.036947727881875191 0.0036957852974159201 0 -0.036941062266372712 0.0035940872241317311 0 -0.053799169482224546 0.0010524812239000203 0 -0.054157177694552194 0.0013417383288132057 0 -0.054215518000428113 0.00079262487407047032 0 -0.045248262001827112 0.0027261039322025696 0 -0.045858858088348414 0.0020845829421041484 0 -0.054157177694552194 0.0013417383288132057 0 -0.054215518000428113 0.00079262487407047032 0 -0.054534650386732719 0.00079973240799344875 0 -0.054215518000428113 0.00079262487407047032 0 -0.054534650386732719 0.00079973240799344875 0 -0.054442126476554595 0.00051193325377776758 0 -0.045858858088348414 0.0020845829421041484 0 -0.045530906665809591 0.0019930744445062053 0 -0.054442126476554595 0.00051193325377776758 0 -0.054720181764157057 0.00041054164630397903 0 -0.05451794274869505 0.00022176874571795479 0 -0.054534650386732719 0.00079973240799344875 0 -0.054442126476554595 0.00051193325377776758 0 -0.054720181764157057 0.00041054164630397903 0 -0.054171175176194269 0.00044437534537952137 0 -0.054442126476554595 0.00051193325377776758 0 -0.05451794274869505 0.00022176874571795479 0 -0.054171175176194269 0.00044437534537952137 0 -0.054215518000428113 0.00079262487407047032 0 -0.054442126476554595 0.00051193325377776758 0 -0.037857650756468193 0.0034871983983472002 0 -0.037209151900238227 0.0036874962806554036 0 -0.037379929572481527 0.0033452083805205249 0 -0.037987710740877784 0.0036061717958615043 0 -0.037857650756468193 0.0034871983983472002 0 -0.037209151900238227 0.0036874962806554036 0 -0.037701111402226907 0.0029939194250804585 0 -0.037127123766318548 0.0037282188247640818 0 -0.036976301205575365 0.0037951648994012659 0 -0.037004636075990041 0.0036921750510646996 0 -0.037209151900238227 0.0036874962806554036 0 -0.036941062266372712 0.0035940872241317311 0 -0.037056304532341107 0.0035352401420632668 0 -0.037057108490218565 0.0031379242672018763 0 -0.037011140287199228 0.0036739768595687107 0 -0.037209151900238227 0.0036874962806554036 0 -0.037056304532341107 0.0035352401420632668 0 -0.037011140287199228 0.0036739768595687107 0 -0.036941062266372712 0.0035940872241317311 0 -0.037056304532341107 0.0035352401420632668 0 -0.037209151900238227 0.0036874962806554036 0 -0.037056304532341107 0.0035352401420632668 0 -0.037379929572481527 0.0033452083805205249 0 -0.037056304532341107 0.0035352401420632668 0 -0.037057108490218565 0.0031379242672018763 0 -0.037379929572481527 0.0033452083805205249 0 -0.037057108490218565 0.0031379242672018763 0 -0.037379929572481527 0.0033452083805205249 0 -0.037612060916107352 0.0029864538937578312 0 -0.037057108490218565 0.0031379242672018763 0 -0.037612060916107352 0.0029864538937578312 0 -0.037587121284145021 0.002449888071651475 0 -0.037890586160059449 0.0031597689909846466 0 -0.037379929572481527 0.0033452083805205249 0 -0.037612060916107352 0.0029864538937578312 0 -0.037857650756468193 0.0034871983983472002 0 -0.037890586160059449 0.0031597689909846466 0 -0.037379929572481527 0.0033452083805205249 0 -0.042228778879237892 0.00099863814989893012 0 -0.04856333670568011 0.00093475475246790948 0 -0.047957420413936837 0.00015003164311596897 0 -0.048181308478255996 -8.3741843178742616e-05 0 -0.048229091989309927 0.00012502691613648371 0 -0.038230589795034194 0.0028231787299483361 0 -0.037612060916107352 0.0029864538937578312 0 -0.037587121284145021 0.002449888071651475 0 -0.054720181764157057 0.00041054164630397903 0 -0.054805948591115108 0.00019190968080079495 0 -0.054675819116239477 0.00019690867985176368 0 -0.045530906665809591 0.0019930744445062053 0 -0.04856333670568011 0.00093475475246790948 0 -0.054805948591115108 0.00019190968080079495 0 -0.054675819116239477 0.00019690867985176368 0 -0.054703889252154546 0.00010956154975203634 0 -0.054805948591115108 0.00019190968080079495 0 -0.054703889252154546 0.00010956154975203634 0 -0.054663819962033268 4.3230962559625028e-05 0 -0.054910846251268804 -8.2881460639682656e-06 0 -0.054940031075644172 -1.2740529006461939e-06 0 -0.054973800642083015 -4.4036186851366887e-06 0 -0.054940031075644172 -1.2740529006461939e-06 0 -0.054973800642083015 -4.4036186851366887e-06 0 -0.054962260466234585 3.2393095134369069e-06 0 -0.04856333670568011 0.00093475475246790948 0 -0.055590767835955186 0.00013581423513873519 0 -0.054868999588337915 -0.00013070073654057634 0 -0.055590767835955186 0.00013581423513873519 0 -0.054940031075644172 -1.2740529006461939e-06 0 -0.054951708275154998 3.5589738406832465e-06 0 -0.054962260466234585 3.2393095134369069e-06 0 -0.054940031075644172 -1.2740529006461939e-06 0 -0.054951708275154998 3.5589738406832465e-06 0 -0.054933161396828696 -4.8585340501838066e-07 0 -0.054910846251268804 -8.2881460639682656e-06 0 -0.054940031075644172 -1.2740529006461939e-06 0 -0.054933161396828696 -4.8585340501838066e-07 0 -0.04856333670568011 0.00093475475246790948 0 -0.05179243426788907 -0.0002949609507402543 0 -0.054171175176194269 0.00044437534537952137 0 -0.054409704804265956 -6.830261802682046e-05 0 -0.05451794274869505 0.00022176874571795479 0 -0.054409704804265956 -6.830261802682046e-05 0 -0.05451794274869505 0.00022176874571795479 0 -0.054584262372514972 5.7158093152269316e-05 0 -0.054675819116239477 0.00019690867985176368 0 -0.054703889252154546 0.00010956154975203634 0 -0.054584262372514972 5.7158093152269316e-05 0 -0.054675819116239477 0.00019690867985176368 0 -0.05451794274869505 0.00022176874571795479 0 -0.054584262372514972 5.7158093152269316e-05 0 -0.054720181764157057 0.00041054164630397903 0 -0.054675819116239477 0.00019690867985176368 0 -0.05451794274869505 0.00022176874571795479 0 -0.054703889252154546 0.00010956154975203634 0 -0.054656759500997597 2.3000917840145714e-05 0 -0.054584262372514972 5.7158093152269316e-05 0 -0.054656759500997597 2.3000917840145714e-05 0 -0.054608778088289962 -1.5431022932478252e-05 0 -0.054584262372514972 5.7158093152269316e-05 0 -0.055590767835955186 0.00013581423513873519 0 -0.054807804891850768 -0.00016354986316043064 0 -0.054608778088289962 -1.5431022932478252e-05 0 -0.054584262372514972 5.7158093152269316e-05 0 -0.054570908253213493 -3.9920147755781776e-05 0 -0.054409704804265956 -6.830261802682046e-05 0 -0.054584262372514972 5.7158093152269316e-05 0 -0.054570908253213493 -3.9920147755781776e-05 0 -0.054409704804265956 -6.830261802682046e-05 0 -0.054710580114312048 -2.1554078529798835e-05 0 -0.054570908253213493 -3.9920147755781776e-05 0 -0.054710580114312048 -2.1554078529798835e-05 0 -0.054570908253213493 -3.9920147755781776e-05 0 -0.054621735411580337 -1.1379477341344793e-05 0 -0.054608778088289962 -1.5431022932478252e-05 0 -0.054570908253213493 -3.9920147755781776e-05 0 -0.054621735411580337 -1.1379477341344793e-05 0 -0.054603965983409358 -1.5957504877400578e-05 0 -0.054608778088289962 -1.5431022932478252e-05 0 -0.054621735411580337 -1.1379477341344793e-05 0 -0.055590767835955186 0.00013581423513873519 0 -0.054683788370785996 -8.2213718536249767e-05 0 -0.054973800642083015 -4.4036186851366887e-06 0 -0.054995598234104708 3.609480410251897e-07 0 -0.054984294433892369 3.6500549922913753e-06 0 -0.054995598234104708 3.609480410251897e-07 0 -0.054999986201801541 6.2054303212530507e-09 0 -0.054984294433892369 3.6500549922913753e-06 0 -0.054710580114312048 -2.1554078529798835e-05 0 -0.054999266290649856 1.8471777195101097e-07 0 -0.054621735411580337 -1.1379477341344793e-05 0 -0.055000049085304814 1.0966115200172707e-07 0 -0.054683788370785996 -8.2213718536249767e-05 0 -0.055000001877916954 -3.4024529497299546e-09 0 -0.054995598234104708 3.609480410251897e-07 0 -0.054999986201801541 6.2054303212530507e-09 0 -0.054951708275154998 3.5589738406832465e-06 0 -0.054975928252369077 3.9920432969798532e-06 0 -0.054951969286040146 8.36131783216878e-06 0 -0.054951708275154998 3.5589738406832465e-06 0 -0.054962260466234585 3.2393095134369069e-06 0 -0.054975928252369077 3.9920432969798532e-06 0 -0.054984294433892369 3.6500549922913753e-06 0 -0.054962260466234585 3.2393095134369069e-06 0 -0.054975928252369077 3.9920432969798532e-06 0 -0.054973800642083015 -4.4036186851366887e-06 0 -0.054984294433892369 3.6500549922913753e-06 0 -0.054962260466234585 3.2393095134369069e-06 0 -0.054984294433892369 3.6500549922913753e-06 0 -0.054999961277173895 6.8059592946063913e-09 0 -0.054975928252369077 3.9920432969798532e-06 0 -0.054999986201801541 6.2054303212530507e-09 0 -0.054984294433892369 3.6500549922913753e-06 0 -0.054999961277173895 6.8059592946063913e-09 0 -0.054999961277173895 6.8059592946063913e-09 0 -0.054975928252369077 3.9920432969798532e-06 0 -0.054999956930948002 1.9124324550639651e-09 0 -0.054975928252369077 3.9920432969798532e-06 0 -0.054999956930948002 1.9124324550639651e-09 0 -0.054976192979127474 2.3298472616109877e-06 0 -0.054999956930948002 1.9124324550639651e-09 0 -0.054976192979127474 2.3298472616109877e-06 0 -0.054974570725774261 1.6811616900959553e-06 0 -0.054999956930948002 1.9124324550639651e-09 0 -0.054974570725774261 1.6811616900959553e-06 0 -0.054999963019258462 -1.3433763314864783e-09 0 -0.048413183121328043 -0.00030908099678257715 0 -0.048525223513363067 -0.00014535851365298717 0 -0.048786103228892382 -0.00028094024116523706 0 -0.054974570725774261 1.6811616900959553e-06 0 -0.05493800021849074 1.8093259722216059e-05 0 -0.054966185004904883 7.8890015073946427e-06 0 -0.052840387440705197 0.00020429014522087155 0 -0.051619508897416969 -0.00017006326602100248 0 -0.055161955914024334 -0.00042510337369350547 0 -0.052840387440705197 0.00020429014522087155 0 -0.054976192979127474 2.3298472616109877e-06 0 -0.054974570725774261 1.6811616900959553e-06 0 -0.054966073463655653 9.1876025920541618e-06 0 -0.054975928252369077 3.9920432969798532e-06 0 -0.054976192979127474 2.3298472616109877e-06 0 -0.054951969286040146 8.36131783216878e-06 0 -0.054976192979127474 2.3298472616109877e-06 0 -0.054966073463655653 9.1876025920541618e-06 0 -0.054951969286040146 8.36131783216878e-06 0 -0.052840387440705197 0.00020429014522087155 0 -0.054940258323266836 0.00017092098839187344 0 -0.054930892264775689 7.7504914871408115e-06 0 -0.054951969286040146 8.36131783216878e-06 0 -0.054933161396828696 -4.8585340501838066e-07 0 -0.054951708275154998 3.5589738406832465e-06 0 -0.054951969286040146 8.36131783216878e-06 0 -0.054933161396828696 -4.8585340501838066e-07 0 -0.048413183121328043 -0.00030908099678257715 0 -0.048181308478255996 -8.3741843178742616e-05 0 -0.048370273811682685 5.7141152321914831e-06 0 -0.048181308478255996 -8.3741843178742616e-05 0 -0.048370273811682685 5.7141152321914831e-06 0 -0.048229091989309927 0.00012502691613648371 0 -0.052840387440705197 0.00020429014522087155 0 -0.05179243426788907 -0.0002949609507402543 0 -0.048525223513363067 -0.00014535851365298717 0 -0.048563810133261137 5.410659314145012e-05 0 -0.048786103228892382 -0.00028094024116523706 0 -0.048413183121328043 -0.00030908099678257715 0 -0.048370273811682685 5.7141152321914831e-06 0 -0.048525223513363067 -0.00014535851365298717 0 -0.048370273811682685 5.7141152321914831e-06 0 -0.048525223513363067 -0.00014535851365298717 0 -0.048563810133261137 5.410659314145012e-05 0 -0.048335764741063603 0.00040951983757118716 0 -0.048586099622520106 0.00021174994439031531 0 -0.048849470131939896 0.00030630524425434547 0 -0.048563810133261137 5.410659314145012e-05 0 -0.048586099622520106 0.00021174994439031531 0 -0.048390666485659241 0.00020230059609097688 0 -0.048370273811682685 5.7141152321914831e-06 0 -0.048563810133261137 5.410659314145012e-05 0 -0.048390666485659241 0.00020230059609097688 0 -0.048563810133261137 5.410659314145012e-05 0 -0.048586099622520106 0.00021174994439031531 0 -0.048801818391661957 4.6285071218773868e-05 0 -0.048335764741063603 0.00040951983757118716 0 -0.048586099622520106 0.00021174994439031531 0 -0.048390666485659241 0.00020230059609097688 0 -0.048248185393615146 0.00034732494084482505 0 -0.047957420413936837 0.00015003164311596897 0 -0.048229091989309927 0.00012502691613648371 0 -0.048248185393615146 0.00034732494084482505 0 -0.048390666485659241 0.00020230059609097688 0 -0.048229091989309927 0.00012502691613648371 0 -0.048335764741063603 0.00040951983757118716 0 -0.048248185393615146 0.00034732494084482505 0 -0.048390666485659241 0.00020230059609097688 0 -0.048370273811682685 5.7141152321914831e-06 0 -0.048390666485659241 0.00020230059609097688 0 -0.048229091989309927 0.00012502691613648371 0 -0.042910084105967403 0.0010210653175326658 0 -0.042531134385918767 0.0010167655665874078 0 -0.043179895138779921 0.00080241754243289356 0 -0.049057063840268797 9.7981023076037808e-05 0 -0.048849470131939896 0.00030630524425434547 0 -0.049288041612785764 0.00020520954419977618 0 -0.046012409467489364 0.00060189720806418958 0 -0.046378858949871128 0.00015163815673822516 0 -0.048586099622520106 0.00021174994439031531 0 -0.048849470131939896 0.00030630524425434547 0 -0.048801818391661957 4.6285071218773868e-05 0 -0.049057063840268797 9.7981023076037808e-05 0 -0.048849470131939896 0.00030630524425434547 0 -0.048801818391661957 4.6285071218773868e-05 0 -0.049057063840268797 9.7981023076037808e-05 0 -0.048801818391661957 4.6285071218773868e-05 0 -0.048955851141689682 -0.0001076281962218199 0 -0.048801818391661957 4.6285071218773868e-05 0 -0.048955851141689682 -0.0001076281962218199 0 -0.048786103228892382 -0.00028094024116523706 0 -0.048563810133261137 5.410659314145012e-05 0 -0.048801818391661957 4.6285071218773868e-05 0 -0.048786103228892382 -0.00028094024116523706 0 -0.048955851141689682 -0.0001076281962218199 0 -0.049174769094656907 -0.00025662049079354984 0 -0.048786103228892382 -0.00028094024116523706 0 -0.04870679192259475 0.00021480154259222924 0 -0.052201785955370748 -0.00014488128310970557 0 -0.049057063840268797 9.7981023076037808e-05 0 -0.048955851141689682 -0.0001076281962218199 0 -0.049174769094656907 -0.00025662049079354984 0 -0.049057063840268797 9.7981023076037808e-05 0 -0.049158191051192041 -0.00017910901327682029 0 -0.049259567968407879 -9.3211830914004118e-05 0 -0.052201785955370748 -0.00014488128310970557 0 -0.051619508897416969 -0.00017006326602100248 0 -0.0549643291552682 3.4950135196838504e-06 0 -0.054966185004904883 7.8890015073946427e-06 0 -0.054982714609362007 2.5631471769555401e-06 0 -0.054974570725774261 1.6811616900959553e-06 0 -0.054966185004904883 7.8890015073946427e-06 0 -0.054982714609362007 2.5631471769555401e-06 0 -0.054974570725774261 1.6811616900959553e-06 0 -0.054999963019258462 -1.3433763314864783e-09 0 -0.054982714609362007 2.5631471769555401e-06 0 -0.054999963019258462 -1.3433763314864783e-09 0 -0.054982714609362007 2.5631471769555401e-06 0 -0.054999976849488721 4.8611657125294978e-09 0 -0.052201785955370748 -0.00014488128310970557 0 -0.055001894048714674 -3.9438697279021721e-07 0 -0.0549643291552682 3.4950135196838504e-06 0 -0.054982714609362007 2.5631471769555401e-06 0 -0.054999976849488721 4.8611657125294978e-09 0 -0.054999937868655126 -1.3079579212262779e-08 0 -0.054983447748455233 -4.590380050494544e-06 0 -0.05499998281844469 -6.070050357904003e-09 0 -0.054999937868655126 -1.3079579212262779e-08 0 -0.054983447748455233 -4.590380050494544e-06 0 -0.054955819743037232 -2.9856924432288864e-06 0 -0.054983447748455233 -4.590380050494544e-06 0 -0.05499998281844469 -6.070050357904003e-09 0 -0.054986389592304619 -5.3792076804573165e-06 0 -0.052660201834202447 -0.00036904270719967597 0 -0.053743237221221797 -0.00039813409926895121 0 -0.054986389592304619 -5.3792076804573165e-06 0 -0.054963829832685301 7.5533573800566065e-07 0 -0.054982301470953003 -6.0574379410368952e-06 0 -0.054983447748455233 -4.590380050494544e-06 0 -0.054986389592304619 -5.3792076804573165e-06 0 -0.054963829832685301 7.5533573800566065e-07 0 -0.054983447748455233 -4.590380050494544e-06 0 -0.054963829832685301 7.5533573800566065e-07 0 -0.054955819743037232 -2.9856924432288864e-06 0 -0.054947397718375479 -2.5134335494343551e-06 0 -0.054999937868655126 -1.3079579212262779e-08 0 -0.054955819743037232 -2.9856924432288864e-06 0 -0.052660201834202447 -0.00036904270719967597 0 -0.054451227555638755 0.0003096062456968488 0 -0.052201785955370748 -0.00014488128310970557 0 -0.052660201834202447 -0.00036904270719967597 0 -0.054947397718375479 -2.5134335494343551e-06 0 -0.05494947769683791 -6.849521499512031e-06 0 -0.054955819743037232 -2.9856924432288864e-06 0 -0.055000003189626695 -2.5960818219869311e-09 0 -0.054990621345081814 -7.3491704143517875e-06 0 -0.054979952575885768 -1.2196092514830491e-05 0 -0.05499998281844469 -6.070050357904003e-09 0 -0.055000003189626695 -2.5960818219869311e-09 0 -0.054990621345081814 -7.3491704143517875e-06 0 -0.05499998281844469 -6.070050357904003e-09 0 -0.054986389592304619 -5.3792076804573165e-06 0 -0.054990621345081814 -7.3491704143517875e-06 0 -0.054986389592304619 -5.3792076804573165e-06 0 -0.054990621345081814 -7.3491704143517875e-06 0 -0.054982301470953003 -6.0574379410368952e-06 0 -0.054990621345081814 -7.3491704143517875e-06 0 -0.054979775283432272 -1.7723468329033885e-05 0 -0.054982301470953003 -6.0574379410368952e-06 0 -0.052182853840695265 -0.00079495485893403637 0 -0.052172490864519395 -0.00079579799718060447 0 -0.052181717471884194 -0.00079606477869491917 0 -0.052191497754470344 -0.00077681308690483956 0 -0.052172490864519395 -0.00079579799718060447 0 -0.052200251170488175 -0.00078717613821332382 0 -0.0499617591073932 -0.00076260474254338513 0 -0.05067261944111516 -0.00048024810408677469 0 -0.052182853840695265 -0.00079495485893403637 0 -0.052191497754470344 -0.00077681308690483956 0 -0.052172490864519395 -0.00079579799718060447 0 -0.05376008088689177 -0.00029715880033048852 0 -0.053743237221221797 -0.00039813409926895121 0 -0.046476887078046286 -0.00045440703247107128 0 -0.047318303185096854 -0.0014451489145855128 0 -0.045378799023835889 -0.001069459886625299 0 -0.046476887078046286 -0.00045440703247107128 0 -0.048398797501036261 -0.00080510379789291335 0 -0.04613374306260562 0.00079380559130536553 0 -0.0499617591073932 -0.00076260474254338513 0 -0.047130072591179802 -0.00050607687109366405 0 -0.049491502416362423 -3.1351853160841377e-05 0 -0.049396552924985626 -7.9692993327161351e-05 0 -0.049376996853603548 -1.8913907200261782e-06 0 -0.046476887078046286 -0.00045440703247107128 0 -0.047318303185096854 -0.0014451489145855128 0 -0.048398797501036261 -0.00080510379789291335 0 -0.049712613825543372 -0.0011834966791018093 0 -0.050164874476300976 -0.0009164251341342494 0 -0.05083243560963855 -0.0013950440341201087 0 -0.0499617591073932 -0.00076260474254338513 0 -0.051115010124332519 -0.0014845020865306346 0 -0.0499617591073932 -0.00076260474254338513 0 -0.049495312815581664 -0.0014019978038690706 0 -0.049495312815581664 -0.0014019978038690706 0 -0.051115010124332519 -0.0014845020865306346 0 -0.049571996318460654 1.1198921032600255e-05 0 -0.046378858949871128 0.00015163815673822516 0 -0.049318646544859596 -4.6755685795038659e-05 0 -0.049259567968407879 -9.3211830914004118e-05 0 -0.049257695546224931 2.3873865008212587e-05 0 -0.049318646544859596 -4.6755685795038659e-05 0 -0.049259567968407879 -9.3211830914004118e-05 0 -0.04931287237591768 -9.1201400239622975e-05 0 -0.049158191051192041 -0.00017910901327682029 0 -0.049318281546282192 -0.00014477597974275086 0 -0.049259567968407879 -9.3211830914004118e-05 0 -0.049318281546282192 -0.00014477597974275086 0 -0.049259567968407879 -9.3211830914004118e-05 0 -0.04931287237591768 -9.1201400239622975e-05 0 -0.052239830910628782 -0.0007560710111923477 0 -0.052191497754470344 -0.00077681308690483956 0 -0.052200251170488175 -0.00078717613821332382 0 -0.049318281546282192 -0.00014477597974275086 0 -0.04931287237591768 -9.1201400239622975e-05 0 -0.049396552924985626 -7.9692993327161351e-05 0 -0.052660201834202447 -0.00036904270719967597 0 -0.05067261944111516 -0.00048024810408677469 0 -0.049318646544859596 -4.6755685795038659e-05 0 -0.049396552924985626 -7.9692993327161351e-05 0 -0.049376996853603548 -1.8913907200261782e-06 0 -0.049318646544859596 -4.6755685795038659e-05 0 -0.04931287237591768 -9.1201400239622975e-05 0 -0.049396552924985626 -7.9692993327161351e-05 0 -0.047130072591179802 -0.00050607687109366405 0 -0.046378858949871128 0.00015163815673822516 0 -0.045378799023835889 -0.001069459886625299 0 -0.043526379756870383 -0.00069969553286762553 0 -0.045170371530235301 0.00025027209894052955 0 -0.046476887078046286 -0.00045440703247107128 0 -0.045378799023835889 -0.001069459886625299 0 -0.045170371530235301 0.00025027209894052955 0 -0.049318646544859596 -4.6755685795038659e-05 0 -0.049376996853603548 -1.8913907200261782e-06 0 -0.049257695546224931 2.3873865008212587e-05 0 -0.049057063840268797 9.7981023076037808e-05 0 -0.049259567968407879 -9.3211830914004118e-05 0 -0.049288041612785764 0.00020520954419977618 0 -0.042910084105967403 0.0010210653175326658 0 -0.042760737952060611 0.0015248714572537925 0 -0.04334572537813252 0.0018942111480933761 0 -0.043526379756870383 -0.00069969553286762553 0 -0.043888960625557458 0.0023074183885877673 0 -0.045170371530235301 0.00025027209894052955 0 -0.046378858949871128 0.00015163815673822516 0 -0.040913486695934149 0.0017448778294526656 0 -0.042910084105967403 0.0010210653175326658 0 -0.043179895138779921 0.00080241754243289356 0 -0.04334572537813252 0.0018942111480933761 0 -0.042760737952060611 0.0015248714572537925 0 -0.04334572537813252 0.0018942111480933761 0 -0.04304729289829174 0.0021074209439019844 0 -0.038769799738093934 0.0017086748119428668 0 -0.038688999505301296 0.0019950051651543422 0 -0.038556148956997931 0.00116495977293705 0 -0.040913486695934149 0.0017448778294526656 0 -0.040932989141409672 0.0021932059411525935 0 -0.038769799738093934 0.0017086748119428668 0 -0.038688999505301296 0.0019950051651543422 0 -0.039116305030961675 0.001684860020612719 0 -0.040913486695934149 0.0017448778294526656 0 -0.043526898957613587 0.00017951758677543027 0 -0.03814708053278628 0.00052514790297163356 0 -0.038004250287486482 0.00048577834994178299 0 -0.038115372657153507 0.0004060919335074439 0 -0.03814708053278628 0.00052514790297163356 0 -0.038004250287486482 0.00048577834994178299 0 -0.037996359015391987 0.00062191197967212928 0 -0.043888960625557458 0.0023074183885877673 0 -0.045170371530235301 0.00025027209894052955 0 -0.046066116347493073 0.00074990580810240892 0 -0.04553247654191845 0.00076264501760594063 0 -0.043526898957613587 0.00017951758677543027 0 -0.046476887078046286 -0.00045440703247107128 0 -0.045170371530235301 0.00025027209894052955 0 -0.04613374306260562 0.00079380559130536553 0 -0.043526898957613587 0.00017951758677543027 0 -0.04502075632643019 -0.00055726593044637049 0 -0.048295580321944448 -0.0011057486333925595 0 -0.047054796742742523 -0.00059069997764092511 0 -0.048578808298968768 0.00024906607533025803 0 -0.048875256652546377 -0.00184690530860565 0 -0.048295580321944448 -0.0011057486333925595 0 -0.047054796742742523 -0.00059069997764092511 0 -0.049495312815581664 -0.0014019978038690706 0 -0.043526898957613587 0.00017951758677543027 0 -0.048373324277905777 -0.00045895668329266247 0 -0.04502075632643019 -0.00055726593044637049 0 -0.048295580321944448 -0.0011057486333925595 0 -0.049134007520506409 -0.00027554104151603038 0 -0.048679844884403294 0.0001266978129055658 0 -0.048875256652546377 -0.00184690530860565 0 -0.049380761919403444 -0.00078167339074332667 0 -0.050404081662393407 -0.00083788212072197156 0 -0.048295580321944448 -0.0011057486333925595 0 -0.049380761919403444 -0.00078167339074332667 0 -0.049134007520506409 -0.00027554104151603038 0 -0.048875256652546377 -0.00184690530860565 0 -0.048295580321944448 -0.0011057486333925595 0 -0.049380761919403444 -0.00078167339074332667 0 -0.049380761919403444 -0.00078167339074332667 0 -0.049134007520506409 -0.00027554104151603038 0 -0.049940521405638087 -8.2996088830260953e-05 0 -0.04502075632643019 -0.00055726593044637049 0 -0.041251728846064067 0.00015932887765827825 0 -0.045752840889156945 -0.00043931716627235797 0 -0.045668254633298114 -0.00048294281829602836 0 -0.045711317848005563 -0.00025354115708162855 0 -0.037868297596450474 0.00050813989182467683 0 -0.03782579180119771 0.00046047554471205743 0 -0.037883781181601309 0.00051744681787729645 0 -0.049134007520506409 -0.00027554104151603038 0 -0.049300800503391709 0.00041530125427274969 0 -0.049940521405638087 -8.2996088830260953e-05 0 -0.049134007520506409 -0.00027554104151603038 0 -0.049300800503391709 0.00041530125427274969 0 -0.048679844884403294 0.0001266978129055658 0 -0.049740752758835709 -0.00068267034735739395 0 -0.04502075632643019 -0.00055726593044637049 0 -0.038004250287486482 0.00048577834994178299 0 -0.037996359015391987 0.00062191197967212928 0 -0.03791912908648 0.00051930548504019872 0 -0.038004250287486482 0.00048577834994178299 0 -0.03791912908648 0.00051930548504019872 0 -0.03782579180119771 0.00046047554471205743 0 -0.037996359015391987 0.00062191197967212928 0 -0.037868297596450474 0.00050813989182467683 0 -0.03791912908648 0.00051930548504019872 0 -0.037868297596450474 0.00050813989182467683 0 -0.03791912908648 0.00051930548504019872 0 -0.03782579180119771 0.00046047554471205743 0 -0.037771793061389385 0.00048504131886230556 0 -0.037751836016675477 0.00051692795399236376 0 -0.038004250287486482 0.00048577834994178299 0 -0.03782579180119771 0.00046047554471205743 0 -0.037998030499949438 0.00038032797378828419 0 -0.03782579180119771 0.00046047554471205743 0 -0.037926619920769053 0.00027633509882322939 0 -0.037998030499949438 0.00038032797378828419 0 -0.045752840889156945 -0.00043931716627235797 0 -0.045753089421372448 -0.00023104656647834483 0 -0.045711317848005563 -0.00025354115708162855 0 -0.049740752758835709 -0.00068267034735739395 0 -0.049508978978112364 -0.00069622792263057274 0 -0.03782579180119771 0.00046047554471205743 0 -0.037883781181601309 0.00051744681787729645 0 -0.037741721012031493 0.00074267843965355887 0 -0.049508978978112364 -0.00069622792263057274 0 -0.044886181077119836 9.2908189110844564e-05 0 -0.041251728846064067 0.00015932887765827825 0 -0.044886181077119836 9.2908189110844564e-05 0 -0.037883781181601309 0.00051744681787729645 0 -0.037741721012031493 0.00074267843965355887 0 -0.037986073258776544 0.0009197179794438031 0 -0.045753089421372448 -0.00023104656647834483 0 -0.045711317848005563 -0.00025354115708162855 0 -0.045739306111253 -1.029837568315845e-05 0 -0.037741721012031493 0.00074267843965355887 0 -0.037520552065447924 0.0010807466707994909 0 -0.037986073258776544 0.0009197179794438031 0 -0.03782579180119771 0.00046047554471205743 0 -0.037741721012031493 0.00074267843965355887 0 -0.037406348537359926 0.0007673928852359311 0 -0.037741721012031493 0.00074267843965355887 0 -0.037406348537359926 0.0007673928852359311 0 -0.037520552065447924 0.0010807466707994909 0 -0.037926619920769053 0.00027633509882322939 0 -0.03808336462806048 0.00028710959930837611 0 -0.037985952510507626 0.00012751723832726404 0 -0.037926619920769053 0.00027633509882322939 0 -0.03808336462806048 0.00028710959930837611 0 -0.037998030499949438 0.00038032797378828419 0 -0.036948124016509869 0.00073252184320501273 0 -0.036159951778014281 0.0011083296933379917 0 -0.035888661505238374 0.0010324794200872079 0 -0.035817202116968504 0.0012982695615972135 0 -0.035721442997530432 0.00111794898974785 0 -0.035817202116968504 0.0012982695615972135 0 -0.035589619237271428 0.0012809822067638798 0 -0.035749639334086515 0.0015689133240250769 0 -0.035589619237271428 0.0012809822067638798 0 -0.035558222655237545 0.0011132602444727452 0 -0.035721442997530432 0.00111794898974785 0 -0.035817202116968504 0.0012982695615972135 0 -0.035589619237271428 0.0012809822067638798 0 -0.035721442997530432 0.00111794898974785 0 -0.036948124016509869 0.00073252184320501273 0 -0.038360273460734194 0.00062604318574411178 0 -0.037326734676404918 0.0017697640553172302 0 -0.03803739010180119 0.0015722933170936411 0 -0.038424757300477376 0.00033764278480559717 0 -0.038556148956997931 0.00116495977293705 0 -0.038901205220045885 0.0012637878592354191 0 -0.036948124016509869 0.00073252184320501273 0 -0.03803739010180119 0.0015722933170936411 0 -0.038769799738093934 0.0017086748119428668 0 -0.039116305030961675 0.001684860020612719 0 -0.038911209227764358 0.0012728864281003631 0 -0.038459441215003429 0.0014492844717255489 0 -0.03803739010180119 0.0015722933170936411 0 -0.040932989141409672 0.0021932059411525935 0 -0.03803739010180119 0.0015722933170936411 0 -0.040913486695934149 0.0017448778294526656 0 -0.038360273460734194 0.00062604318574411178 0 -0.038769799738093934 0.0017086748119428668 0 -0.038556148956997931 0.00116495977293705 0 -0.038901205220045885 0.0012637878592354191 0 -0.038004250287486482 0.00048577834994178299 0 -0.038115372657153507 0.0004060919335074439 0 -0.037998030499949438 0.00038032797378828419 0 -0.03808336462806048 0.00028710959930837611 0 -0.038115372657153507 0.0004060919335074439 0 -0.037998030499949438 0.00038032797378828419 0 -0.052780197781367451 0.0021264227575561317 0 -0.051694612638583798 0.0015469347174682862 0 -0.05253701248056037 0.00033752036885061862 0 -0.052904848710212386 0.00029873155389267543 0 -0.052822349054458373 0.00027206157951937952 0 -0.053072156687754599 -8.7732184399258225e-05 0 -0.053133380804673558 -0.00019045518282867065 0 -0.053094772005312728 -7.9315735806961824e-05 0 -0.053072156687754599 -8.7732184399258225e-05 0 -0.053133380804673558 -0.00019045518282867065 0 -0.052913256890130989 -0.00034739272003025512 0 -0.052904848710212386 0.00029873155389267543 0 -0.052900132971191116 -0.00036821134915857956 0 -0.053191363892152538 -0.00045351656111609646 0 -0.053162743360411026 -0.00067225680339027714 0 -0.052913256890130989 -0.00034739272003025512 0 -0.052904848710212386 0.00029873155389267543 0 -0.052999221051985006 -0.00071205305995837586 0 -0.053187708424637853 -0.00079710138327023568 0 -0.053162743360411026 -0.00067225680339027714 0 -0.053167419804410955 -0.00083177301982551282 0 -0.053187708424637853 -0.00079710138327023568 0 -0.053167419804410955 -0.00083177301982551282 0 -0.053145722983882669 -0.00094134075676022494 0 -0.052904848710212386 0.00029873155389267543 0 -0.052402104065329087 0.00031688419794655566 0 -0.053167419804410955 -0.00083177301982551282 0 -0.053056400673106976 -0.0009202007417232755 0 -0.053145722983882669 -0.00094134075676022494 0 -0.053167419804410955 -0.00083177301982551282 0 -0.053056400673106976 -0.0009202007417232755 0 -0.053161036216701422 -0.00088215136204577191 0 -0.05287774331517997 -0.00098605550389732079 0 -0.053056400673106976 -0.0009202007417232755 0 -0.052895840594626223 -0.00088998027438399574 0 -0.052836034841912072 -0.0011482086808587554 0 -0.05287774331517997 -0.00098605550389732079 0 -0.053015807050494516 -0.0010575452617543502 0 -0.05287774331517997 -0.00098605550389732079 0 -0.053056400673106976 -0.0009202007417232755 0 -0.053015807050494516 -0.0010575452617543502 0 -0.053056400673106976 -0.0009202007417232755 0 -0.053015807050494516 -0.0010575452617543502 0 -0.053145722983882669 -0.00094134075676022494 0 -0.050573471160321196 0.0009859984669375228 0 -0.051694612638583798 0.0015469347174682862 0 -0.051395359305933204 0.0001821148789457208 0 -0.052006829190699932 6.8663394489826456e-05 0 -0.052402104065329087 0.00031688419794655566 0 -0.050573471160321196 0.0009859984669375228 0 -0.051395359305933204 0.0001821148789457208 0 -0.050684014982543338 -9.9560760538220755e-05 0 -0.049300800503391709 0.00041530125427274969 0 -0.050573471160321196 0.0009859984669375228 0 -0.049940521405638087 -8.2996088830260953e-05 0 -0.049740752758835709 -0.00068267034735739395 0 -0.052006829190699932 6.8663394489826456e-05 0 -0.050573471160321196 0.0009859984669375228 0 -0.050684014982543338 -9.9560760538220755e-05 0 -0.049940521405638087 -8.2996088830260953e-05 0 -0.049380761919403444 -0.00078167339074332667 0 -0.049940521405638087 -8.2996088830260953e-05 0 -0.050404081662393407 -0.00083788212072197156 0 -0.050684014982543338 -9.9560760538220755e-05 0 -0.049940521405638087 -8.2996088830260953e-05 0 -0.050404081662393407 -0.00083788212072197156 0 -0.051395359305933204 0.0001821148789457208 0 -0.051078998958396786 -0.00075290021008496692 0 -0.051699287940194828 -0.00064946173120684198 0 -0.051395359305933204 0.0001821148789457208 0 -0.050684014982543338 -9.9560760538220755e-05 0 -0.051078998958396786 -0.00075290021008496692 0 -0.050684014982543338 -9.9560760538220755e-05 0 -0.050404081662393407 -0.00083788212072197156 0 -0.051078998958396786 -0.00075290021008496692 0 -0.050404081662393407 -0.00083788212072197156 0 -0.051078998958396786 -0.00075290021008496692 0 -0.051199955822930819 -0.0014533677116150541 0 -0.051078998958396786 -0.00075290021008496692 0 -0.051699287940194828 -0.00064946173120684198 0 -0.051199955822930819 -0.0014533677116150541 0 -0.051699287940194828 -0.00064946173120684198 0 -0.05253701248056037 0.00033752036885061862 0 -0.0522815221094357 -0.001492333346961844 0 -0.052822349054458373 0.00027206157951937952 0 -0.052707446745790122 -0.00094486440128694184 0 -0.051395359305933204 0.0001821148789457208 0 -0.051699287940194828 -0.00064946173120684198 0 -0.05253701248056037 0.00033752036885061862 0 -0.051694612638583798 0.0015469347174682862 0 -0.051395359305933204 0.0001821148789457208 0 -0.05253701248056037 0.00033752036885061862 0 -0.053072156687754599 -8.7732184399258225e-05 0 -0.053094772005312728 -7.9315735806961824e-05 0 -0.053158710027881487 -9.6160313785248247e-05 0 -0.053094772005312728 -7.9315735806961824e-05 0 -0.053197581442586947 -0.00020366941039032062 0 -0.053158710027881487 -9.6160313785248247e-05 0 -0.053094772005312728 -7.9315735806961824e-05 0 -0.053197581442586947 -0.00020366941039032062 0 -0.053023207977557871 -0.00035727891912666425 0 -0.052707446745790122 -0.00094486440128694184 0 -0.053919058178161623 -0.0004626878472477079 0 -0.053197581442586947 -0.00020366941039032062 0 -0.053023207977557871 -0.00035727891912666425 0 -0.053272564577362437 -0.00038290928915441945 0 -0.054415436808813597 -0.00047794091297770808 0 -0.053919058178161623 -0.0004626878472477079 0 -0.053572109832911795 -0.00074050086698485365 0 -0.053682679013188732 -0.00091749222375832145 0 -0.053826302371535767 -0.00074324823737999029 0 -0.052707446745790122 -0.00094486440128694184 0 -0.052767035535167726 -0.001814354970053832 0 -0.051699287940194828 -0.00064946173120684198 0 -0.0522815221094357 -0.001492333346961844 0 -0.051199955822930819 -0.0014533677116150541 0 -0.052143723613328447 -0.0013894661090590519 0 -0.052011973277869189 -0.0022690885914720331 0 -0.051470794114990531 -0.0019507634913204157 0 -0.052707446745790122 -0.00094486440128694184 0 -0.051107246367362878 -0.0014028824152278617 0 -0.053553161703497464 -0.00091201280255788996 0 -0.053682679013188732 -0.00091749222375832145 0 -0.053533582005523557 -0.0010753349537948587 0 -0.053572109832911795 -0.00074050086698485365 0 -0.053553161703497464 -0.00091201280255788996 0 -0.053682679013188732 -0.00091749222375832145 0 -0.052011973277869189 -0.0022690885914720331 0 -0.051822550358454636 -0.0024571201686126149 0 -0.051899791188924606 -0.0029393741928835895 0 -0.052767035535167726 -0.001814354970053832 0 -0.05402313447498109 -0.00081252915511911513 0 -0.052011973277869189 -0.0022690885914720331 0 -0.051822550358454636 -0.0024571201686126149 0 -0.051470794114990531 -0.0019507634913204157 0 -0.054973488726974738 -0.00013254497966259831 0 -0.054868456715532997 -0.00039606384123286109 0 -0.054829963949643866 -0.00012924034873389262 0 -0.054973488726974738 -0.00013254497966259831 0 -0.05492247205649569 -3.786085274200897e-05 0 -0.054829963949643866 -0.00012924034873389262 0 -0.050381505396020015 -0.0013806865513529421 0 -0.051107246367362878 -0.0014028824152278617 0 -0.050230238205057405 -0.0013751457459870008 0 -0.050781626683029234 -0.0018016507265782725 0 -0.051209947876818381 -0.0013607113468635812 0 -0.050404081662393407 -0.00083788212072197156 0 -0.050230238205057405 -0.0013751457459870008 0 -0.051199955822930819 -0.0014533677116150541 0 -0.049446676302592085 -0.0014365708032368651 0 -0.050404081662393407 -0.00083788212072197156 0 -0.050230238205057405 -0.0013751457459870008 0 -0.049495312815581664 -0.0014019978038690706 0 -0.05018255773134591 -0.00099070148261917691 0 -0.049446676302592085 -0.0014365708032368651 0 -0.050230238205057405 -0.0013751457459870008 0 -0.050214514535136465 -0.0019864757848190124 0 -0.050230238205057405 -0.0013751457459870008 0 -0.050781626683029234 -0.0018016507265782725 0 -0.050214514535136465 -0.0019864757848190124 0 -0.052143723613328447 -0.0013894661090590519 0 -0.051209947876818381 -0.0013607113468635812 0 -0.051470794114990531 -0.0019507634913204157 0 -0.050781626683029234 -0.0018016507265782725 0 -0.051209947876818381 -0.0013607113468635812 0 -0.051470794114990531 -0.0019507634913204157 0 -0.051822550358454636 -0.0024571201686126149 0 -0.051470794114990531 -0.0019507634913204157 0 -0.051046913511225964 -0.0025446238500384556 0 -0.051323134425833784 -0.0023474836127304584 0 -0.052587880039496306 -0.0014648759207620749 0 -0.051046913511225964 -0.0025446238500384556 0 -0.051007504836478118 -0.002079659087125962 0 -0.05056035280281785 -0.0020471542298708153 0 -0.051470794114990531 -0.0019507634913204157 0 -0.051046913511225964 -0.0025446238500384556 0 -0.051007504836478118 -0.002079659087125962 0 -0.050781626683029234 -0.0018016507265782725 0 -0.051470794114990531 -0.0019507634913204157 0 -0.051007504836478118 -0.002079659087125962 0 -0.050781626683029234 -0.0018016507265782725 0 -0.051007504836478118 -0.002079659087125962 0 -0.05056035280281785 -0.0020471542298708153 0 -0.052182853840695265 -0.00079495485893403637 0 -0.052198083142836291 -0.00080964113393432082 0 -0.052181717471884194 -0.00079606477869491917 0 -0.05376008088689177 -0.00029715880033048852 0 -0.052587880039496306 -0.0014648759207620749 0 -0.051046913511225964 -0.0025446238500384556 0 -0.05056035280281785 -0.0020471542298708153 0 -0.050225764804365781 -0.0019892785905905519 0 -0.050781626683029234 -0.0018016507265782725 0 -0.05056035280281785 -0.0020471542298708153 0 -0.050214514535136465 -0.0019864757848190124 0 -0.052587880039496306 -0.0014648759207620749 0 -0.051115010124332519 -0.0014845020865306346 0 -0.050661937073180792 -0.0016046088436530862 0 -0.051115010124332519 -0.0014845020865306346 0 -0.054990621345081814 -7.3491704143517875e-06 0 -0.054979775283432272 -1.7723468329033885e-05 0 -0.054979952575885768 -1.2196092514830491e-05 0 -0.054979775283432272 -1.7723468329033885e-05 0 -0.054963498725246154 -3.1040754913995988e-05 0 -0.054979952575885768 -1.2196092514830491e-05 0 -0.052587880039496306 -0.0014648759207620749 0 -0.05402313447498109 -0.00081252915511911513 0 -0.051822550358454636 -0.0024571201686126149 0 -0.051296911860991008 -0.0024796589663237476 0 -0.051899791188924606 -0.0029393741928835895 0 -0.054963498725246154 -3.1040754913995988e-05 0 -0.054979952575885768 -1.2196092514830491e-05 0 -0.05494915872786018 -2.1460215498626554e-05 0 -0.054979952575885768 -1.2196092514830491e-05 0 -0.054950336403079593 -1.7479275994865474e-05 0 -0.05494915872786018 -2.1460215498626554e-05 0 -0.055000442850752479 3.5144526340640366e-07 0 -0.054579083264877648 -0.00013597098141932278 0 -0.055000012760365473 2.8724404400179547e-09 0 -0.054994640995643856 -6.2864375229063287e-06 0 -0.054999981642773983 -6.006247175671951e-09 0 -0.054979952575885768 -1.2196092514830491e-05 0 -0.054999915362265762 -3.1646073153504074e-09 0 -0.054950336403079593 -1.7479275994865474e-05 0 -0.055000003189626695 -2.5960818219869311e-09 0 -0.054979952575885768 -1.2196092514830491e-05 0 -0.054999915362265762 -3.1646073153504074e-09 0 -0.05492247205649569 -3.786085274200897e-05 0 -0.054937130540206124 1.3186565325803935e-05 0 -0.054885325804371367 9.6612495936994689e-07 0 -0.05492247205649569 -3.786085274200897e-05 0 -0.05502488749300094 -3.7732460129549389e-05 0 -0.054937130540206124 1.3186565325803935e-05 0 -0.054973488726974738 -0.00013254497966259831 0 -0.05492247205649569 -3.786085274200897e-05 0 -0.05502488749300094 -3.7732460129549389e-05 0 -0.054415436808813597 -0.00047794091297770808 0 -0.05402313447498109 -0.00081252915511911513 0 -0.05402313447498109 -0.00081252915511911513 0 -0.055064007611163895 2.1421697313347893e-05 0 -0.054994371396801953 -4.8697008074595063e-06 0 -0.054993443542270926 -5.4966622554093645e-06 0 -0.05499732226714462 -2.2388598759628352e-06 0 -0.054579083264877648 -0.00013597098141932278 0 -0.05402313447498109 -0.00081252915511911513 0 -0.054993443542270926 -5.4966622554093645e-06 0 -0.05499732226714462 -2.2388598759628352e-06 0 -0.054998633286248141 -1.3176319120338665e-06 0 -0.054999999125557739 -1.438283574356902e-09 0 -0.05499732226714462 -2.2388598759628352e-06 0 -0.0549999952890836 -2.3511620900026966e-09 0 -0.054579083264877648 -0.00013597098141932278 0 -0.05500011813306719 2.0218648054257572e-07 0 -0.054994371396801953 -4.8697008074595063e-06 0 -0.054999999125557739 -1.438283574356902e-09 0 -0.05499732226714462 -2.2388598759628352e-06 0 -0.05499732226714462 -2.2388598759628352e-06 0 -0.0549999952890836 -2.3511620900026966e-09 0 -0.054998633286248141 -1.3176319120338665e-06 0 -0.0549999952890836 -2.3511620900026966e-09 0 -0.054998633286248141 -1.3176319120338665e-06 0 -0.055000001208291023 1.0356424162433739e-09 0 -0.055064007611163895 2.1421697313347893e-05 0 -0.054999921394158519 3.6552216250984695e-08 0 -0.054937130540206124 1.3186565325803935e-05 0 -0.054999664405889388 6.0697753063841174e-08 0 -0.054885325804371367 9.6612495936994689e-07 0 -0.054999664405889388 6.0697753063841174e-08 0 -0.054885325804371367 9.6612495936994689e-07 0 -0.054806137338093634 2.6914063700007909e-06 0 -0.054885325804371367 9.6612495936994689e-07 0 -0.054742076804694742 -4.9358095682894283e-05 0 -0.054806137338093634 2.6914063700007909e-06 0 -0.05492247205649569 -3.786085274200897e-05 0 -0.054885325804371367 9.6612495936994689e-07 0 -0.054742076804694742 -4.9358095682894283e-05 0 -0.054742076804694742 -4.9358095682894283e-05 0 -0.054806137338093634 2.6914063700007909e-06 0 -0.054505193418842322 -7.0606344870265247e-05 0 -0.054999664405889388 6.0697753063841174e-08 0 -0.054806137338093634 2.6914063700007909e-06 0 -0.054999660282082329 3.2125237448213047e-08 0 -0.054999660282082329 3.2125237448213047e-08 0 -0.054999602014993446 -6.6595121093247141e-08 0 -0.054618832399295485 -2.6147921218291221e-05 0 -0.054806137338093634 2.6914063700007909e-06 0 -0.054999660282082329 3.2125237448213047e-08 0 -0.054618832399295485 -2.6147921218291221e-05 0 -0.054999602014993446 -6.6595121093247141e-08 0 -0.054618832399295485 -2.6147921218291221e-05 0 -0.05469291574902662 -3.0221248592512756e-05 0 -0.054618832399295485 -2.6147921218291221e-05 0 -0.05469291574902662 -3.0221248592512756e-05 0 -0.05426271473366185 6.6891694794785406e-05 0 -0.054806137338093634 2.6914063700007909e-06 0 -0.054618832399295485 -2.6147921218291221e-05 0 -0.054505193418842322 -7.0606344870265247e-05 0 -0.054618832399295485 -2.6147921218291221e-05 0 -0.054285968347372961 -0.00010439686383506024 0 -0.054505193418842322 -7.0606344870265247e-05 0 -0.054285968347372961 -0.00010439686383506024 0 -0.054131052013473242 -0.0003164331526721743 0 -0.054505193418842322 -7.0606344870265247e-05 0 -0.054618832399295485 -2.6147921218291221e-05 0 -0.054285968347372961 -0.00010439686383506024 0 -0.05426271473366185 6.6891694794785406e-05 0 -0.05426271473366185 6.6891694794785406e-05 0 -0.053797567611554055 -0.00012836341806286559 0 -0.054008395294418025 -0.00017828998025262697 0 -0.054285968347372961 -0.00010439686383506024 0 -0.05426271473366185 6.6891694794785406e-05 0 -0.054008395294418025 -0.00017828998025262697 0 -0.054131052013473242 -0.0003164331526721743 0 -0.053758500768027032 -0.00021485286087193106 0 -0.054008395294418025 -0.00017828998025262697 0 -0.054285968347372961 -0.00010439686383506024 0 -0.054131052013473242 -0.0003164331526721743 0 -0.054008395294418025 -0.00017828998025262697 0 -0.054147499164870092 -0.00035124609569645596 0 -0.053919058178161623 -0.0004626878472477079 0 -0.054131052013473242 -0.0003164331526721743 0 -0.053387446873794674 -0.00027205556141875773 0 -0.053758500768027032 -0.00021485286087193106 0 -0.054131052013473242 -0.0003164331526721743 0 -0.054868456715532997 -0.00039606384123286109 0 -0.054599401052557991 -0.00016571136158936571 0 -0.054131052013473242 -0.0003164331526721743 0 -0.053145948973958218 -0.00057849264781151158 0 -0.053387446873794674 -0.00027205556141875773 0 -0.053919058178161623 -0.0004626878472477079 0 -0.053413828850672987 -0.0004743241081378905 0 -0.05492247205649569 -3.786085274200897e-05 0 -0.054742076804694742 -4.9358095682894283e-05 0 -0.054829963949643866 -0.00012924034873389262 0 -0.054868456715532997 -0.00039606384123286109 0 -0.054599401052557991 -0.00016571136158936571 0 -0.054829963949643866 -0.00012924034873389262 0 -0.054742076804694742 -4.9358095682894283e-05 0 -0.054599401052557991 -0.00016571136158936571 0 -0.054829963949643866 -0.00012924034873389262 0 -0.054742076804694742 -4.9358095682894283e-05 0 -0.054599401052557991 -0.00016571136158936571 0 -0.054505193418842322 -7.0606344870265247e-05 0 -0.054131052013473242 -0.0003164331526721743 0 -0.054599401052557991 -0.00016571136158936571 0 -0.054505193418842322 -7.0606344870265247e-05 0 -0.054839331685200533 -2.0604039493175143e-05 0 -0.054702007482782498 -0.00017833649665637203 0 -0.054757511044776226 8.6005506821723086e-05 0 -0.054847803809400998 -1.1798180718491014e-05 0 -0.054468603179784067 -7.6327115256092894e-05 0 -0.054847803809400998 -1.1798180718491014e-05 0 -0.054832981829320844 5.3046133659768103e-06 0 -0.054860910340908696 7.2994234870567805e-05 0 -0.054847803809400998 -1.1798180718491014e-05 0 -0.054577163364052494 -0.00040272424225690776 0 -0.054468603179784067 -7.6327115256092894e-05 0 -0.054757511044776226 8.6005506821723086e-05 0 -0.054813200825485409 5.537083492460779e-05 0 -0.054881550074015857 4.8769720027452612e-05 0 -0.055000063613741303 3.7051038735651833e-11 0 -0.054999940994020911 4.4691082070780159e-06 0 -0.054999970922578675 2.0877398150823635e-10 0 -0.054813200825485409 5.537083492460779e-05 0 -0.05476866704112001 4.4006161474299655e-05 0 -0.054881550074015857 4.8769720027452612e-05 0 -0.05476866704112001 4.4006161474299655e-05 0 -0.054791694175441184 4.5160412298520135e-05 0 -0.054778615858099067 5.4878582662464201e-05 0 -0.054813200825485409 5.537083492460779e-05 0 -0.05476866704112001 4.4006161474299655e-05 0 -0.054778615858099067 5.4878582662464201e-05 0 -0.054757511044776226 8.6005506821723086e-05 0 -0.054813200825485409 5.537083492460779e-05 0 -0.054778615858099067 5.4878582662464201e-05 0 -0.054757511044776226 8.6005506821723086e-05 0 -0.054791694175441184 4.5160412298520135e-05 0 -0.054778615858099067 5.4878582662464201e-05 0 -0.055000063613741303 3.7051038735651833e-11 0 -0.054940227203420414 3.8558600156013961e-06 0 -0.054999744921460619 -2.9860389134021898e-09 0 -0.054757511044776226 8.6005506821723086e-05 0 -0.054791694175441184 4.5160412298520135e-05 0 -0.054848147729925419 -3.58976603010206e-06 0 -0.055000063613741303 3.7051038735651833e-11 0 -0.054999940994020911 4.4691082070780159e-06 0 -0.054940227203420414 3.8558600156013961e-06 0 -0.054889492238159698 2.163482268196491e-05 0 -0.054935258008438417 7.0514937905452409e-06 0 -0.05476866704112001 4.4006161474299655e-05 0 -0.054842133011320418 1.6784566520115949e-05 0 -0.054940227203420414 3.8558600156013961e-06 0 -0.05476866704112001 4.4006161474299655e-05 0 -0.054791694175441184 4.5160412298520135e-05 0 -0.054842133011320418 1.6784566520115949e-05 0 -0.054791694175441184 4.5160412298520135e-05 0 -0.054842133011320418 1.6784566520115949e-05 0 -0.054848147729925419 -3.58976603010206e-06 0 -0.054842133011320418 1.6784566520115949e-05 0 -0.054867298322636648 -1.1906580088731479e-05 0 -0.054848147729925419 -3.58976603010206e-06 0 -0.054842133011320418 1.6784566520115949e-05 0 -0.054867298322636648 -1.1906580088731479e-05 0 -0.054940227203420414 3.8558600156013961e-06 0 -0.054867298322636648 -1.1906580088731479e-05 0 -0.054848147729925419 -3.58976603010206e-06 0 -0.054835397303759824 -1.3781366302364028e-05 0 -0.054848147729925419 -3.58976603010206e-06 0 -0.054832981829320844 5.3046133659768103e-06 0 -0.054835397303759824 -1.3781366302364028e-05 0 -0.054757511044776226 8.6005506821723086e-05 0 -0.054847803809400998 -1.1798180718491014e-05 0 -0.054848147729925419 -3.58976603010206e-06 0 -0.054847803809400998 -1.1798180718491014e-05 0 -0.054848147729925419 -3.58976603010206e-06 0 -0.054832981829320844 5.3046133659768103e-06 0 -0.054848903895068676 -2.2128791983291586e-05 0 -0.05469291574902662 -3.0221248592512756e-05 0 -0.054755002850857687 -5.8168337310171664e-06 0 -0.054848903895068676 -2.2128791983291586e-05 0 -0.054835397303759824 -1.3781366302364028e-05 0 -0.054755002850857687 -5.8168337310171664e-06 0 -0.054832981829320844 5.3046133659768103e-06 0 -0.054835397303759824 -1.3781366302364028e-05 0 -0.054755002850857687 -5.8168337310171664e-06 0 -0.054867298322636648 -1.1906580088731479e-05 0 -0.054848903895068676 -2.2128791983291586e-05 0 -0.054835397303759824 -1.3781366302364028e-05 0 -0.054867298322636648 -1.1906580088731479e-05 0 -0.054848903895068676 -2.2128791983291586e-05 0 -0.054940227203420414 3.8558600156013961e-06 0 -0.054940227203420414 3.8558600156013961e-06 0 -0.054999744921460619 -2.9860389134021898e-09 0 -0.054887124899834092 -2.0449161787516344e-05 0 -0.054848903895068676 -2.2128791983291586e-05 0 -0.054940227203420414 3.8558600156013961e-06 0 -0.054887124899834092 -2.0449161787516344e-05 0 -0.054999602014993446 -6.6595121093247141e-08 0 -0.054999744921460619 -2.9860389134021898e-09 0 -0.054887124899834092 -2.0449161787516344e-05 0 -0.054999602014993446 -6.6595121093247141e-08 0 -0.054887124899834092 -2.0449161787516344e-05 0 -0.05469291574902662 -3.0221248592512756e-05 0 -0.054848903895068676 -2.2128791983291586e-05 0 -0.054887124899834092 -2.0449161787516344e-05 0 -0.05469291574902662 -3.0221248592512756e-05 0 -0.05469291574902662 -3.0221248592512756e-05 0 -0.05426271473366185 6.6891694794785406e-05 0 -0.054755002850857687 -5.8168337310171664e-06 0 -0.054230833812729355 9.4750371310686651e-05 0 -0.054093980373501903 0.00019300987904112278 0 -0.05426271473366185 6.6891694794785406e-05 0 -0.053444833040187989 0.000270083376577974 0 -0.053797567611554055 -0.00012836341806286559 0 -0.054778605730693139 0.00018154224959488919 0 -0.054755002850857687 -5.8168337310171664e-06 0 -0.054827746850660351 7.2314147391176018e-05 0 -0.05426271473366185 6.6891694794785406e-05 0 -0.054778605730693139 0.00018154224959488919 0 -0.054755002850857687 -5.8168337310171664e-06 0 -0.054832981829320844 5.3046133659768103e-06 0 -0.054827746850660351 7.2314147391176018e-05 0 -0.054860910340908696 7.2994234870567805e-05 0 -0.054832981829320844 5.3046133659768103e-06 0 -0.054755002850857687 -5.8168337310171664e-06 0 -0.054827746850660351 7.2314147391176018e-05 0 -0.054778605730693139 0.00018154224959488919 0 -0.054827746850660351 7.2314147391176018e-05 0 -0.054844562538747123 0.00010116170763221482 0 -0.054093980373501903 0.00019300987904112278 0 -0.053763276042432584 0.00031118296517746851 0 -0.054778605730693139 0.00018154224959488919 0 -0.054844562538747123 0.00010116170763221482 0 -0.054847934656082183 9.281410356303965e-05 0 -0.054844562538747123 0.00010116170763221482 0 -0.054847934656082183 9.281410356303965e-05 0 -0.054822475009783357 9.6272191204261248e-05 0 -0.054844562538747123 0.00010116170763221482 0 -0.054860910340908696 7.2994234870567805e-05 0 -0.054822475009783357 9.6272191204261248e-05 0 -0.054827746850660351 7.2314147391176018e-05 0 -0.054844562538747123 0.00010116170763221482 0 -0.054860910340908696 7.2994234870567805e-05 0 -0.05296019010298926 3.3976700791167766e-05 0 -0.052762230586117731 -0.00041204486878876958 0 -0.05238961623193867 2.9803011977096373e-05 0 -0.052732862415143321 0.00034931040832744128 0 -0.05296019010298926 3.3976700791167766e-05 0 -0.05238961623193867 2.9803011977096373e-05 0 -0.053444833040187989 0.000270083376577974 0 -0.052732862415143321 0.00034931040832744128 0 -0.05296019010298926 3.3976700791167766e-05 0 -0.053444833040187989 0.000270083376577974 0 -0.05296019010298926 3.3976700791167766e-05 0 -0.053342052356858169 -0.00017644203985266564 0 -0.05296019010298926 3.3976700791167766e-05 0 -0.053342052356858169 -0.00017644203985266564 0 -0.052762230586117731 -0.00041204486878876958 0 -0.053444833040187989 0.000270083376577974 0 -0.053342052356858169 -0.00017644203985266564 0 -0.053797567611554055 -0.00012836341806286559 0 -0.053342052356858169 -0.00017644203985266564 0 -0.053797567611554055 -0.00012836341806286559 0 -0.053649798283697113 -0.0002640629003393929 0 -0.053649798283697113 -0.0002640629003393929 0 -0.053572288101608759 -0.00041589724755241583 0 -0.053606711608780354 -0.00020779170263066269 0 -0.053649798283697113 -0.0002640629003393929 0 -0.053572288101608759 -0.00041589724755241583 0 -0.053417190401833001 -0.0004002504695010885 0 -0.053572288101608759 -0.00041589724755241583 0 -0.053417190401833001 -0.0004002504695010885 0 -0.053112818630857116 -0.00074509204673955812 0 -0.049482859559661814 0.00051854243277815965 0 -0.047595937367615519 0.00029405008664758409 0 -0.053342052356858169 -0.00017644203985266564 0 -0.053649798283697113 -0.0002640629003393929 0 -0.053417190401833001 -0.0004002504695010885 0 -0.053417190401833001 -0.0004002504695010885 0 -0.053112818630857116 -0.00074509204673955812 0 -0.052762230586117731 -0.00041204486878876958 0 -0.053342052356858169 -0.00017644203985266564 0 -0.053417190401833001 -0.0004002504695010885 0 -0.052762230586117731 -0.00041204486878876958 0 -0.053112818630857116 -0.00074509204673955812 0 -0.05244599624039932 -0.00091234296503872364 0 -0.052762230586117731 -0.00041204486878876958 0 -0.041797345723919486 0.0013903764960796069 0 -0.039110739492021804 0.00094210061873975417 0 -0.039009966243445098 -0.00039639257030447115 0 -0.047595937367615519 0.00029405008664758409 0 -0.045250933196018667 0.00016943902118977044 0 -0.05244599624039932 -0.00091234296503872364 0 -0.052762230586117731 -0.00041204486878876958 0 -0.052260131537529626 -0.00067172688680653563 0 -0.053340127957698338 -0.00014908425183148127 0 -0.053360637880977724 -0.00014446422454809899 0 -0.05311985495451909 -8.6254363747033556e-05 0 -0.053340127957698338 -0.00014908425183148127 0 -0.053360637880977724 -0.00014446422454809899 0 -0.053662466328707553 -0.00019109546481768815 0 -0.053158710027881487 -9.6160313785248247e-05 0 -0.053360637880977724 -0.00014446422454809899 0 -0.05311985495451909 -8.6254363747033556e-05 0 -0.053197581442586947 -0.00020366941039032062 0 -0.053158710027881487 -9.6160313785248247e-05 0 -0.053360637880977724 -0.00014446422454809899 0 -0.053197581442586947 -0.00020366941039032062 0 -0.053360637880977724 -0.00014446422454809899 0 -0.053387446873794674 -0.00027205556141875773 0 -0.053197581442586947 -0.00020366941039032062 0 -0.053272564577362437 -0.00038290928915441945 0 -0.053387446873794674 -0.00027205556141875773 0 -0.053360637880977724 -0.00014446422454809899 0 -0.053387446873794674 -0.00027205556141875773 0 -0.053758500768027032 -0.00021485286087193106 0 -0.053360637880977724 -0.00014446422454809899 0 -0.053662466328707553 -0.00019109546481768815 0 -0.053758500768027032 -0.00021485286087193106 0 -0.053662466328707553 -0.00019109546481768815 0 -0.053758500768027032 -0.00021485286087193106 0 -0.054008395294418025 -0.00017828998025262697 0 -0.053662466328707553 -0.00019109546481768815 0 -0.054008395294418025 -0.00017828998025262697 0 -0.053688480808089523 -0.00021921602811427403 0 -0.053797567611554055 -0.00012836341806286559 0 -0.054008395294418025 -0.00017828998025262697 0 -0.053688480808089523 -0.00021921602811427403 0 -0.053797567611554055 -0.00012836341806286559 0 -0.053649798283697113 -0.0002640629003393929 0 -0.053688480808089523 -0.00021921602811427403 0 -0.053340127957698338 -0.00014908425183148127 0 -0.053662466328707553 -0.00019109546481768815 0 -0.053688480808089523 -0.00021921602811427403 0 -0.053688480808089523 -0.00021921602811427403 0 -0.053255697613746412 -0.0001622745173356317 0 -0.053606711608780354 -0.00020779170263066269 0 -0.053340127957698338 -0.00014908425183148127 0 -0.053688480808089523 -0.00021921602811427403 0 -0.053255697613746412 -0.0001622745173356317 0 -0.053649798283697113 -0.0002640629003393929 0 -0.053688480808089523 -0.00021921602811427403 0 -0.053606711608780354 -0.00020779170263066269 0 -0.049482859559661814 0.00051854243277815965 0 -0.051297395726368156 0.00051752504855608473 0 -0.053572288101608759 -0.00041589724755241583 0 -0.053606711608780354 -0.00020779170263066269 0 -0.05350924223908033 6.8142170204305429e-06 0 -0.053255697613746412 -0.0001622745173356317 0 -0.05350924223908033 6.8142170204305429e-06 0 -0.052489487491516995 0.00011007656064353428 0 -0.053255697613746412 -0.0001622745173356317 0 -0.053606711608780354 -0.00020779170263066269 0 -0.05350924223908033 6.8142170204305429e-06 0 -0.051297395726368156 0.00051752504855608473 0 -0.052379292073644619 0.00020406649762124042 0 -0.053255697613746412 -0.0001622745173356317 0 -0.052489487491516995 0.00011007656064353428 0 -0.052891138752900121 -6.0307607586567373e-05 0 -0.053340127957698338 -0.00014908425183148127 0 -0.053255697613746412 -0.0001622745173356317 0 -0.052891138752900121 -6.0307607586567373e-05 0 -0.053340127957698338 -0.00014908425183148127 0 -0.05311985495451909 -8.6254363747033556e-05 0 -0.052891138752900121 -6.0307607586567373e-05 0 -0.053072156687754599 -8.7732184399258225e-05 0 -0.05311985495451909 -8.6254363747033556e-05 0 -0.052891138752900121 -6.0307607586567373e-05 0 -0.053072156687754599 -8.7732184399258225e-05 0 -0.053158710027881487 -9.6160313785248247e-05 0 -0.05311985495451909 -8.6254363747033556e-05 0 -0.053072156687754599 -8.7732184399258225e-05 0 -0.052891138752900121 -6.0307607586567373e-05 0 -0.052913256890130989 -0.00034739272003025512 0 -0.052489487491516995 0.00011007656064353428 0 -0.052891138752900121 -6.0307607586567373e-05 0 -0.052913256890130989 -0.00034739272003025512 0 -0.052489487491516995 0.00011007656064353428 0 -0.052688566022002468 -0.00073123393734980376 0 -0.052081174138333144 -0.0013094409430967323 0 -0.052913256890130989 -0.00034739272003025512 0 -0.052688566022002468 -0.00073123393734980376 0 -0.053027584846867593 -0.00080006645826531848 0 -0.052489487491516995 0.00011007656064353428 0 -0.052913256890130989 -0.00034739272003025512 0 -0.052688566022002468 -0.00073123393734980376 0 -0.052081174138333144 -0.0013094409430967323 0 -0.052583386775041589 -0.0021978113174443148 0 -0.052936165411733488 -0.0012468072461619328 0 -0.052688566022002468 -0.00073123393734980376 0 -0.052081174138333144 -0.0013094409430967323 0 -0.052936165411733488 -0.0012468072461619328 0 -0.052081174138333144 -0.0013094409430967323 0 -0.050872938267566038 -0.0016815617253355202 0 -0.050700794529599309 -0.0026142032521880398 0 -0.052081174138333144 -0.0013094409430967323 0 -0.050700794529599309 -0.0026142032521880398 0 -0.052583386775041589 -0.0021978113174443148 0 -0.052081174138333144 -0.0013094409430967323 0 -0.050676876697846512 -0.00084712001776208459 0 -0.050872938267566038 -0.0016815617253355202 0 -0.052489487491516995 0.00011007656064353428 0 -0.052081174138333144 -0.0013094409430967323 0 -0.050676876697846512 -0.00084712001776208459 0 -0.049158983576592832 0.001143114306022957 0 -0.050676876697846512 -0.00084712001776208459 0 -0.048068467842960788 -0.001099179437303996 0 -0.049158983576592832 0.001143114306022957 0 -0.052489487491516995 0.00011007656064353428 0 -0.050676876697846512 -0.00084712001776208459 0 -0.045504717483078286 0.0014582186742514902 0 -0.049158983576592832 0.001143114306022957 0 -0.048068467842960788 -0.001099179437303996 0 -0.048068467842960788 -0.001099179437303996 0 -0.049852119877278007 -0.0019684973224992713 0 -0.048137565725711394 -0.0031236583714542962 0 -0.048068467842960788 -0.001099179437303996 0 -0.048137565725711394 -0.0031236583714542962 0 -0.045402100965230056 -0.0020669179382662153 0 -0.050676876697846512 -0.00084712001776208459 0 -0.048068467842960788 -0.001099179437303996 0 -0.049852119877278007 -0.0019684973224992713 0 -0.050676876697846512 -0.00084712001776208459 0 -0.050872938267566038 -0.0016815617253355202 0 -0.049852119877278007 -0.0019684973224992713 0 -0.049852119877278007 -0.0019684973224992713 0 -0.049635110998646502 -0.0031106938298274493 0 -0.048137565725711394 -0.0031236583714542962 0 -0.049852119877278007 -0.0019684973224992713 0 -0.050700794529599309 -0.0026142032521880398 0 -0.049635110998646502 -0.0031106938298274493 0 -0.050872938267566038 -0.0016815617253355202 0 -0.049852119877278007 -0.0019684973224992713 0 -0.050700794529599309 -0.0026142032521880398 0 -0.050700794529599309 -0.0026142032521880398 0 -0.050740018096185655 -0.0031046505257711575 0 -0.050383883820444578 -0.0030883145622189411 0 -0.050700794529599309 -0.0026142032521880398 0 -0.049635110998646502 -0.0031106938298274493 0 -0.050061914516168642 -0.0041148346128224815 0 -0.047667742759460854 -0.00095278895390991784 0 -0.04077789551531099 -0.0030736451865974474 0 -0.049635110998646502 -0.0031106938298274493 0 -0.049422276230291225 -0.0040926163880573956 0 -0.048137565725711394 -0.0031236583714542962 0 -0.049635110998646502 -0.0031106938298274493 0 -0.049422276230291225 -0.0040926163880573956 0 -0.050061914516168642 -0.0041148346128224815 0 -0.045411933853873931 -0.0034783768158848953 0 -0.04077789551531099 -0.0030736451865974474 0 -0.026331767947770243 0.0021718684718671022 0 -0.025627574753736046 0.0022381979492417351 0 -0.026487570864617345 0.00096167065602963543 0 -0.03938852134245098 -0.0003037490874856721 0 -0.04077789551531099 -0.0030736451865974474 0 -0.04077789551531099 -0.0030736451865974474 0 -0.041008909930319755 -0.0042196761184244225 0 -0.049422276230291225 -0.0040926163880573956 0 -0.050018832071260164 -0.0040994853439177891 0 -0.046473770660763261 -0.004872699824820725 0 -0.049422276230291225 -0.0040926163880573956 0 -0.048137565725711394 -0.0031236583714542962 0 -0.046473770660763261 -0.004872699824820725 0 -0.034833366270151926 -0.0033061225325786941 0 -0.034674679068588253 -0.0033616688409101639 0 -0.034661598741393268 -0.0034153594747637493 0 -0.04077789551531099 -0.0030736451865974474 0 -0.029352272381998466 -0.0012573129654493388 0 -0.025627574753736046 0.0022381979492417351 0 -0.025635974028877257 0.00020226893470921166 0 -0.023861246591999848 -0.0005742466701746786 0 -0.025627574753736046 0.0022381979492417351 0 -0.026487570864617345 0.00096167065602963543 0 -0.025635974028877257 0.00020226893470921166 0 -0.025635974028877257 0.00020226893470921166 0 -0.02538460446911547 -0.0010007151860986949 0 -0.023861246591999848 -0.0005742466701746786 0 -0.026487570864617345 0.00096167065602963543 0 -0.025635974028877257 0.00020226893470921166 0 -0.027033666813824971 -0.0007038643466817353 0 -0.026487570864617345 0.00096167065602963543 0 -0.027897565397153434 0.0010226151572623398 0 -0.027033666813824971 -0.0007038643466817353 0 -0.026331767947770243 0.0021718684718671022 0 -0.026487570864617345 0.00096167065602963543 0 -0.027897565397153434 0.0010226151572623398 0 -0.027897565397153434 0.0010226151572623398 0 -0.028918689474085369 -1.5030685054668977e-06 0 -0.027033666813824971 -0.0007038643466817353 0 -0.028918689474085369 -1.5030685054668977e-06 0 -0.029861700107176987 -0.0002874845961104446 0 -0.029983366724905161 0.00042651686117385835 0 -0.028918689474085369 -1.5030685054668977e-06 0 -0.029983366724905161 0.00042651686117385835 0 -0.029197515289126934 0.00092698881837945254 0 -0.029983366724905161 0.00042651686117385835 0 -0.029866572640294908 0.0010282867405796902 0 -0.030817438073132124 0.00085570576378883416 0 -0.029866572640294908 0.0010282867405796902 0 -0.029468125230697504 0.0019036406930276583 0 -0.030817438073132124 0.00085570576378883416 0 -0.029866572640294908 0.0010282867405796902 0 -0.029197515289126934 0.00092698881837945254 0 -0.029468125230697504 0.0019036406930276583 0 -0.029983366724905161 0.00042651686117385835 0 -0.029866572640294908 0.0010282867405796902 0 -0.029197515289126934 0.00092698881837945254 0 -0.027897565397153434 0.0010226151572623398 0 -0.029197515289126934 0.00092698881837945254 0 -0.029468125230697504 0.0019036406930276583 0 -0.027897565397153434 0.0010226151572623398 0 -0.028918689474085369 -1.5030685054668977e-06 0 -0.029197515289126934 0.00092698881837945254 0 -0.040213201537112581 0.00088699277768075938 0 -0.038596569781374691 0.00082003780726149921 0 -0.038604392609293624 0.0011248283836541664 0 -0.03938852134245098 -0.0003037490874856721 0 -0.032648392352953644 0.0017851014060313269 0 -0.050700794529599309 -0.0026142032521880398 0 -0.050740018096185655 -0.0031046505257711575 0 -0.052583386775041589 -0.0021978113174443148 0 -0.03938852134245098 -0.0003037490874856721 0 -0.046931568939543616 -0.00071287745250993653 0 -0.026331767947770243 0.0021718684718671022 0 -0.027897565397153434 0.0010226151572623398 0 -0.029468125230697504 0.0019036406930276583 0 -0.03997064266268039 -0.0011212948101300213 0 -0.040106604942470772 -0.0018653601471513503 0 -0.038586766513163548 -0.0017816161836187714 0 -0.03997064266268039 -0.0011212948101300213 0 -0.039009966243445098 -0.00039639257030447115 0 -0.038586766513163548 -0.0017816161836187714 0 -0.041797345723919486 0.0013903764960796069 0 -0.03997064266268039 -0.0011212948101300213 0 -0.039009966243445098 -0.00039639257030447115 0 -0.041797345723919486 0.0013903764960796069 0 -0.03997064266268039 -0.0011212948101300213 0 -0.042588282595145258 -0.0011292347028950039 0 -0.03997064266268039 -0.0011212948101300213 0 -0.042588282595145258 -0.0011292347028950039 0 -0.041464044401584098 -0.003287247123382948 0 -0.039915647948395132 -0.001141548082809024 0 -0.041101720525836834 -0.0028799113591976696 0 -0.042588282595145258 -0.0011292347028950039 0 -0.045402100965230056 -0.0020669179382662153 0 -0.043777585010255048 -0.0033464027812166717 0 -0.042588282595145258 -0.0011292347028950039 0 -0.043777585010255048 -0.0033464027812166717 0 -0.041464044401584098 -0.003287247123382948 0 -0.045504717483078286 0.0014582186742514902 0 -0.042588282595145258 -0.0011292347028950039 0 -0.045402100965230056 -0.0020669179382662153 0 -0.045504717483078286 0.0014582186742514902 0 -0.041797345723919486 0.0013903764960796069 0 -0.042588282595145258 -0.0011292347028950039 0 -0.045504717483078286 0.0014582186742514902 0 -0.048068467842960788 -0.001099179437303996 0 -0.045402100965230056 -0.0020669179382662153 0 -0.048137565725711394 -0.0031236583714542962 0 -0.045402100965230056 -0.0020669179382662153 0 -0.046473770660763261 -0.004872699824820725 0 -0.045402100965230056 -0.0020669179382662153 0 -0.046473770660763261 -0.004872699824820725 0 -0.043777585010255048 -0.0033464027812166717 0 -0.034674679068588253 -0.0033616688409101639 0 -0.034677596894518957 -0.0033927703128936951 0 -0.034607368595751822 -0.003408698620579255 0 -0.034674679068588253 -0.0033616688409101639 0 -0.034607368595751822 -0.003408698620579255 0 -0.034661598741393268 -0.0034153594747637493 0 -0.035624469971133339 -0.0038418654047538939 0 -0.036255725366946309 -0.0021790459147378919 0 -0.03423451404954491 -0.0023241028891260009 0 -0.038413214822577653 -0.0036247036901448171 0 -0.035945649318790053 -0.0029895981188727831 0 -0.046473770660763261 -0.004872699824820725 0 -0.042924928542352879 -0.0053421105009981082 0 -0.043777585010255048 -0.0033464027812166717 0 -0.042924928542352879 -0.0053421105009981082 0 -0.043777585010255048 -0.0033464027812166717 0 -0.041464044401584098 -0.003287247123382948 0 -0.041008909930319755 -0.0042196761184244225 0 -0.038413214822577653 -0.0036247036901448171 0 -0.040851353251441784 -0.0029606667828552596 0 -0.040106604942470772 -0.0018653601471513503 0 -0.038422609659970554 -0.0029651633685248368 0 -0.038413214822577653 -0.0036247036901448171 0 -0.041101720525836834 -0.0028799113591976696 0 -0.038413214822577653 -0.0036247036901448171 0 -0.038329408876185092 -0.0029659025994278427 0 -0.035624469971133339 -0.0038418654047538939 0 -0.038422609659970554 -0.0029651633685248368 0 -0.036255725366946309 -0.0021790459147378919 0 -0.038422609659970554 -0.0029651633685248368 0 -0.037881330809750965 -0.0019883048277433645 0 -0.036255725366946309 -0.0021790459147378919 0 -0.040106604942470772 -0.0018653601471513503 0 -0.038422609659970554 -0.0029651633685248368 0 -0.038586766513163548 -0.0017816161836187714 0 -0.024752300962813042 -0.0027310295985852567 0 -0.029594476971404726 -0.0030808593142494381 0 -0.012158308863067404 -0.0051357205948139376 0 -0.012052549185894795 -0.0042857542624285469 0 -0.015833284251627489 -0.003213042675044978 0 -0.037881330809750965 -0.0019883048277433645 0 -0.036909428173049839 -0.00080939186965394306 0 -0.038379355740550999 -0.0012056946070743316 0 -0.012158308863067404 -0.0051357205948139376 0 -0.016783382941050428 -0.0052673579639112541 0 -0.015833284251627489 -0.003213042675044978 0 -0.037881330809750965 -0.0019883048277433645 0 -0.036255725366946309 -0.0021790459147378919 0 -0.036909428173049839 -0.00080939186965394306 0 -0.036255725366946309 -0.0021790459147378919 0 -0.036909428173049839 -0.00080939186965394306 0 -0.035012280755413128 -0.0014599346719891993 0 -0.012158308863067404 -0.0051357205948139376 0 -0.012052549185894795 -0.0042857542624285469 0 -0.011412865091129553 -0.004387444403045471 0 -0.036909428173049839 -0.00080939186965394306 0 -0.034203711389597553 -0.00051941068628161768 0 -0.035012280755413128 -0.0014599346719891993 0 -0.024752300962813042 -0.0027310295985852567 0 -0.019943012512971755 -0.0044134017949667695 0 -0.012158308863067404 -0.0051357205948139376 0 -0.011412865091129553 -0.004387444403045471 0 -0.010580217855483725 -0.0047411773230519498 0 -0.034203711389597553 -0.00051941068628161768 0 -0.035012280755413128 -0.0014599346719891993 0 -0.033695242889587869 -0.0012599406127952663 0 -0.036255725366946309 -0.0021790459147378919 0 -0.035012280755413128 -0.0014599346719891993 0 -0.03423451404954491 -0.0023241028891260009 0 -0.035012280755413128 -0.0014599346719891993 0 -0.033695242889587869 -0.0012599406127952663 0 -0.03423451404954491 -0.0023241028891260009 0 -0.034607368595751822 -0.003408698620579255 0 -0.034505171797656414 -0.0034616421269270652 0 -0.034661598741393268 -0.0034153594747637493 0 -0.035945649318790053 -0.0029895981188727831 0 -0.017857442055200585 -0.0049450842224270722 0 -0.033695242889587869 -0.0012599406127952663 0 -0.03423451404954491 -0.0023241028891260009 0 -0.032548426215828839 -0.00047714868446741416 0 -0.017857442055200585 -0.0049450842224270722 0 -0.0038609748482936667 -0.0096629886597534125 0 -0.0060259529504976582 -0.007996646822797035 0 -0.0051691603136836822 -0.0079150035029895306 0 -0.0055060211694325303 -0.0069475778942990393 0 -0.019943012512971755 -0.0044134017949667695 0 -0.017857442055200585 -0.0049450842224270722 0 -0.034068158683513143 -0.00051374153541747117 0 -0.033695242889587869 -0.0012599406127952663 0 -0.032548426215828839 -0.00047714868446741416 0 -0.019943012512971755 -0.0044134017949667695 0 -0.029820871588503221 0.0016680640547818116 0 -0.0048031341284348163 -0.0083039543816595639 0 -0.0055060211694325303 -0.0069475778942990393 0 -0.0045385853240512619 -0.0068830036349910532 0 -0.0055060211694325303 -0.0069475778942990393 0 -0.0045385853240512619 -0.0068830036349910532 0 -0.0045041464933483766 -0.0059017417751370078 0 -0.0055060211694325303 -0.0069475778942990393 0 -0.0059278240216631339 -0.0054493020861373261 0 -0.0045041464933483766 -0.0059017417751370078 0 -0.0059278240216631339 -0.0054493020861373261 0 -0.0045041464933483766 -0.0059017417751370078 0 -0.0044154413318712987 -0.0043345817931442045 0 -0.0055060211694325303 -0.0069475778942990393 0 -0.0059278240216631339 -0.0054493020861373261 0 -0.0069405850118047863 -0.006535279491013588 0 -0.0059278240216631339 -0.0054493020861373261 0 -0.0069405850118047863 -0.006535279491013588 0 -0.0081442994469439738 -0.0048319589400019824 0 -0.011412865091129553 -0.004387444403045471 0 -0.010580217855483725 -0.0047411773230519498 0 -0.011252407641176607 -0.0037983050485767057 0 -0.019943012512971755 -0.0044134017949667695 0 -0.0073813488119210914 -0.0060850737644393554 0 -0.0060259529504976582 -0.007996646822797035 0 -0.0055060211694325303 -0.0069475778942990393 0 -0.0069405850118047863 -0.006535279491013588 0 -0.011252407641176607 -0.0037983050485767057 0 -0.011594827789797063 -0.0040757835229858859 0 -0.011929308336965289 -0.0037070287716894686 0 -0.011412865091129553 -0.004387444403045471 0 -0.011252407641176607 -0.0037983050485767057 0 -0.011594827789797063 -0.0040757835229858859 0 -0.012052549185894795 -0.0042857542624285469 0 -0.011412865091129553 -0.004387444403045471 0 -0.011594827789797063 -0.0040757835229858859 0 -0.012052549185894795 -0.0042857542624285469 0 -0.011594827789797063 -0.0040757835229858859 0 -0.011957129829176513 -0.0040359254245671055 0 -0.011594827789797063 -0.0040757835229858859 0 -0.011957129829176513 -0.0040359254245671055 0 -0.011929308336965289 -0.0037070287716894686 0 -0.0073813488119210914 -0.0060850737644393554 0 -0.010101332914471807 -0.0036397506367820852 0 -0.011252407641176607 -0.0037983050485767057 0 -0.011929308336965289 -0.0037070287716894686 0 -0.01146897672296732 -0.0030127495927386957 0 -0.011929308336965289 -0.0037070287716894686 0 -0.012198929989602919 -0.0028152200066669194 0 -0.01146897672296732 -0.0030127495927386957 0 -0.012218183870618411 -0.0042243271795394596 0 -0.014152363238785924 -0.0037401304525213068 0 -0.011957129829176513 -0.0040359254245671055 0 -0.011929308336965289 -0.0037070287716894686 0 -0.012408951179497026 -0.0042318888193680513 0 -0.012052549185894795 -0.0042857542624285469 0 -0.011957129829176513 -0.0040359254245671055 0 -0.012408951179497026 -0.0042318888193680513 0 -0.016996553728919655 0.00039231190398954078 0 -0.017026297962161964 0.00037292482509569967 0 -0.01710064300389422 0.00042397792482445353 0 -0.021782891849822152 -0.0019241686348833303 0 -0.023682671607507332 -0.0012360260983829696 0 -0.017026297962161964 0.00037292482509569967 0 -0.01710064300389422 0.00042397792482445353 0 -0.017041754101241986 0.00033361241866765106 0 -0.027466693619906123 -0.0030734867725329051 0 -0.030126928719105019 -0.0030238165444329591 0 -0.029619646399269263 -0.0014820834512257104 0 -0.028918689474085369 -1.5030685054668977e-06 0 -0.029619646399269263 -0.0014820834512257104 0 -0.027033666813824971 -0.0007038643466817353 0 -0.029861700107176987 -0.0002874845961104446 0 -0.029619646399269263 -0.0014820834512257104 0 -0.030851338723534606 -0.00036945279021009428 0 -0.028918689474085369 -1.5030685054668977e-06 0 -0.029861700107176987 -0.0002874845961104446 0 -0.029619646399269263 -0.0014820834512257104 0 -0.027440348460772604 -0.0033091326319087092 0 -0.027033666813824971 -0.0007038643466817353 0 -0.025921767090465956 -0.0020285181348376822 0 -0.021782891849822152 -0.0019241686348833303 0 -0.027805096182347468 -0.0016479445824848962 0 -0.027466693619906123 -0.0030734867725329051 0 -0.029619646399269263 -0.0014820834512257104 0 -0.027033666813824971 -0.0007038643466817353 0 -0.027033666813824971 -0.0007038643466817353 0 -0.02538460446911547 -0.0010007151860986949 0 -0.025921767090465956 -0.0020285181348376822 0 -0.025635974028877257 0.00020226893470921166 0 -0.027033666813824971 -0.0007038643466817353 0 -0.02538460446911547 -0.0010007151860986949 0 -0.02538460446911547 -0.0010007151860986949 0 -0.024429705013858622 -0.0019006774541130021 0 -0.023861246591999848 -0.0005742466701746786 0 -0.024429705013858622 -0.0019006774541130021 0 -0.025921767090465956 -0.0020285181348376822 0 -0.025036570579620977 -0.0033388595504407338 0 -0.02538460446911547 -0.0010007151860986949 0 -0.024429705013858622 -0.0019006774541130021 0 -0.025921767090465956 -0.0020285181348376822 0 -0.022076541141583989 -0.0035966910026543632 0 -0.024429705013858622 -0.0019006774541130021 0 -0.023861246591999848 -0.0005742466701746786 0 -0.017857442055200585 -0.0049450842224270722 0 -0.029352272381998466 -0.0012573129654493388 0 -0.005215597098200876 -0.0085746583989742848 0 -0.0041613899173448179 -0.0080715152898362969 0 -0.0028975243397444473 -0.0086599215131280428 0 -0.022076541141583989 -0.0035966910026543632 0 -0.024429705013858622 -0.0019006774541130021 0 -0.025051488668644348 -0.0034672818843083943 0 -0.017857442055200585 -0.0049450842224270722 0 -0.015510193648712253 -0.0039982020601719102 0 -0.021782891849822152 -0.0019241686348833303 0 -0.015510193648712253 -0.0039982020601719102 0 -0.013442517843042085 -0.003369374477697282 0 -0.014117514930088637 -0.0033735440655215114 0 -0.013703757291303652 -0.0025537008453040844 0 -0.027440348460772604 -0.0033091326319087092 0 -0.025921767090465956 -0.0020285181348376822 0 -0.025036570579620977 -0.0033388595504407338 0 -0.022924152472858721 -0.0036425523034967437 0 -0.015510193648712253 -0.0039982020601719102 0 -0.015510193648712253 -0.0039982020601719102 0 -0.0070060472463870909 -0.0047163234823542925 0 -0.0028975243397444473 -0.0086599215131280428 0 -0.0018303700974221875 -0.0064596700304455947 0 -0.0033521258221789821 -0.0064050656957137433 0 -0.005215597098200876 -0.0085746583989742848 0 -0.0041613899173448179 -0.0080715152898362969 0 -0.0033521258221789821 -0.0064050656957137433 0 -0.017857442055200585 -0.0049450842224270722 0 0.00017603357971623322 -0.006683227484578628 0 -0.0048031341284348163 -0.0083039543816595639 0 -0.0033521258221789821 -0.0064050656957137433 0 -0.0045385853240512619 -0.0068830036349910532 0 -0.0041613899173448179 -0.0080715152898362969 0 -0.0028975243397444473 -0.0086599215131280428 0 -0.0033521258221789821 -0.0064050656957137433 0 -0.0033521258221789821 -0.0064050656957137433 0 -0.0045385853240512619 -0.0068830036349910532 0 -0.0045041464933483766 -0.0059017417751370078 0 -0.0045041464933483766 -0.0059017417751370078 0 -0.0033453897116090983 -0.0051663072658877911 0 -0.0044154413318712987 -0.0043345817931442045 0 -0.0033521258221789821 -0.0064050656957137433 0 -0.0045041464933483766 -0.0059017417751370078 0 -0.0033453897116090983 -0.0051663072658877911 0 -0.0018303700974221875 -0.0064596700304455947 0 -0.0033521258221789821 -0.0064050656957137433 0 -0.0023286604199338127 -0.0054641212486293963 0 -0.0033521258221789821 -0.0064050656957137433 0 -0.0033453897116090983 -0.0051663072658877911 0 -0.0023286604199338127 -0.0054641212486293963 0 -0.0033453897116090983 -0.0051663072658877911 0 -0.0023286604199338127 -0.0054641212486293963 0 -0.002125532035711438 -0.0045877490463031778 0 -0.013703757291303652 -0.0025537008453040844 0 -0.013189980285751114 -0.0024400969569774236 0 -0.013272039530905598 -0.0017489796104478705 0 -0.0070060472463870909 -0.0047163234823542925 0 -0.0075335344195804092 -0.002539469294157944 0 -0.013918488838612858 -0.00052639289885507651 0 -0.013454838414460378 -0.00038576311075015483 0 -0.010015743750694582 -0.0011407782960117584 0 -0.0099396229181097154 -0.0010247025791006142 0 -0.0099871551128338787 -0.0010073059231519035 0 -0.013918488838612858 -0.00052639289885507651 0 -0.0075335344195804092 -0.002539469294157944 0 -0.0018303700974221875 -0.0064596700304455947 0 -0.0023286604199338127 -0.0054641212486293963 0 -0.0009660874917240273 -0.004506159713526278 0 -0.013442517843042085 -0.003369374477697282 0 -0.013703757291303652 -0.0025537008453040844 0 -0.013189980285751114 -0.0024400969569774236 0 -0.021782891849822152 -0.0019241686348833303 0 -0.013918488838612858 -0.00052639289885507651 0 -0.016996553728919655 0.00039231190398954078 0 -0.017026297962161964 0.00037292482509569967 0 -0.016965693400903637 0.00024381527805495377 0 -0.017405486277553603 0.00082612398304131795 0 -0.013918488838612858 -0.00052639289885507651 0 -0.017026297962161964 0.00037292482509569967 0 -0.01694593268190886 0.00028501118030997962 0 -0.017041754101241986 0.00033361241866765106 0 -0.01694593268190886 0.00028501118030997962 0 -0.017041754101241986 0.00033361241866765106 0 -0.016983935306171167 0.00025704816271308341 0 -0.017041754101241986 0.00033361241866765106 0 -0.016983935306171167 0.00025704816271308341 0 -0.01703789088069859 0.00028290410995505483 0 -0.016983935306171167 0.00025704816271308341 0 -0.016924938920086213 0.0002279579063031986 0 -0.016959110818874436 0.00021172373460808915 0 -0.01694593268190886 0.00028501118030997962 0 -0.016983935306171167 0.00025704816271308341 0 -0.016959110818874436 0.00021172373460808915 0 -0.01703789088069859 0.00028290410995505483 0 -0.017095275137106538 0.00026031743520537893 0 -0.017138734049022188 0.00035425338050695143 0 -0.016983935306171167 0.00025704816271308341 0 -0.01703789088069859 0.00028290410995505483 0 -0.016924938920086213 0.0002279579063031986 0 -0.01703789088069859 0.00028290410995505483 0 -0.017095275137106538 0.00026031743520537893 0 -0.016924938920086213 0.0002279579063031986 0 -0.017095275137106538 0.00026031743520537893 0 -0.017329005061163295 0.00032936625401178572 0 -0.017194918168077125 0.0001953372862360665 0 -0.017095275137106538 0.00026031743520537893 0 -0.017138734049022188 0.00035425338050695143 0 -0.017329005061163295 0.00032936625401178572 0 -0.017138734049022188 0.00035425338050695143 0 -0.017256700189607049 0.00048083653031978418 0 -0.017329005061163295 0.00032936625401178572 0 -0.01710064300389422 0.00042397792482445353 0 -0.017041754101241986 0.00033361241866765106 0 -0.017138734049022188 0.00035425338050695143 0 -0.017041754101241986 0.00033361241866765106 0 -0.01703789088069859 0.00028290410995505483 0 -0.017138734049022188 0.00035425338050695143 0 -0.01710064300389422 0.00042397792482445353 0 -0.017138734049022188 0.00035425338050695143 0 -0.017256700189607049 0.00048083653031978418 0 -0.030126928719105019 -0.0030238165444329591 0 -0.032714250337862884 -0.0028701757453798065 0 -0.031614987323671358 -0.0018074523502054063 0 -0.023682671607507332 -0.0012360260983829696 0 -0.025072987986623808 -0.0013479522567102107 0 -0.032714250337862884 -0.0028701757453798065 0 -0.03319227401047193 -0.0015009797626294962 0 -0.034805277593151468 -0.0027402188995706575 0 -0.032714250337862884 -0.0028701757453798065 0 -0.03319227401047193 -0.0015009797626294962 0 -0.031614987323671358 -0.0018074523502054063 0 -0.03319227401047193 -0.0015009797626294962 0 -0.034286856073422717 -0.00076719981121157901 0 -0.033232372341330571 -0.00031150015592982513 0 -0.03319227401047193 -0.0015009797626294962 0 -0.032030075753785824 -0.00078903924150165402 0 -0.033232372341330571 -0.00031150015592982513 0 -0.03319227401047193 -0.0015009797626294962 0 -0.032030075753785824 -0.00078903924150165402 0 -0.031614987323671358 -0.0018074523502054063 0 -0.032030075753785824 -0.00078903924150165402 0 -0.031614987323671358 -0.0018074523502054063 0 -0.030851338723534606 -0.00036945279021009428 0 -0.029619646399269263 -0.0014820834512257104 0 -0.031614987323671358 -0.0018074523502054063 0 -0.030851338723534606 -0.00036945279021009428 0 -0.030126928719105019 -0.0030238165444329591 0 -0.029619646399269263 -0.0014820834512257104 0 -0.031614987323671358 -0.0018074523502054063 0 -0.033983780488303098 0.00025353409902382362 0 -0.034222489544304457 0.00019017352143071772 0 -0.034148361354710666 0.00079369861261371758 0 -0.031806107788921963 0.0007859776294325511 0 -0.037131445884194834 0.0010874473532496427 0 -0.032593260696567934 -0.0008866055804721938 0 -0.037131445884194834 0.0010874473532496427 0 -0.036839656572670555 0.0016107856094922264 0 -0.036785042871775198 0.0015668152531311801 0 -0.036839548887422843 0.0014108774866227766 0 -0.032453015363877805 0.0012350959734299058 0 -0.037276005495748103 0.0015673714082467781 0 -0.036970047000270775 0.00092660743451358329 0 -0.036931791672273326 0.00093738241071144679 0 -0.037116095240387406 0.0015636060228145306 0 -0.032593260696567934 -0.0008866055804721938 0 -0.031806107788921963 0.0007859776294325511 0 -0.034428928919965754 -0.0018843867279880954 0 -0.032593260696567934 -0.0008866055804721938 0 -0.03319227401047193 -0.0015009797626294962 0 -0.034286856073422717 -0.00076719981121157901 0 -0.035714793812197033 -0.0021041906487078532 0 -0.035714793812197033 -0.0021041906487078532 0 -0.035124475098434325 -0.00024909059826389105 0 -0.036135397061322558 0.00080170899742014099 0 -0.03319227401047193 -0.0015009797626294962 0 -0.034967785307328733 -0.0020440669926227498 0 -0.034805277593151468 -0.0027402188995706575 0 -0.034286856073422717 -0.00076719981121157901 0 -0.035714793812197033 -0.0021041906487078532 0 -0.035124475098434325 -0.00024909059826389105 0 -0.032593260696567934 -0.0008866055804721938 0 -0.025550126405990026 0.00080623291186448338 0 -0.017256700189607049 0.00048083653031978418 0 -0.017480502482580745 0.00051006106861260271 0 -0.017329005061163295 0.00032936625401178572 0 -0.025072987986623808 -0.0013479522567102107 0 -0.025550126405990026 0.00080623291186448338 0 -0.021124555037970279 0.0028022346819434434 0 -0.022212425748935088 0.0027004723355551177 0 -0.021509866894245225 0.0019597967289338141 0 -0.029095622990135052 0.00070075628081031334 0 -0.029450101020996943 0.00083400860480624406 0 -0.029470265045282145 0.00070915736593992146 0 -0.025550126405990026 0.00080623291186448338 0 -0.027469165698027327 0.0019888091619779517 0 -0.029156199383545141 0.00090764738129511476 0 -0.029095622990135052 0.00070075628081031334 0 -0.029450101020996943 0.00083400860480624406 0 -0.021124555037970279 0.0028022346819434434 0 -0.022192868044873821 0.0028140473265944994 0 -0.022212425748935088 0.0027004723355551177 0 -0.023129151295017667 0.0029399947055097006 0 -0.02312403169951889 0.0029652803210799606 0 -0.022975181354598438 0.0030143395474834817 0 -0.029276908897318443 0.00066346443014540801 0 -0.029746869625045049 0.00053650064220309764 0 -0.029472155553996036 0.0018960139249256066 0 -0.031806107788921963 0.0007859776294325511 0 -0.027469165698027327 0.0019888091619779517 0 -0.032453015363877805 0.0012350959734299058 0 -0.027469165698027327 0.0019888091619779517 0 -0.032453015363877805 0.0012350959734299058 0 -0.031806107788921963 0.0007859776294325511 0 -0.027469165698027327 0.0019888091619779517 0 -0.025751311079473708 0.0026855474881391809 0 -0.02310811711990967 0.0028460392874137125 0 -0.02310204457132476 0.0032592217373891954 0 -0.022955149539295176 0.0034108768120915786 0 -0.022212425748935088 0.0027004723355551177 0 -0.022077608220717068 0.0013653573387386536 0 -0.021509866894245225 0.0019597967289338141 0 -0.025751311079473708 0.0026855474881391809 0 -0.022577629416455136 0.0022478698947629703 0 -0.025751311079473708 0.0026855474881391809 0 -0.022466549988660812 0.0035769304569279728 0 -0.022077608220717068 0.0013653573387386536 0 -0.021509866894245225 0.0019597967289338141 0 -0.020621476504212134 0.00096795915572389462 0 -0.02312403169951889 0.0029652803210799606 0 -0.022955149539295176 0.0034108768120915786 0 -0.02292008141240447 0.0032361841311764495 0 -0.025550126405990026 0.00080623291186448338 0 -0.018502003921008311 0.00074172841960643411 0 -0.021124555037970279 0.0028022346819434434 0 -0.021509866894245225 0.0019597967289338141 0 -0.020621476504212134 0.00096795915572389462 0 -0.018502003921008311 0.00074172841960643411 0 -0.017509675515261267 -0.0005933217477475471 0 -0.018463552360607562 0.0023719621785067363 0 -0.017509675515261267 -0.0005933217477475471 0 -0.020621476504212134 0.00096795915572389462 0 -0.02195028497411658 1.378618538046304e-05 0 -0.020132953491234038 -0.00089487513558410953 0 -0.02310204457132476 0.0032592217373891954 0 -0.022955149539295176 0.0034108768120915786 0 -0.023086016443430023 0.0036396527907331827 0 -0.022577629416455136 0.0022478698947629703 0 -0.018463552360607562 0.0023719621785067363 0 -0.022077608220717068 0.0013653573387386536 0 -0.020621476504212134 0.00096795915572389462 0 -0.02195028497411658 1.378618538046304e-05 0 -0.018463552360607562 0.0023719621785067363 0 -0.012321874718945788 0.0030244672051237434 0 -0.014400411013927741 0.0064374630520606666 0 -0.012773197521708746 0.0056679718554319639 0 -0.011857506896328468 0.0067873440855639186 0 -0.014400411013927741 0.0064374630520606666 0 -0.011857506896328468 0.0067873440855639186 0 -0.014463262736669029 0.007462531212509893 0 -0.022955149539295176 0.0034108768120915786 0 -0.023086016443430023 0.0036396527907331827 0 -0.022722827058875985 0.0034959392011636816 0 -0.018463552360607562 0.0023719621785067363 0 -0.017823856724593353 0.0046917592296471669 0 -0.012773197521708746 0.0056679718554319639 0 -0.011857506896328468 0.0067873440855639186 0 -0.011080195798318801 0.00485318186469017 0 -0.011857506896328468 0.0067873440855639186 0 -0.011080195798318801 0.00485318186469017 0 -0.0090841774122176599 0.0060769891890984839 0 -0.022135035962494432 0.0037440970560486783 0 -0.01745406744218634 0.0041023494100267417 0 -0.017823856724593353 0.0046917592296471669 0 -0.01745406744218634 0.0041023494100267417 0 -0.022722827058875985 0.0034959392011636816 0 -0.022457388495458842 0.0032956975350810851 0 -0.022192188315802313 0.0033206828537403555 0 -0.022223882673988109 0.0033062666029504877 0 -0.022397306403441609 0.0030606227314223266 0 -0.022147687687555331 0.0029145184248310918 0 -0.022457388495458842 0.0032956975350810851 0 -0.022397306403441609 0.0030606227314223266 0 -0.022618440518990323 0.0031284069710769851 0 -0.022457388495458842 0.0032956975350810851 0 -0.022223882673988109 0.0033062666029504877 0 -0.022397306403441609 0.0030606227314223266 0 -0.022457388495458842 0.0032956975350810851 0 -0.022618440518990323 0.0031284069710769851 0 -0.022708368757610915 0.0032993387121817049 0 -0.022618440518990323 0.0031284069710769851 0 -0.02292008141240447 0.0032361841311764495 0 -0.022708368757610915 0.0032993387121817049 0 -0.022955149539295176 0.0034108768120915786 0 -0.022722827058875985 0.0034959392011636816 0 -0.02282972614894838 0.0033624067208658424 0 -0.022955149539295176 0.0034108768120915786 0 -0.02292008141240447 0.0032361841311764495 0 -0.02282972614894838 0.0033624067208658424 0 -0.02292008141240447 0.0032361841311764495 0 -0.02282972614894838 0.0033624067208658424 0 -0.022708368757610915 0.0032993387121817049 0 -0.022722827058875985 0.0034959392011636816 0 -0.02282972614894838 0.0033624067208658424 0 -0.022708368757610915 0.0032993387121817049 0 -0.022722827058875985 0.0034959392011636816 0 -0.022457388495458842 0.0032956975350810851 0 -0.022708368757610915 0.0032993387121817049 0 -0.0075653845787538978 0.0054296731627648046 0 -0.0062667968008711409 0.0044249988041674352 0 -0.0039322426919278812 0.0043551557574835172 0 -0.0071073858243183713 0.0054448001131544334 0 -0.0073125377879260552 0.0045411380660859207 0 -0.0062667968008711409 0.0044249988041674352 0 -0.0053889270717899351 0.0036226395432132413 0 -0.0039322426919278812 0.0043551557574835172 0 -0.0065356102060411484 0.0037112825353047287 0 -0.0053889270717899351 0.0036226395432132413 0 -0.0058812436617996728 0.0029223164901908127 0 -0.0065356102060411484 0.0037112825353047287 0 -0.0062667968008711409 0.0044249988041674352 0 -0.0053889270717899351 0.0036226395432132413 0 -0.0053889270717899351 0.0036226395432132413 0 -0.0039322426919278812 0.0043551557574835172 0 -0.0043606428329094025 0.0026899452954651675 0 -0.0099450079392801281 0.0054159934424138348 0 -0.0073125377879260552 0.0045411380660859207 0 -0.0078990321762612125 0.0033561385055826012 0 -0.0074267976803855679 0.0032487920714013843 0 -0.0076435393541925984 0.0034695269969683318 0 -0.0039322426919278812 0.0043551557574835172 0 -0.0030635739041606157 0.0027910574358515896 0 -0.0043606428329094025 0.0026899452954651675 0 -0.0073125377879260552 0.0045411380660859207 0 -0.0052468376236826497 0.0030249507573063567 0 -0.017802919845987725 0.0051673637361908699 0 -0.016614188516416824 0.0052008880841512952 0 -0.016887330334830811 0.0047312157894798266 0 -0.011080195798318801 0.00485318186469017 0 -0.0090841774122176599 0.0060769891890984839 0 -0.0085456786758960294 0.0049913340287921527 0 -0.01745406744218634 0.0041023494100267417 0 -0.021924844470846482 0.0048249666580969129 0 -0.022223882673988109 0.0033062666029504877 0 -0.021681486325660981 0.0030565191961547306 0 -0.022147687687555331 0.0029145184248310918 0 -0.01745406744218634 0.0041023494100267417 0 -0.011459664991791168 0.0050857920322607431 0 -0.0075546769231933887 0.0055774084557812433 0 -0.0085456786758960294 0.0049913340287921527 0 -0.0083728182673824154 0.0051742992092116804 0 -0.0075653845787538978 0.0054296731627648046 0 -0.0087327660585898182 0.0055115965422098678 0 -0.0083728182673824154 0.0051742992092116804 0 -0.01419907581119278 0.0066516347353871895 0 -0.011459664991791168 0.0050857920322607431 0 -0.016813348371284571 0.0062146300981056552 0 -0.021924844470846482 0.0048249666580969129 0 -0.015460317377223087 0.0051512154315052072 0 -0.016614188516416824 0.0052008880841512952 0 -0.016887330334830811 0.0047312157894798266 0 -0.0090841774122176599 0.0060769891890984839 0 -0.0085456786758960294 0.0049913340287921527 0 -0.0083728182673824154 0.0051742992092116804 0 -0.0073125377879260552 0.0045411380660859207 0 -0.0086953700806569906 0.0056769947920022852 0 -0.021450206240698523 0.0068759271205383037 0 -0.023030511886215105 0.0052383450549805402 0 -0.024584178154251939 0.0060164946033327699 0 -0.022264362806121509 0.0050315368236695194 0 -0.023030511886215105 0.0052383450549805402 0 -0.023526702536220915 0.0042197884808895057 0 -0.024064302521674377 0.0057605783314646723 0 -0.021924844470846482 0.0048249666580969129 0 -0.023030511886215105 0.0052383450549805402 0 -0.024298248994549222 0.0049673393546558978 0 -0.024722340303765206 0.0060725368320914659 0 -0.023030511886215105 0.0052383450549805402 0 -0.024298248994549222 0.0049673393546558978 0 -0.023526702536220915 0.0042197884808895057 0 -0.024298248994549222 0.0049673393546558978 0 -0.024765819400703319 0.0042276406329131797 0 -0.023526702536220915 0.0042197884808895057 0 -0.021924844470846482 0.0048249666580969129 0 -0.024173171713600058 0.0042970123016146345 0 -0.024722340303765206 0.0060725368320914659 0 -0.02543113672539005 0.0050915653779549678 0 -0.026516485479973588 0.0055673141288627645 0 -0.024298248994549222 0.0049673393546558978 0 -0.02543113672539005 0.0050915653779549678 0 -0.024765819400703319 0.0042276406329131797 0 -0.024298248994549222 0.0049673393546558978 0 -0.024722340303765206 0.0060725368320914659 0 -0.02543113672539005 0.0050915653779549678 0 -0.02543113672539005 0.0050915653779549678 0 -0.024765819400703319 0.0042276406329131797 0 -0.026400345262008181 0.0039251454047869198 0 -0.02543113672539005 0.0050915653779549678 0 -0.026516485479973588 0.0055673141288627645 0 -0.026400345262008181 0.0039251454047869198 0 -0.024580763326556173 0.0031890650483613948 0 -0.024765819400703319 0.0042276406329131797 0 -0.026400345262008181 0.0039251454047869198 0 -0.024580763326556173 0.0031890650483613948 0 -0.026400345262008181 0.0039251454047869198 0 -0.026432362224755614 0.0022887417003244767 0 -0.022309820567065982 0.0045029164712439727 0 -0.023134995907597735 0.0031333105971005702 0 -0.023539445170825093 0.0020295817674136256 0 -0.022264362806121509 0.0050315368236695194 0 -0.023134995907597735 0.0031333105971005702 0 -0.023526702536220915 0.0042197884808895057 0 -0.026073984986040223 0.0044588865603214728 0 -0.025734399526864328 0.0028051072902749905 0 -0.024580763326556173 0.0031890650483613948 0 -0.024765819400703319 0.0042276406329131797 0 -0.023526702536220915 0.0042197884808895057 0 -0.024580763326556173 0.0031890650483613948 0 -0.023134995907597735 0.0031333105971005702 0 -0.023526702536220915 0.0042197884808895057 0 -0.024580763326556173 0.0031890650483613948 0 -0.023134995907597735 0.0031333105971005702 0 -0.023539445170825093 0.0020295817674136256 0 -0.036726540823516805 0.0016619996994036261 0 -0.036706372351529633 0.0016744189353576091 0 -0.036785042871775198 0.0015668152531311801 0 -0.022881640215264485 0.002959702960006954 0 -0.02284329887889857 0.0029692775925854275 0 -0.022975181354598438 0.0030143395474834817 0 -0.02911819943474744 0.0029145765390854259 0 -0.027904413888524233 0.0039134385279414917 0 -0.036839656572670555 0.0016107856094922264 0 -0.036726540823516805 0.0016619996994036261 0 -0.036785042871775198 0.0015668152531311801 0 -0.027469165698027327 0.0019888091619779517 0 -0.02911819943474744 0.0029145765390854259 0 -0.023129151295017667 0.0029399947055097006 0 -0.022881640215264485 0.002959702960006954 0 -0.022975181354598438 0.0030143395474834817 0 -0.030000651870043603 0.0024920668479560134 0 -0.030033809131002339 0.0027129443862683586 0 -0.029207239623836725 0.0027176364211011768 0 -0.032453015363877805 0.0012350959734299058 0 -0.02911819943474744 0.0029145765390854259 0 -0.02312403169951889 0.0029652803210799606 0 -0.02292008141240447 0.0032361841311764495 0 -0.022975181354598438 0.0030143395474834817 0 -0.02292008141240447 0.0032361841311764495 0 -0.02284329887889857 0.0029692775925854275 0 -0.022975181354598438 0.0030143395474834817 0 -0.022618440518990323 0.0031284069710769851 0 -0.02292008141240447 0.0032361841311764495 0 -0.022629748805502659 0.0027783406872100092 0 -0.022033054120751384 0.002199046691057581 0 -0.027904413888524233 0.0039134385279414917 0 -0.022397306403441609 0.0030606227314223266 0 -0.022618440518990323 0.0031284069710769851 0 -0.022629748805502659 0.0027783406872100092 0 -0.022397306403441609 0.0030606227314223266 0 -0.022629748805502659 0.0027783406872100092 0 -0.022147687687555331 0.0029145184248310918 0 -0.028287053131688958 0.0050778981096508578 0 -0.027643809041796523 0.00498380785287569 0 -0.026400345262008181 0.0039251454047869198 0 -0.028288347364252942 0.0050728423255346931 0 -0.026516485479973588 0.0055673141288627645 0 -0.027643809041796523 0.00498380785287569 0 -0.027904413888524233 0.0039134385279414917 0 -0.024173171713600058 0.0042970123016146345 0 -0.026516485479973588 0.0055673141288627645 0 -0.027643809041796523 0.00498380785287569 0 -0.026400345262008181 0.0039251454047869198 0 -0.027904413888524233 0.0039134385279414917 0 -0.02794292943302067 0.0042233628868301549 0 -0.027904413888524233 0.0039134385279414917 0 -0.032370790171274838 0.0018076961998189352 0 -0.036706372351529633 0.0016744189353576091 0 -0.036700691577548038 0.0014985787227729678 0 -0.036513504833775579 0.0014925949329897535 0 -0.028287053131688958 0.0050778981096508578 0 -0.026400345262008181 0.0039251454047869198 0 -0.026432362224755614 0.0022887417003244767 0 -0.036747259639108638 0.0015423577944150672 0 -0.036785042871775198 0.0015668152531311801 0 -0.0368025469196658 0.0014474878886939879 0 -0.036785042871775198 0.0015668152531311801 0 -0.0368025469196658 0.0014474878886939879 0 -0.036839548887422843 0.0014108774866227766 0 -0.036700691577548038 0.0014985787227729678 0 -0.036747259639108638 0.0015423577944150672 0 -0.0368025469196658 0.0014474878886939879 0 -0.036706372351529633 0.0016744189353576091 0 -0.036700691577548038 0.0014985787227729678 0 -0.036747259639108638 0.0015423577944150672 0 -0.036706372351529633 0.0016744189353576091 0 -0.036747259639108638 0.0015423577944150672 0 -0.036785042871775198 0.0015668152531311801 0 -0.0368025469196658 0.0014474878886939879 0 -0.036863147551454083 0.0014286799724058366 0 -0.036839548887422843 0.0014108774866227766 0 -0.0368025469196658 0.0014474878886939879 0 -0.036826475435445878 0.0013663835708650561 0 -0.036863147551454083 0.0014286799724058366 0 -0.036700691577548038 0.0014985787227729678 0 -0.0368025469196658 0.0014474878886939879 0 -0.036826475435445878 0.0013663835708650561 0 -0.036700691577548038 0.0014985787227729678 0 -0.036513504833775579 0.0014925949329897535 0 -0.036826475435445878 0.0013663835708650561 0 -0.036513504833775579 0.0014925949329897535 0 -0.036826475435445878 0.0013663835708650561 0 -0.036484489096745926 0.0011346443341649767 0 -0.036826475435445878 0.0013663835708650561 0 -0.037191993388504638 0.0015934437625133514 0 -0.036986462023825106 0.0015033470186673573 0 -0.036859598972829324 0.0013575792884325786 0 -0.036837911689397644 0.0011672265159865169 0 -0.036826475435445878 0.0013663835708650561 0 -0.036484489096745926 0.0011346443341649767 0 -0.036535820151520473 0.000726862075855918 0 -0.036484489096745926 0.0011346443341649767 0 -0.036535820151520473 0.000726862075855918 0 -0.036278124107143858 0.00083624689933715229 0 -0.037191993388504638 0.0015934437625133514 0 -0.036986462023825106 0.0015033470186673573 0 -0.03722540805489219 0.0015763597536952356 0 -0.036986462023825106 0.0015033470186673573 0 -0.03722540805489219 0.0015763597536952356 0 -0.036791522692745694 0.0015818290403030097 0 -0.036986462023825106 0.0015033470186673573 0 -0.036863147551454083 0.0014286799724058366 0 -0.036791522692745694 0.0015818290403030097 0 -0.036863147551454083 0.0014286799724058366 0 -0.036791522692745694 0.0015818290403030097 0 -0.036839548887422843 0.0014108774866227766 0 -0.036826475435445878 0.0013663835708650561 0 -0.036986462023825106 0.0015033470186673573 0 -0.036863147551454083 0.0014286799724058366 0 -0.027518145581099378 0.003726830435615996 0 -0.028623926643100681 0.0033779941403886092 0 -0.02833261756675691 0.0023155806752500961 0 -0.036513504833775579 0.0014925949329897535 0 -0.036484489096745926 0.0011346443341649767 0 -0.035890672520507046 0.00080118289494423038 0 -0.026432362224755614 0.0022887417003244767 0 -0.023539445170825093 0.0020295817674136256 0 -0.024668647343913667 -0.00037993736088639477 0 -0.024580763326556173 0.0031890650483613948 0 -0.026432362224755614 0.0022887417003244767 0 -0.023539445170825093 0.0020295817674136256 0 -0.032370790171274838 0.0018076961998189352 0 -0.029124203888693162 0.0011364195344195607 0 -0.036484489096745926 0.0011346443341649767 0 -0.036278124107143858 0.00083624689933715229 0 -0.035890672520507046 0.00080118289494423038 0 -0.036535820151520473 0.000726862075855918 0 -0.036278124107143858 0.00083624689933715229 0 -0.036192023611610433 0.00068575525094184296 0 -0.036278124107143858 0.00083624689933715229 0 -0.036192023611610433 0.00068575525094184296 0 -0.035890672520507046 0.00080118289494423038 0 -0.036192023611610433 0.00068575525094184296 0 -0.035890672520507046 0.00080118289494423038 0 -0.036002416205580041 0.00052768622243268921 0 -0.029124203888693162 0.0011364195344195607 0 -0.033888292168448367 0.00036685821416486284 0 -0.025734399526864328 0.0028051072902749905 0 -0.029124203888693162 0.0011364195344195607 0 -0.028623926643100681 0.0033779941403886092 0 -0.029356207137703465 0.0018231333275674686 0 -0.02833261756675691 0.0023155806752500961 0 -0.029356207137703465 0.0018231333275674686 0 -0.02833261756675691 0.0023155806752500961 0 -0.029106187034959388 0.0014367118847156699 0 -0.029124203888693162 0.0011364195344195607 0 -0.029249284855903817 0.0014350791346725391 0 -0.028122959801167843 0.001394752692335095 0 -0.02833261756675691 0.0023155806752500961 0 -0.029106187034959388 0.0014367118847156699 0 -0.029106187034959388 0.0014367118847156699 0 -0.029609775002255811 0.0012865784042724827 0 -0.028417719612295403 0.00023080574524247897 0 -0.033888292168448367 0.00036685821416486284 0 -0.032936150229648839 0.0011120085901744126 0 -0.035485704534585223 0.00071037390588001947 0 -0.035617824479274321 0.0010118183209471446 0 -0.035738802115764683 0.00094101949834034628 0 -0.028122959801167843 0.001394752692335095 0 -0.029106187034959388 0.0014367118847156699 0 -0.028417719612295403 0.00023080574524247897 0 -0.036837911689397644 0.0011672265159865169 0 -0.036771849839641879 0.00064005476511461992 0 -0.036535820151520473 0.000726862075855918 0 -0.036192023611610433 0.00068575525094184296 0 -0.036218503465257471 9.1524231763709027e-05 0 -0.035485704534585223 0.00071037390588001947 0 -0.035405497990834367 0.00091427613475505629 0 -0.035617824479274321 0.0010118183209471446 0 -0.036192023611610433 0.00068575525094184296 0 -0.036019091883536705 0.0005360319807809382 0 -0.036218503465257471 9.1524231763709027e-05 0 -0.033888292168448367 0.00036685821416486284 0 -0.036771849839641879 0.00064005476511461992 0 -0.029368530293256843 0.0018221492489641725 0 -0.029106187034959388 0.0014367118847156699 0 -0.029609775002255811 0.0012865784042724827 0 -0.035367394470438226 0.0010522318983425907 0 -0.033888292168448367 0.00036685821416486284 0 -0.03558415014713897 0.0012612933417958678 0 -0.035405497990834367 0.00091427613475505629 0 -0.035558222655237545 0.0011132602444727452 0 -0.036948124016509869 0.00073252184320501273 0 -0.036771849839641879 0.00064005476511461992 0 -0.037751836016675477 0.00051692795399236376 0 -0.036771849839641879 0.00064005476511461992 0 -0.035405497990834367 0.00091427613475505629 0 -0.035558222655237545 0.0011132602444727452 0 -0.035617824479274321 0.0010118183209471446 0 -0.035558222655237545 0.0011132602444727452 0 -0.035617824479274321 0.0010118183209471446 0 -0.035721442997530432 0.00111794898974785 0 -0.035617824479274321 0.0010118183209471446 0 -0.035721442997530432 0.00111794898974785 0 -0.035774750710786729 0.00093383620272948452 0 -0.035888661505238374 0.0010324794200872079 0 -0.035721442997530432 0.00111794898974785 0 -0.035774750710786729 0.00093383620272948452 0 -0.035728192336415658 0.00047923714189175451 0 -0.032936150229648839 0.0011120085901744126 0 -0.037626954323886422 0.001354359904513153 0 -0.037986073258776544 0.0009197179794438031 0 -0.038048393693123614 0.0017064079896005296 0 -0.036738245772288521 0.0015416450363480146 0 -0.038603908709741799 0.0017259174300539352 0 -0.037626954323886422 0.001354359904513153 0 -0.03722540805489219 0.0015763597536952356 0 -0.038048393693123614 0.0017064079896005296 0 -0.037191993388504638 0.0015934437625133514 0 -0.037069046903410535 0.001306802778514987 0 -0.03722540805489219 0.0015763597536952356 0 -0.037069046903410535 0.001306802778514987 0 -0.03722540805489219 0.0015763597536952356 0 -0.037314757498154376 0.0013338671549127526 0 -0.037626954323886422 0.001354359904513153 0 -0.03722540805489219 0.0015763597536952356 0 -0.037314757498154376 0.0013338671549127526 0 -0.037069046903410535 0.001306802778514987 0 -0.037314757498154376 0.0013338671549127526 0 -0.037520552065447924 0.0010807466707994909 0 -0.037406348537359926 0.0007673928852359311 0 -0.037069046903410535 0.001306802778514987 0 -0.037520552065447924 0.0010807466707994909 0 -0.037626954323886422 0.001354359904513153 0 -0.037314757498154376 0.0013338671549127526 0 -0.037520552065447924 0.0010807466707994909 0 -0.044886181077119836 9.2908189110844564e-05 0 -0.038603908709741799 0.0017259174300539352 0 -0.037626954323886422 0.001354359904513153 0 -0.037520552065447924 0.0010807466707994909 0 -0.037986073258776544 0.0009197179794438031 0 -0.052895840594626223 -0.00088998027438399574 0 -0.052885410026359936 -0.00076849489002763318 0 -0.053161036216701422 -0.00088215136204577191 0 -0.053056400673106976 -0.0009202007417232755 0 -0.052895840594626223 -0.00088998027438399574 0 -0.053161036216701422 -0.00088215136204577191 0 -0.043692451265236971 0.00037549276821831275 0 -0.043704156978615821 0.00056776192363826316 0 -0.043652464310543385 0.00075304442668816399 0 -0.044886181077119836 9.2908189110844564e-05 0 -0.047969114631448519 2.4137860864553785e-05 0 -0.047969114631448519 2.4137860864553785e-05 0 -0.043690094342042074 0.0013767253439178121 0 -0.052885410026359936 -0.00076849489002763318 0 -0.052876022601083567 -0.00053634263122916343 0 -0.05301997184877244 -0.00052129373264875106 0 -0.052885410026359936 -0.00076849489002763318 0 -0.053161036216701422 -0.00088215136204577191 0 -0.05301997184877244 -0.00052129373264875106 0 -0.043690094342042074 0.0013767253439178121 0 -0.045736537023052068 0.0005462814731643995 0 -0.043704156978615821 0.00056776192363826316 0 -0.0437185036511668 0.00075967117493801748 0 -0.043652464310543385 0.00075304442668816399 0 -0.043690094342042074 0.0013767253439178121 0 -0.038603908709741799 0.0017259174300539352 0 -0.054326555347218565 -0.0017575413825287633 0 -0.045736537023052068 0.0005462814731643995 0 -0.053205465827847243 -0.0010711516941496863 0 -0.053163440317385256 -0.0013898302707083033 0 -0.053260557365716922 -0.001114047530506649 0 -0.053205465827847243 -0.0010711516941496863 0 -0.053161036216701422 -0.00088215136204577191 0 -0.053260557365716922 -0.001114047530506649 0 -0.053205465827847243 -0.0010711516941496863 0 -0.053161036216701422 -0.00088215136204577191 0 -0.053186754496124124 -0.00095529810433663562 0 -0.053167419804410955 -0.00083177301982551282 0 -0.053161036216701422 -0.00088215136204577191 0 -0.053186754496124124 -0.00095529810433663562 0 -0.053162743360411026 -0.00067225680339027714 0 -0.053167419804410955 -0.00083177301982551282 0 -0.053186754496124124 -0.00095529810433663562 0 -0.053186754496124124 -0.00095529810433663562 0 -0.053027584846867593 -0.00080006645826531848 0 -0.052936165411733488 -0.0012468072461619328 0 -0.053162743360411026 -0.00067225680339027714 0 -0.052913256890130989 -0.00034739272003025512 0 -0.053027584846867593 -0.00080006645826531848 0 -0.053162743360411026 -0.00067225680339027714 0 -0.053186754496124124 -0.00095529810433663562 0 -0.053027584846867593 -0.00080006645826531848 0 -0.052688566022002468 -0.00073123393734980376 0 -0.053027584846867593 -0.00080006645826531848 0 -0.052936165411733488 -0.0012468072461619328 0 -0.052583386775041589 -0.0021978113174443148 0 -0.052936165411733488 -0.0012468072461619328 0 -0.053163440317385256 -0.0013898302707083033 0 -0.053186754496124124 -0.00095529810433663562 0 -0.052936165411733488 -0.0012468072461619328 0 -0.053163440317385256 -0.0013898302707083033 0 -0.053205465827847243 -0.0010711516941496863 0 -0.053186754496124124 -0.00095529810433663562 0 -0.053163440317385256 -0.0013898302707083033 0 -0.036900691017380055 0.0007313188076938105 0 -0.036913476424284615 0.0012790602182761218 0 -0.036391637205225529 0.001013197024265655 0 -0.046931568939543616 -0.00071287745250993653 0 -0.044490696060408369 -0.00043253881832043767 0 -0.029468125230697504 0.0019036406930276583 0 -0.032619594155534275 0.0016779834398637072 0 -0.030817438073132124 0.00085570576378883416 0 -0.038596569781374691 0.00082003780726149921 0 -0.038604392609293624 0.0011248283836541664 0 -0.036913476424284615 0.0012790602182761218 0 -0.032648392352953644 0.0017851014060313269 0 -0.035112505203620706 0.0013912786532032648 0 -0.038596569781374691 0.00082003780726149921 0 -0.036900691017380055 0.0007313188076938105 0 -0.036913476424284615 0.0012790602182761218 0 -0.032619594155534275 0.0016779834398637072 0 -0.030817438073132124 0.00085570576378883416 0 -0.03227784582202186 0.00021524064136375307 0 -0.032030075753785824 -0.00078903924150165402 0 -0.030851338723534606 -0.00036945279021009428 0 -0.03227784582202186 0.00021524064136375307 0 -0.030817438073132124 0.00085570576378883416 0 -0.030851338723534606 -0.00036945279021009428 0 -0.03227784582202186 0.00021524064136375307 0 -0.029983366724905161 0.00042651686117385835 0 -0.030817438073132124 0.00085570576378883416 0 -0.030851338723534606 -0.00036945279021009428 0 -0.029861700107176987 -0.0002874845961104446 0 -0.029983366724905161 0.00042651686117385835 0 -0.030851338723534606 -0.00036945279021009428 0 -0.032619594155534275 0.0016779834398637072 0 -0.033378689064337129 0.00070517131587388834 0 -0.035932352752705315 0.0010372715476877693 0 -0.032619594155534275 0.0016779834398637072 0 -0.033378689064337129 0.00070517131587388834 0 -0.03227784582202186 0.00021524064136375307 0 -0.033378689064337129 0.00070517131587388834 0 -0.03227784582202186 0.00021524064136375307 0 -0.033232372341330571 -0.00031150015592982513 0 -0.032030075753785824 -0.00078903924150165402 0 -0.03227784582202186 0.00021524064136375307 0 -0.033232372341330571 -0.00031150015592982513 0 -0.033378689064337129 0.00070517131587388834 0 -0.033232372341330571 -0.00031150015592982513 0 -0.034252360665576055 0.00026563078141216581 0 -0.034286856073422717 -0.00076719981121157901 0 -0.033232372341330571 -0.00031150015592982513 0 -0.034252360665576055 0.00026563078141216581 0 -0.034286856073422717 -0.00076719981121157901 0 -0.034252360665576055 0.00026563078141216581 0 -0.035124475098434325 -0.00024909059826389105 0 -0.033378689064337129 0.00070517131587388834 0 -0.034252360665576055 0.00026563078141216581 0 -0.035932352752705315 0.0010372715476877693 0 -0.034252360665576055 0.00026563078141216581 0 -0.035400480496601258 0.00047081365603698081 0 -0.035932352752705315 0.0010372715476877693 0 -0.035400480496601258 0.00047081365603698081 0 -0.035124475098434325 -0.00024909059826389105 0 -0.036135397061322558 0.00080170899742014099 0 -0.034252360665576055 0.00026563078141216581 0 -0.035400480496601258 0.00047081365603698081 0 -0.035124475098434325 -0.00024909059826389105 0 -0.036931791672273326 0.00093738241071144679 0 -0.037116095240387406 0.0015636060228145306 0 -0.036897642898706347 0.001609073109396428 0 -0.035400480496601258 0.00047081365603698081 0 -0.036135397061322558 0.00080170899742014099 0 -0.035932352752705315 0.0010372715476877693 0 -0.038603908709741799 0.0017259174300539352 0 -0.037276005495748103 0.0015673714082467781 0 -0.036135397061322558 0.00080170899742014099 0 -0.035960835957080717 0.0010283075190315842 0 -0.035932352752705315 0.0010372715476877693 0 -0.043690094342042074 0.0013767253439178121 0 -0.037131445884194834 0.0010874473532496427 0 -0.041778138478543024 0.0011824449829582315 0 -0.04168088972750341 0.00099214688854694605 0 -0.041697963763149479 0.0011719632513431438 0 -0.037108261883198781 0.0022224360654283003 0 -0.037116095240387406 0.0015636060228145306 0 -0.036897642898706347 0.001609073109396428 0 -0.037108261883198781 0.0022224360654283003 0 -0.037244473369992828 0.0022378259772345317 0 -0.037116095240387406 0.0015636060228145306 0 -0.037131445884194834 0.0010874473532496427 0 -0.045736537023052068 0.0005462814731643995 0 -0.036900691017380055 0.0007313188076938105 0 -0.035960835957080717 0.0010283075190315842 0 -0.036391637205225529 0.001013197024265655 0 -0.044490696060408369 -0.00043253881832043767 0 -0.045736537023052068 0.0005462814731643995 0 -0.036913476424284615 0.0012790602182761218 0 -0.036391637205225529 0.001013197024265655 0 -0.035932352752705315 0.0010372715476877693 0 -0.035112505203620706 0.0013912786532032648 0 -0.035723367668145982 0.0011296805452676061 0 -0.035960835957080717 0.0010283075190315842 0 -0.036391637205225529 0.001013197024265655 0 -0.035932352752705315 0.0010372715476877693 0 -0.045425830424586235 0.00020801226590661374 0 -0.044139589861071631 -0.00010381900830402688 0 -0.046053687541649006 -0.00030542592449617781 0 -0.045425830424586235 0.00020801226590661374 0 -0.04395455908932204 1.9510204038084002e-06 0 -0.044139589861071631 -0.00010381900830402688 0 -0.045425830424586235 0.00020801226590661374 0 -0.04395455908932204 1.9510204038084002e-06 0 -0.046233766095250074 0.00045314143703774926 0 -0.044139589861071631 -0.00010381900830402688 0 -0.045307909657798705 -0.0018133394271657856 0 -0.041110649915039953 -4.4647760674354271e-06 0 -0.04395455908932204 1.9510204038084002e-06 0 -0.044139589861071631 -0.00010381900830402688 0 -0.041110649915039953 -4.4647760674354271e-06 0 -0.044139589861071631 -0.00010381900830402688 0 -0.046053687541649006 -0.00030542592449617781 0 -0.045307909657798705 -0.0018133394271657856 0 -0.046053687541649006 -0.00030542592449617781 0 -0.046562134817946875 -0.0011240703830632038 0 -0.045307909657798705 -0.0018133394271657856 0 -0.046053687541649006 -0.00030542592449617781 0 -0.046562134817946875 -0.0011240703830632038 0 -0.047079385803796558 -0.00094208129499108949 0 -0.047079385803796558 -0.00094208129499108949 0 -0.047318417436996288 -0.0013147323831669839 0 -0.047099965084865039 -0.0013008064198746911 0 -0.046562134817946875 -0.0011240703830632038 0 -0.047079385803796558 -0.00094208129499108949 0 -0.047099965084865039 -0.0013008064198746911 0 -0.047079385803796558 -0.00094208129499108949 0 -0.047076965439599092 -0.00041870179342904957 0 -0.047485285678823486 -0.00081542501512273742 0 -0.047076965439599092 -0.00041870179342904957 0 -0.047556511287082513 -0.00036793739185529939 0 -0.047485285678823486 -0.00081542501512273742 0 -0.046053687541649006 -0.00030542592449617781 0 -0.047079385803796558 -0.00094208129499108949 0 -0.046821549529761412 0.00041483153706601785 0 -0.047110091068103009 -0.00093370185375551561 0 -0.046811116634019913 8.5359578449100543e-05 0 -0.045425830424586235 0.00020801226590661374 0 -0.046053687541649006 -0.00030542592449617781 0 -0.046459921787444312 0.00051245038264934029 0 -0.046053687541649006 -0.00030542592449617781 0 -0.046459921787444312 0.00051245038264934029 0 -0.046821549529761412 0.00041483153706601785 0 -0.046459921787444312 0.00051245038264934029 0 -0.046821549529761412 0.00041483153706601785 0 -0.046815940378630058 0.00071479111464811283 0 -0.046811116634019913 8.5359578449100543e-05 0 -0.048137577002497489 0.00015249580801723705 0 -0.047076965439599092 -0.00041870179342904957 0 -0.047482070068549209 0.00014073078887850011 0 -0.047556511287082513 -0.00036793739185529939 0 -0.047076965439599092 -0.00041870179342904957 0 -0.046948950143172727 0.00037505442199005032 0 -0.047482070068549209 0.00014073078887850011 0 -0.048137577002497489 0.00015249580801723705 0 -0.050774442305970717 -0.00022623151809109677 0 -0.046948950143172727 0.00037505442199005032 0 -0.047865607559442094 0.00073093368632990384 0 -0.047482070068549209 0.00014073078887850011 0 -0.046459921787444312 0.00051245038264934029 0 -0.046815940378630058 0.00071479111464811283 0 -0.046865132815557847 0.00060557878371709551 0 -0.048137577002497489 0.00015249580801723705 0 -0.046712025484952922 0.00041052743668503947 0 -0.047011156235769368 0.00064365522546537242 0 -0.046865132815557847 0.00060557878371709551 0 -0.04733597973895376 0.00051763398560333992 0 -0.046865132815557847 0.00060557878371709551 0 -0.047279337326839754 0.00049792688414215011 0 -0.04733597973895376 0.00051763398560333992 0 -0.046865132815557847 0.00060557878371709551 0 -0.047279337326839754 0.00049792688414215011 0 -0.046233766095250074 0.00045314143703774926 0 -0.045425830424586235 0.00020801226590661374 0 -0.046459921787444312 0.00051245038264934029 0 -0.046233766095250074 0.00045314143703774926 0 -0.046459921787444312 0.00051245038264934029 0 -0.046865132815557847 0.00060557878371709551 0 -0.046233766095250074 0.00045314143703774926 0 -0.04395455908932204 1.9510204038084002e-06 0 -0.046233766095250074 0.00045314143703774926 0 -0.046805083052582838 2.6788033029948429e-07 0 -0.047279337326839754 0.00049792688414215011 0 -0.046805083052582838 2.6788033029948429e-07 0 -0.049654668373695393 1.8922013637510646e-06 0 -0.047279337326839754 0.00049792688414215011 0 -0.046233766095250074 0.00045314143703774926 0 -0.046805083052582838 2.6788033029948429e-07 0 -0.047279337326839754 0.00049792688414215011 0 -0.049654668373695393 1.8922013637510646e-06 0 -0.048221004986626501 0.00024373752692985972 0 -0.047279337326839754 0.00049792688414215011 0 -0.048221004986626501 0.00024373752692985972 0 -0.04733597973895376 0.00051763398560333992 0 -0.048221004986626501 0.00024373752692985972 0 -0.048343569778506339 -0.00047770121752079914 0 -0.049767723806553456 4.067470474488447e-05 0 -0.049654668373695393 1.8922013637510646e-06 0 -0.048221004986626501 0.00024373752692985972 0 -0.049767723806553456 4.067470474488447e-05 0 -0.049654668373695393 1.8922013637510646e-06 0 -0.049767723806553456 4.067470474488447e-05 0 -0.05250015719689155 -4.0411227337097174e-06 0 -0.052504843407034173 -3.5826475029246291e-07 0 -0.051695309201865151 -0.00073162904694343744 0 -0.054803417034451539 -8.2822383162170325e-06 0 -0.05499652530252816 1.1841869530301942e-06 0 -0.055000830096056039 -4.86608782755955e-07 0 -0.049767723806553456 4.067470474488447e-05 0 -0.05250015719689155 -4.0411227337097174e-06 0 -0.049202003384100579 -0.0014639039572539477 0 -0.051695309201865151 -0.00073162904694343744 0 -0.052003467103138128 -9.8453423535906597e-05 0 -0.048343569778506339 -0.00047770121752079914 0 -0.049202003384100579 -0.0014639039572539477 0 -0.047629198963319123 -0.0016640313815693489 0 -0.048343569778506339 -0.00047770121752079914 0 -0.049767723806553456 4.067470474488447e-05 0 -0.049202003384100579 -0.0014639039572539477 0 -0.054503044046098015 -7.0697042134533144e-05 0 -0.054803417034451539 -8.2822383162170325e-06 0 -0.054979386460465886 -0.00011201910144020903 0 -0.052510963985297539 -1.8923097015729526e-06 0 -0.054503044046098015 -7.0697042134533144e-05 0 -0.05499652530252816 1.1841869530301942e-06 0 -0.054503044046098015 -7.0697042134533144e-05 0 -0.054803417034451539 -8.2822383162170325e-06 0 -0.05499652530252816 1.1841869530301942e-06 0 -0.054995967206297819 5.0412370618895387e-07 0 -0.054999988464879614 7.6040825034449769e-10 0 -0.05499998781814594 2.1555887437392453e-09 0 -0.054990558215427192 -4.8449630691657904e-07 0 -0.054995967206297819 5.0412370618895387e-07 0 -0.054993969463599364 1.92513238487894e-06 0 -0.053088817515277588 0.00027101811691684392 0 -0.054058085878801697 0.00040982798031509324 0 -0.054990558215427192 -4.8449630691657904e-07 0 -0.054995967206297819 5.0412370618895387e-07 0 -0.054999988464879614 7.6040825034449769e-10 0 -0.054990558215427192 -4.8449630691657904e-07 0 -0.054999988464879614 7.6040825034449769e-10 0 -0.054991829618962713 -5.7509418584060627e-08 0 -0.054991829618962713 -5.7509418584060627e-08 0 -0.054999977290026474 1.6651826540128693e-09 0 -0.05498003321821042 -1.99803027887351e-06 0 -0.054999988464879614 7.6040825034449769e-10 0 -0.054991829618962713 -5.7509418584060627e-08 0 -0.054999977290026474 1.6651826540128693e-09 0 -0.054999703348321292 -4.2087553549881839e-07 0 -0.052003467103138128 -9.8453423535906597e-05 0 -0.054803417034451539 -8.2822383162170325e-06 0 -0.055000830096056039 -4.86608782755955e-07 0 -0.054979386460465886 -0.00011201910144020903 0 -0.054990558215427192 -4.8449630691657904e-07 0 -0.054991829618962713 -5.7509418584060627e-08 0 -0.05498003321821042 -1.99803027887351e-06 0 -0.053088817515277588 0.00027101811691684392 0 -0.052003467103138128 -9.8453423535906597e-05 0 -0.051148297026412722 0.00055484831833330409 0 -0.050839610422451768 0.00049377558435276009 0 -0.050907378755788518 -3.8278313643178231e-05 0 -0.052003467103138128 -9.8453423535906597e-05 0 -0.04886716841416773 -9.0205205155083983e-05 0 -0.048343569778506339 -0.00047770121752079914 0 -0.047629198963319123 -0.0016640313815693489 0 -0.047288319395153579 7.0899427286302355e-05 0 -0.051148297026412722 0.00055484831833330409 0 -0.050907378755788518 -3.8278313643178231e-05 0 -0.051510668972593973 0.0001290841353631924 0 -0.050976905935481313 -0.00057335777531454188 0 -0.050907378755788518 -3.8278313643178231e-05 0 -0.051558435908428076 -0.00035520733383442285 0 -0.048221004986626501 0.00024373752692985972 0 -0.048343569778506339 -0.00047770121752079914 0 -0.047288319395153579 7.0899427286302355e-05 0 -0.047011156235769368 0.00064365522546537242 0 -0.047288319395153579 7.0899427286302355e-05 0 -0.04733597973895376 0.00051763398560333992 0 -0.048137577002497489 0.00015249580801723705 0 -0.04886716841416773 -9.0205205155083983e-05 0 -0.048221004986626501 0.00024373752692985972 0 -0.047288319395153579 7.0899427286302355e-05 0 -0.04733597973895376 0.00051763398560333992 0 -0.050907378755788518 -3.8278313643178231e-05 0 -0.051558435908428076 -0.00035520733383442285 0 -0.051510668972593973 0.0001290841353631924 0 -0.054998314480600358 0.00026825975758299956 0 -0.055009809089720994 0.00023722366142158859 0 -0.054971660994952785 0.00026352372056948634 0 -0.048408808816065248 -0.00083100789913052473 0 -0.048513762556240181 -0.00078252090553833863 0 -0.048558403477072735 -0.00094220128174759307 0 -0.050774442305970717 -0.00022623151809109677 0 -0.051950033889343966 -0.00021041483608972696 0 -0.055009809089720994 0.00023722366142158859 0 -0.055060959522210212 0.00021187685361645698 0 -0.055029449833010502 0.00017609560785662861 0 -0.055009809089720994 0.00023722366142158859 0 -0.055029449833010502 0.00017609560785662861 0 -0.05499531642921951 0.00023351009805438474 0 -0.054998314480600358 0.00026825975758299956 0 -0.055009809089720994 0.00023722366142158859 0 -0.055060959522210212 0.00021187685361645698 0 -0.050774442305970717 -0.00022623151809109677 0 -0.053453327639193277 0.0001683721830088064 0 -0.051148297026412722 0.00055484831833330409 0 -0.051510668972593973 0.0001290841353631924 0 -0.051465041129645957 0.00061464405454515303 0 -0.055060959522210212 0.00021187685361645698 0 -0.055060070243083507 0.00015167733015412056 0 -0.055108940770667435 0.00010525533633850117 0 -0.053453327639193277 0.0001683721830088064 0 -0.054058085878801697 0.00040982798031509324 0 -0.055060959522210212 0.00021187685361645698 0 -0.055060070243083507 0.00015167733015412056 0 -0.055029449833010502 0.00017609560785662861 0 -0.055029449833010502 0.00017609560785662861 0 -0.055001903275294181 0.00013115573824255784 0 -0.05499531642921951 0.00023351009805438474 0 -0.055029449833010502 0.00017609560785662861 0 -0.055032685241172115 0.00010542096053738741 0 -0.055001903275294181 0.00013115573824255784 0 -0.055060070243083507 0.00015167733015412056 0 -0.055029449833010502 0.00017609560785662861 0 -0.055032685241172115 0.00010542096053738741 0 -0.054058085878801697 0.00040982798031509324 0 -0.055402577071265682 -2.2213276961877486e-05 0 -0.055000028387996683 1.1733262032995337e-07 0 -0.055001141060101254 3.7086474226224208e-06 0 -0.055002086516375261 2.6539291112427944e-05 0 -0.055032685241172115 0.00010542096053738741 0 -0.055108940770667435 0.00010525533633850117 0 -0.055002086516375261 2.6539291112427944e-05 0 -0.055032685241172115 0.00010542096053738741 0 -0.055005212938813303 7.7657553701235895e-05 0 -0.055001903275294181 0.00013115573824255784 0 -0.055032685241172115 0.00010542096053738741 0 -0.055002086516375261 2.6539291112427944e-05 0 -0.055005212938813303 7.7657553701235895e-05 0 -0.055060070243083507 0.00015167733015412056 0 -0.055032685241172115 0.00010542096053738741 0 -0.055108940770667435 0.00010525533633850117 0 -0.055000028387996683 1.1733262032995337e-07 0 -0.054999990983108191 -5.0967479159930454e-08 0 -0.055001141060101254 3.7086474226224208e-06 0 -0.054995967206297819 5.0412370618895387e-07 0 -0.05499998781814594 2.1555887437392453e-09 0 -0.054993969463599364 1.92513238487894e-06 0 -0.054999401667236561 -1.5615694814602121e-07 0 -0.054058085878801697 0.00040982798031509324 0 -0.05500002127430436 -3.5666718776000242e-08 0 -0.054995195192253619 5.120356012035732e-05 0 -0.054968495672689313 0.00012311409784699181 0 -0.05500002127430436 -3.5666718776000242e-08 0 -0.054968495672689313 0.00012311409784699181 0 -0.054854774807109472 0.00015909586964033939 0 -0.055000028387996683 1.1733262032995337e-07 0 -0.05500002127430436 -3.5666718776000242e-08 0 -0.054995195192253619 5.120356012035732e-05 0 -0.054995195192253619 5.120356012035732e-05 0 -0.055002086516375261 2.6539291112427944e-05 0 -0.055005212938813303 7.7657553701235895e-05 0 -0.055000028387996683 1.1733262032995337e-07 0 -0.054995195192253619 5.120356012035732e-05 0 -0.055002086516375261 2.6539291112427944e-05 0 -0.054995195192253619 5.120356012035732e-05 0 -0.055005212938813303 7.7657553701235895e-05 0 -0.055001903275294181 0.00013115573824255784 0 -0.054995195192253619 5.120356012035732e-05 0 -0.055001903275294181 0.00013115573824255784 0 -0.054968495672689313 0.00012311409784699181 0 -0.055001903275294181 0.00013115573824255784 0 -0.054977014825539412 0.00020455090909677961 0 -0.054968495672689313 0.00012311409784699181 0 -0.055001903275294181 0.00013115573824255784 0 -0.054977014825539412 0.00020455090909677961 0 -0.05499531642921951 0.00023351009805438474 0 -0.054977014825539412 0.00020455090909677961 0 -0.054938676081527214 0.00024181310803042693 0 -0.054962211554506243 0.00027679481061690955 0 -0.054938676081527214 0.00024181310803042693 0 -0.054854774807109472 0.00015909586964033939 0 -0.054888854000830947 0.00042687220726701054 0 -0.054938676081527214 0.00024181310803042693 0 -0.054968495672689313 0.00012311409784699181 0 -0.054854774807109472 0.00015909586964033939 0 -0.054977014825539412 0.00020455090909677961 0 -0.054938676081527214 0.00024181310803042693 0 -0.054968495672689313 0.00012311409784699181 0 -0.051950033889343966 -0.00021041483608972696 0 -0.052484284074407986 0.00016707714912745982 0 -0.054938676081527214 0.00024181310803042693 0 -0.054962211554506243 0.00027679481061690955 0 -0.054888854000830947 0.00042687220726701054 0 -0.054962211554506243 0.00027679481061690955 0 -0.054971660994952785 0.00026352372056948634 0 -0.054888854000830947 0.00042687220726701054 0 -0.048513762556240181 -0.00078252090553833863 0 -0.049336083325610368 -0.0010240168318693809 0 -0.050143840796372324 2.06132803225407e-05 0 -0.05499531642921951 0.00023351009805438474 0 -0.054962211554506243 0.00027679481061690955 0 -0.054971660994952785 0.00026352372056948634 0 -0.054977014825539412 0.00020455090909677961 0 -0.05499531642921951 0.00023351009805438474 0 -0.054962211554506243 0.00027679481061690955 0 -0.055009809089720994 0.00023722366142158859 0 -0.05499531642921951 0.00023351009805438474 0 -0.054971660994952785 0.00026352372056948634 0 -0.048513762556240181 -0.00078252090553833863 0 -0.048861473487909514 -0.0010077876666988847 0 -0.048558403477072735 -0.00094220128174759307 0 -0.048513762556240181 -0.00078252090553833863 0 -0.049336083325610368 -0.0010240168318693809 0 -0.048861473487909514 -0.0010077876666988847 0 -0.049336083325610368 -0.0010240168318693809 0 -0.048962235059077555 -0.00099367854516594408 0 -0.048861473487909514 -0.0010077876666988847 0 -0.048962235059077555 -0.00099367854516594408 0 -0.04876968609254851 -0.00098272641146759281 0 -0.048833510982751474 -0.0009925985417304716 0 -0.048962235059077555 -0.00099367854516594408 0 -0.048861473487909514 -0.0010077876666988847 0 -0.04876968609254851 -0.00098272641146759281 0 -0.04876968609254851 -0.00098272641146759281 0 -0.04867238707423608 -0.00097519819709855182 0 -0.048746439453310662 -0.00099905364644616869 0 -0.04876968609254851 -0.00098272641146759281 0 -0.04867238707423608 -0.00097519819709855182 0 -0.048506432419472563 -0.00093020715453910694 0 -0.04867238707423608 -0.00097519819709855182 0 -0.048663826270854638 -0.0010339092360748231 0 -0.048746439453310662 -0.00099905364644616869 0 -0.04876968609254851 -0.00098272641146759281 0 -0.048506432419472563 -0.00093020715453910694 0 -0.048558403477072735 -0.00094220128174759307 0 -0.048861473487909514 -0.0010077876666988847 0 -0.04876968609254851 -0.00098272641146759281 0 -0.048558403477072735 -0.00094220128174759307 0 -0.048408808816065248 -0.00083100789913052473 0 -0.048558403477072735 -0.00094220128174759307 0 -0.048381508619361323 -0.00090742064285281962 0 -0.050774442305970717 -0.00022623151809109677 0 -0.047954112287789334 -0.00036491849101612532 0 -0.047865607559442094 0.00073093368632990384 0 -0.047482070068549209 0.00014073078887850011 0 -0.047958611407610569 2.9193143628064804e-05 0 -0.047556511287082513 -0.00036793739185529939 0 -0.047958611407610569 2.9193143628064804e-05 0 -0.048122232737773177 -0.00081636082691641167 0 -0.047482070068549209 0.00014073078887850011 0 -0.047556511287082513 -0.00036793739185529939 0 -0.047958611407610569 2.9193143628064804e-05 0 -0.048506432419472563 -0.00093020715453910694 0 -0.048381508619361323 -0.00090742064285281962 0 -0.048122232737773177 -0.00081636082691641167 0 -0.047954112287789334 -0.00036491849101612532 0 -0.048180757544922417 -0.00084549539738740427 0 -0.048506432419472563 -0.00093020715453910694 0 -0.048558403477072735 -0.00094220128174759307 0 -0.048381508619361323 -0.00090742064285281962 0 -0.048122232737773177 -0.00081636082691641167 0 -0.047983800015577588 -0.0010919638235399065 0 -0.048464395299309918 -0.0010837778344521892 0 -0.047556511287082513 -0.00036793739185529939 0 -0.048122232737773177 -0.00081636082691641167 0 -0.047485285678823486 -0.00081542501512273742 0 -0.048122232737773177 -0.00081636082691641167 0 -0.047485285678823486 -0.00081542501512273742 0 -0.047983800015577588 -0.0010919638235399065 0 -0.047079385803796558 -0.00094208129499108949 0 -0.047485285678823486 -0.00081542501512273742 0 -0.047318417436996288 -0.0013147323831669839 0 -0.047485285678823486 -0.00081542501512273742 0 -0.047318417436996288 -0.0013147323831669839 0 -0.047983800015577588 -0.0010919638235399065 0 -0.047983800015577588 -0.0010919638235399065 0 -0.048464395299309918 -0.0010837778344521892 0 -0.048285264950376279 -0.0013657936568008313 0 -0.047318417436996288 -0.0013147323831669839 0 -0.047983800015577588 -0.0010919638235399065 0 -0.048285264950376279 -0.0013657936568008313 0 -0.047278011968488839 -0.0013575520395653275 0 -0.047177860387917644 -0.0014798505908651151 0 -0.048464395299309918 -0.0010837778344521892 0 -0.048594551183594875 -0.001228841244787572 0 -0.048285264950376279 -0.0013657936568008313 0 -0.048464395299309918 -0.0010837778344521892 0 -0.048624331507539927 -0.0011015361417963617 0 -0.048663826270854638 -0.0010339092360748231 0 -0.048464395299309918 -0.0010837778344521892 0 -0.048624331507539927 -0.0011015361417963617 0 -0.048594551183594875 -0.001228841244787572 0 -0.048624331507539927 -0.0011015361417963617 0 -0.048659503325711936 -0.0011178862435224167 0 -0.048594551183594875 -0.001228841244787572 0 -0.048624331507539927 -0.0011015361417963617 0 -0.048663826270854638 -0.0010339092360748231 0 -0.048683156257101803 -0.0010695973546539469 0 -0.04867238707423608 -0.00097519819709855182 0 -0.048506432419472563 -0.00093020715453910694 0 -0.048663826270854638 -0.0010339092360748231 0 -0.048506432419472563 -0.00093020715453910694 0 -0.048464395299309918 -0.0010837778344521892 0 -0.048663826270854638 -0.0010339092360748231 0 -0.048506432419472563 -0.00093020715453910694 0 -0.048122232737773177 -0.00081636082691641167 0 -0.048464395299309918 -0.0010837778344521892 0 -0.048691522128221851 -0.0010405963036459135 0 -0.048648355530592297 -0.0010422081068850314 0 -0.048675156197664451 -0.0010341308076709918 0 -0.048691522128221851 -0.0010405963036459135 0 -0.048675156197664451 -0.0010341308076709918 0 -0.048721420518335598 -0.0010232580664759384 0 -0.048721420518335598 -0.0010232580664759384 0 -0.048704627121567819 -0.001035447327759467 0 -0.048746439453310662 -0.00099905364644616869 0 -0.048691522128221851 -0.0010405963036459135 0 -0.048721420518335598 -0.0010232580664759384 0 -0.048704627121567819 -0.001035447327759467 0 -0.048663826270854638 -0.0010339092360748231 0 -0.048704627121567819 -0.001035447327759467 0 -0.048746439453310662 -0.00099905364644616869 0 -0.048663826270854638 -0.0010339092360748231 0 -0.048704627121567819 -0.001035447327759467 0 -0.048683156257101803 -0.0010695973546539469 0 -0.048691522128221851 -0.0010405963036459135 0 -0.048704627121567819 -0.001035447327759467 0 -0.048683156257101803 -0.0010695973546539469 0 -0.048691522128221851 -0.0010405963036459135 0 -0.048683156257101803 -0.0010695973546539469 0 -0.04867602134976598 -0.0010546153634953021 0 -0.048624331507539927 -0.0011015361417963617 0 -0.048683156257101803 -0.0010695973546539469 0 -0.048659503325711936 -0.0011178862435224167 0 -0.048683156257101803 -0.0010695973546539469 0 -0.048659503325711936 -0.0011178862435224167 0 -0.048689027793945613 -0.0010670771910662761 0 -0.048683156257101803 -0.0010695973546539469 0 -0.04867602134976598 -0.0010546153634953021 0 -0.048689027793945613 -0.0010670771910662761 0 -0.04867602134976598 -0.0010546153634953021 0 -0.04862552974112589 -0.0010358015414509757 0 -0.048689027793945613 -0.0010670771910662761 0 -0.048691522128221851 -0.0010405963036459135 0 -0.048648355530592297 -0.0010422081068850314 0 -0.04867602134976598 -0.0010546153634953021 0 -0.048648355530592297 -0.0010422081068850314 0 -0.04867602134976598 -0.0010546153634953021 0 -0.04862552974112589 -0.0010358015414509757 0 -0.04862552974112589 -0.0010358015414509757 0 -0.048502963770208934 -0.0010189417375210011 0 -0.048569129758469894 -0.0010399973363504273 0 -0.04862552974112589 -0.0010358015414509757 0 -0.048502963770208934 -0.0010189417375210011 0 -0.04856449629553352 -0.00098901051034673169 0 -0.048502963770208934 -0.0010189417375210011 0 -0.048569129758469894 -0.0010399973363504273 0 -0.048468430107296755 -0.0010211454127577813 0 -0.048648355530592297 -0.0010422081068850314 0 -0.04862552974112589 -0.0010358015414509757 0 -0.048569129758469894 -0.0010399973363504273 0 -0.048569129758469894 -0.0010399973363504273 0 -0.048468430107296755 -0.0010211454127577813 0 -0.048513040585538868 -0.0010304997312927139 0 -0.048468430107296755 -0.0010211454127577813 0 -0.048513040585538868 -0.0010304997312927139 0 -0.048440888124726661 -0.0010199072723124307 0 -0.048502963770208934 -0.0010189417375210011 0 -0.048468430107296755 -0.0010211454127577813 0 -0.048385844335076443 -0.0009977069103916489 0 -0.048468430107296755 -0.0010211454127577813 0 -0.048440888124726661 -0.0010199072723124307 0 -0.048385844335076443 -0.0009977069103916489 0 -0.048569129758469894 -0.0010399973363504273 0 -0.048513040585538868 -0.0010304997312927139 0 -0.048589455311771557 -0.0010405756768347605 0 -0.048513040585538868 -0.0010304997312927139 0 -0.048589455311771557 -0.0010405756768347605 0 -0.048562219976910702 -0.0010558020159654041 0 -0.048675156197664451 -0.0010341308076709918 0 -0.048569129758469894 -0.0010399973363504273 0 -0.048589455311771557 -0.0010405756768347605 0 -0.048648355530592297 -0.0010422081068850314 0 -0.048675156197664451 -0.0010341308076709918 0 -0.048569129758469894 -0.0010399973363504273 0 -0.048675156197664451 -0.0010341308076709918 0 -0.048589455311771557 -0.0010405756768347605 0 -0.04864860177458398 -0.001044446208666541 0 -0.048589455311771557 -0.0010405756768347605 0 -0.04864860177458398 -0.001044446208666541 0 -0.048562219976910702 -0.0010558020159654041 0 -0.050291028747795397 -0.0010762725668981184 0 -0.050783335143186885 -0.0014170092983696193 0 -0.052424574563290222 -0.00097783492538190209 0 -0.052869473201544483 -0.0011750056922169548 0 -0.052720861341551697 -0.0016556939096264956 0 -0.04864860177458398 -0.001044446208666541 0 -0.048635740593235381 -0.0011058265110000614 0 -0.048562219976910702 -0.0010558020159654041 0 -0.04864860177458398 -0.001044446208666541 0 -0.04872787139851497 -0.0010545465571941818 0 -0.048635740593235381 -0.0011058265110000614 0 -0.04872787139851497 -0.0010545465571941818 0 -0.048806779642760589 -0.0010201306995191899 0 -0.048795465187377672 -0.0010722659464130018 0 -0.048806779642760589 -0.0010201306995191899 0 -0.048924837622471608 -0.0010109033567380873 0 -0.048795465187377672 -0.0010722659464130018 0 -0.04872787139851497 -0.0010545465571941818 0 -0.048806779642760589 -0.0010201306995191899 0 -0.048745879245506475 -0.0010143718030616246 0 -0.048675156197664451 -0.0010341308076709918 0 -0.04864860177458398 -0.001044446208666541 0 -0.048745879245506475 -0.0010143718030616246 0 -0.04864860177458398 -0.001044446208666541 0 -0.04872787139851497 -0.0010545465571941818 0 -0.048745879245506475 -0.0010143718030616246 0 -0.048675156197664451 -0.0010341308076709918 0 -0.048721420518335598 -0.0010232580664759384 0 -0.048745879245506475 -0.0010143718030616246 0 -0.048745879245506475 -0.0010143718030616246 0 -0.048746439453310662 -0.00099905364644616869 0 -0.048833510982751474 -0.0009925985417304716 0 -0.048721420518335598 -0.0010232580664759384 0 -0.048745879245506475 -0.0010143718030616246 0 -0.048746439453310662 -0.00099905364644616869 0 -0.04876968609254851 -0.00098272641146759281 0 -0.048746439453310662 -0.00099905364644616869 0 -0.048833510982751474 -0.0009925985417304716 0 -0.048806779642760589 -0.0010201306995191899 0 -0.048745879245506475 -0.0010143718030616246 0 -0.048833510982751474 -0.0009925985417304716 0 -0.048806779642760589 -0.0010201306995191899 0 -0.048833510982751474 -0.0009925985417304716 0 -0.048924837622471608 -0.0010109033567380873 0 -0.048962235059077555 -0.00099367854516594408 0 -0.048833510982751474 -0.0009925985417304716 0 -0.048924837622471608 -0.0010109033567380873 0 -0.049336083325610368 -0.0010240168318693809 0 -0.048962235059077555 -0.00099367854516594408 0 -0.048924837622471608 -0.0010109033567380873 0 -0.049336083325610368 -0.0010240168318693809 0 -0.048924837622471608 -0.0010109033567380873 0 -0.048836254783929507 -0.0012251210299201003 0 -0.049556839918456656 -0.0010695116920164446 0 -0.050603739792454791 -0.0010854104736325312 0 -0.04872787139851497 -0.0010545465571941818 0 -0.048795465187377672 -0.0010722659464130018 0 -0.048732895458802786 -0.0011388767620560984 0 -0.048924837622471608 -0.0010109033567380873 0 -0.048795465187377672 -0.0010722659464130018 0 -0.048836254783929507 -0.0012251210299201003 0 -0.048795465187377672 -0.0010722659464130018 0 -0.048836254783929507 -0.0012251210299201003 0 -0.048732895458802786 -0.0011388767620560984 0 -0.048836254783929507 -0.0012251210299201003 0 -0.048708792277676688 -0.0012272979294028034 0 -0.048732895458802786 -0.0011388767620560984 0 -0.050603739792454791 -0.0010854104736325312 0 -0.052111734523612778 -0.00020708721131988353 0 -0.052650852588203352 -0.00096900433803698163 0 -0.053907360997590872 0.00046802389245392578 0 -0.054703876221536531 1.7319930403568829e-05 0 -0.052484284074407986 0.00016707714912745982 0 -0.053761905153591527 0.00047255831109137194 0 -0.052650852588203352 -0.00096900433803698163 0 -0.050143840796372324 2.06132803225407e-05 0 -0.053907360997590872 0.00046802389245392578 0 -0.049336083325610368 -0.0010240168318693809 0 -0.052650852588203352 -0.00096900433803698163 0 -0.050143840796372324 2.06132803225407e-05 0 -0.054888854000830947 0.00042687220726701054 0 -0.054626940239203024 0.00024685970580398231 0 -0.053907360997590872 0.00046802389245392578 0 -0.054854774807109472 0.00015909586964033939 0 -0.054888854000830947 0.00042687220726701054 0 -0.054626940239203024 0.00024685970580398231 0 -0.054854774807109472 0.00015909586964033939 0 -0.054626940239203024 0.00024685970580398231 0 -0.054716561894703149 3.2605509945562641e-05 0 -0.053907360997590872 0.00046802389245392578 0 -0.054716561894703149 3.2605509945562641e-05 0 -0.053974251951322001 0.00042701137699193299 0 -0.054626940239203024 0.00024685970580398231 0 -0.053907360997590872 0.00046802389245392578 0 -0.054716561894703149 3.2605509945562641e-05 0 -0.054981370395126149 -4.4343323095232693e-06 0 -0.054933853184915185 2.9571057973927893e-05 0 -0.055000124940018318 1.1494628922893987e-10 0 -0.054933853184915185 2.9571057973927893e-05 0 -0.054716561894703149 3.2605509945562641e-05 0 -0.055017489692634702 -5.4895876222851636e-05 0 -0.054933853184915185 2.9571057973927893e-05 0 -0.05499935314618886 1.0594864229629352e-07 0 -0.055000124940018318 1.1494628922893987e-10 0 -0.054764721945440839 7.8619705176859913e-05 0 -0.054401695937823 2.7924208860608637e-05 0 -0.054981370395126149 -4.4343323095232693e-06 0 -0.054933853184915185 2.9571057973927893e-05 0 -0.055017489692634702 -5.4895876222851636e-05 0 -0.054554230623626895 -7.2211251202216597e-05 0 -0.054401695937823 2.7924208860608637e-05 0 -0.054933853184915185 2.9571057973927893e-05 0 -0.05499935314618886 1.0594864229629352e-07 0 -0.054716561894703149 3.2605509945562641e-05 0 -0.05500002127430436 -3.5666718776000242e-08 0 -0.05499935314618886 1.0594864229629352e-07 0 -0.054716561894703149 3.2605509945562641e-05 0 -0.05500002127430436 -3.5666718776000242e-08 0 -0.054854774807109472 0.00015909586964033939 0 -0.054716561894703149 3.2605509945562641e-05 0 -0.054998627557697903 2.0285082698059031e-06 0 -0.055000124940018318 1.1494628922893987e-10 0 -0.054999910982596829 -7.0580462401108863e-09 0 -0.054998627557697903 2.0285082698059031e-06 0 -0.055000124940018318 1.1494628922893987e-10 0 -0.054985448477293829 -7.9155167986997492e-06 0 -0.054317293011792174 1.7682032994595206e-05 0 -0.054401695937823 2.7924208860608637e-05 0 -0.054981370395126149 -4.4343323095232693e-06 0 -0.055000124940018318 1.1494628922893987e-10 0 -0.054985448477293829 -7.9155167986997492e-06 0 -0.053907360997590872 0.00046802389245392578 0 -0.053974251951322001 0.00042701137699193299 0 -0.054703876221536531 1.7319930403568829e-05 0 -0.053686802705249025 3.2835390780436872e-05 0 -0.05350139137687987 3.562523475225967e-05 0 -0.053565216768896973 -0.00013429319143641764 0 -0.054401695937823 2.7924208860608637e-05 0 -0.052111734523612778 -0.00020708721131988353 0 -0.053686802705249025 3.2835390780436872e-05 0 -0.053565216768896973 -0.00013429319143641764 0 -0.053750057676832483 -7.8761403650116248e-05 0 -0.052111734523612778 -0.00020708721131988353 0 -0.053428833141727271 -5.6574971347588427e-05 0 -0.052607812417401811 -0.00052912156894300883 0 -0.052120407576130505 -0.00028235091076076726 0 -0.052787083342526298 -7.6921533454404515e-05 0 -0.052111734523612778 -0.00020708721131988353 0 -0.050291028747795397 -0.0010762725668981184 0 -0.04872787139851497 -0.0010545465571941818 0 -0.048732895458802786 -0.0011388767620560984 0 -0.048635740593235381 -0.0011058265110000614 0 -0.048708792277676688 -0.0012272979294028034 0 -0.048732895458802786 -0.0011388767620560984 0 -0.048635740593235381 -0.0011058265110000614 0 -0.052607812417401811 -0.00052912156894300883 0 -0.052120407576130505 -0.00028235091076076726 0 -0.052424574563290222 -0.00097783492538190209 0 -0.052607812417401811 -0.00052912156894300883 0 -0.052424574563290222 -0.00097783492538190209 0 -0.053038692384721003 -0.00076133037824783231 0 -0.052424574563290222 -0.00097783492538190209 0 -0.053038692384721003 -0.00076133037824783231 0 -0.052869473201544483 -0.0011750056922169548 0 -0.053038692384721003 -0.00076133037824783231 0 -0.053179133713825717 -0.0010425304243219865 0 -0.052869473201544483 -0.0011750056922169548 0 -0.053399543168261975 -0.00076622775043043532 0 -0.053690088698174182 -0.00081835576145182628 0 -0.05349684384550895 -0.0010297764143873643 0 -0.053399543168261975 -0.00076622775043043532 0 -0.05349684384550895 -0.0010297764143873643 0 -0.053179133713825717 -0.0010425304243219865 0 -0.053038692384721003 -0.00076133037824783231 0 -0.053399543168261975 -0.00076622775043043532 0 -0.053179133713825717 -0.0010425304243219865 0 -0.053038692384721003 -0.00076133037824783231 0 -0.053399543168261975 -0.00076622775043043532 0 -0.053284584393403854 -0.00045919816989782971 0 -0.053399543168261975 -0.00076622775043043532 0 -0.053619756241032705 -0.00049550118201144733 0 -0.053690088698174182 -0.00081835576145182628 0 -0.053619756241032705 -0.00049550118201144733 0 -0.053284584393403854 -0.00045919816989782971 0 -0.053440455230913002 -0.00019682020841561311 0 -0.053399543168261975 -0.00076622775043043532 0 -0.053619756241032705 -0.00049550118201144733 0 -0.053284584393403854 -0.00045919816989782971 0 -0.053619756241032705 -0.00049550118201144733 0 -0.053440455230913002 -0.00019682020841561311 0 -0.053810166249167547 -0.00018715631022752838 0 -0.052607812417401811 -0.00052912156894300883 0 -0.053038692384721003 -0.00076133037824783231 0 -0.052787083342526298 -7.6921533454404515e-05 0 -0.053284584393403854 -0.00045919816989782971 0 -0.053440455230913002 -0.00019682020841561311 0 -0.052787083342526298 -7.6921533454404515e-05 0 -0.053038692384721003 -0.00076133037824783231 0 -0.053284584393403854 -0.00045919816989782971 0 -0.052787083342526298 -7.6921533454404515e-05 0 -0.053428833141727271 -5.6574971347588427e-05 0 -0.053611396775552864 8.7429706247876661e-05 0 -0.053750057676832483 -7.8761403650116248e-05 0 -0.053934579154010433 -2.0541411416712586e-05 0 -0.053879137791067254 2.9841347766931488e-05 0 -0.053686802705249025 3.2835390780436872e-05 0 -0.053750057676832483 -7.8761403650116248e-05 0 -0.053879137791067254 2.9841347766931488e-05 0 -0.053440455230913002 -0.00019682020841561311 0 -0.052787083342526298 -7.6921533454404515e-05 0 -0.053466524209424889 0.00013248460612904221 0 -0.053604808338089345 6.3696205297356936e-05 0 -0.053392545015239622 0.00020416132160256363 0 -0.054046180943041165 0.00019242456345284136 0 -0.053604808338089345 6.3696205297356936e-05 0 -0.053566019553745577 5.1854236814230466e-05 0 -0.053810166249167547 -0.00018715631022752838 0 -0.053440455230913002 -0.00019682020841561311 0 -0.053466524209424889 0.00013248460612904221 0 -0.053810166249167547 -0.00018715631022752838 0 -0.053604808338089345 6.3696205297356936e-05 0 -0.053563478075217892 5.0494541884406753e-05 0 -0.053392545015239622 0.00020416132160256363 0 -0.053608303011914715 8.573725555807585e-05 0 -0.053611396775552864 8.7429706247876661e-05 0 -0.053611396775552864 8.7429706247876661e-05 0 -0.054389246292210064 3.6000160370513254e-06 0 -0.055000068165381437 4.8275366426095747e-08 0 -0.055005339833977311 9.5572379915852964e-06 0 -0.054999754628895094 1.8453292541104718e-05 0 -0.055000068165381437 4.8275366426095747e-08 0 -0.055005339833977311 9.5572379915852964e-06 0 -0.054999973978015301 -2.0837702621898812e-08 0 -0.054998627557697903 2.0285082698059031e-06 0 -0.054978234388688804 8.3839836530205096e-06 0 -0.054999910982596829 -7.0580462401108863e-09 0 -0.054317293011792174 1.7682032994595206e-05 0 -0.054389246292210064 3.6000160370513254e-06 0 -0.054389246292210064 3.6000160370513254e-06 0 -0.055000476702877311 -2.7720309685118772e-07 0 -0.054757511044776226 8.6005506821723086e-05 0 -0.054881550074015857 4.8769720027452612e-05 0 -0.054987229967468805 6.4978363675480681e-05 0 -0.054889492238159698 2.163482268196491e-05 0 -0.054999970203021428 7.7123660079079367e-09 0 -0.05476866704112001 4.4006161474299655e-05 0 -0.054881550074015857 4.8769720027452612e-05 0 -0.054999808844803426 -6.0846674385214369e-08 0 -0.054881550074015857 4.8769720027452612e-05 0 -0.054999808844803426 -6.0846674385214369e-08 0 -0.054987229967468805 6.4978363675480681e-05 0 -0.055000068165381437 4.8275366426095747e-08 0 -0.054999808844803426 -6.0846674385214369e-08 0 -0.054999754628895094 1.8453292541104718e-05 0 -0.055005339833977311 9.5572379915852964e-06 0 -0.054999754628895094 1.8453292541104718e-05 0 -0.054987229967468805 6.4978363675480681e-05 0 -0.054389246292210064 3.6000160370513254e-06 0 -0.054468193932778838 0.00013601358046655242 0 -0.054999808844803426 -6.0846674385214369e-08 0 -0.054999754628895094 1.8453292541104718e-05 0 -0.054987229967468805 6.4978363675480681e-05 0 -0.054046180943041165 0.00019242456345284136 0 -0.054175181312822916 -0.00021687946252606742 0 -0.053810166249167547 -0.00018715631022752838 0 -0.053604808338089345 6.3696205297356936e-05 0 -0.054046180943041165 0.00019242456345284136 0 -0.053810166249167547 -0.00018715631022752838 0 -0.053611396775552864 8.7429706247876661e-05 0 -0.053759358376086613 -0.00012866858741595184 0 -0.054760050747247963 9.0589826201000365e-05 0 -0.054468193932778838 0.00013601358046655242 0 -0.054046180943041165 0.00019242456345284136 0 -0.054468603179784067 -7.6327115256092894e-05 0 -0.054175181312822916 -0.00021687946252606742 0 -0.054757511044776226 8.6005506821723086e-05 0 -0.054046180943041165 0.00019242456345284136 0 -0.054468603179784067 -7.6327115256092894e-05 0 -0.054577163364052494 -0.00040272424225690776 0 -0.054175181312822916 -0.00021687946252606742 0 -0.054022860935502529 -0.00055542129998132977 0 -0.054577163364052494 -0.00040272424225690776 0 -0.054468603179784067 -7.6327115256092894e-05 0 -0.054175181312822916 -0.00021687946252606742 0 -0.054175181312822916 -0.00021687946252606742 0 -0.053810166249167547 -0.00018715631022752838 0 -0.054022860935502529 -0.00055542129998132977 0 -0.053619756241032705 -0.00049550118201144733 0 -0.053810166249167547 -0.00018715631022752838 0 -0.054022860935502529 -0.00055542129998132977 0 -0.053619756241032705 -0.00049550118201144733 0 -0.054022860935502529 -0.00055542129998132977 0 -0.053690088698174182 -0.00081835576145182628 0 -0.054022860935502529 -0.00055542129998132977 0 -0.053908014002174841 -0.00088937553492728246 0 -0.053690088698174182 -0.00081835576145182628 0 -0.053908014002174841 -0.00088937553492728246 0 -0.054232649347246344 -0.00085166615885849098 0 -0.053852764276474285 -0.0011683554762708986 0 -0.053690088698174182 -0.00081835576145182628 0 -0.053739810661271897 -0.0010584641430143233 0 -0.05349684384550895 -0.0010297764143873643 0 -0.053908014002174841 -0.00088937553492728246 0 -0.053690088698174182 -0.00081835576145182628 0 -0.053739810661271897 -0.0010584641430143233 0 -0.054702007482782498 -0.00017833649665637203 0 -0.054621186010275345 -0.00034797343015790464 0 -0.054577163364052494 -0.00040272424225690776 0 -0.054022860935502529 -0.00055542129998132977 0 -0.054232649347246344 -0.00085166615885849098 0 -0.054022860935502529 -0.00055542129998132977 0 -0.053908014002174841 -0.00088937553492728246 0 -0.054232649347246344 -0.00085166615885849098 0 -0.054621186010275345 -0.00034797343015790464 0 -0.053409708972064318 -0.00047327152249774905 0 -0.054847934656082183 9.281410356303965e-05 0 -0.054822475009783357 9.6272191204261248e-05 0 -0.054765945103087445 3.8963976330285816e-05 0 -0.052732862415143321 0.00034931040832744128 0 -0.05238961623193867 2.9803011977096373e-05 0 -0.051827793508350158 0.00029508390282158504 0 -0.053763276042432584 0.00031118296517746851 0 -0.053409708972064318 -0.00047327152249774905 0 -0.05238961623193867 2.9803011977096373e-05 0 -0.052028504303891852 -4.9281283946862996e-05 0 -0.052111453891057355 -0.00041187934816605965 0 -0.05238961623193867 2.9803011977096373e-05 0 -0.052028504303891852 -4.9281283946862996e-05 0 -0.051827793508350158 0.00029508390282158504 0 -0.052762230586117731 -0.00041204486878876958 0 -0.05238961623193867 2.9803011977096373e-05 0 -0.052111453891057355 -0.00041187934816605965 0 -0.052028504303891852 -4.9281283946862996e-05 0 -0.051729764694206024 -0.00022104855978819819 0 -0.051827793508350158 0.00029508390282158504 0 -0.051729764694206024 -0.00022104855978819819 0 -0.051827793508350158 0.00029508390282158504 0 -0.05113236267239625 -0.00031102163453105685 0 -0.0538514012744482 -0.0013242100146793794 0 -0.053547875390705366 -0.0013069704875625328 0 -0.053418765488779073 -0.0018294693927144465 0 -0.053409708972064318 -0.00047327152249774905 0 -0.052410619533064438 -0.0010608298943681118 0 -0.052028504303891852 -4.9281283946862996e-05 0 -0.051729764694206024 -0.00022104855978819819 0 -0.052111453891057355 -0.00041187934816605965 0 -0.0538514012744482 -0.0013242100146793794 0 -0.053728538389860268 -0.0012215839124140393 0 -0.053547875390705366 -0.0013069704875625328 0 -0.054232649347246344 -0.00085166615885849098 0 -0.0538514012744482 -0.0013242100146793794 0 -0.053852764276474285 -0.0011683554762708986 0 -0.053818999654825735 -0.0012675060225305216 0 -0.0538514012744482 -0.0013242100146793794 0 -0.053728538389860268 -0.0012215839124140393 0 -0.053818999654825735 -0.0012675060225305216 0 -0.0538514012744482 -0.0013242100146793794 0 -0.053852764276474285 -0.0011683554762708986 0 -0.053908014002174841 -0.00088937553492728246 0 -0.053852764276474285 -0.0011683554762708986 0 -0.053739810661271897 -0.0010584641430143233 0 -0.053624131650276859 -0.0011427284216096755 0 -0.053739810661271897 -0.0010584641430143233 0 -0.05349684384550895 -0.0010297764143873643 0 -0.053624131650276859 -0.0011427284216096755 0 -0.053728538389860268 -0.0012215839124140393 0 -0.053739810661271897 -0.0010584641430143233 0 -0.053624131650276859 -0.0011427284216096755 0 -0.053728538389860268 -0.0012215839124140393 0 -0.053547875390705366 -0.0013069704875625328 0 -0.053818999654825735 -0.0012675060225305216 0 -0.053852764276474285 -0.0011683554762708986 0 -0.053728538389860268 -0.0012215839124140393 0 -0.053852764276474285 -0.0011683554762708986 0 -0.053728538389860268 -0.0012215839124140393 0 -0.053739810661271897 -0.0010584641430143233 0 -0.053624131650276859 -0.0011427284216096755 0 -0.05349684384550895 -0.0010297764143873643 0 -0.053547875390705366 -0.0013069704875625328 0 -0.05349684384550895 -0.0010297764143873643 0 -0.053203676304310568 -0.0013327618069149097 0 -0.053547875390705366 -0.0013069704875625328 0 -0.05349684384550895 -0.0010297764143873643 0 -0.053179133713825717 -0.0010425304243219865 0 -0.053203676304310568 -0.0013327618069149097 0 -0.053203676304310568 -0.0013327618069149097 0 -0.052869473201544483 -0.0011750056922169548 0 -0.052720861341551697 -0.0016556939096264956 0 -0.053179133713825717 -0.0010425304243219865 0 -0.053203676304310568 -0.0013327618069149097 0 -0.052869473201544483 -0.0011750056922169548 0 -0.053203676304310568 -0.0013327618069149097 0 -0.052720861341551697 -0.0016556939096264956 0 -0.053418765488779073 -0.0018294693927144465 0 -0.053203676304310568 -0.0013327618069149097 0 -0.053547875390705366 -0.0013069704875625328 0 -0.053418765488779073 -0.0018294693927144465 0 -0.05113236267239625 -0.00031102163453105685 0 -0.05100052854671587 -0.0010687676022188574 0 -0.051484043345876286 -0.00079726472894113608 0 -0.05113236267239625 -0.00031102163453105685 0 -0.050410666080037705 -0.0011151943635240495 0 -0.05100052854671587 -0.0010687676022188574 0 -0.052410619533064438 -0.0010608298943681118 0 -0.049981937942283013 -0.0014958883528916132 0 -0.05100052854671587 -0.0010687676022188574 0 -0.051315700765013218 -0.0011541669628121372 0 -0.051484043345876286 -0.00079726472894113608 0 -0.052720861341551697 -0.0016556939096264956 0 -0.053418765488779073 -0.0018294693927144465 0 -0.052997532700322217 -0.0023252585429246126 0 -0.050783335143186885 -0.0014170092983696193 0 -0.049981937942283013 -0.0014958883528916132 0 -0.048513040585538868 -0.0010304997312927139 0 -0.048562219976910702 -0.0010558020159654041 0 -0.048495943428802722 -0.0010323061812326753 0 -0.048513040585538868 -0.0010304997312927139 0 -0.048495943428802722 -0.0010323061812326753 0 -0.048440888124726661 -0.0010199072723124307 0 -0.04717565905140908 -0.0020313248427149947 0 -0.046938570761560994 -0.0015287266167025501 0 -0.047557535829718348 -0.0015420672219518552 0 -0.049981937942283013 -0.0014958883528916132 0 -0.04885365564228656 -0.0021108009584051343 0 -0.049981937942283013 -0.0014958883528916132 0 -0.047805873036262013 -0.0014228034605975846 0 -0.050410666080037705 -0.0011151943635240495 0 -0.05100052854671587 -0.0010687676022188574 0 -0.050666461980649891 -0.0017579842012748468 0 -0.05100052854671587 -0.0010687676022188574 0 -0.051317544276227749 -0.0014581443018211343 0 -0.050666461980649891 -0.0017579842012748468 0 -0.05100052854671587 -0.0010687676022188574 0 -0.051317544276227749 -0.0014581443018211343 0 -0.051315700765013218 -0.0011541669628121372 0 -0.047085782759631711 -0.0012612295416159671 0 -0.048926698417597857 -0.0013333617295889252 0 -0.051511481490914106 -0.0014653139950013404 0 -0.051317544276227749 -0.0014581443018211343 0 -0.051315700765013218 -0.0011541669628121372 0 -0.051511481490914106 -0.0014653139950013404 0 -0.051315700765013218 -0.0011541669628121372 0 -0.051484043345876286 -0.00079726472894113608 0 -0.039110739492021804 0.00094210061873975417 0 -0.03739898433391093 0.00065135114271334688 0 -0.038085736579160596 -1.6144933340544239e-05 0 -0.045250933196018667 0.00016943902118977044 0 -0.047085782759631711 -0.0012612295416159671 0 -0.05244599624039932 -0.00091234296503872364 0 -0.051749864520162968 -0.00093418774716944584 0 -0.052260131537529626 -0.00067172688680653563 0 -0.052762230586117731 -0.00041204486878876958 0 -0.052260131537529626 -0.00067172688680653563 0 -0.052111453891057355 -0.00041187934816605965 0 -0.051749864520162968 -0.00093418774716944584 0 -0.052260131537529626 -0.00067172688680653563 0 -0.052111453891057355 -0.00041187934816605965 0 -0.051729764694206024 -0.00022104855978819819 0 -0.052111453891057355 -0.00041187934816605965 0 -0.051484043345876286 -0.00079726472894113608 0 -0.047085782759631711 -0.0012612295416159671 0 -0.053313932897417295 -5.3521234655435048e-05 0 -0.051511481490914106 -0.0014653139950013404 0 -0.052111453891057355 -0.00041187934816605965 0 -0.051484043345876286 -0.00079726472894113608 0 -0.051729764694206024 -0.00022104855978819819 0 -0.05113236267239625 -0.00031102163453105685 0 -0.051484043345876286 -0.00079726472894113608 0 -0.037657975095534681 -0.0012854583194203265 0 -0.038586766513163548 -0.0017816161836187714 0 -0.037565531581266805 -0.002275062300161564 0 -0.037657975095534681 -0.0012854583194203265 0 -0.036691655821417098 -0.00080846829667808749 0 -0.037565531581266805 -0.002275062300161564 0 -0.037657975095534681 -0.0012854583194203265 0 -0.037581763928986052 -0.00054089115377595339 0 -0.036691655821417098 -0.00080846829667808749 0 -0.039009966243445098 -0.00039639257030447115 0 -0.038586766513163548 -0.0017816161836187714 0 -0.038146977420093008 -0.00076908172339054985 0 -0.037657975095534681 -0.0012854583194203265 0 -0.038586766513163548 -0.0017816161836187714 0 -0.038146977420093008 -0.00076908172339054985 0 -0.039009966243445098 -0.00039639257030447115 0 -0.038146977420093008 -0.00076908172339054985 0 -0.038085736579160596 -1.6144933340544239e-05 0 -0.039110739492021804 0.00094210061873975417 0 -0.039009966243445098 -0.00039639257030447115 0 -0.038085736579160596 -1.6144933340544239e-05 0 -0.038085736579160596 -1.6144933340544239e-05 0 -0.037581763928986052 -0.00054089115377595339 0 -0.037438537661183435 -0.00010793570849648464 0 -0.051479304483532939 -0.0014643951439788038 0 -0.051317544276227749 -0.0014581443018211343 0 -0.050883736673020347 -0.0023766742056215875 0 -0.03739898433391093 0.00065135114271334688 0 -0.038085736579160596 -1.6144933340544239e-05 0 -0.037438537661183435 -0.00010793570849648464 0 -0.03739898433391093 0.00065135114271334688 0 -0.037438537661183435 -0.00010793570849648464 0 -0.036691655821417098 -0.00080846829667808749 0 -0.038146977420093008 -0.00076908172339054985 0 -0.038085736579160596 -1.6144933340544239e-05 0 -0.037581763928986052 -0.00054089115377595339 0 -0.037657975095534681 -0.0012854583194203265 0 -0.038146977420093008 -0.00076908172339054985 0 -0.037581763928986052 -0.00054089115377595339 0 -0.037581763928986052 -0.00054089115377595339 0 -0.037438537661183435 -0.00010793570849648464 0 -0.036691655821417098 -0.00080846829667808749 0 -0.047085782759631711 -0.0012612295416159671 0 -0.041797743730191884 -0.0012066620333791153 0 -0.051317544276227749 -0.0014581443018211343 0 -0.050666461980649891 -0.0017579842012748468 0 -0.050883736673020347 -0.0023766742056215875 0 -0.04885365564228656 -0.0021108009584051343 0 -0.041797743730191884 -0.0012066620333791153 0 -0.046938570761560994 -0.0015287266167025501 0 -0.046751819988367485 -0.0010397290346065206 0 -0.047078258416873277 -0.0010520416659891522 0 -0.046938570761560994 -0.0015287266167025501 0 -0.047557535829718348 -0.0015420672219518552 0 -0.04740766921193082 -0.001189533522619573 0 -0.046938570761560994 -0.0015287266167025501 0 -0.047078258416873277 -0.0010520416659891522 0 -0.04740766921193082 -0.001189533522619573 0 -0.047078258416873277 -0.0010520416659891522 0 -0.04740766921193082 -0.001189533522619573 0 -0.047247404773934257 -0.00088510969601457348 0 -0.04740766921193082 -0.001189533522619573 0 -0.047247404773934257 -0.00088510969601457348 0 -0.047536540865290439 -0.00085467768897230269 0 -0.047247404773934257 -0.00088510969601457348 0 -0.047260758123051097 -0.00074617580472192003 0 -0.047536540865290439 -0.00085467768897230269 0 -0.047078258416873277 -0.0010520416659891522 0 -0.047247404773934257 -0.00088510969601457348 0 -0.047039461326289209 -0.00068726497207363983 0 -0.047247404773934257 -0.00088510969601457348 0 -0.047260758123051097 -0.00074617580472192003 0 -0.047039461326289209 -0.00068726497207363983 0 -0.047260758123051097 -0.00074617580472192003 0 -0.047352574903048408 -0.00070724350521955725 0 -0.047536540865290439 -0.00085467768897230269 0 -0.041797743730191884 -0.0012066620333791153 0 -0.034873738247777022 -0.0016623608172806213 0 -0.034166540631291424 -0.0017273593407050936 0 -0.034155786551309665 -0.001662162131197292 0 -0.034020131793970745 -0.0016306914443416779 0 -0.046751819988367485 -0.0010397290346065206 0 -0.047078258416873277 -0.0010520416659891522 0 -0.047039461326289209 -0.00068726497207363983 0 -0.041797743730191884 -0.0012066620333791153 0 -0.040548925317059843 -0.0012467804691477802 0 -0.034155786551309665 -0.001662162131197292 0 -0.034096026121523522 -0.001593996505411394 0 -0.034020131793970745 -0.0016306914443416779 0 -0.034096026121523522 -0.001593996505411394 0 -0.034024687129543284 -0.001547532338671278 0 -0.034020131793970745 -0.0016306914443416779 0 -0.047260758123051097 -0.00074617580472192003 0 -0.047039461326289209 -0.00068726497207363983 0 -0.047184944387027819 -0.00054847559315070497 0 -0.047260758123051097 -0.00074617580472192003 0 -0.047184944387027819 -0.00054847559315070497 0 -0.047352574903048408 -0.00070724350521955725 0 -0.040548925317059843 -0.0012467804691477802 0 -0.03923388014402758 -0.00069933637098345159 0 -0.034155786551309665 -0.001662162131197292 0 -0.034096026121523522 -0.001593996505411394 0 -0.034157554583956355 -0.0015965579213084015 0 -0.034096026121523522 -0.001593996505411394 0 -0.034157554583956355 -0.0015965579213084015 0 -0.034125320140329089 -0.0015727467879792154 0 -0.034157554583956355 -0.0015965579213084015 0 -0.03414401885724528 -0.001579548922310346 0 -0.034140734049798192 -0.001553012694058389 0 -0.034157554583956355 -0.0015965579213084015 0 -0.03414401885724528 -0.001579548922310346 0 -0.034125320140329089 -0.0015727467879792154 0 -0.034157554583956355 -0.0015965579213084015 0 -0.034145006006303956 -0.0015115772016465875 0 -0.034188306500601062 -0.0014384629503245492 0 -0.03923388014402758 -0.00069933637098345159 0 -0.032998521378640261 -0.0021295695898456792 0 -0.034501003487854225 -0.0011002953951700588 0 -0.034188306500601062 -0.0014384629503245492 0 -0.034235760192549584 -0.0012281455043688626 0 -0.034140734049798192 -0.001553012694058389 0 -0.034145006006303956 -0.0015115772016465875 0 -0.034097387246872064 -0.0015463791165735066 0 -0.034157554583956355 -0.0015965579213084015 0 -0.034140734049798192 -0.001553012694058389 0 -0.034145006006303956 -0.0015115772016465875 0 -0.03414401885724528 -0.001579548922310346 0 -0.034140734049798192 -0.001553012694058389 0 -0.034125320140329089 -0.0015727467879792154 0 -0.034140734049798192 -0.001553012694058389 0 -0.034125320140329089 -0.0015727467879792154 0 -0.034097387246872064 -0.0015463791165735066 0 -0.034145006006303956 -0.0015115772016465875 0 -0.034067205058613034 -0.0014808584920542756 0 -0.034126009136399606 -0.0014656250600356621 0 -0.034145006006303956 -0.0015115772016465875 0 -0.034097387246872064 -0.0015463791165735066 0 -0.034067205058613034 -0.0014808584920542756 0 -0.034145006006303956 -0.0015115772016465875 0 -0.034126009136399606 -0.0014656250600356621 0 -0.034188306500601062 -0.0014384629503245492 0 -0.034096026121523522 -0.001593996505411394 0 -0.034125320140329089 -0.0015727467879792154 0 -0.034097387246872064 -0.0015463791165735066 0 -0.034096026121523522 -0.001593996505411394 0 -0.034024687129543284 -0.001547532338671278 0 -0.034097387246872064 -0.0015463791165735066 0 -0.034024687129543284 -0.001547532338671278 0 -0.034097387246872064 -0.0015463791165735066 0 -0.034067205058613034 -0.0014808584920542756 0 -0.034024687129543284 -0.001547532338671278 0 -0.033870883442497474 -0.0015226729820131354 0 -0.034020131793970745 -0.0016306914443416779 0 -0.034024687129543284 -0.001547532338671278 0 -0.033870883442497474 -0.0015226729820131354 0 -0.033945316422252104 -0.0014621917101522684 0 -0.038517432839360426 -0.0025709435359930243 0 -0.037565531581266805 -0.002275062300161564 0 -0.038277203756168963 -0.0025246069576173825 0 -0.037050710767487859 -0.0019536192687835572 0 -0.034873738247777022 -0.0016623608172806213 0 -0.038422609659970554 -0.0029651633685248368 0 -0.038586766513163548 -0.0017816161836187714 0 -0.038277203756168963 -0.0025246069576173825 0 -0.038586766513163548 -0.0017816161836187714 0 -0.037565531581266805 -0.002275062300161564 0 -0.038277203756168963 -0.0025246069576173825 0 -0.038422609659970554 -0.0029651633685248368 0 -0.037881330809750965 -0.0019883048277433645 0 -0.038517432839360426 -0.0025709435359930243 0 -0.038422609659970554 -0.0029651633685248368 0 -0.038517432839360426 -0.0025709435359930243 0 -0.038277203756168963 -0.0025246069576173825 0 -0.033870883442497474 -0.0015226729820131354 0 -0.033702425849339725 -0.0013635552383188937 0 -0.033744487449242001 -0.0013605767718070725 0 -0.037050710767487859 -0.0019536192687835572 0 -0.029594476971404726 -0.0030808593142494381 0 -0.037881330809750965 -0.0019883048277433645 0 -0.038517432839360426 -0.0025709435359930243 0 -0.038379355740550999 -0.0012056946070743316 0 -0.033870883442497474 -0.0015226729820131354 0 -0.033945316422252104 -0.0014621917101522684 0 -0.033744487449242001 -0.0013605767718070725 0 -0.017600718483839532 -0.005254646535031258 0 -0.019618648909110321 -0.0023535007030668089 0 -0.021250494522099823 -0.0037441036404600027 0 -0.026294863692262509 -0.0031892940936990473 0 -0.028425103739635325 -0.0034280525032156354 0 -0.033945316422252104 -0.0014621917101522684 0 -0.033744487449242001 -0.0013605767718070725 0 -0.033985408025227988 -0.0013733626489497706 0 -0.017600718483839532 -0.005254646535031258 0 -0.021250494522099823 -0.0037441036404600027 0 -0.022762099927925987 -0.0050974732110990297 0 -0.029594476971404726 -0.0030808593142494381 0 -0.026294863692262509 -0.0031892940936990473 0 -0.016783382941050428 -0.0052673579639112541 0 -0.017600718483839532 -0.005254646535031258 0 -0.015833284251627489 -0.003213042675044978 0 -0.017600718483839532 -0.005254646535031258 0 -0.015833284251627489 -0.003213042675044978 0 -0.019618648909110321 -0.0023535007030668089 0 -0.014152363238785924 -0.0037401304525213068 0 -0.016242996980290931 -0.0033192021429281518 0 -0.011929308336965289 -0.0037070287716894686 0 -0.012408951179497026 -0.0042318888193680513 0 -0.012740460373981287 -0.003606932132317412 0 -0.012408951179497026 -0.0042318888193680513 0 -0.013249790172625646 -0.0042136596274531717 0 -0.012740460373981287 -0.003606932132317412 0 -0.019618648909110321 -0.0023535007030668089 0 -0.022604033329141734 -0.0023832392260935455 0 -0.021250494522099823 -0.0037441036404600027 0 -0.013249790172625646 -0.0042136596274531717 0 -0.013583958210268747 -0.0036782195957310031 0 -0.014326465937322598 -0.0041151426020268195 0 -0.013583958210268747 -0.0036782195957310031 0 -0.012740460373981287 -0.003606932132317412 0 -0.013397700620680854 -0.0029346398985157494 0 -0.013249790172625646 -0.0042136596274531717 0 -0.013583958210268747 -0.0036782195957310031 0 -0.012740460373981287 -0.003606932132317412 0 -0.011929308336965289 -0.0037070287716894686 0 -0.012740460373981287 -0.003606932132317412 0 -0.012198929989602919 -0.0028152200066669194 0 -0.019814225600816339 -0.0021807869376191417 0 -0.019698130328149068 -0.0023431931733230724 0 -0.019964033512992956 -0.0022757287057298035 0 -0.019814225600816339 -0.0021807869376191417 0 -0.019964033512992956 -0.0022757287057298035 0 -0.019920007765213753 -0.0020239069396324806 0 -0.017100760470414419 -0.0030942354431653671 0 -0.019814762300053326 -0.0027323200037797186 0 -0.013583958210268747 -0.0036782195957310031 0 -0.014132776780642897 -0.0033403789042778524 0 -0.014326465937322598 -0.0041151426020268195 0 -0.013583958210268747 -0.0036782195957310031 0 -0.014132776780642897 -0.0033403789042778524 0 -0.013397700620680854 -0.0029346398985157494 0 -0.014995962322040863 -0.0033963963620401568 0 -0.014132776780642897 -0.0033403789042778524 0 -0.014326465937322598 -0.0041151426020268195 0 -0.019618648909110321 -0.0023535007030668089 0 -0.023206574097382259 -0.0015689826856471697 0 -0.022604033329141734 -0.0023832392260935455 0 -0.016242996980290931 -0.0033192021429281518 0 -0.019814762300053326 -0.0027323200037797186 0 -0.019814762300053326 -0.0027323200037797186 0 -0.021235818667884217 -0.0017626720113231794 0 -0.022604033329141734 -0.0023832392260935455 0 -0.021250494522099823 -0.0037441036404600027 0 -0.02316016650883192 -0.0034032866226322419 0 -0.023194788602246236 -0.0015995158034280013 0 -0.022604033329141734 -0.0023832392260935455 0 -0.02316016650883192 -0.0034032866226322419 0 -0.023194788602246236 -0.0015995158034280013 0 -0.02316016650883192 -0.0034032866226322419 0 -0.025140447733146516 -0.0036257905038207905 0 -0.019814762300053326 -0.0027323200037797186 0 -0.023294925543871137 -0.0010915910657951318 0 -0.023194788602246236 -0.0015995158034280013 0 -0.025140447733146516 -0.0036257905038207905 0 -0.027247878359259799 -0.00065892328165078143 0 -0.028425103739635325 -0.0034280525032156354 0 -0.029930399370834127 -0.001906959325008656 0 -0.025140447733146516 -0.0036257905038207905 0 -0.022762099927925987 -0.0050974732110990297 0 -0.027580526225289278 -0.0049784509824814683 0 -0.033985408025227988 -0.0013733626489497706 0 -0.03410549331196483 -0.0014442567918289415 0 -0.034119978703141436 -0.0014121291374574016 0 -0.021250494522099823 -0.0037441036404600027 0 -0.02316016650883192 -0.0034032866226322419 0 -0.022762099927925987 -0.0050974732110990297 0 -0.02316016650883192 -0.0034032866226322419 0 -0.025140447733146516 -0.0036257905038207905 0 -0.022762099927925987 -0.0050974732110990297 0 -0.034024687129543284 -0.001547532338671278 0 -0.033945316422252104 -0.0014621917101522684 0 -0.034067205058613034 -0.0014808584920542756 0 -0.033945316422252104 -0.0014621917101522684 0 -0.033985408025227988 -0.0013733626489497706 0 -0.034067205058613034 -0.0014808584920542756 0 -0.033985408025227988 -0.0013733626489497706 0 -0.034067205058613034 -0.0014808584920542756 0 -0.03410549331196483 -0.0014442567918289415 0 -0.034067205058613034 -0.0014808584920542756 0 -0.03410549331196483 -0.0014442567918289415 0 -0.034126009136399606 -0.0014656250600356621 0 -0.03410549331196483 -0.0014442567918289415 0 -0.034126009136399606 -0.0014656250600356621 0 -0.034188306500601062 -0.0014384629503245492 0 -0.034188306500601062 -0.0014384629503245492 0 -0.034133883192724451 -0.0014715202266993958 0 -0.034023913149093046 -0.0014278447079831488 0 -0.03410549331196483 -0.0014442567918289415 0 -0.034188306500601062 -0.0014384629503245492 0 -0.034133883192724451 -0.0014715202266993958 0 -0.03410549331196483 -0.0014442567918289415 0 -0.034133883192724451 -0.0014715202266993958 0 -0.034119978703141436 -0.0014121291374574016 0 -0.034133883192724451 -0.0014715202266993958 0 -0.034023913149093046 -0.0014278447079831488 0 -0.033865576545609975 -0.0016418888317809223 0 -0.034023913149093046 -0.0014278447079831488 0 -0.033865576545609975 -0.0016418888317809223 0 -0.033829989070070406 -0.0014775207757863039 0 -0.033829989070070406 -0.0014775207757863039 0 -0.033774598621409163 -0.0013279963877277663 0 -0.033943925305461128 -0.0013426514124140088 0 -0.034023913149093046 -0.0014278447079831488 0 -0.033829989070070406 -0.0014775207757863039 0 -0.033943925305461128 -0.0013426514124140088 0 -0.025188368061854094 -0.00016220793620458062 0 -0.025155778845369129 -0.00016705624195294445 0 -0.025151452133054659 -0.0001164518936493674 0 -0.029435369217978534 -0.00085852410242702492 0 -0.029930399370834127 -0.001906959325008656 0 -0.034133883192724451 -0.0014715202266993958 0 -0.033865576545609975 -0.0016418888317809223 0 -0.034119248928518371 -0.0016289156305780434 0 -0.033126653897911446 -0.0015231560805745055 0 -0.029930399370834127 -0.001906959325008656 0 -0.025155778845369129 -0.00016705624195294445 0 -0.025151452133054659 -0.0001164518936493674 0 -0.025109717184137608 -0.00010531991176862127 0 -0.025140447733146516 -0.0036257905038207905 0 -0.027580526225289278 -0.0049784509824814683 0 -0.027247878359259799 -0.00065892328165078143 0 -0.029930399370834127 -0.001906959325008656 0 -0.023294925543871137 -0.0010915910657951318 0 -0.025151452133054659 -0.0001164518936493674 0 -0.025169100325988805 -8.6966921218841099e-05 0 -0.025192030860371604 -0.00013313881730530355 0 -0.025188368061854094 -0.00016220793620458062 0 -0.025151452133054659 -0.0001164518936493674 0 -0.025192030860371604 -0.00013313881730530355 0 -0.025151452133054659 -0.0001164518936493674 0 -0.025143818164109297 -5.2447981247263423e-05 0 -0.025169100325988805 -8.6966921218841099e-05 0 -0.023483270322646719 -0.00046190306013764058 0 -0.023294925543871137 -0.0010915910657951318 0 -0.025151452133054659 -0.0001164518936493674 0 -0.025143818164109297 -5.2447981247263423e-05 0 -0.025109717184137608 -0.00010531991176862127 0 -0.022048048719890218 -0.0009832517702318942 0 -0.020629311545919068 -0.00071190585937449223 0 -0.021642671005624153 -4.7151724329702564e-05 0 -0.023294925543871137 -0.0010915910657951318 0 -0.018144665880954539 -0.0020495988842107373 0 -0.022048048719890218 -0.0009832517702318942 0 -0.020629311545919068 -0.00071190585937449223 0 -0.020197653148216244 -0.0011881914814658161 0 -0.020629311545919068 -0.00071190585937449223 0 -0.020197653148216244 -0.0011881914814658161 0 -0.020268174200408388 -0.00019066477350229176 0 -0.02524848947761062 -5.5490395792512582e-06 0 -0.025224102537444518 8.9045405222208909e-05 0 -0.025199353432930546 -5.9235466744658532e-05 0 -0.02524848947761062 -5.5490395792512582e-06 0 -0.025297836381233028 -6.4977094303432493e-05 0 -0.025329102989875372 8.7820555030116224e-05 0 -0.02524848947761062 -5.5490395792512582e-06 0 -0.025224102537444518 8.9045405222208909e-05 0 -0.025329102989875372 8.7820555030116224e-05 0 -0.025143818164109297 -5.2447981247263423e-05 0 -0.025199353432930546 -5.9235466744658532e-05 0 -0.025169100325988805 -8.6966921218841099e-05 0 -0.025143818164109297 -5.2447981247263423e-05 0 -0.025224102537444518 8.9045405222208909e-05 0 -0.025199353432930546 -5.9235466744658532e-05 0 -0.023483270322646719 -0.00046190306013764058 0 -0.024703621614657355 -0.00012015953863694681 0 -0.022048048719890218 -0.0009832517702318942 0 -0.024159391920869029 -0.00036672628635426571 0 -0.0233007005674403 0.00011859429504756479 0 -0.025199353432930546 -5.9235466744658532e-05 0 -0.025169100325988805 -8.6966921218841099e-05 0 -0.025192030860371604 -0.00013313881730530355 0 -0.025199353432930546 -5.9235466744658532e-05 0 -0.025192030860371604 -0.00013313881730530355 0 -0.025213730358517844 -0.00012893160865931386 0 -0.025192030860371604 -0.00013313881730530355 0 -0.025213730358517844 -0.00012893160865931386 0 -0.025228180924637186 -0.00018025460199390535 0 -0.025213730358517844 -0.00012893160865931386 0 -0.025231636230452346 -0.00015058052336684149 0 -0.025228180924637186 -0.00018025460199390535 0 -0.025231636230452346 -0.00015058052336684149 0 -0.025241716035202966 -0.00010922564227564028 0 -0.025247565552336763 -0.00017540309415984469 0 -0.025213730358517844 -0.00012893160865931386 0 -0.025231636230452346 -0.00015058052336684149 0 -0.025241716035202966 -0.00010922564227564028 0 -0.02524848947761062 -5.5490395792512582e-06 0 -0.025199353432930546 -5.9235466744658532e-05 0 -0.025241716035202966 -0.00010922564227564028 0 -0.025199353432930546 -5.9235466744658532e-05 0 -0.025213730358517844 -0.00012893160865931386 0 -0.025241716035202966 -0.00010922564227564028 0 -0.02524848947761062 -5.5490395792512582e-06 0 -0.025241716035202966 -0.00010922564227564028 0 -0.025297836381233028 -6.4977094303432493e-05 0 -0.025241716035202966 -0.00010922564227564028 0 -0.025297836381233028 -6.4977094303432493e-05 0 -0.0253164649995315 -0.00021419843291758321 0 -0.025241716035202966 -0.00010922564227564028 0 -0.0253164649995315 -0.00021419843291758321 0 -0.025247565552336763 -0.00017540309415984469 0 -0.029609785656114159 -0.00067626095786406685 0 -0.02859280445809784 -0.00017120779063290587 0 -0.032124259136675111 -5.2960576222230393e-05 0 -0.032150488796105291 -5.589605885753436e-05 0 -0.032143521880847542 -6.8289943296694224e-05 0 -0.0253164649995315 -0.00021419843291758321 0 -0.02522400476890236 -0.00021183657117098347 0 -0.025414686973135821 -0.00036017704680582613 0 -0.0253164649995315 -0.00021419843291758321 0 -0.025247565552336763 -0.00017540309415984469 0 -0.02522400476890236 -0.00021183657117098347 0 -0.025247565552336763 -0.00017540309415984469 0 -0.025228180924637186 -0.00018025460199390535 0 -0.02522400476890236 -0.00021183657117098347 0 -0.025231636230452346 -0.00015058052336684149 0 -0.025247565552336763 -0.00017540309415984469 0 -0.025228180924637186 -0.00018025460199390535 0 -0.028983547194395134 -0.00044898412057940435 0 -0.029609785656114159 -0.00067626095786406685 0 -0.033865576545609975 -0.0016418888317809223 0 -0.033593914078612779 -0.0016446786236066051 0 -0.033829989070070406 -0.0014775207757863039 0 -0.025188368061854094 -0.00016220793620458062 0 -0.025192030860371604 -0.00013313881730530355 0 -0.025238080088748848 -0.00018910880581564994 0 -0.029435369217978534 -0.00085852410242702492 0 -0.029609785656114159 -0.00067626095786406685 0 -0.025192030860371604 -0.00013313881730530355 0 -0.025228180924637186 -0.00018025460199390535 0 -0.025238080088748848 -0.00018910880581564994 0 -0.033593914078612779 -0.0016446786236066051 0 -0.033829989070070406 -0.0014775207757863039 0 -0.033621808771674457 -0.0014288635700445646 0 -0.033829989070070406 -0.0014775207757863039 0 -0.033621808771674457 -0.0014288635700445646 0 -0.033774598621409163 -0.0013279963877277663 0 -0.029609785656114159 -0.00067626095786406685 0 -0.032897646755209606 -0.00073586513913525913 0 -0.032124259136675111 -5.2960576222230393e-05 0 -0.032150488796105291 -5.589605885753436e-05 0 -0.032136265067672955 -6.8220620501608097e-05 0 -0.032150488796105291 -5.589605885753436e-05 0 -0.032136265067672955 -6.8220620501608097e-05 0 -0.032156210895006365 -7.8210769450108919e-05 0 -0.032897646755209606 -0.00073586513913525913 0 -0.033467285277749059 -0.00093375335043515404 0 -0.032343689272253992 1.605514603225302e-05 0 -0.032505826579136782 9.1800291532206452e-05 0 -0.032375096683700345 0.00019500262644820687 0 -0.032136265067672955 -6.8220620501608097e-05 0 -0.032156210895006365 -7.8210769450108919e-05 0 -0.032145121115177894 -9.8705142133656405e-05 0 -0.03223790580795128 -0.00011561495421603932 0 -0.033467285277749059 -0.00093375335043515404 0 -0.032375096683700345 0.00019500262644820687 0 -0.032504838183530831 0.00032549893514566221 0 -0.032203706430099115 0.00022064657739421722 0 -0.033467285277749059 -0.00093375335043515404 0 -0.038603995040900493 -2.4135003990309204e-05 0 -0.032505826579136782 9.1800291532206452e-05 0 -0.032375096683700345 0.00019500262644820687 0 -0.032529647394975596 0.00031945842183010709 0 -0.036123975553775431 -5.3545527822941377e-05 0 -0.0313359723110564 -0.00019978021806464481 0 -0.032375096683700345 0.00019500262644820687 0 -0.032504838183530831 0.00032549893514566221 0 -0.032529647394975596 0.00031945842183010709 0 -0.033640563733893951 -0.0012075521710792881 0 -0.033933515972974497 -0.0012069637440316281 0 -0.033970601586686841 -0.0010090183180718212 0 -0.044104871648097808 -0.001593934807109128 0 -0.0417670881243557 -0.0010855284966786026 0 -0.042061806151554568 -0.0008668681130898371 0 -0.036765424879075276 -0.0020680622687551018 0 -0.039358637581449314 -0.0002719385729516913 0 -0.036763498688253654 0.00028485389849000576 0 -0.040665034800454317 -0.0011539221075255054 0 -0.038603995040900493 -2.4135003990309204e-05 0 -0.033467285277749059 -0.00093375335043515404 0 -0.040665034800454317 -0.0011539221075255054 0 -0.033640563733893951 -0.0012075521710792881 0 -0.033774598621409163 -0.0013279963877277663 0 -0.033933515972974497 -0.0012069637440316281 0 -0.033621808771674457 -0.0014288635700445646 0 -0.033640563733893951 -0.0012075521710792881 0 -0.033774598621409163 -0.0013279963877277663 0 -0.033774598621409163 -0.0013279963877277663 0 -0.033943925305461128 -0.0013426514124140088 0 -0.033933515972974497 -0.0012069637440316281 0 -0.033933515972974497 -0.0012069637440316281 0 -0.034093817430458639 -0.0012862365254796193 0 -0.034193921331530187 -0.0010566783776169112 0 -0.033943925305461128 -0.0013426514124140088 0 -0.033933515972974497 -0.0012069637440316281 0 -0.034093817430458639 -0.0012862365254796193 0 -0.034023913149093046 -0.0014278447079831488 0 -0.033943925305461128 -0.0013426514124140088 0 -0.034093817430458639 -0.0012862365254796193 0 -0.034093817430458639 -0.0012862365254796193 0 -0.034235760192549584 -0.0012281455043688626 0 -0.034193921331530187 -0.0010566783776169112 0 -0.034188306500601062 -0.0014384629503245492 0 -0.034093817430458639 -0.0012862365254796193 0 -0.034235760192549584 -0.0012281455043688626 0 -0.034188306500601062 -0.0014384629503245492 0 -0.034023913149093046 -0.0014278447079831488 0 -0.034093817430458639 -0.0012862365254796193 0 -0.034501003487854225 -0.0011002953951700588 0 -0.034235760192549584 -0.0012281455043688626 0 -0.034193921331530187 -0.0010566783776169112 0 -0.03923388014402758 -0.00069933637098345159 0 -0.041011329792160676 -0.00090877416229008436 0 -0.047184944387027819 -0.00054847559315070497 0 -0.047347792673121149 -0.00067921314054070854 0 -0.047352574903048408 -0.00070724350521955725 0 -0.047347792673121149 -0.00067921314054070854 0 -0.047352574903048408 -0.00070724350521955725 0 -0.047364041951274374 -0.00070307086980823236 0 -0.033933515972974497 -0.0012069637440316281 0 -0.034193921331530187 -0.0010566783776169112 0 -0.033970601586686841 -0.0010090183180718212 0 -0.041011329792160676 -0.00090877416229008436 0 -0.040665034800454317 -0.0011539221075255054 0 -0.047347792673121149 -0.00067921314054070854 0 -0.047243985355265083 -0.00071837592753246321 0 -0.047364041951274374 -0.00070307086980823236 0 -0.046257759048863853 -0.00014051543370411469 0 -0.047154662671136591 -0.00040452370864442472 0 -0.044104871648097808 -0.001593934807109128 0 -0.043755347715863722 -0.00051851936702250185 0 -0.045528204316805203 -0.00061629172152753199 0 -0.043755347715863722 -0.00051851936702250185 0 -0.044058425440882155 0.00047574941120228742 0 -0.045528204316805203 -0.00061629172152753199 0 -0.044104871648097808 -0.001593934807109128 0 -0.043755347715863722 -0.00051851936702250185 0 -0.043020456583670812 -0.00064020044670724059 0 -0.040665034800454317 -0.0011539221075255054 0 -0.047008362727532685 -0.00022148968077850213 0 -0.048592441072813124 -0.00087258632839535893 0 -0.048174894669907202 -0.00088015840671080872 0 -0.047911505425491004 -0.00067584837093482718 0 -0.044058425440882155 0.00047574941120228742 0 -0.045528204316805203 -0.00061629172152753199 0 -0.046389555612875305 -1.6644073123958364e-05 0 -0.047352574903048408 -0.00070724350521955725 0 -0.047364041951274374 -0.00070307086980823236 0 -0.047428853518644329 -0.00077909249184846875 0 -0.047008362727532685 -0.00022148968077850213 0 -0.047154662671136591 -0.00040452370864442472 0 -0.048174894669907202 -0.00088015840671080872 0 -0.047911505425491004 -0.00067584837093482718 0 -0.047536540865290439 -0.00085467768897230269 0 -0.047352574903048408 -0.00070724350521955725 0 -0.047428853518644329 -0.00077909249184846875 0 -0.047536540865290439 -0.00085467768897230269 0 -0.047154662671136591 -0.00040452370864442472 0 -0.04730737122176417 -0.00051954109189665271 0 -0.047805873036262013 -0.0014228034605975846 0 -0.04824994675882599 -0.00084049933292389763 0 -0.04740766921193082 -0.001189533522619573 0 -0.048174894669907202 -0.00088015840671080872 0 -0.047536540865290439 -0.00085467768897230269 0 -0.047557535829718348 -0.0015420672219518552 0 -0.04740766921193082 -0.001189533522619573 0 -0.048174894669907202 -0.00088015840671080872 0 -0.048174894669907202 -0.00088015840671080872 0 -0.048385844335076443 -0.0009977069103916489 0 -0.048444688832255348 -0.00097550479509856238 0 -0.048440888124726661 -0.0010199072723124307 0 -0.048174894669907202 -0.00088015840671080872 0 -0.048385844335076443 -0.0009977069103916489 0 -0.048592441072813124 -0.00087258632839535893 0 -0.04856449629553352 -0.00098901051034673169 0 -0.048631716105058419 -0.00099010858885562893 0 -0.048592441072813124 -0.00087258632839535893 0 -0.048444688832255348 -0.00097550479509856238 0 -0.04856449629553352 -0.00098901051034673169 0 -0.048592441072813124 -0.00087258632839535893 0 -0.048174894669907202 -0.00088015840671080872 0 -0.048444688832255348 -0.00097550479509856238 0 -0.048502963770208934 -0.0010189417375210011 0 -0.048385844335076443 -0.0009977069103916489 0 -0.048444688832255348 -0.00097550479509856238 0 -0.048502963770208934 -0.0010189417375210011 0 -0.048444688832255348 -0.00097550479509856238 0 -0.04856449629553352 -0.00098901051034673169 0 -0.04862552974112589 -0.0010358015414509757 0 -0.04856449629553352 -0.00098901051034673169 0 -0.048631716105058419 -0.00099010858885562893 0 -0.048592441072813124 -0.00087258632839535893 0 -0.048631716105058419 -0.00099010858885562893 0 -0.048684546495532305 -0.00096945908841708744 0 -0.046257759048863853 -0.00014051543370411469 0 -0.045421814925591712 -0.00061716795677854632 0 -0.048631716105058419 -0.00099010858885562893 0 -0.048689027793945613 -0.0010670771910662761 0 -0.048684546495532305 -0.00096945908841708744 0 -0.04862552974112589 -0.0010358015414509757 0 -0.048631716105058419 -0.00099010858885562893 0 -0.048689027793945613 -0.0010670771910662761 0 -0.048659503325711936 -0.0011178862435224167 0 -0.048689027793945613 -0.0010670771910662761 0 -0.04868263187431289 -0.001127102838276586 0 -0.047554878662992371 -0.0011334601072086261 0 -0.045421814925591712 -0.00061716795677854632 0 -0.045421814925591712 -0.00061716795677854632 0 -0.046472191968731515 -0.0014187817691531969 0 -0.042293956439179881 -0.0011205759959841651 0 -0.043415975797166315 -0.00050829280615597957 0 -0.044328882401011308 -0.0015071333246301306 0 -0.048659503325711936 -0.0011178862435224167 0 -0.04868263187431289 -0.001127102838276586 0 -0.048594551183594875 -0.001228841244787572 0 -0.045421814925591712 -0.00061716795677854632 0 -0.038603995040900493 -2.4135003990309204e-05 0 -0.041787428915611873 0.00093988021326408579 0 -0.04177126448826235 -0.0010834719329311552 0 -0.042272563068594955 -0.00023202107381635307 0 -0.042293956439179881 -0.0011205759959841651 0 -0.042670293436529429 -0.00019735482222430284 0 -0.042237613241921004 0.00051438544731137437 0 -0.042293956439179881 -0.0011205759959841651 0 -0.042670293436529429 -0.00019735482222430284 0 -0.043415975797166315 -0.00050829280615597957 0 -0.042670293436529429 -0.00019735482222430284 0 -0.043415975797166315 -0.00050829280615597957 0 -0.042400604862080686 0.00048034427628880662 0 -0.042670293436529429 -0.00019735482222430284 0 -0.042400604862080686 0.00048034427628880662 0 -0.042237613241921004 0.00051438544731137437 0 -0.036123975553775431 -5.3545527822941377e-05 0 -0.038603995040900493 -2.4135003990309204e-05 0 -0.038603995040900493 -2.4135003990309204e-05 0 -0.039396990114403459 0.00019671085784394286 0 -0.042061806151554568 -0.0008668681130898371 0 -0.043020456583670812 -0.00064020044670724059 0 -0.042272563068594955 -0.00023202107381635307 0 -0.04177126448826235 -0.0010834719329311552 0 -0.042061806151554568 -0.0008668681130898371 0 -0.042272563068594955 -0.00023202107381635307 0 -0.044058425440882155 0.00047574941120228742 0 -0.041787428915611873 0.00093988021326408579 0 -0.04291228830449384 2.5535457226109694e-06 0 -0.044104871648097808 -0.001593934807109128 0 -0.042061806151554568 -0.0008668681130898371 0 -0.043020456583670812 -0.00064020044670724059 0 -0.043755347715863722 -0.00051851936702250185 0 -0.043020456583670812 -0.00064020044670724059 0 -0.04291228830449384 2.5535457226109694e-06 0 -0.043755347715863722 -0.00051851936702250185 0 -0.044058425440882155 0.00047574941120228742 0 -0.04291228830449384 2.5535457226109694e-06 0 -0.041787428915611873 0.00093988021326408579 0 -0.04291228830449384 2.5535457226109694e-06 0 -0.042272563068594955 -0.00023202107381635307 0 -0.043020456583670812 -0.00064020044670724059 0 -0.04291228830449384 2.5535457226109694e-06 0 -0.042272563068594955 -0.00023202107381635307 0 -0.038597925576715028 -0.00018983772528431746 0 -0.039237911215913669 -0.00068250763064726277 0 -0.0319154031746888 -0.00028304552467401924 0 -0.031963386618576776 -0.00060572440625386581 0 -0.031870916632739568 -0.00032045252422360326 0 -0.04470406439571422 -5.6280902724619628e-05 0 -0.045507300803784338 -0.00098825322029556296 0 -0.046679002175666492 -0.00073289084410271517 0 -0.036123975553775431 -5.3545527822941377e-05 0 -0.038597925576715028 -0.00018983772528431746 0 -0.043415975797166315 -0.00050829280615597957 0 -0.04470406439571422 -5.6280902724619628e-05 0 -0.044328882401011308 -0.0015071333246301306 0 -0.043415975797166315 -0.00050829280615597957 0 -0.042400604862080686 0.00048034427628880662 0 -0.04470406439571422 -5.6280902724619628e-05 0 -0.04470406439571422 -5.6280902724619628e-05 0 -0.044328882401011308 -0.0015071333246301306 0 -0.045507300803784338 -0.00098825322029556296 0 -0.046472191968731515 -0.0014187817691531969 0 -0.047177860387917644 -0.0014798505908651151 0 -0.044328882401011308 -0.0015071333246301306 0 -0.045507300803784338 -0.00098825322029556296 0 -0.046176990263063933 -0.0016800723867918385 0 -0.046176990263063933 -0.0016800723867918385 0 -0.046825815290147996 -0.0013119709573985654 0 -0.046679002175666492 -0.00073289084410271517 0 -0.045507300803784338 -0.00098825322029556296 0 -0.046176990263063933 -0.0016800723867918385 0 -0.046679002175666492 -0.00073289084410271517 0 -0.047060214610150586 -0.0013248060665442783 0 -0.046679002175666492 -0.00073289084410271517 0 -0.047081345767282852 -0.0015916346352840003 0 -0.047318417436996288 -0.0013147323831669839 0 -0.046176990263063933 -0.0016800723867918385 0 -0.046825815290147996 -0.0013119709573985654 0 -0.047318417436996288 -0.0013147323831669839 0 -0.047060214610150586 -0.0013248060665442783 0 -0.047099965084865039 -0.0013008064198746911 0 -0.047318417436996288 -0.0013147323831669839 0 -0.047060214610150586 -0.0013248060665442783 0 -0.046825815290147996 -0.0013119709573985654 0 -0.047060214610150586 -0.0013248060665442783 0 -0.046825815290147996 -0.0013119709573985654 0 -0.046679002175666492 -0.00073289084410271517 0 -0.031963386618576776 -0.00060572440625386581 0 -0.032411698572290329 -0.00014638885982437409 0 -0.032777934348078359 -0.0011850653928467134 0 -0.039237911215913669 -0.00068250763064726277 0 -0.039928486050900096 -0.0013793486139929323 0 -0.031963386618576776 -0.00060572440625386581 0 -0.031843349927623478 -0.00013019800726070949 0 -0.032411698572290329 -0.00014638885982437409 0 -0.031963386618576776 -0.00060572440625386581 0 -0.031843349927623478 -0.00013019800726070949 0 -0.031870916632739568 -0.00032045252422360326 0 -0.032012188286673113 0.00014076786426061298 0 -0.031843349927623478 -0.00013019800726070949 0 -0.032411698572290329 -0.00014638885982437409 0 -0.03194910965599207 0.00010039454526473483 0 -0.032124586406876973 5.0551290427733753e-05 0 -0.032012188286673113 0.00014076786426061298 0 -0.032034139205852304 0.00013447260778989142 0 -0.03197379293703629 5.6619714784913016e-05 0 -0.032034139205852304 0.00013447260778989142 0 -0.032074924688074338 2.0157414466721167e-05 0 -0.03197379293703629 5.6619714784913016e-05 0 -0.032034139205852304 0.00013447260778989142 0 -0.032175264462398719 8.4490659264377667e-05 0 -0.032074924688074338 2.0157414466721167e-05 0 -0.032034139205852304 0.00013447260778989142 0 -0.032203706430099115 0.00022064657739421722 0 -0.032175264462398719 8.4490659264377667e-05 0 -0.032124586406876973 5.0551290427733753e-05 0 -0.0313359723110564 -0.00019978021806464481 0 -0.031843349927623478 -0.00013019800726070949 0 -0.031870916632739568 -0.00032045252422360326 0 -0.031949093607180998 -0.00040959365412564523 0 -0.0319154031746888 -0.00028304552467401924 0 -0.031870916632739568 -0.00032045252422360326 0 -0.031949093607180998 -0.00040959365412564523 0 -0.032396378486399514 -0.00029142428582177611 0 -0.0319154031746888 -0.00028304552467401924 0 -0.031949093607180998 -0.00040959365412564523 0 -0.032375096683700345 0.00019500262644820687 0 -0.032203706430099115 0.00022064657739421722 0 -0.032175264462398719 8.4490659264377667e-05 0 -0.032343689272253992 1.605514603225302e-05 0 -0.032175264462398719 8.4490659264377667e-05 0 -0.032178140567900949 -3.8440280419425627e-05 0 -0.032343689272253992 1.605514603225302e-05 0 -0.032375096683700345 0.00019500262644820687 0 -0.032175264462398719 8.4490659264377667e-05 0 -0.032150488796105291 -5.589605885753436e-05 0 -0.032156210895006365 -7.8210769450108919e-05 0 -0.032178140567900949 -3.8440280419425627e-05 0 -0.03223790580795128 -0.00011561495421603932 0 -0.032213119602810335 -3.7719199766765395e-05 0 -0.032178140567900949 -3.8440280419425627e-05 0 -0.032123584616155915 -5.6483054214933894e-05 0 -0.032143521880847542 -6.8289943296694224e-05 0 -0.032150488796105291 -5.589605885753436e-05 0 -0.032178140567900949 -3.8440280419425627e-05 0 -0.032143521880847542 -6.8289943296694224e-05 0 -0.032178140567900949 -3.8440280419425627e-05 0 -0.032123584616155915 -5.6483054214933894e-05 0 -0.032074924688074338 2.0157414466721167e-05 0 -0.032123584616155915 -5.6483054214933894e-05 0 -0.032074924688074338 2.0157414466721167e-05 0 -0.032066114490688968 -0.00012167213210130041 0 -0.032175264462398719 8.4490659264377667e-05 0 -0.032178140567900949 -3.8440280419425627e-05 0 -0.032074924688074338 2.0157414466721167e-05 0 -0.02859280445809784 -0.00017120779063290587 0 -0.029042358766863272 -0.00036607617152678253 0 -0.025414686973135821 -0.00036017704680582613 0 -0.025430986098129958 -0.0001471994787251893 0 -0.025897932276905816 -0.00058676238328962877 0 -0.032123584616155915 -5.6483054214933894e-05 0 -0.032143521880847542 -6.8289943296694224e-05 0 -0.032066114490688968 -0.00012167213210130041 0 -0.0253164649995315 -0.00021419843291758321 0 -0.025414686973135821 -0.00036017704680582613 0 -0.025430986098129958 -0.0001471994787251893 0 -0.025430986098129958 -0.0001471994787251893 0 -0.025635103070076368 8.591777605389096e-05 0 -0.025329102989875372 8.7820555030116224e-05 0 -0.025297836381233028 -6.4977094303432493e-05 0 -0.0253164649995315 -0.00021419843291758321 0 -0.025430986098129958 -0.0001471994787251893 0 -0.025297836381233028 -6.4977094303432493e-05 0 -0.025430986098129958 -0.0001471994787251893 0 -0.025329102989875372 8.7820555030116224e-05 0 -0.025430986098129958 -0.0001471994787251893 0 -0.025635103070076368 8.591777605389096e-05 0 -0.025897932276905816 -0.00058676238328962877 0 -0.025635103070076368 8.591777605389096e-05 0 -0.025760678191150192 0.00054334289637237882 0 -0.025372810173858843 0.00033163865873065697 0 -0.025635103070076368 8.591777605389096e-05 0 -0.025329102989875372 8.7820555030116224e-05 0 -0.025372810173858843 0.00033163865873065697 0 -0.025224102537444518 8.9045405222208909e-05 0 -0.025329102989875372 8.7820555030116224e-05 0 -0.025372810173858843 0.00033163865873065697 0 -0.026174612840993056 0.00037476273609941314 0 -0.027274381092763686 0.00045577089238093627 0 -0.026161582138021989 0.00076236700880240587 0 -0.025635103070076368 8.591777605389096e-05 0 -0.026174612840993056 0.00037476273609941314 0 -0.025760678191150192 0.00054334289637237882 0 -0.025635103070076368 8.591777605389096e-05 0 -0.026174612840993056 0.00037476273609941314 0 -0.02634152886422346 -0.0001596609474583107 0 -0.025635103070076368 8.591777605389096e-05 0 -0.02634152886422346 -0.0001596609474583107 0 -0.025897932276905816 -0.00058676238328962877 0 -0.02634152886422346 -0.0001596609474583107 0 -0.02711549085394319 -0.00084299753783307133 0 -0.027274381092763686 0.00045577089238093627 0 -0.026174612840993056 0.00037476273609941314 0 -0.02634152886422346 -0.0001596609474583107 0 -0.027274381092763686 0.00045577089238093627 0 -0.02634152886422346 -0.0001596609474583107 0 -0.02711549085394319 -0.00084299753783307133 0 -0.025897932276905816 -0.00058676238328962877 0 -0.029436444347550644 -0.00047539422939095048 0 -0.029042358766863272 -0.00036607617152678253 0 -0.031768822151572881 -0.00021061777058131964 0 -0.032066114490688968 -0.00012167213210130041 0 -0.03197379293703629 5.6619714784913016e-05 0 -0.032074924688074338 2.0157414466721167e-05 0 -0.032066114490688968 -0.00012167213210130041 0 -0.03197379293703629 5.6619714784913016e-05 0 -0.032012188286673113 0.00014076786426061298 0 -0.03197379293703629 5.6619714784913016e-05 0 -0.031728615745785435 0.00032893418534977689 0 -0.031768822151572881 -0.00021061777058131964 0 -0.03197379293703629 5.6619714784913016e-05 0 -0.031728615745785435 0.00032893418534977689 0 -0.031728615745785435 0.00032893418534977689 0 -0.030075382782045846 -0.00027706766605429438 0 -0.032304633883132657 0.00021970831286022941 0 -0.031768822151572881 -0.00021061777058131964 0 -0.031728615745785435 0.00032893418534977689 0 -0.030075382782045846 -0.00027706766605429438 0 -0.029436444347550644 -0.00047539422939095048 0 -0.029993677646700377 -0.00033908091138420829 0 -0.02711549085394319 -0.00084299753783307133 0 -0.030075382782045846 -0.00027706766605429438 0 -0.027274381092763686 0.00045577089238093627 0 -0.030075382782045846 -0.00027706766605429438 0 -0.028126826418942513 0.00041512001601143073 0 -0.027274381092763686 0.00045577089238093627 0 -0.030075382782045846 -0.00027706766605429438 0 -0.028126826418942513 0.00041512001601143073 0 -0.030184374519821908 9.0598765661786606e-05 0 -0.028126826418942513 0.00041512001601143073 0 -0.027274381092763686 0.00045577089238093627 0 -0.026438774808412703 0.00081036716851046187 0 -0.028126826418942513 0.00041512001601143073 0 -0.028230069716415635 6.6530068565840205e-07 0 -0.030184374519821908 9.0598765661786606e-05 0 -0.028230069716415635 6.6530068565840205e-07 0 -0.030184374519821908 9.0598765661786606e-05 0 -0.031448469315471954 2.6552869026525581e-07 0 -0.030184374519821908 9.0598765661786606e-05 0 -0.031448469315471954 2.6552869026525581e-07 0 -0.032304633883132657 0.00021970831286022941 0 -0.030075382782045846 -0.00027706766605429438 0 -0.030184374519821908 9.0598765661786606e-05 0 -0.032304633883132657 0.00021970831286022941 0 -0.031448469315471954 2.6552869026525581e-07 0 -0.032304633883132657 0.00021970831286022941 0 -0.034666029053193138 2.1989202746603958e-07 0 -0.032304633883132657 0.00021970831286022941 0 -0.034666029053193138 2.1989202746603958e-07 0 -0.034856359787313627 0.0001515555893206645 0 -0.034666029053193138 2.1989202746603958e-07 0 -0.034856359787313627 0.0001515555893206645 0 -0.037885832117571891 1.3765110865986304e-06 0 -0.034856359787313627 0.0001515555893206645 0 -0.037885832117571891 1.3765110865986304e-06 0 -0.035745671952189202 -0.0002259392468550275 0 -0.034856359787313627 0.0001515555893206645 0 -0.033553373673631419 0.0001711391071467977 0 -0.035745671952189202 -0.0002259392468550275 0 -0.032304633883132657 0.00021970831286022941 0 -0.034856359787313627 0.0001515555893206645 0 -0.033553373673631419 0.0001711391071467977 0 -0.031728615745785435 0.00032893418534977689 0 -0.032304633883132657 0.00021970831286022941 0 -0.033553373673631419 0.0001711391071467977 0 -0.032012188286673113 0.00014076786426061298 0 -0.031728615745785435 0.00032893418534977689 0 -0.032411698572290329 -0.00014638885982437409 0 -0.031728615745785435 0.00032893418534977689 0 -0.032411698572290329 -0.00014638885982437409 0 -0.033553373673631419 0.0001711391071467977 0 -0.032777934348078359 -0.0011850653928467134 0 -0.035446568402968018 -0.0016637389221176471 0 -0.035745671952189202 -0.0002259392468550275 0 -0.033553373673631419 0.0001711391071467977 0 -0.032777934348078359 -0.0011850653928467134 0 -0.035745671952189202 -0.0002259392468550275 0 -0.032411698572290329 -0.00014638885982437409 0 -0.033553373673631419 0.0001711391071467977 0 -0.032777934348078359 -0.0011850653928467134 0 -0.046562134817946875 -0.0011240703830632038 0 -0.047081345767282852 -0.0015916346352840003 0 -0.047099965084865039 -0.0013008064198746911 0 -0.047060214610150586 -0.0013248060665442783 0 -0.047081345767282852 -0.0015916346352840003 0 -0.047099965084865039 -0.0013008064198746911 0 -0.046562134817946875 -0.0011240703830632038 0 -0.047081345767282852 -0.0015916346352840003 0 -0.045307909657798705 -0.0018133394271657856 0 -0.039928486050900096 -0.0013793486139929323 0 -0.040328491505715727 -0.0015580055911153638 0 -0.035446568402968018 -0.0016637389221176471 0 -0.041098657446456091 -5.5349011997647174e-06 0 -0.035745671952189202 -0.0002259392468550275 0 -0.040328491505715727 -0.0015580055911153638 0 -0.041104348154921519 -6.6541975813557578e-07 0 -0.041098657446456091 -5.5349011997647174e-06 0 -0.037885832117571891 1.3765110865986304e-06 0 -0.035745671952189202 -0.0002259392468550275 0 -0.018092282193034881 -2.3181024380698144e-05 0 -0.017968759908726577 -0.00024193428847597861 0 -0.020069361241292275 -0.00022113466284492877 0 -0.018092282193034881 -2.3181024380698144e-05 0 -0.015355945671142358 1.0091138669411518e-06 0 -0.018575341671439261 -1.2399315322492379e-07 0 -0.018092282193034881 -2.3181024380698144e-05 0 -0.015355945671142358 1.0091138669411518e-06 0 -0.015844498099902814 -0.00020207316367471827 0 -0.015355945671142358 1.0091138669411518e-06 0 -0.015844498099902814 -0.00020207316367471827 0 -0.012142320640958 -4.5015182223778566e-06 0 -0.015844498099902814 -0.00020207316367471827 0 -0.017968759908726577 -0.00024193428847597861 0 -0.016658967291604612 -0.0014720701007618236 0 -0.018092282193034881 -2.3181024380698144e-05 0 -0.015844498099902814 -0.00020207316367471827 0 -0.017968759908726577 -0.00024193428847597861 0 -0.02177273137884031 -0.0028506591930816715 0 -0.023090407263311657 -0.0028581339903026052 0 -0.023002524778792961 -0.004028081939259554 0 -0.023090407263311657 -0.0028581339903026052 0 -0.022284386386596418 -0.0014996247677289771 0 -0.024022554232311748 -0.0020324415469265889 0 -0.020353461746098058 -0.0015036831612618242 0 -0.021216628907151622 -0.00073527699390240513 0 -0.02177273137884031 -0.0028506591930816715 0 -0.023090407263311657 -0.0028581339903026052 0 -0.022284386386596418 -0.0014996247677289771 0 -0.020069361241292275 -0.00022113466284492877 0 -0.022661549332330944 -4.6276155160189068e-05 0 -0.020258851006695184 -3.5122292641507388e-05 0 -0.022284386386596418 -0.0014996247677289771 0 -0.023526133629984913 -0.00092215197497538229 0 -0.022661549332330944 -4.6276155160189068e-05 0 -0.021216628907151622 -0.00073527699390240513 0 -0.022412500146549549 8.8557398648794977e-05 0 -0.022284386386596418 -0.0014996247677289771 0 -0.023526133629984913 -0.00092215197497538229 0 -0.024022554232311748 -0.0020324415469265889 0 -0.023526133629984913 -0.00092215197497538229 0 -0.024161795205536914 9.6251612058380578e-05 0 -0.022661549332330944 -4.6276155160189068e-05 0 -0.023526133629984913 -0.00092215197497538229 0 -0.024161795205536914 9.6251612058380578e-05 0 -0.024590640210248961 -0.00067366597406749479 0 -0.024161795205536914 9.6251612058380578e-05 0 -0.022661549332330944 -4.6276155160189068e-05 0 -0.024215258276784599 0.00067145853427979347 0 -0.022661549332330944 -4.6276155160189068e-05 0 -0.020258851006695184 -3.5122292641507388e-05 0 -0.02210461980431316 0.00032105709652751116 0 -0.018092282193034881 -2.3181024380698144e-05 0 -0.020069361241292275 -0.00022113466284492877 0 -0.020258851006695184 -3.5122292641507388e-05 0 -0.018092282193034881 -2.3181024380698144e-05 0 -0.020258851006695184 -3.5122292641507388e-05 0 -0.018575341671439261 -1.2399315322492379e-07 0 -0.018575341671439261 -1.2399315322492379e-07 0 -0.021793131235264045 7.571959899614458e-07 0 -0.02210461980431316 0.00032105709652751116 0 -0.020258851006695184 -3.5122292641507388e-05 0 -0.018575341671439261 -1.2399315322492379e-07 0 -0.02210461980431316 0.00032105709652751116 0 -0.021793131235264045 7.571959899614458e-07 0 -0.02210461980431316 0.00032105709652751116 0 -0.023793353996276197 0.00034373111978357656 0 -0.02210461980431316 0.00032105709652751116 0 -0.023793353996276197 0.00034373111978357656 0 -0.024318531864620622 0.0006408402596308607 0 -0.021793131235264045 7.571959899614458e-07 0 -0.023793353996276197 0.00034373111978357656 0 -0.025011869867660873 7.5405895136273961e-07 0 -0.028126826418942513 0.00041512001601143073 0 -0.028230069716415635 6.6530068565840205e-07 0 -0.025923019515633115 0.00055807698541422972 0 -0.023793353996276197 0.00034373111978357656 0 -0.025011869867660873 7.5405895136273961e-07 0 -0.025923019515633115 0.00055807698541422972 0 -0.023793353996276197 0.00034373111978357656 0 -0.025923019515633115 0.00055807698541422972 0 -0.024318531864620622 0.0006408402596308607 0 -0.028230069716415635 6.6530068565840205e-07 0 -0.025011869867660873 7.5405895136273961e-07 0 -0.025923019515633115 0.00055807698541422972 0 -0.027274381092763686 0.00045577089238093627 0 -0.026438774808412703 0.00081036716851046187 0 -0.026161582138021989 0.00076236700880240587 0 -0.028126826418942513 0.00041512001601143073 0 -0.025923019515633115 0.00055807698541422972 0 -0.026438774808412703 0.00081036716851046187 0 -0.025923019515633115 0.00055807698541422972 0 -0.025335770648498006 0.00081978718161818424 0 -0.024318531864620622 0.0006408402596308607 0 -0.025923019515633115 0.00055807698541422972 0 -0.026438774808412703 0.00081036716851046187 0 -0.025335770648498006 0.00081978718161818424 0 -0.026438774808412703 0.00081036716851046187 0 -0.025335770648498006 0.00081978718161818424 0 -0.025489054030821703 0.00096590421815732528 0 -0.024215258276784599 0.00067145853427979347 0 -0.02478410467471609 0.00059958938954369871 0 -0.025489054030821703 0.00096590421815732528 0 -0.025335770648498006 0.00081978718161818424 0 -0.024215258276784599 0.00067145853427979347 0 -0.025489054030821703 0.00096590421815732528 0 -0.025335770648498006 0.00081978718161818424 0 -0.024318531864620622 0.0006408402596308607 0 -0.024215258276784599 0.00067145853427979347 0 -0.02210461980431316 0.00032105709652751116 0 -0.024318531864620622 0.0006408402596308607 0 -0.024215258276784599 0.00067145853427979347 0 -0.022661549332330944 -4.6276155160189068e-05 0 -0.02210461980431316 0.00032105709652751116 0 -0.024215258276784599 0.00067145853427979347 0 -0.024161795205536914 9.6251612058380578e-05 0 -0.024215258276784599 0.00067145853427979347 0 -0.02478410467471609 0.00059958938954369871 0 -0.024161795205536914 9.6251612058380578e-05 0 -0.02478410467471609 0.00059958938954369871 0 -0.025091263066746305 0.00017194585075232393 0 -0.02478410467471609 0.00059958938954369871 0 -0.025612062913144103 0.0010330959359837833 0 -0.025091263066746305 0.00017194585075232393 0 -0.025592290688284031 0.0010938222679364193 0 -0.025832877304113364 0.00076205091540724839 0 -0.025612062913144103 0.0010330959359837833 0 -0.025855041101463541 9.8146432165219374e-05 0 -0.025091263066746305 0.00017194585075232393 0 -0.025612062913144103 0.0010330959359837833 0 -0.025489054030821703 0.00096590421815732528 0 -0.02573207147387822 0.00087282251286750865 0 -0.02478410467471609 0.00059958938954369871 0 -0.025612062913144103 0.0010330959359837833 0 -0.025489054030821703 0.00096590421815732528 0 -0.025489054030821703 0.00096590421815732528 0 -0.02573207147387822 0.00087282251286750865 0 -0.026161582138021989 0.00076236700880240587 0 -0.025612062913144103 0.0010330959359837833 0 -0.02573207147387822 0.00087282251286750865 0 -0.025455165364211253 0.00077192005082633223 0 -0.02573207147387822 0.00087282251286750865 0 -0.025760678191150192 0.00054334289637237882 0 -0.025455165364211253 0.00077192005082633223 0 -0.02573207147387822 0.00087282251286750865 0 -0.025760678191150192 0.00054334289637237882 0 -0.026161582138021989 0.00076236700880240587 0 -0.026174612840993056 0.00037476273609941314 0 -0.025760678191150192 0.00054334289637237882 0 -0.026161582138021989 0.00076236700880240587 0 -0.026438774808412703 0.00081036716851046187 0 -0.025489054030821703 0.00096590421815732528 0 -0.026161582138021989 0.00076236700880240587 0 -0.024703621614657355 -0.00012015953863694681 0 -0.025324961552300414 0.00025783623138672472 0 -0.024159391920869029 -0.00036672628635426571 0 -0.025372810173858843 0.00033163865873065697 0 -0.024373107452919554 0.00037401457382417539 0 -0.025372810173858843 0.00033163865873065697 0 -0.02499371173640666 0.0006562572001779436 0 -0.024373107452919554 0.00037401457382417539 0 -0.025372810173858843 0.00033163865873065697 0 -0.025455165364211253 0.00077192005082633223 0 -0.02499371173640666 0.0006562572001779436 0 -0.025760678191150192 0.00054334289637237882 0 -0.025372810173858843 0.00033163865873065697 0 -0.025455165364211253 0.00077192005082633223 0 -0.02499371173640666 0.0006562572001779436 0 -0.024653564262293724 0.00083858147810283697 0 -0.024373107452919554 0.00037401457382417539 0 -0.025455165364211253 0.00077192005082633223 0 -0.025073286947970425 0.00094709588644204369 0 -0.02499371173640666 0.0006562572001779436 0 -0.025073286947970425 0.00094709588644204369 0 -0.02499371173640666 0.0006562572001779436 0 -0.024653564262293724 0.00083858147810283697 0 -0.025073286947970425 0.00094709588644204369 0 -0.024660381536101582 0.0011437927998227237 0 -0.024653564262293724 0.00083858147810283697 0 -0.025073286947970425 0.00094709588644204369 0 -0.025015433409101066 0.0012387748571561644 0 -0.024660381536101582 0.0011437927998227237 0 -0.025612062913144103 0.0010330959359837833 0 -0.025455165364211253 0.00077192005082633223 0 -0.025073286947970425 0.00094709588644204369 0 -0.025612062913144103 0.0010330959359837833 0 -0.025073286947970425 0.00094709588644204369 0 -0.025015433409101066 0.0012387748571561644 0 -0.025612062913144103 0.0010330959359837833 0 -0.025095569740034414 0.0016165948465101242 0 -0.025472892819556194 0.0018059643455217321 0 -0.025612062913144103 0.0010330959359837833 0 -0.025015433409101066 0.0012387748571561644 0 -0.025095569740034414 0.0016165948465101242 0 -0.025015433409101066 0.0012387748571561644 0 -0.024660381536101582 0.0011437927998227237 0 -0.024656271556717579 0.0015461482035538656 0 -0.025015433409101066 0.0012387748571561644 0 -0.025095569740034414 0.0016165948465101242 0 -0.024656271556717579 0.0015461482035538656 0 -0.025095569740034414 0.0016165948465101242 0 -0.024710360666484237 0.0019674426929505726 0 -0.025131060738907699 0.0020901460428580133 0 -0.024656271556717579 0.0015461482035538656 0 -0.024710360666484237 0.0019674426929505726 0 -0.024498179546256067 0.0018030121354250324 0 -0.025095569740034414 0.0016165948465101242 0 -0.024656271556717579 0.0015461482035538656 0 -0.024710360666484237 0.0019674426929505726 0 -0.024710360666484237 0.0019674426929505726 0 -0.024888317867680948 0.0023152250933962666 0 -0.025131060738907699 0.0020901460428580133 0 -0.024710360666484237 0.0019674426929505726 0 -0.024527545976772265 0.0023866588067518206 0 -0.024278038897830884 0.0020568640246778616 0 -0.024710360666484237 0.0019674426929505726 0 -0.024888317867680948 0.0023152250933962666 0 -0.024527545976772265 0.0023866588067518206 0 -0.024888317867680948 0.0023152250933962666 0 -0.024527545976772265 0.0023866588067518206 0 -0.024803111893918345 0.0026639015226016627 0 -0.024888317867680948 0.0023152250933962666 0 -0.025243917797786931 0.0024471285712200025 0 -0.024803111893918345 0.0026639015226016627 0 -0.024888317867680948 0.0023152250933962666 0 -0.025243917797786931 0.0024471285712200025 0 -0.025131060738907699 0.0020901460428580133 0 -0.02369183276520042 0.0013376379761108348 0 -0.025275434293658333 0.0026195061586161707 0 -0.02369183276520042 0.0013376379761108348 0 -0.025832877304113364 0.00076205091540724839 0 -0.025329084892481972 0.0024851752576984716 0 -0.025472892819556194 0.0018059643455217321 0 -0.025131060738907699 0.0020901460428580133 0 -0.025095569740034414 0.0016165948465101242 0 -0.025472892819556194 0.0018059643455217321 0 -0.025131060738907699 0.0020901460428580133 0 -0.026099842948790534 -0.0011267588771768273 0 -0.025855041101463541 9.8146432165219374e-05 0 -0.025380897842583648 -0.00055804901689023912 0 -0.025855041101463541 9.8146432165219374e-05 0 -0.025091263066746305 0.00017194585075232393 0 -0.025380897842583648 -0.00055804901689023912 0 -0.024161795205536914 9.6251612058380578e-05 0 -0.025091263066746305 0.00017194585075232393 0 -0.024590640210248961 -0.00067366597406749479 0 -0.025091263066746305 0.00017194585075232393 0 -0.024590640210248961 -0.00067366597406749479 0 -0.025380897842583648 -0.00055804901689023912 0 -0.024590640210248961 -0.00067366597406749479 0 -0.025181201800095365 -0.0014104693304650146 0 -0.024022554232311748 -0.0020324415469265889 0 -0.023526133629984913 -0.00092215197497538229 0 -0.024590640210248961 -0.00067366597406749479 0 -0.024022554232311748 -0.0020324415469265889 0 -0.024590640210248961 -0.00067366597406749479 0 -0.025380897842583648 -0.00055804901689023912 0 -0.025181201800095365 -0.0014104693304650146 0 -0.026099842948790534 -0.0011267588771768273 0 -0.025380897842583648 -0.00055804901689023912 0 -0.025181201800095365 -0.0014104693304650146 0 -0.02369183276520042 0.0013376379761108348 0 -0.022692408059766803 -0.00085683487767034591 0 -0.026099842948790534 -0.0011267588771768273 0 -0.025181201800095365 -0.0014104693304650146 0 -0.025450415773573314 -0.0024299231755779741 0 -0.025181201800095365 -0.0014104693304650146 0 -0.025450415773573314 -0.0024299231755779741 0 -0.024022554232311748 -0.0020324415469265889 0 -0.025450415773573314 -0.0024299231755779741 0 -0.024022554232311748 -0.0020324415469265889 0 -0.024687084233408183 -0.0037605914004378801 0 -0.023090407263311657 -0.0028581339903026052 0 -0.024022554232311748 -0.0020324415469265889 0 -0.024687084233408183 -0.0037605914004378801 0 -0.019328166426271807 0.00057366711888149876 0 -0.019890772438049535 7.2968835009919292e-05 0 -0.01823987745395585 -0.00017263880460010659 0 -0.022692408059766803 -0.00085683487767034591 0 -0.014921698974941864 1.6477698630553868e-08 0 -0.018966369048117125 0.0010973090369720733 0 -0.019328166426271807 0.00057366711888149876 0 -0.01823987745395585 -0.00017263880460010659 0 -0.018966369048117125 0.0010973090369720733 0 -0.019328166426271807 0.00057366711888149876 0 -0.019784937673592632 0.0012131544539909769 0 -0.019328166426271807 0.00057366711888149876 0 -0.019784937673592632 0.0012131544539909769 0 -0.019890772438049535 7.2968835009919292e-05 0 -0.022546588983944151 0.0021214618397481029 0 -0.016350478536066783 0.002048093191199485 0 -0.0247394575651705 0.0030517725504307746 0 -0.02511661131989093 0.0029516577132341917 0 -0.024991962181794006 0.0034370280833430481 0 -0.0247394575651705 0.0030517725504307746 0 -0.02442060431154108 0.002818198651322911 0 -0.024351297129589115 0.003368801718044 0 -0.020054873229849283 0.0039115709492941403 0 -0.016350478536066783 0.002048093191199485 0 -0.0247394575651705 0.0030517725504307746 0 -0.024351297129589115 0.003368801718044 0 -0.024991962181794006 0.0034370280833430481 0 -0.0247394575651705 0.0030517725504307746 0 -0.024803111893918345 0.0026639015226016627 0 -0.02442060431154108 0.002818198651322911 0 -0.024527545976772265 0.0023866588067518206 0 -0.024803111893918345 0.0026639015226016627 0 -0.02442060431154108 0.002818198651322911 0 -0.025243917797786931 0.0024471285712200025 0 -0.024803111893918345 0.0026639015226016627 0 -0.02511661131989093 0.0029516577132341917 0 -0.019698822887565855 0.0023386970179354451 0 -0.018966369048117125 0.0010973090369720733 0 -0.019784937673592632 0.0012131544539909769 0 -0.02369183276520042 0.0013376379761108348 0 -0.022546588983944151 0.0021214618397481029 0 -0.0247394575651705 0.0030517725504307746 0 -0.024803111893918345 0.0026639015226016627 0 -0.02511661131989093 0.0029516577132341917 0 -0.023933276689345029 0.0028172400320411743 0 -0.023604965902759675 0.0028910862856865965 0 -0.023629990484064115 0.0032886174000517185 0 -0.023604965902759675 0.0028910862856865965 0 -0.023367145893347731 0.0026534097279513505 0 -0.023688298106229556 0.0025760196613722644 0 -0.023933276689345029 0.0028172400320411743 0 -0.023604965902759675 0.0028910862856865965 0 -0.023688298106229556 0.0025760196613722644 0 -0.023933276689345029 0.0028172400320411743 0 -0.02442060431154108 0.002818198651322911 0 -0.024351297129589115 0.003368801718044 0 -0.023933276689345029 0.0028172400320411743 0 -0.02442060431154108 0.002818198651322911 0 -0.024213223766074689 0.0025136735814473019 0 -0.020054873229849283 0.0039115709492941403 0 -0.017170949413621246 0.0027997667172473904 0 -0.023933276689345029 0.0028172400320411743 0 -0.024351297129589115 0.003368801718044 0 -0.023629990484064115 0.0032886174000517185 0 -0.023604965902759675 0.0028910862856865965 0 -0.023629990484064115 0.0032886174000517185 0 -0.023453134711618986 0.0031524896707729971 0 -0.017170949413621246 0.0027997667172473904 0 -0.017676870182253002 0.0033298895082037399 0 -0.01654610894818943 0.0022658439232291529 0 -0.016524965076891801 0.0022657642413974571 0 -0.016522378847919607 0.0022556034379916973 0 -0.012334311995769606 0.0013611997130954787 0 -0.012449755954083062 0.0013712896118967036 0 -0.012167670042215303 0.0011069521045913337 0 -0.017170949413621246 0.0027997667172473904 0 -0.014710201823509727 0.0016740044372990689 0 -0.012087725076359697 0.00049663444958481212 0 -0.01223717901466119 0.00036987559484806092 0 -0.011787531756245717 0.00011844045327926313 0 -0.014284994715496041 0.0018715656256830028 0 -0.011506124294455706 0.00073184927534044838 0 -0.012087725076359697 0.00049663444958481212 0 -0.011787531756245717 0.00011844045327926313 0 -0.011304710540483091 0.0010941508558952344 0 -0.015900420260410587 0.0027345210066387735 0 -0.015881170782932916 0.0027473899542309927 0 -0.015893855330218355 0.0027743051106900694 0 -0.014284994715496041 0.0018715656256830028 0 -0.017114042151418471 0.003830633515530972 0 -0.017676870182253002 0.0033298895082037399 0 -0.017114042151418471 0.003830633515530972 0 -0.015855524996370027 0.0027268980026203919 0 -0.015900420260410587 0.0027345210066387735 0 -0.015881170782932916 0.0027473899542309927 0 -0.015881170782932916 0.0027473899542309927 0 -0.015860874335450529 0.0027457423486596487 0 -0.015893855330218355 0.0027743051106900694 0 -0.014710201823509727 0.0016740044372990689 0 -0.014284994715496041 0.0018715656256830028 0 -0.014710201823509727 0.0016740044372990689 0 -0.017676870182253002 0.0033298895082037399 0 -0.015855524996370027 0.0027268980026203919 0 -0.015881170782932916 0.0027473899542309927 0 -0.015860874335450529 0.0027457423486596487 0 -0.014284994715496041 0.0018715656256830028 0 -0.012796778435934233 0.0025006021394760563 0 -0.011723304857655908 -1.6623062541217512e-05 0 -0.0098083092954129071 -0.00028597865030974094 0 -0.010302218983773686 0.00083170521449962463 0 -0.017927902641001175 0.0053907607720711775 0 -0.016514332167243399 0.0042276419444000424 0 -0.015569958029227463 0.0050551631874436991 0 -0.017927902641001175 0.0053907607720711775 0 -0.016514332167243399 0.0042276419444000424 0 -0.017324588355516111 0.004144840940327469 0 -0.017324588355516111 0.004144840940327469 0 -0.017596796949823496 0.0034926286070696704 0 -0.016887145516810646 0.0031843690534132858 0 -0.017324588355516111 0.004144840940327469 0 -0.017596796949823496 0.0034926286070696704 0 -0.017916888246803517 0.0044300004095139322 0 -0.016514332167243399 0.0042276419444000424 0 -0.017324588355516111 0.004144840940327469 0 -0.016887145516810646 0.0031843690534132858 0 -0.017676870182253002 0.0033298895082037399 0 -0.019595706173969669 0.0033184039212362619 0 -0.018290272490177392 0.003361188919606174 0 -0.018349785115361325 0.0034055269660290726 0 -0.01832818917409872 0.003488125171893858 0 -0.023604965902759675 0.0028910862856865965 0 -0.023453134711618986 0.0031524896707729971 0 -0.023367145893347731 0.0026534097279513505 0 -0.017927902641001175 0.0053907607720711775 0 -0.017324588355516111 0.004144840940327469 0 -0.017916888246803517 0.0044300004095139322 0 -0.017927902641001175 0.0053907607720711775 0 -0.018198794656514906 0.0046517031345967123 0 -0.017916888246803517 0.0044300004095139322 0 -0.018210330004319569 0.0046568592138735085 0 -0.017916888246803517 0.0044300004095139322 0 -0.018599856511684745 0.003654846481939829 0 -0.017114042151418471 0.003830633515530972 0 -0.017546655432057374 0.0041622168109686436 0 -0.017596796949823496 0.0034926286070696704 0 -0.017916888246803517 0.0044300004095139322 0 -0.018599856511684745 0.003654846481939829 0 -0.017114042151418471 0.003830633515530972 0 -0.019595706173969669 0.0033184039212362619 0 -0.018869661811372302 0.0038482723492359425 0 -0.018279258213656675 0.0013763857441640753 0 -0.019460536008434868 0.002125612851562935 0 -0.018599856511684745 0.003654846481939829 0 -0.01748093340835484 0.0024289018392191198 0 -0.018279258213656675 0.0013763857441640753 0 -0.019595706173969669 0.0033184039212362619 0 -0.021576240138782347 0.0019483255644994785 0 -0.019595706173969669 0.0033184039212362619 0 -0.018107947058926897 0.001632455912306441 0 -0.017596796949823496 0.0034926286070696704 0 -0.018599856511684745 0.003654846481939829 0 -0.01748093340835484 0.0024289018392191198 0 -0.017596796949823496 0.0034926286070696704 0 -0.016887145516810646 0.0031843690534132858 0 -0.01748093340835484 0.0024289018392191198 0 -0.016887145516810646 0.0031843690534132858 0 -0.01748093340835484 0.0024289018392191198 0 -0.016072417722556256 0.0019332387721334079 0 -0.017367771246983799 0.00085432823786266263 0 -0.016303008689301377 -6.0733396911228964e-05 0 -0.016072417722556256 0.0019332387721334079 0 -0.01748093340835484 0.0024289018392191198 0 -0.017367771246983799 0.00085432823786266263 0 -0.018279258213656675 0.0013763857441640753 0 -0.01748093340835484 0.0024289018392191198 0 -0.017367771246983799 0.00085432823786266263 0 -0.016072417722556256 0.0019332387721334079 0 -0.018279258213656675 0.0013763857441640753 0 -0.019042855799157269 0.0010434043527671269 0 -0.019460536008434868 0.002125612851562935 0 -0.017367771246983799 0.00085432823786266263 0 -0.018279258213656675 0.0013763857441640753 0 -0.018570994618985908 0.00025854978812574274 0 -0.019042855799157269 0.0010434043527671269 0 -0.019427622054139664 0.00071621331395767729 0 -0.019460536008434868 0.002125612851562935 0 -0.018279258213656675 0.0013763857441640753 0 -0.019042855799157269 0.0010434043527671269 0 -0.018570994618985908 0.00025854978812574274 0 -0.019042855799157269 0.0010434043527671269 0 -0.019427622054139664 0.00071621331395767729 0 -0.018570994618985908 0.00025854978812574274 0 -0.019427622054139664 0.00071621331395767729 0 -0.019460536008434868 0.002125612851562935 0 -0.019873165956421864 0.00034750191951260685 0 -0.023972401386478884 0.0019846131109540468 0 -0.023579893158850399 0.0021458648272610938 0 -0.023786874085631224 0.0015732174972325314 0 -0.021576240138782347 0.0019483255644994785 0 -0.022683766622529536 0.0018905976512274489 0 -0.024085208212958072 0.0017910874718144235 0 -0.023972401386478884 0.0019846131109540468 0 -0.023912571454879832 0.0016632277643899051 0 -0.023780968334686056 0.0020571129918177779 0 -0.022683766622529536 0.0018905976512274489 0 -0.023933276689345029 0.0028172400320411743 0 -0.023950627307847003 0.0023592708835521495 0 -0.023688298106229556 0.0025760196613722644 0 -0.023367145893347731 0.0026534097279513505 0 -0.023579893158850399 0.0021458648272610938 0 -0.023688298106229556 0.0025760196613722644 0 -0.023579893158850399 0.0021458648272610938 0 -0.023950627307847003 0.0023592708835521495 0 -0.023688298106229556 0.0025760196613722644 0 -0.023972401386478884 0.0019846131109540468 0 -0.023579893158850399 0.0021458648272610938 0 -0.023950627307847003 0.0023592708835521495 0 -0.024527545976772265 0.0023866588067518206 0 -0.024213223766074689 0.0025136735814473019 0 -0.024278038897830884 0.0020568640246778616 0 -0.023950627307847003 0.0023592708835521495 0 -0.024213223766074689 0.0025136735814473019 0 -0.024278038897830884 0.0020568640246778616 0 -0.023933276689345029 0.0028172400320411743 0 -0.023950627307847003 0.0023592708835521495 0 -0.024213223766074689 0.0025136735814473019 0 -0.024527545976772265 0.0023866588067518206 0 -0.02442060431154108 0.002818198651322911 0 -0.024213223766074689 0.0025136735814473019 0 -0.024710360666484237 0.0019674426929505726 0 -0.024278038897830884 0.0020568640246778616 0 -0.024498179546256067 0.0018030121354250324 0 -0.023972401386478884 0.0019846131109540468 0 -0.023950627307847003 0.0023592708835521495 0 -0.024278038897830884 0.0020568640246778616 0 -0.024085208212958072 0.0017910874718144235 0 -0.023972401386478884 0.0019846131109540468 0 -0.024278038897830884 0.0020568640246778616 0 -0.024085208212958072 0.0017910874718144235 0 -0.024278038897830884 0.0020568640246778616 0 -0.02430031028422884 0.0016577682058124751 0 -0.024278038897830884 0.0020568640246778616 0 -0.024498179546256067 0.0018030121354250324 0 -0.02430031028422884 0.0016577682058124751 0 -0.024656271556717579 0.0015461482035538656 0 -0.02430031028422884 0.0016577682058124751 0 -0.024393391823067861 0.0013709249395225623 0 -0.024660381536101582 0.0011437927998227237 0 -0.024656271556717579 0.0015461482035538656 0 -0.024393391823067861 0.0013709249395225623 0 -0.024656271556717579 0.0015461482035538656 0 -0.024498179546256067 0.0018030121354250324 0 -0.02430031028422884 0.0016577682058124751 0 -0.024085208212958072 0.0017910874718144235 0 -0.02430031028422884 0.0016577682058124751 0 -0.02411686385554291 0.0016463789708898299 0 -0.02430031028422884 0.0016577682058124751 0 -0.024178178104201878 0.0014763870582775332 0 -0.02411686385554291 0.0016463789708898299 0 -0.02430031028422884 0.0016577682058124751 0 -0.024178178104201878 0.0014763870582775332 0 -0.024393391823067861 0.0013709249395225623 0 -0.024178178104201878 0.0014763870582775332 0 -0.023912571454879832 0.0016632277643899051 0 -0.024234124559665175 0.0010565337813045544 0 -0.022683766622529536 0.0018905976512274489 0 -0.021048773063115634 0.0013369451611393109 0 -0.022683766622529536 0.0018905976512274489 0 -0.023966494583055969 0.0018888940782494645 0 -0.019873165956421864 0.00034750191951260685 0 -0.019869730403602449 0.00027404220371690375 0 -0.020161429099040635 4.1496946114775524e-05 0 -0.019427622054139664 0.00071621331395767729 0 -0.019873165956421864 0.00034750191951260685 0 -0.019869730403602449 0.00027404220371690375 0 -0.024178178104201878 0.0014763870582775332 0 -0.023912571454879832 0.0016632277643899051 0 -0.02411686385554291 0.0016463789708898299 0 -0.024085208212958072 0.0017910874718144235 0 -0.023912571454879832 0.0016632277643899051 0 -0.02411686385554291 0.0016463789708898299 0 -0.023570110438337163 0.0023597272484985263 0 -0.02265588718693801 0.0015308144873270682 0 -0.022215287782626783 0.0026378942772939183 0 -0.022888382776657147 0.0041639177981459682 0 -0.023570110438337163 0.0023597272484985263 0 -0.022215287782626783 0.0026378942772939183 0 -0.024178178104201878 0.0014763870582775332 0 -0.024393391823067861 0.0013709249395225623 0 -0.024234124559665175 0.0010565337813045544 0 -0.024660381536101582 0.0011437927998227237 0 -0.024393391823067861 0.0013709249395225623 0 -0.024234124559665175 0.0010565337813045544 0 -0.024660381536101582 0.0011437927998227237 0 -0.024234124559665175 0.0010565337813045544 0 -0.024653564262293724 0.00083858147810283697 0 -0.023570110438337163 0.0023597272484985263 0 -0.023343243566269323 0.00098005335476601023 0 -0.024373107452919554 0.00037401457382417539 0 -0.023966494583055969 0.0018888940782494645 0 -0.024347302453334305 0.00035766372785330154 0 -0.024234124559665175 0.0010565337813045544 0 -0.024653564262293724 0.00083858147810283697 0 -0.024373107452919554 0.00037401457382417539 0 -0.023570110438337163 0.0023597272484985263 0 -0.02265588718693801 0.0015308144873270682 0 -0.023343243566269323 0.00098005335476601023 0 -0.02265588718693801 0.0015308144873270682 0 -0.023343243566269323 0.00098005335476601023 0 -0.022471896991245403 0.00048386632432469119 0 -0.023343243566269323 0.00098005335476601023 0 -0.022471896991245403 0.00048386632432469119 0 -0.0233007005674403 0.00011859429504756479 0 -0.022048048719890218 -0.0009832517702318942 0 -0.022471896991245403 0.00048386632432469119 0 -0.0233007005674403 0.00011859429504756479 0 -0.024159391920869029 -0.00036672628635426571 0 -0.0233007005674403 0.00011859429504756479 0 -0.024373107452919554 0.00037401457382417539 0 -0.023343243566269323 0.00098005335476601023 0 -0.0233007005674403 0.00011859429504756479 0 -0.024373107452919554 0.00037401457382417539 0 -0.020629311545919068 -0.00071190585937449223 0 -0.020268174200408388 -0.00019066477350229176 0 -0.020431977328067241 -0.00012517491458099802 0 -0.022048048719890218 -0.0009832517702318942 0 -0.022471896991245403 0.00048386632432469119 0 -0.021642671005624153 -4.7151724329702564e-05 0 -0.020613769306080582 -0.00064314414843657966 0 -0.020936731004472395 0.0003999890188209357 0 -0.020629311545919068 -0.00071190585937449223 0 -0.021642671005624153 -4.7151724329702564e-05 0 -0.021434829681268384 0.0010176306678761243 0 -0.022471896991245403 0.00048386632432469119 0 -0.021642671005624153 -4.7151724329702564e-05 0 -0.021434829681268384 0.0010176306678761243 0 -0.02265588718693801 0.0015308144873270682 0 -0.021434829681268384 0.0010176306678761243 0 -0.022215287782626783 0.0026378942772939183 0 -0.020936731004472395 0.0003999890188209357 0 -0.021048773063115634 0.0013369451611393109 0 -0.020431977328067241 -0.00012517491458099802 0 -0.020161429099040635 4.1496946114775524e-05 0 -0.020279289989447315 -2.0128603221876198e-05 0 -0.02265588718693801 0.0015308144873270682 0 -0.022471896991245403 0.00048386632432469119 0 -0.021434829681268384 0.0010176306678761243 0 -0.018144665880954539 -0.0020495988842107373 0 -0.01926564397641306 -0.00093095002702195731 0 -0.016647076025877863 -0.0039093687807604501 0 -0.016500753114278593 -0.0020389094406825007 0 -0.018137370675838888 -0.0019519648902732265 0 -0.018144665880954539 -0.0020495988842107373 0 -0.016042526293436186 -0.0018770516296967384 0 -0.020268174200408388 -0.00019066477350229176 0 -0.020431977328067241 -0.00012517491458099802 0 -0.020279289989447315 -2.0128603221876198e-05 0 -0.017166144324982199 -0.001115883180074662 0 -0.018137370675838888 -0.0019519648902732265 0 -0.017719491292544545 -0.00040052353545359115 0 -0.016500753114278593 -0.0020389094406825007 0 -0.017166144324982199 -0.001115883180074662 0 -0.016303008689301377 -6.0733396911228964e-05 0 -0.016042526293436186 -0.0018770516296967384 0 -0.016123463238700661 0.00016836320321746061 0 -0.016500753114278593 -0.0020389094406825007 0 -0.017166144324982199 -0.001115883180074662 0 -0.018137370675838888 -0.0019519648902732265 0 -0.019869730403602449 0.00027404220371690375 0 -0.020161429099040635 4.1496946114775524e-05 0 -0.020279289989447315 -2.0128603221876198e-05 0 -0.01985846852009877 0.00020675272722686761 0 -0.01926564397641306 -0.00093095002702195731 0 -0.019869730403602449 0.00027404220371690375 0 -0.018137370675838888 -0.0019519648902732265 0 -0.018570994618985908 0.00025854978812574274 0 -0.018137370675838888 -0.0019519648902732265 0 -0.018570994618985908 0.00025854978812574274 0 -0.017719491292544545 -0.00040052353545359115 0 -0.017367771246983799 0.00085432823786266263 0 -0.018570994618985908 0.00025854978812574274 0 -0.017719491292544545 -0.00040052353545359115 0 -0.019427622054139664 0.00071621331395767729 0 -0.019869730403602449 0.00027404220371690375 0 -0.018570994618985908 0.00025854978812574274 0 -0.017166144324982199 -0.001115883180074662 0 -0.017719491292544545 -0.00040052353545359115 0 -0.016303008689301377 -6.0733396911228964e-05 0 -0.017367771246983799 0.00085432823786266263 0 -0.017719491292544545 -0.00040052353545359115 0 -0.016303008689301377 -6.0733396911228964e-05 0 -0.015937937525072183 0.00020037643347493617 0 -0.014699608156169358 -0.00039035778261900398 0 -0.015028220439071423 0.00092156061502494133 0 -0.014699608156169358 -0.00039035778261900398 0 -0.01378334829466803 0.0010094233356810946 0 -0.015028220439071423 0.00092156061502494133 0 -0.014699608156169358 -0.00039035778261900398 0 -0.013496131507156556 -0.00025201053244484662 0 -0.01378334829466803 0.0010094233356810946 0 -0.014699608156169358 -0.00039035778261900398 0 -0.013859425391347156 -0.0013259446913981884 0 -0.013496131507156556 -0.00025201053244484662 0 -0.014699608156169358 -0.00039035778261900398 0 -0.013859425391347156 -0.0013259446913981884 0 -0.014912292270966847 -0.001656102080422605 0 -0.015816832400596302 -0.001299525515014601 0 -0.014699608156169358 -0.00039035778261900398 0 -0.014912292270966847 -0.001656102080422605 0 -0.015816832400596302 -0.001299525515014601 0 -0.015937937525072183 0.00020037643347493617 0 -0.014699608156169358 -0.00039035778261900398 0 -0.015751850848863796 -0.0025800199040925012 0 -0.015816832400596302 -0.001299525515014601 0 -0.014912292270966847 -0.001656102080422605 0 -0.015751850848863796 -0.0025800199040925012 0 -0.014912292270966847 -0.001656102080422605 0 -0.014384306063358854 -0.0025286696035838681 0 -0.013859425391347156 -0.0013259446913981884 0 -0.014384306063358854 -0.0025286696035838681 0 -0.0135389944688114 -0.0021365767525880399 0 -0.013859425391347156 -0.0013259446913981884 0 -0.014912292270966847 -0.001656102080422605 0 -0.014384306063358854 -0.0025286696035838681 0 -0.014384306063358854 -0.0025286696035838681 0 -0.013397700620680854 -0.0029346398985157494 0 -0.0135389944688114 -0.0021365767525880399 0 -0.014132776780642897 -0.0033403789042778524 0 -0.014384306063358854 -0.0025286696035838681 0 -0.013397700620680854 -0.0029346398985157494 0 -0.014995962322040863 -0.0033963963620401568 0 -0.014132776780642897 -0.0033403789042778524 0 -0.014384306063358854 -0.0025286696035838681 0 -0.014995962322040863 -0.0033963963620401568 0 -0.015751850848863796 -0.0025800199040925012 0 -0.014384306063358854 -0.0025286696035838681 0 -0.017100760470414419 -0.0030942354431653671 0 -0.018144665880954539 -0.0020495988842107373 0 -0.012198929989602919 -0.0028152200066669194 0 -0.013397700620680854 -0.0029346398985157494 0 -0.012515028153804278 -0.0019825638777125521 0 -0.012740460373981287 -0.003606932132317412 0 -0.012198929989602919 -0.0028152200066669194 0 -0.013397700620680854 -0.0029346398985157494 0 -0.0135389944688114 -0.0021365767525880399 0 -0.012515028153804278 -0.0019825638777125521 0 -0.012883313736077364 -0.001085328307308407 0 -0.013397700620680854 -0.0029346398985157494 0 -0.0135389944688114 -0.0021365767525880399 0 -0.012515028153804278 -0.0019825638777125521 0 -0.013859425391347156 -0.0013259446913981884 0 -0.0135389944688114 -0.0021365767525880399 0 -0.012883313736077364 -0.001085328307308407 0 -0.012198929989602919 -0.0028152200066669194 0 -0.012515028153804278 -0.0019825638777125521 0 -0.011583364122259264 -0.0019604175721612579 0 -0.012515028153804278 -0.0019825638777125521 0 -0.012883313736077364 -0.001085328307308407 0 -0.011516241780541038 -0.0006063845337975428 0 -0.012515028153804278 -0.0019825638777125521 0 -0.011516241780541038 -0.0006063845337975428 0 -0.011583364122259264 -0.0019604175721612579 0 -0.013859425391347156 -0.0013259446913981884 0 -0.012883313736077364 -0.001085328307308407 0 -0.013496131507156556 -0.00025201053244484662 0 -0.012883313736077364 -0.001085328307308407 0 -0.013496131507156556 -0.00025201053244484662 0 -0.012479802932736601 0.00047655670377944065 0 -0.013496131507156556 -0.00025201053244484662 0 -0.012479802932736601 0.00047655670377944065 0 -0.01378334829466803 0.0010094233356810946 0 -0.012883313736077364 -0.001085328307308407 0 -0.012479802932736601 0.00047655670377944065 0 -0.011516241780541038 -0.0006063845337975428 0 -0.012479802932736601 0.00047655670377944065 0 -0.011516241780541038 -0.0006063845337975428 0 -0.010309947550150243 0.00067528524995272331 0 -0.012479802932736601 0.00047655670377944065 0 -0.011548692516660622 0.0018638747387312582 0 -0.010309947550150243 0.00067528524995272331 0 -0.012479802932736601 0.00047655670377944065 0 -0.011548692516660622 0.0018638747387312582 0 -0.012748536541412406 0.0017260455654098223 0 -0.011548692516660622 0.0018638747387312582 0 -0.011288281919766229 0.0031050996529603993 0 -0.012748536541412406 0.0017260455654098223 0 -0.011516021895050159 0.001977159771741593 0 -0.011091096976335261 0.0036307728765300196 0 -0.011548692516660622 0.0018638747387312582 0 -0.011202050801953181 0.0036485777984658933 0 -0.009386957514549597 0.0023897395200817273 0 -0.011288281919766229 0.0031050996529603993 0 -0.01328540283624652 0.002807647474805905 0 -0.012748536541412406 0.0017260455654098223 0 -0.011288281919766229 0.0031050996529603993 0 -0.01328540283624652 0.002807647474805905 0 -0.012255323173137312 0.003758187928188782 0 -0.01328540283624652 0.002807647474805905 0 -0.012748536541412406 0.0017260455654098223 0 -0.01378334829466803 0.0010094233356810946 0 -0.012479802932736601 0.00047655670377944065 0 -0.012748536541412406 0.0017260455654098223 0 -0.01378334829466803 0.0010094233356810946 0 -0.01328540283624652 0.002807647474805905 0 -0.01467859807175167 0.0019761612711678661 0 -0.01378334829466803 0.0010094233356810946 0 -0.01467859807175167 0.0019761612711678661 0 -0.01378334829466803 0.0010094233356810946 0 -0.015028220439071423 0.00092156061502494133 0 -0.01467859807175167 0.0019761612711678661 0 -0.015028220439071423 0.00092156061502494133 0 -0.016072417722556256 0.0019332387721334079 0 -0.016123463238700661 0.00016836320321746061 0 -0.016062626866889224 0.0017812990173485131 0 -0.015937937525072183 0.00020037643347493617 0 -0.015028220439071423 0.00092156061502494133 0 -0.016072417722556256 0.0019332387721334079 0 -0.016887145516810646 0.0031843690534132858 0 -0.016072417722556256 0.0019332387721334079 0 -0.015162878876542631 0.0034135762986871525 0 -0.01467859807175167 0.0019761612711678661 0 -0.016072417722556256 0.0019332387721334079 0 -0.015162878876542631 0.0034135762986871525 0 -0.01328540283624652 0.002807647474805905 0 -0.01467859807175167 0.0019761612711678661 0 -0.015162878876542631 0.0034135762986871525 0 -0.01328540283624652 0.002807647474805905 0 -0.015162878876542631 0.0034135762986871525 0 -0.013265663961849101 0.0047034042188808219 0 -0.015162878876542631 0.0034135762986871525 0 -0.015569958029227463 0.0050551631874436991 0 -0.013265663961849101 0.0047034042188808219 0 -0.016514332167243399 0.0042276419444000424 0 -0.016887145516810646 0.0031843690534132858 0 -0.015162878876542631 0.0034135762986871525 0 -0.016514332167243399 0.0042276419444000424 0 -0.015162878876542631 0.0034135762986871525 0 -0.015569958029227463 0.0050551631874436991 0 -0.0098083092954129071 -0.00028597865030974094 0 -0.0087528198647987294 0.00062967708941915582 0 -0.010302218983773686 0.00083170521449962463 0 -0.012796778435934233 0.0025006021394760563 0 -0.010666697742546263 0.0020454246943885342 0 -0.0098083092954129071 -0.00028597865030974094 0 -0.0078683283387811654 -0.00049281122959264503 0 -0.0087528198647987294 0.00062967708941915582 0 -0.0074658952742744202 0.00056924281728734931 0 -0.0066688024622198255 0.00020852949981083434 0 -0.0078683283387811654 -0.00049281122959264503 0 -0.0074658952742744202 0.00056924281728734931 0 -0.0078683283387811654 -0.00049281122959264503 0 -0.0087528198647987294 0.00062967708941915582 0 -0.0066688024622198255 0.00020852949981083434 0 -0.0061690128160285726 -0.00060219271694110651 0 -0.0078683283387811654 -0.00049281122959264503 0 -0.0066688024622198255 0.00020852949981083434 0 -0.0061690128160285726 -0.00060219271694110651 0 -0.0060265890439643432 0.00073334181225075373 0 -0.011019298994408143 0.0043749272209967494 0 -0.013265663961849101 0.0047034042188808219 0 -0.012255323173137312 0.003758187928188782 0 -0.0080323687360969384 0.0023414531173064725 0 -0.010666697742546263 0.0020454246943885342 0 -0.011288281919766229 0.0031050996529603993 0 -0.011019298994408143 0.0043749272209967494 0 -0.012255323173137312 0.003758187928188782 0 -0.011091096976335261 0.0036307728765300196 0 -0.0080323687360969384 0.0023414531173064725 0 -0.01328540283624652 0.002807647474805905 0 -0.013265663961849101 0.0047034042188808219 0 -0.012255323173137312 0.003758187928188782 0 -0.0067376100984672645 0.0010893384848680396 0 -0.0068441436899387472 0.0014609941847836176 0 -0.0065668127032733146 0.0014802077310321425 0 -0.00639799947124574 0.0013004784255007144 0 -0.0067376100984672645 0.0010893384848680396 0 -0.0065668127032733146 0.0014802077310321425 0 -0.00639799947124574 0.0013004784255007144 0 -0.0062794112400149848 0.0015808764868845181 0 -0.0060377788989257122 0.0013399687358463565 0 -0.00639799947124574 0.0013004784255007144 0 -0.0064929279765332994 0.001009293248371548 0 -0.0060377788989257122 0.0013399687358463565 0 -0.0064929279765332994 0.001009293248371548 0 -0.0060377788989257122 0.0013399687358463565 0 -0.0060265890439643432 0.00073334181225075373 0 -0.0066688024622198255 0.00020852949981083434 0 -0.0064929279765332994 0.001009293248371548 0 -0.0060265890439643432 0.00073334181225075373 0 -0.0074658952742744202 0.00056924281728734931 0 -0.0066688024622198255 0.00020852949981083434 0 -0.0064929279765332994 0.001009293248371548 0 -0.0074658952742744202 0.00056924281728734931 0 -0.0064929279765332994 0.001009293248371548 0 -0.0079101982518674143 0.0014217055038673451 0 -0.0074658952742744202 0.00056924281728734931 0 -0.0079101982518674143 0.0014217055038673451 0 -0.0087528198647987294 0.00062967708941915582 0 -0.00639799947124574 0.0013004784255007144 0 -0.0064929279765332994 0.001009293248371548 0 -0.0067376100984672645 0.0010893384848680396 0 -0.0065818842071179353 0.0010514469920472167 0 -0.0072918878814470121 0.0012356466279893614 0 -0.0079101982518674143 0.0014217055038673451 0 -0.0087528198647987294 0.00062967708941915582 0 -0.0093399871701162051 0.001708390445758439 0 -0.0072918878814470121 0.0012356466279893614 0 -0.0083236068077530406 0.0014790216241085386 0 -0.0087528198647987294 0.00062967708941915582 0 -0.0093399871701162051 0.001708390445758439 0 -0.010302218983773686 0.00083170521449962463 0 -0.0093399871701162051 0.001708390445758439 0 -0.010302218983773686 0.00083170521449962463 0 -0.01077940509449023 0.0019531415325662383 0 -0.0053773179594611802 0.00050490608707672577 0 -0.008572676480054317 0.00082368797003774547 0 -0.0083236068077530406 0.0014790216241085386 0 -0.008572676480054317 0.00082368797003774547 0 -0.0070626115581061593 0.0011459756838505357 0 -0.0071440667686562325 0.0014814677326738484 0 -0.007416521656337164 0.0012036797550181839 0 -0.0070626115581061593 0.0011459756838505357 0 -0.0068441436899387472 0.0014609941847836176 0 -0.0071440667686562325 0.0014814677326738484 0 -0.0067376100984672645 0.0010893384848680396 0 -0.0070626115581061593 0.0011459756838505357 0 -0.0068441436899387472 0.0014609941847836176 0 -0.0068441436899387472 0.0014609941847836176 0 -0.0071440667686562325 0.0014814677326738484 0 -0.0068717465936879241 0.0017535599527639988 0 -0.0068441436899387472 0.0014609941847836176 0 -0.0068717465936879241 0.0017535599527639988 0 -0.0067160748980408524 0.0016110569348353806 0 -0.0053773179594611802 0.00050490608707672577 0 -0.0058407904047621936 0.00048946884883128918 0 -0.0042939986640030386 -0.000713683607922531 0 -0.0042321699598812544 -0.00049792612091172257 0 -0.0039446566344999157 -0.00040687800688686483 0 -0.0042939986640030386 -0.000713683607922531 0 -0.0042321699598812544 -0.00049792612091172257 0 -0.00452747478181464 -0.00057420047121566704 0 -0.0042321699598812544 -0.00049792612091172257 0 -0.0043607438236094387 -0.00028452079026911764 0 -0.00452747478181464 -0.00057420047121566704 0 -0.0042321699598812544 -0.00049792612091172257 0 -0.00420417989794629 -0.00033616204025849092 0 -0.0043607438236094387 -0.00028452079026911764 0 -0.0042321699598812544 -0.00049792612091172257 0 -0.00420417989794629 -0.00033616204025849092 0 -0.0040076873346248654 -0.00037419527033994527 0 -0.00420417989794629 -0.00033616204025849092 0 -0.0043607438236094387 -0.00028452079026911764 0 -0.0041722681802958093 -9.4113481537742703e-05 0 -0.00420417989794629 -0.00033616204025849092 0 -0.0040076873346248654 -0.00037419527033994527 0 -0.0041722681802958093 -9.4113481537742703e-05 0 -0.0039446566344999157 -0.00040687800688686483 0 -0.0038922034122249667 -0.0002831270380569913 0 -0.0037407361583225158 -0.00021692859947753561 0 -0.0058407904047621936 0.00048946884883128918 0 -0.001866104121564333 0.00041828903116812317 0 -0.0042321699598812544 -0.00049792612091172257 0 -0.0039446566344999157 -0.00040687800688686483 0 -0.0040076873346248654 -0.00037419527033994527 0 -0.0039446566344999157 -0.00040687800688686483 0 -0.0040076873346248654 -0.00037419527033994527 0 -0.0039542119977780416 -0.00029280335776615753 0 -0.0039852383857611603 -0.00039412094172723707 0 -0.0040416124928506847 -2.324008319176303e-06 0 -0.0039446566344999157 -0.00040687800688686483 0 -0.0039542119977780416 -0.00029280335776615753 0 -0.0038922034122249667 -0.0002831270380569913 0 -0.0040076873346248654 -0.00037419527033994527 0 -0.0039542119977780416 -0.00029280335776615753 0 -0.0039633148709522434 -0.00020846250633581038 0 -0.0039542119977780416 -0.00029280335776615753 0 -0.0038922034122249667 -0.0002831270380569913 0 -0.0039222971729493744 -0.00022399461878947185 0 -0.0068717465936879241 0.0017535599527639988 0 -0.0065848521104135988 0.0017545347266180278 0 -0.0067160748980408524 0.0016110569348353806 0 -0.0068717465936879241 0.0017535599527639988 0 -0.0065848521104135988 0.0017545347266180278 0 -0.0065814499925450588 0.0020214508276103112 0 -0.0026856368704154419 0.00098568102219727307 0 -0.001866104121564333 0.00041828903116812317 0 -0.0065848521104135988 0.0017545347266180278 0 -0.0062800760638927755 0.001860560523563998 0 -0.0065814499925450588 0.0020214508276103112 0 -0.0068441436899387472 0.0014609941847836176 0 -0.0065668127032733146 0.0014802077310321425 0 -0.0067160748980408524 0.0016110569348353806 0 -0.0065848521104135988 0.0017545347266180278 0 -0.0065668127032733146 0.0014802077310321425 0 -0.0062794112400149848 0.0015808764868845181 0 -0.0065848521104135988 0.0017545347266180278 0 -0.0065668127032733146 0.0014802077310321425 0 -0.0067160748980408524 0.0016110569348353806 0 -0.00639799947124574 0.0013004784255007144 0 -0.0065668127032733146 0.0014802077310321425 0 -0.0062794112400149848 0.0015808764868845181 0 -0.0065848521104135988 0.0017545347266180278 0 -0.0062794112400149848 0.0015808764868845181 0 -0.0062800760638927755 0.001860560523563998 0 -0.0062794112400149848 0.0015808764868845181 0 -0.0062800760638927755 0.001860560523563998 0 -0.0059591495286262508 0.0017024386008448276 0 0.0013153570632520202 -0.00010532619149823199 0 0.001219935224327386 0.00016857435669682719 0 0.0010510658587976093 1.9770229591196216e-05 0 0.0013153570632520202 -0.00010532619149823199 0 0.001219935224327386 0.00016857435669682719 0 0.0014885077264333393 -5.0996710208252191e-05 0 0.0026768642474277464 0.0001369226309605607 0 0.0017469671433904244 -0.00012750679825414675 0 0.001219935224327386 0.00016857435669682719 0 0.0014885077264333393 -5.0996710208252191e-05 0 0.0015159097335948266 6.066067052076055e-05 0 0.0017774097167618404 0.00021083906684984328 0 0.0025889803950145977 0.0010937002280749651 0 0.0032651715583071135 -0.00014263681247184766 0 0.0026768642474277464 0.0001369226309605607 0 -0.001866104121564333 0.00041828903116812317 0 0.0026768642474277464 0.0001369226309605607 0 0.0039430610712338637 -0.00024562848575357762 0 0.0041999509956398215 -0.00023126202437465354 0 0.004419366327296833 -0.00045403989313135012 0 0.004481193796952024 -0.00032901240738981085 0 0.0041999509956398215 -0.00023126202437465354 0 0.004419366327296833 -0.00045403989313135012 0 0.0042763732750087909 -0.00054824395758195472 0 0.0041999509956398215 -0.00023126202437465354 0 0.0042763732750087909 -0.00054824395758195472 0 0.003869393315031013 -0.00052913726593653825 0 0.0027103853062309868 -0.00039864157199065897 0 0.0022892298894929318 -0.00030134668642086814 0 0.0023545097718691947 -0.00080214062277810146 0 0.0026768642474277464 0.0001369226309605607 0 0.0032296492818743258 -0.00071467661145554085 0 0.0042763732750087909 -0.00054824395758195472 0 0.0040883993345827742 -0.00077179998340926254 0 0.003869393315031013 -0.00052913726593653825 0 0.0042763732750087909 -0.00054824395758195472 0 0.0043601169574398095 -0.00085729266682612259 0 0.0045488262477342469 -0.0006798202683464588 0 0.0042763732750087909 -0.00054824395758195472 0 0.0043601169574398095 -0.00085729266682612259 0 0.0040883993345827742 -0.00077179998340926254 0 0.004419366327296833 -0.00045403989313135012 0 0.0042763732750087909 -0.00054824395758195472 0 0.0045488262477342469 -0.0006798202683464588 0 0.0043601169574398095 -0.00085729266682612259 0 0.0040883993345827742 -0.00077179998340926254 0 0.004101246633863939 -0.001126603414444659 0 0.0040883993345827742 -0.00077179998340926254 0 0.0038488408902140289 -0.00091591266119876822 0 0.004101246633863939 -0.001126603414444659 0 0.004735221780076215 -0.00083615219042921423 0 0.0048786129629789622 -0.00072344897516302522 0 0.0048901247423801591 -0.0009340250830325587 0 0.0043601169574398095 -0.00085729266682612259 0 0.0045488262477342469 -0.0006798202683464588 0 0.004689631903339383 -0.00099794362080354642 0 0.004735221780076215 -0.00083615219042921423 0 0.0045488262477342469 -0.0006798202683464588 0 0.004689631903339383 -0.00099794362080354642 0 0.004735221780076215 -0.00083615219042921423 0 0.0045488262477342469 -0.0006798202683464588 0 0.0046810868476435631 -0.00062421498663584333 0 0.004419366327296833 -0.00045403989313135012 0 0.0045488262477342469 -0.0006798202683464588 0 0.0045714052299213308 -0.00048849850991952042 0 0.0045488262477342469 -0.0006798202683464588 0 0.0046810868476435631 -0.00062421498663584333 0 0.0045714052299213308 -0.00048849850991952042 0 0.0046810868476435631 -0.00062421498663584333 0 0.0046773298857892736 -0.00037542025015697148 0 0.0045714052299213308 -0.00048849850991952042 0 -0.0004538745806801614 0.00049832277791311364 0 0.0035982025538033161 0.0005654828526987615 0 0.0046810868476435631 -0.00062421498663584333 0 0.0046773298857892736 -0.00037542025015697148 0 0.0048786129629789622 -0.00072344897516302522 0 0.004735221780076215 -0.00083615219042921423 0 0.0046810868476435631 -0.00062421498663584333 0 0.0048786129629789622 -0.00072344897516302522 0 0.0046773298857892736 -0.00037542025015697148 0 0.0047769351484259117 -0.00020316495610708834 0 0.0048786129629789622 -0.00072344897516302522 0 0.0046773298857892736 -0.00037542025015697148 0 0.0047769351484259117 -0.00020316495610708834 0 0.0037639367886856644 0.00044841373379229656 0 -0.0004538745806801614 0.00049832277791311364 0 0.00024163885249392901 -3.5654858464402803e-05 0 0.0046773298857892736 -0.00037542025015697148 0 0.0032651715583071135 -0.00014263681247184766 0 0.0037639367886856644 0.00044841373379229656 0 0.0046773298857892736 -0.00037542025015697148 0 0.0045714052299213308 -0.00048849850991952042 0 0.004481193796952024 -0.00032901240738981085 0 0.0045673107177821937 -0.0003657173994206734 0 0.0039430610712338637 -0.00024562848575357762 0 0.004419366327296833 -0.00045403989313135012 0 0.0045714052299213308 -0.00048849850991952042 0 0.004481193796952024 -0.00032901240738981085 0 -0.0038922034122249667 -0.0002831270380569913 0 -0.0037407361583225158 -0.00021692859947753561 0 -0.0039222971729493744 -0.00022399461878947185 0 0.0025889803950145977 0.0010937002280749651 0 0.0032651715583071135 -0.00014263681247184766 0 0.0037639367886856644 0.00044841373379229656 0 -0.0037407361583225158 -0.00021692859947753561 0 -0.0039020581005168331 -0.00016483604016253459 0 -0.0039222971729493744 -0.00022399461878947185 0 -0.001866104121564333 0.00041828903116812317 0 0.00024163885249392901 -3.5654858464402803e-05 0 -0.0039020581005168331 -0.00016483604016253459 0 -0.0039222971729493744 -0.00022399461878947185 0 -0.0039633148709522434 -0.00020846250633581038 0 -0.0039542119977780416 -0.00029280335776615753 0 -0.0039222971729493744 -0.00022399461878947185 0 -0.0039633148709522434 -0.00020846250633581038 0 -0.0042841775604232557 0.00013395099259984135 0 -0.0044004464347021776 -6.6272376633511588e-05 0 -0.0045294477588474292 7.2008678466410541e-05 0 -0.0042841775604232557 0.00013395099259984135 0 -0.0041722681802958093 -9.4113481537742703e-05 0 -0.0044004464347021776 -6.6272376633511588e-05 0 -0.0039460791930483984 -0.00013717917251838922 0 -0.0039020581005168331 -0.00016483604016253459 0 -0.0039633148709522434 -0.00020846250633581038 0 -0.0004538745806801614 0.00049832277791311364 0 -0.0040416124928506847 -2.324008319176303e-06 0 -0.0043607438236094387 -0.00028452079026911764 0 -0.0041722681802958093 -9.4113481537742703e-05 0 -0.0044004464347021776 -6.6272376633511588e-05 0 -0.0043607438236094387 -0.00028452079026911764 0 -0.0044004464347021776 -6.6272376633511588e-05 0 -0.0046740151234992092 -0.00020217297568910655 0 -0.0046966197843928571 0.00015189212038086295 0 -0.0045294477588474292 7.2008678466410541e-05 0 -0.0046740151234992092 -0.00020217297568910655 0 -0.0044004464347021776 -6.6272376633511588e-05 0 -0.0045294477588474292 7.2008678466410541e-05 0 -0.0046740151234992092 -0.00020217297568910655 0 -0.0052106816918617935 9.8067339702051883e-05 0 -0.0045759108126348855 -0.00022656540416116723 0 -0.0049168294958673196 7.3197051761646046e-05 0 -0.0051274916719980341 -0.00016819191982129188 0 -0.0046740151234992092 -0.00020217297568910655 0 -0.0049168294958673196 7.3197051761646046e-05 0 -0.0050575763936926612 0.00032005977723862793 0 -0.0050929957617599888 7.0503636323598738e-05 0 -0.0004538745806801614 0.00049832277791311364 0 -0.0015175236761562239 0.001345058949218189 0 -0.0042841775604232557 0.00013395099259984135 0 -0.0045294477588474292 7.2008678466410541e-05 0 -0.0045811874514402112 0.00025800530874863279 0 -0.0046966197843928571 0.00015189212038086295 0 -0.0045294477588474292 7.2008678466410541e-05 0 -0.0045811874514402112 0.00025800530874863279 0 0.0015681956157301878 0.0018532810245976299 0 0.0019108461487107576 0.0021920025397652487 0 0.002073677018926752 0.0016963673645778484 0 0.0012814358433074421 0.0024953041143748714 0 0.0015681956157301878 0.0018532810245976299 0 0.0019108461487107576 0.0021920025397652487 0 -0.0046966197843928571 0.00015189212038086295 0 -0.0045811874514402112 0.00025800530874863279 0 -0.0047233257698172893 0.00035556115557110516 0 -0.0015175236761562239 0.001345058949218189 0 -0.0012216460961239457 0.0012675606315187182 0 -0.0052106816918617935 9.8067339702051883e-05 0 -0.0012216460961239457 0.0012675606315187182 0 0.0019108461487107576 0.0021920025397652487 0 0.002073677018926752 0.0016963673645778484 0 0.002592879367307096 0.0018755677494091355 0 0.002073677018926752 0.0016963673645778484 0 0.0024267603798116149 0.0013501963350773562 0 0.0018421681124209644 0.0011575627058245455 0 0.002073677018926752 0.0016963673645778484 0 0.0024267603798116149 0.0013501963350773562 0 0.002592879367307096 0.0018755677494091355 0 0.0015681956157301878 0.0018532810245976299 0 0.002073677018926752 0.0016963673645778484 0 0.0018421681124209644 0.0011575627058245455 0 0.0035982025538033161 0.0005654828526987615 0 0.0033185161520621754 0.00013143097636183419 0 -0.001030022330602942 0.0012612901254799328 0 -0.0012216460961239457 0.0012675606315187182 0 0.0024267603798116149 0.0013501963350773562 0 0.002592879367307096 0.0018755677494091355 0 0.0030064750943477785 0.0012201929144996404 0 0.0035013999306095531 0.0019352840167184461 0 0.0021507518044850283 0.0026424609700291817 0 0.0027459670776117263 0.0015956754551462149 0 -0.0012216460961239457 0.0012675606315187182 0 0.0032485932545225013 0.0013990913049101263 0 -0.0054089827000590755 0.00048244191247974434 0 -0.0050575763936926612 0.00032005977723862793 0 -0.0054882979495141371 0.00019120458462693299 0 -0.0050575763936926612 0.00032005977723862793 0 -0.0052715290923074313 4.8829680953587757e-05 0 -0.0054882979495141371 0.00019120458462693299 0 -0.0052715290923074313 4.8829680953587757e-05 0 -0.0055279238613073333 -0.00018684593108574693 0 -0.0054882979495141371 0.00019120458462693299 0 -0.0049168294958673196 7.3197051761646046e-05 0 -0.0050929957617599888 7.0503636323598738e-05 0 -0.0051274916719980341 -0.00016819191982129188 0 -0.0052715290923074313 4.8829680953587757e-05 0 -0.0050929957617599888 7.0503636323598738e-05 0 -0.0051274916719980341 -0.00016819191982129188 0 -0.0050575763936926612 0.00032005977723862793 0 -0.0052715290923074313 4.8829680953587757e-05 0 -0.0050929957617599888 7.0503636323598738e-05 0 -0.0052715290923074313 4.8829680953587757e-05 0 -0.0051274916719980341 -0.00016819191982129188 0 -0.0055279238613073333 -0.00018684593108574693 0 -0.0051274916719980341 -0.00016819191982129188 0 -0.0053554352823108947 -0.00042037302325320403 0 -0.0055279238613073333 -0.00018684593108574693 0 -0.0053554352823108947 -0.00042037302325320403 0 -0.0056912288002093896 -0.00040785622127035231 0 -0.005727894918845019 -8.0498536999092682e-05 0 -0.0053702997762353289 -0.00040506776966217877 0 -0.0056231110906069621 -0.00014502661364658762 0 -0.0053554352823108947 -0.00042037302325320403 0 -0.0052605457695211865 -0.00066103417529584372 0 -0.0056234580344621879 -0.0007518415413653879 0 -0.0053554352823108947 -0.00042037302325320403 0 -0.0056234580344621879 -0.0007518415413653879 0 -0.0056912288002093896 -0.00040785622127035231 0 -0.005110925341944403 -0.00069974832860358817 0 -0.0052605457695211865 -0.00066103417529584372 0 -0.00509248156850204 -0.0005512625431279898 0 -0.005110925341944403 -0.00069974832860358817 0 -0.00509248156850204 -0.0005512625431279898 0 -0.0049749983980636719 -0.0007124638583544783 0 -0.0053554352823108947 -0.00042037302325320403 0 -0.0052605457695211865 -0.00066103417529584372 0 -0.00509248156850204 -0.0005512625431279898 0 -0.0051274916719980341 -0.00016819191982129188 0 -0.0053554352823108947 -0.00042037302325320403 0 -0.00509248156850204 -0.0005512625431279898 0 -0.0051274916719980341 -0.00016819191982129188 0 -0.00509248156850204 -0.0005512625431279898 0 -0.004905632297787588 -0.00037959964050232527 0 -0.0051274916719980341 -0.00016819191982129188 0 -0.004905632297787588 -0.00037959964050232527 0 -0.0046740151234992092 -0.00020217297568910655 0 -0.004905632297787588 -0.00037959964050232527 0 -0.0046740151234992092 -0.00020217297568910655 0 -0.0047896622309852475 -0.00059285830185773242 0 -0.0043607438236094387 -0.00028452079026911764 0 -0.0046740151234992092 -0.00020217297568910655 0 -0.00452747478181464 -0.00057420047121566704 0 -0.0046740151234992092 -0.00020217297568910655 0 -0.00452747478181464 -0.00057420047121566704 0 -0.0047896622309852475 -0.00059285830185773242 0 -0.0042939986640030386 -0.000713683607922531 0 -0.00452747478181464 -0.00057420047121566704 0 -0.0046125019975682101 -0.00098891073927544399 0 -0.00452747478181464 -0.00057420047121566704 0 -0.0047896622309852475 -0.00059285830185773242 0 -0.0047909814215117931 -0.00077084362957348179 0 -0.00509248156850204 -0.0005512625431279898 0 -0.0047896622309852475 -0.00059285830185773242 0 -0.0049749983980636719 -0.0007124638583544783 0 -0.00509248156850204 -0.0005512625431279898 0 -0.004905632297787588 -0.00037959964050232527 0 -0.0047896622309852475 -0.00059285830185773242 0 -0.0047896622309852475 -0.00059285830185773242 0 -0.0049749983980636719 -0.0007124638583544783 0 -0.0047909814215117931 -0.00077084362957348179 0 -0.0049749983980636719 -0.0007124638583544783 0 -0.0047909814215117931 -0.00077084362957348179 0 -0.0051150696419232844 -0.00087558310511257672 0 -0.012151286638891126 0.00075163627423164246 0 -0.011734825532773234 0.0008149005786581982 0 -0.012243025394039934 0.00083511984885507537 0 -0.008572676480054317 0.00082368797003774547 0 -0.0085565154662800465 -0.00015787264442800844 0 -0.0047909814215117931 -0.00077084362957348179 0 -0.0046125019975682101 -0.00098891073927544399 0 -0.0051150696419232844 -0.00087558310511257672 0 -0.00452747478181464 -0.00057420047121566704 0 -0.0047909814215117931 -0.00077084362957348179 0 -0.0046125019975682101 -0.00098891073927544399 0 -0.011723304857655908 -1.6623062541217512e-05 0 -0.010302218983773686 0.00083170521449962463 0 -0.011304710540483091 0.0010941508558952344 0 -0.012087725076359697 0.00049663444958481212 0 -0.01077940509449023 0.0019531415325662383 0 -0.011304710540483091 0.0010941508558952344 0 -0.010302218983773686 0.00083170521449962463 0 -0.01077940509449023 0.0019531415325662383 0 -0.011304710540483091 0.0010941508558952344 0 -0.012087725076359697 0.00049663444958481212 0 -0.01223717901466119 0.00036987559484806092 0 -0.012073907389507253 0.00066045846856956514 0 -0.012907609499977163 0.00050686251165503872 0 -0.008572676480054317 0.00082368797003774547 0 -0.012087725076359697 0.00049663444958481212 0 -0.011734825532773234 0.0008149005786581982 0 -0.012073907389507253 0.00066045846856956514 0 -0.01223717901466119 0.00036987559484806092 0 -0.012151286638891126 0.00075163627423164246 0 -0.012073907389507253 0.00066045846856956514 0 -0.012151286638891126 0.00075163627423164246 0 -0.011734825532773234 0.0008149005786581982 0 -0.012073907389507253 0.00066045846856956514 0 -0.014710201823509727 0.0016740044372990689 0 -0.011552686103066395 0.00040412745753178129 0 -0.012334311995769606 0.0013611997130954787 0 -0.012167670042215303 0.0011069521045913337 0 -0.011854443683752255 0.0010056294725015798 0 -0.012449755954083062 0.0013712896118967036 0 -0.012192138101634567 0.00098419711670078968 0 -0.012167670042215303 0.0011069521045913337 0 -0.012449755954083062 0.0013712896118967036 0 -0.012192138101634567 0.00098419711670078968 0 -0.012231581102370435 0.00082849836053026341 0 -0.01223717901466119 0.00036987559484806092 0 -0.012151286638891126 0.00075163627423164246 0 -0.012231581102370435 0.00082849836053026341 0 -0.012192138101634567 0.00098419711670078968 0 -0.012167670042215303 0.0011069521045913337 0 -0.012038548433863677 0.00088530811983182384 0 -0.012167670042215303 0.0011069521045913337 0 -0.011854443683752255 0.0010056294725015798 0 -0.012038548433863677 0.00088530811983182384 0 -0.013785436762197881 0.0038241444753265063 0 -0.016649955601078414 0.004214540955797483 0 -0.013961496810763554 0.0021958105322297419 0 -0.017170949413621246 0.0027997667172473904 0 -0.012343575368813397 0.0014683730134386018 0 -0.011854443683752255 0.0010056294725015798 0 -0.011856341371000646 0.00054079720857755299 0 -0.012038548433863677 0.00088530811983182384 0 -0.011856341371000646 0.00054079720857755299 0 -0.012038548433863677 0.00088530811983182384 0 -0.012126308041400548 0.00081005882020661953 0 -0.0087530693937148199 -8.6728169015161364e-05 0 -0.0085565154662800465 -0.00015787264442800844 0 -0.011856341371000646 0.00054079720857755299 0 -0.012243025394039934 0.00083511984885507537 0 -0.012126308041400548 0.00081005882020661953 0 -0.0052605457695211865 -0.00066103417529584372 0 -0.0056234580344621879 -0.0007518415413653879 0 -0.0051150696419232844 -0.00087558310511257672 0 -0.005110925341944403 -0.00069974832860358817 0 -0.0052605457695211865 -0.00066103417529584372 0 -0.0051150696419232844 -0.00087558310511257672 0 -0.005110925341944403 -0.00069974832860358817 0 -0.0049749983980636719 -0.0007124638583544783 0 -0.0051150696419232844 -0.00087558310511257672 0 -0.012243025394039934 0.00083511984885507537 0 -0.012231581102370435 0.00082849836053026341 0 -0.012126308041400548 0.00081005882020661953 0 -0.012151286638891126 0.00075163627423164246 0 -0.012243025394039934 0.00083511984885507537 0 -0.012231581102370435 0.00082849836053026341 0 -0.012192138101634567 0.00098419711670078968 0 -0.012038548433863677 0.00088530811983182384 0 -0.012126308041400548 0.00081005882020661953 0 -0.012192138101634567 0.00098419711670078968 0 -0.012231581102370435 0.00082849836053026341 0 -0.012126308041400548 0.00081005882020661953 0 -0.011247473725682917 0.0012114309059423824 0 -0.01124266384424359 0.00043003514890394955 0 -0.012255093008049636 0.0021808903549378599 0 -0.011247473725682917 0.0012114309059423824 0 -0.010753208710403899 0.00089305777608715965 0 -0.010463222990788055 0.0016960614682656669 0 -0.010753208710403899 0.00089305777608715965 0 -0.01124266384424359 0.00043003514890394955 0 -0.011014537753808487 0.00016439298889563928 0 -0.011247473725682917 0.0012114309059423824 0 -0.010753208710403899 0.00089305777608715965 0 -0.01124266384424359 0.00043003514890394955 0 -0.011856341371000646 0.00054079720857755299 0 -0.01124266384424359 0.00043003514890394955 0 -0.011014537753808487 0.00016439298889563928 0 -0.011854443683752255 0.0010056294725015798 0 -0.011856341371000646 0.00054079720857755299 0 -0.01124266384424359 0.00043003514890394955 0 -0.013961496810763554 0.0021958105322297419 0 -0.01124266384424359 0.00043003514890394955 0 -0.012255093008049636 0.0021808903549378599 0 -0.012343575368813397 0.0014683730134386018 0 -0.011558685317368958 0.00057284858395805296 0 -0.013785436762197881 0.0038241444753265063 0 -0.012255093008049636 0.0021808903549378599 0 -0.01103519312607055 0.0034096800959684372 0 -0.013785436762197881 0.0038241444753265063 0 -0.013961496810763554 0.0021958105322297419 0 -0.012255093008049636 0.0021808903549378599 0 -0.01061145746955681 0.0019226591768936785 0 -0.016350478536066783 0.002048093191199485 0 -0.011247473725682917 0.0012114309059423824 0 -0.011114192743857122 0.0027657269135252368 0 -0.010463222990788055 0.0016960614682656669 0 -0.011247473725682917 0.0012114309059423824 0 -0.012255093008049636 0.0021808903549378599 0 -0.01103519312607055 0.0034096800959684372 0 -0.010463222990788055 0.0016960614682656669 0 -0.0090891209785996917 0.0024865963775171644 0 -0.0096973910096056545 0.0009853981575455098 0 -0.016350478536066783 0.002048093191199485 0 -0.014921698974941864 1.6477698630553868e-08 0 -0.011114192743857122 0.0027657269135252368 0 -0.010463222990788055 0.0016960614682656669 0 -0.0090891209785996917 0.0024865963775171644 0 -0.0079779810241006124 0.00012252151513275866 0 -0.0077571076842616752 -0.00010554898144372744 0 -0.0075765133687175782 4.389183426286138e-06 0 -0.014921698974941864 1.6477698630553868e-08 0 -0.0075305880985175782 0.00029092960028582489 0 -0.014921698974941864 1.6477698630553868e-08 0 -0.01565849218060059 -0.0022212593984416128 0 -0.008265195238065114 0.0010300874671846916 0 -0.0096973910096056545 0.0009853981575455098 0 -0.008684978563174758 -0.0002765492164386301 0 -0.0090891209785996917 0.0024865963775171644 0 -0.008265195238065114 0.0010300874671846916 0 -0.0096973910096056545 0.0009853981575455098 0 -0.010753208710403899 0.00089305777608715965 0 -0.0096973910096056545 0.0009853981575455098 0 -0.011014537753808487 0.00016439298889563928 0 -0.010753208710403899 0.00089305777608715965 0 -0.010463222990788055 0.0016960614682656669 0 -0.0096973910096056545 0.0009853981575455098 0 -0.0096973910096056545 0.0009853981575455098 0 -0.008684978563174758 -0.0002765492164386301 0 -0.011014537753808487 0.00016439298889563928 0 -0.0062338740941552872 -0.00037487401650359361 0 -0.0064500415719492034 -0.00046129731030895502 0 -0.0060852053317506172 -0.00058829521479768785 0 -0.0075828795230215712 -0.00034857205419585593 0 -0.0085128495500527077 -0.00021518570974044012 0 -0.008265195238065114 0.0010300874671846916 0 -0.008684978563174758 -0.0002765492164386301 0 -0.0076692090055494374 -0.0002015477419277706 0 -0.0063966852617244165 -0.00020837590762099635 0 -0.0065510716758963939 -1.2974291305244334e-05 0 -0.0066622525190437971 -0.00010480785689363755 0 -0.0064500415719492034 -0.00046129731030895502 0 -0.0063966852617244165 -0.00020837590762099635 0 -0.0066622525190437971 -0.00010480785689363755 0 -0.0063966852617244165 -0.00020837590762099635 0 -0.0061657832395201843 -0.00020669480089164835 0 -0.0063355319428635296 -5.2772478500576099e-05 0 -0.0062338740941552872 -0.00037487401650359361 0 -0.0064500415719492034 -0.00046129731030895502 0 -0.0063966852617244165 -0.00020837590762099635 0 -0.0062338740941552872 -0.00037487401650359361 0 -0.0063966852617244165 -0.00020837590762099635 0 -0.0061657832395201843 -0.00020669480089164835 0 -0.0062338740941552872 -0.00037487401650359361 0 -0.0061657832395201843 -0.00020669480089164835 0 -0.0060793267762301794 -0.00040762617475449702 0 -0.0061657832395201843 -0.00020669480089164835 0 -0.0059326390074343413 -0.00031965311528919842 0 -0.0060793267762301794 -0.00040762617475449702 0 -0.0061657832395201843 -0.00020669480089164835 0 -0.0059326390074343413 -0.00031965311528919842 0 -0.005992395556483455 -8.8239485076486255e-05 0 -0.0059326390074343413 -0.00031965311528919842 0 -0.0060793267762301794 -0.00040762617475449702 0 -0.0059850221372871317 -0.00046608385869352465 0 -0.0062338740941552872 -0.00037487401650359361 0 -0.0060793267762301794 -0.00040762617475449702 0 -0.0060852053317506172 -0.00058829521479768785 0 -0.0060793267762301794 -0.00040762617475449702 0 -0.0059850221372871317 -0.00046608385869352465 0 -0.0060852053317506172 -0.00058829521479768785 0 -0.0059326390074343413 -0.00031965311528919842 0 -0.0059850221372871317 -0.00046608385869352465 0 -0.0058400235352817275 -0.00054995851143798855 0 -0.0059850221372871317 -0.00046608385869352465 0 -0.0060852053317506172 -0.00058829521479768785 0 -0.0058400235352817275 -0.00054995851143798855 0 -0.0087530693937148199 -8.6728169015161364e-05 0 -0.0085128495500527077 -0.00021518570974044012 0 -0.0056234580344621879 -0.0007518415413653879 0 -0.0060852053317506172 -0.00058829521479768785 0 -0.0058400235352817275 -0.00054995851143798855 0 -0.0056234580344621879 -0.0007518415413653879 0 -0.0058400235352817275 -0.00054995851143798855 0 -0.0056912288002093896 -0.00040785622127035231 0 -0.0059326390074343413 -0.00031965311528919842 0 -0.0058400235352817275 -0.00054995851143798855 0 -0.0056912288002093896 -0.00040785622127035231 0 -0.0059326390074343413 -0.00031965311528919842 0 -0.0056912288002093896 -0.00040785622127035231 0 -0.005727894918845019 -8.0498536999092682e-05 0 -0.005727894918845019 -8.0498536999092682e-05 0 -0.005992395556483455 -8.8239485076486255e-05 0 -0.0059985756067184098 0.00011820946746297318 0 -0.0059326390074343413 -0.00031965311528919842 0 -0.005727894918845019 -8.0498536999092682e-05 0 -0.005992395556483455 -8.8239485076486255e-05 0 -0.0056231110906069621 -0.00014502661364658762 0 -0.0058811350556052713 7.3716595772074236e-05 0 -0.005992395556483455 -8.8239485076486255e-05 0 -0.0059985756067184098 0.00011820946746297318 0 -0.0061520363105008052 -1.8634280734827496e-05 0 -0.0061657832395201843 -0.00020669480089164835 0 -0.005992395556483455 -8.8239485076486255e-05 0 -0.0061520363105008052 -1.8634280734827496e-05 0 -0.0055279238613073333 -0.00018684593108574693 0 -0.0057591640298784615 1.7410166208797347e-05 0 -0.0054882979495141371 0.00019120458462693299 0 -0.0057591640298784615 1.7410166208797347e-05 0 -0.0054882979495141371 0.00019120458462693299 0 -0.0057398529415192395 0.00037207390985045789 0 -0.0058811350556052713 7.3716595772074236e-05 0 -0.0060712752517581821 0.0002478392330028673 0 -0.0057591640298784615 1.7410166208797347e-05 0 -0.0057398529415192395 0.00037207390985045789 0 -0.0060810736213578603 0.00025224928525793507 0 -0.0057398529415192395 0.00037207390985045789 0 -0.0060566046754683273 0.00049410519349850758 0 -0.0057950420126663717 0.00062527778715500127 0 -0.0054089827000590755 0.00048244191247974434 0 -0.0057398529415192395 0.00037207390985045789 0 -0.0057950420126663717 0.00062527778715500127 0 -0.0054089827000590755 0.00048244191247974434 0 -0.0054882979495141371 0.00019120458462693299 0 -0.0057398529415192395 0.00037207390985045789 0 -0.0062988841704639193 0.00043195745711788495 0 -0.0060566046754683273 0.00049410519349850758 0 -0.0063257328934256752 0.00019918982204691663 0 -0.0057398529415192395 0.00037207390985045789 0 -0.0060566046754683273 0.00049410519349850758 0 -0.0060810736213578603 0.00025224928525793507 0 -0.0060566046754683273 0.00049410519349850758 0 -0.0060810736213578603 0.00025224928525793507 0 -0.0063257328934256752 0.00019918982204691663 0 -0.0060810736213578603 0.00025224928525793507 0 -0.0063257328934256752 0.00019918982204691663 0 -0.0062539682174250861 8.3165247875816546e-05 0 -0.0062988841704639193 0.00043195745711788495 0 -0.0063257328934256752 0.00019918982204691663 0 -0.0064721979999120081 0.00016612159731520305 0 -0.006516963025726713 3.6569866188647421e-05 0 -0.0062539682174250861 8.3165247875816546e-05 0 -0.0064212961646523525 1.1056651445693561e-05 0 -0.0063257328934256752 0.00019918982204691663 0 -0.006516963025726713 3.6569866188647421e-05 0 -0.0065416324032436567 5.2072623851499565e-05 0 -0.0063257328934256752 0.00019918982204691663 0 -0.006516963025726713 3.6569866188647421e-05 0 -0.0062539682174250861 8.3165247875816546e-05 0 -0.0059985756067184098 0.00011820946746297318 0 -0.0062539682174250861 8.3165247875816546e-05 0 -0.0061520363105008052 -1.8634280734827496e-05 0 -0.0059985756067184098 0.00011820946746297318 0 -0.0060810736213578603 0.00025224928525793507 0 -0.0062539682174250861 8.3165247875816546e-05 0 -0.0062539682174250861 8.3165247875816546e-05 0 -0.0061520363105008052 -1.8634280734827496e-05 0 -0.0063355319428635296 -5.2772478500576099e-05 0 -0.0061657832395201843 -0.00020669480089164835 0 -0.0061520363105008052 -1.8634280734827496e-05 0 -0.0063355319428635296 -5.2772478500576099e-05 0 -0.0062539682174250861 8.3165247875816546e-05 0 -0.0063355319428635296 -5.2772478500576099e-05 0 -0.0064212961646523525 1.1056651445693561e-05 0 -0.006516963025726713 3.6569866188647421e-05 0 -0.0064212961646523525 1.1056651445693561e-05 0 -0.0065510716758963939 -1.2974291305244334e-05 0 -0.0063355319428635296 -5.2772478500576099e-05 0 -0.0064212961646523525 1.1056651445693561e-05 0 -0.0065510716758963939 -1.2974291305244334e-05 0 -0.0063966852617244165 -0.00020837590762099635 0 -0.0063355319428635296 -5.2772478500576099e-05 0 -0.0065510716758963939 -1.2974291305244334e-05 0 -0.0065510716758963939 -1.2974291305244334e-05 0 -0.0067007053417231519 5.3980577545303603e-05 0 -0.0066622525190437971 -0.00010480785689363755 0 -0.0067007053417231519 5.3980577545303603e-05 0 -0.0068614373112039018 4.0839835893599685e-05 0 -0.0066622525190437971 -0.00010480785689363755 0 -0.006516963025726713 3.6569866188647421e-05 0 -0.0065510716758963939 -1.2974291305244334e-05 0 -0.0067007053417231519 5.3980577545303603e-05 0 -0.0067007053417231519 5.3980577545303603e-05 0 -0.0067189791844197043 0.00020312068023747864 0 -0.0066713357449231956 1.9436919619443867e-05 0 -0.0067007053417231519 5.3980577545303603e-05 0 -0.0067189791844197043 0.00020312068023747864 0 -0.0068614373112039018 4.0839835893599685e-05 0 -0.0067189791844197043 0.00020312068023747864 0 -0.0065820350675066374 -9.3206314912926629e-05 0 -0.0066713357449231956 1.9436919619443867e-05 0 -0.0065820350675066374 -9.3206314912926629e-05 0 -0.0066713357449231956 1.9436919619443867e-05 0 -0.0066665157650185516 -4.2077006218401557e-05 0 -0.006516963025726713 3.6569866188647421e-05 0 -0.0067007053417231519 5.3980577545303603e-05 0 -0.0066713357449231956 1.9436919619443867e-05 0 -0.0066713357449231956 1.9436919619443867e-05 0 -0.0065416324032436567 5.2072623851499565e-05 0 -0.0066665157650185516 -4.2077006218401557e-05 0 -0.006516963025726713 3.6569866188647421e-05 0 -0.0066713357449231956 1.9436919619443867e-05 0 -0.0065416324032436567 5.2072623851499565e-05 0 -0.0063257328934256752 0.00019918982204691663 0 -0.0065416324032436567 5.2072623851499565e-05 0 -0.0064721979999120081 0.00016612159731520305 0 -0.0065416324032436567 5.2072623851499565e-05 0 -0.0064721979999120081 0.00016612159731520305 0 -0.0066665157650185516 -4.2077006218401557e-05 0 -0.003106426402472945 0.00055477615644670031 0 -0.0054660468663396541 -0.00011955767156602114 0 -0.0064721979999120081 0.00016612159731520305 0 -0.0065628891938491231 0.00025900297076377724 0 -0.0066665157650185516 -4.2077006218401557e-05 0 -0.0065820350675066374 -9.3206314912926629e-05 0 -0.0067036734910612215 -0.00028001264214391291 0 -0.0066665157650185516 -4.2077006218401557e-05 0 -0.0065820350675066374 -9.3206314912926629e-05 0 -0.0067036734910612215 -0.00028001264214391291 0 -0.0061869144029003745 -0.00063339512317382479 0 0.00054894460619343258 -0.00010956466144319775 0 0.00018416552304602104 2.3971915995708494e-05 0 -0.00011075217861309285 -0.00042207521721908668 0 -0.003106426402472945 0.00055477615644670031 0 -0.0031227427470334641 -0.00052657347913686941 0 0.00054894460619343258 -0.00010956466144319775 0 0.00018416552304602104 2.3971915995708494e-05 0 0.00053529565490104646 -6.2350296991118133e-06 0 0.00018416552304602104 2.3971915995708494e-05 0 0.00053529565490104646 -6.2350296991118133e-06 0 0.00015814789218067968 0.00033477673311455871 0 -0.00033759091870367658 0.00031911041701420908 0 0.0029870808975133844 0.00024990458481116842 0 -0.0062988841704639193 0.00043195745711788495 0 -0.0065258897828826701 0.00032016209675303893 0 -0.0063465996277948218 0.00058260814019101643 0 -0.00033759091870367658 0.00031911041701420908 0 -0.0014491186034861373 0.00069191411247322948 0 -0.0062988841704639193 0.00043195745711788495 0 -0.0064721979999120081 0.00016612159731520305 0 -0.0065628891938491231 0.00025900297076377724 0 -0.0062988841704639193 0.00043195745711788495 0 -0.0065628891938491231 0.00025900297076377724 0 -0.0065258897828826701 0.00032016209675303893 0 -0.003106426402472945 0.00055477615644670031 0 -0.00033759091870367658 0.00031911041701420908 0 -0.00059087598611502203 1.3175751539109188e-06 0 -0.00028900786388385468 0.00024078273696456797 0 0.00051151987901111562 0.00026719006931832207 0 -0.00059087598611502203 1.3175751539109188e-06 0 -0.00028900786388385468 0.00024078273696456797 0 -0.0033053279104997644 -2.1401050532629288e-06 0 0.00018416552304602104 2.3971915995708494e-05 0 -0.00028900786388385468 0.00024078273696456797 0 -0.00011075217861309285 -0.00042207521721908668 0 0.00018416552304602104 2.3971915995708494e-05 0 -0.00028900786388385468 0.00024078273696456797 0 0.00015814789218067968 0.00033477673311455871 0 -0.00028900786388385468 0.00024078273696456797 0 -0.00011075217861309285 -0.00042207521721908668 0 -0.0033053279104997644 -2.1401050532629288e-06 0 -0.0031227427470334641 -0.00052657347913686941 0 -0.0033099189925117692 -1.3604282538926754e-07 0 -0.0033160481265588938 -2.2192794541449132e-06 0 -0.0060012298025837948 0.0002551773938651222 0 -0.0062512582429391757 1.4871969319586606e-06 0 -0.0061869144029003745 -0.00063339512317382479 0 -0.0033160481265588938 -2.2192794541449132e-06 0 -0.0060012298025837948 0.0002551773938651222 0 -0.0067189791844197043 0.00020312068023747864 0 -0.0065820350675066374 -9.3206314912926629e-05 0 -0.0060012298025837948 0.0002551773938651222 0 -0.0065820350675066374 -9.3206314912926629e-05 0 -0.0061869144029003745 -0.00063339512317382479 0 -0.0060012298025837948 0.0002551773938651222 0 -0.0067189791844197043 0.00020312068023747864 0 -0.0060012298025837948 0.0002551773938651222 0 -0.0068651325482726134 0.00019833447819230323 0 -0.0067189791844197043 0.00020312068023747864 0 -0.0068651325482726134 0.00019833447819230323 0 -0.0071121448111156494 0.00011906013732216513 0 -0.0060012298025837948 0.0002551773938651222 0 -0.0068651325482726134 0.00019833447819230323 0 -0.0062512582429391757 1.4871969319586606e-06 0 -0.0068651325482726134 0.00019833447819230323 0 -0.0062512582429391757 1.4871969319586606e-06 0 -0.008077657837271407 0.00012306052874852565 0 -0.0062512582429391757 1.4871969319586606e-06 0 -0.0091951426217848145 5.8315242238715565e-07 0 -0.008077657837271407 0.00012306052874852565 0 -0.008077657837271407 0.00012306052874852565 0 -0.0093398942450985695 0.00013238237877282212 0 -0.0095718827549769667 0.00024965072340065272 0 -0.0091951426217848145 5.8315242238715565e-07 0 -0.008077657837271407 0.00012306052874852565 0 -0.0093398942450985695 0.00013238237877282212 0 -0.008077657837271407 0.00012306052874852565 0 -0.0072776911088929495 -0.00022473114616845073 0 -0.0076088527748763377 -0.00029496126359588199 0 -0.008077657837271407 0.00012306052874852565 0 -0.0071121448111156494 0.00011906013732216513 0 -0.0072776911088929495 -0.00022473114616845073 0 -0.0082889369554897986 0.00023267595031633184 0 -0.0083861302066434735 1.7673201304644305e-05 0 -0.0068651325482726134 0.00019833447819230323 0 -0.008077657837271407 0.00012306052874852565 0 -0.0071121448111156494 0.00011906013732216513 0 -0.0067189791844197043 0.00020312068023747864 0 -0.0071121448111156494 0.00011906013732216513 0 -0.0068614373112039018 4.0839835893599685e-05 0 -0.0071121448111156494 0.00011906013732216513 0 -0.0068614373112039018 4.0839835893599685e-05 0 -0.0070486204535329207 -0.00027429181291029948 0 -0.0064500415719492034 -0.00046129731030895502 0 -0.0066622525190437971 -0.00010480785689363755 0 -0.0070486204535329207 -0.00027429181291029948 0 -0.0068614373112039018 4.0839835893599685e-05 0 -0.0066622525190437971 -0.00010480785689363755 0 -0.0070486204535329207 -0.00027429181291029948 0 -0.0075828795230215712 -0.00034857205419585593 0 -0.0070843962737659654 -0.00030336845655356794 0 -0.008684978563174758 -0.0002765492164386301 0 -0.0076692090055494374 -0.0002015477419277706 0 -0.0070486204535329207 -0.00027429181291029948 0 -0.0075305880985175782 0.00029092960028582489 0 -0.0077998004220668745 -3.2755412055776104e-05 0 -0.0077571076842616752 -0.00010554898144372744 0 -0.0076692090055494374 -0.0002015477419277706 0 -0.0073873082152491184 -0.00015725975947896028 0 -0.0076692090055494374 -0.0002015477419277706 0 -0.0073873082152491184 -0.00015725975947896028 0 -0.0070486204535329207 -0.00027429181291029948 0 -0.0071121448111156494 0.00011906013732216513 0 -0.0070486204535329207 -0.00027429181291029948 0 -0.0072776911088929495 -0.00022473114616845073 0 -0.0073873082152491184 -0.00015725975947896028 0 -0.0070486204535329207 -0.00027429181291029948 0 -0.0072776911088929495 -0.00022473114616845073 0 -0.0073873082152491184 -0.00015725975947896028 0 -0.0072776911088929495 -0.00022473114616845073 0 -0.0074467404030807453 -0.00015223816509948306 0 -0.0072776911088929495 -0.00022473114616845073 0 -0.0074467404030807453 -0.00015223816509948306 0 -0.0074326051997553226 -0.00021077465918611495 0 -0.0074467404030807453 -0.00015223816509948306 0 -0.0074326051997553226 -0.00021077465918611495 0 -0.0075765133687175782 4.389183426286138e-06 0 -0.0077571076842616752 -0.00010554898144372744 0 -0.0073873082152491184 -0.00015725975947896028 0 -0.0074467404030807453 -0.00015223816509948306 0 -0.0077571076842616752 -0.00010554898144372744 0 -0.0074467404030807453 -0.00015223816509948306 0 -0.0075765133687175782 4.389183426286138e-06 0 -0.023090407263311657 -0.0028581339903026052 0 -0.024687084233408183 -0.0037605914004378801 0 -0.023002524778792961 -0.004028081939259554 0 -0.02177273137884031 -0.0028506591930816715 0 -0.023002524778792961 -0.004028081939259554 0 -0.021252877153997964 -0.0042697769650059071 0 -0.0074326051997553226 -0.00021077465918611495 0 -0.0075765133687175782 4.389183426286138e-06 0 -0.0074617834572398931 -0.00020126405527673815 0 -0.01565849218060059 -0.0022212593984416128 0 -0.0139053755618108 -0.0019821804012430284 0 -0.020353461746098058 -0.0015036831612618242 0 -0.0139053755618108 -0.0019821804012430284 0 -0.015844498099902814 -0.00020207316367471827 0 -0.016658967291604612 -0.0014720701007618236 0 -0.012142320640958 -4.5015182223778566e-06 0 -0.0139053755618108 -0.0019821804012430284 0 -0.012136086751789831 -3.1027945517036779e-07 0 -0.0093291039221840514 -0.0010966374185381058 0 -0.012132010006531746 -1.9173774657395499e-06 0 -0.0095718827549769667 0.00024965072340065272 0 -0.0093398942450985695 0.00013238237877282212 0 -0.012132010006531746 -1.9173774657395499e-06 0 -0.0095718827549769667 0.00024965072340065272 0 -0.0091951426217848145 5.8315242238715565e-07 0 -0.0093398942450985695 0.00013238237877282212 0 -0.012132010006531746 -1.9173774657395499e-06 0 -0.0074326051997553226 -0.00021077465918611495 0 -0.0074617834572398931 -0.00020126405527673815 0 -0.0076088527748763377 -0.00029496126359588199 0 -0.0139053755618108 -0.0019821804012430284 0 -0.0083861302066434735 1.7673201304644305e-05 0 -0.0072776911088929495 -0.00022473114616845073 0 -0.0074326051997553226 -0.00021077465918611495 0 -0.0076088527748763377 -0.00029496126359588199 0 -0.0016902399471941173 0.0012164892393466177 0 -0.0013655350282206838 0.0012236161443071822 0 -0.0014216931133935297 0.00099769155035411231 0 -0.002382147266022672 0.00064111816015883475 0 -0.0023786250267145838 0.000205768295848529 0 -0.002532830996151278 0.00035795947026202955 0 -0.001902150924547171 0.0008063592948119357 0 -0.0020272836263265132 0.00059788267701535046 0 -0.0025836695709448971 0.0005656535292543213 0 -0.002382147266022672 0.00064111816015883475 0 -0.002532830996151278 0.00035795947026202955 0 -0.0025836695709448971 0.0005656535292543213 0 -0.002532830996151278 0.00035795947026202955 0 -0.002650176253503559 0.00039834703967217501 0 -0.0025836695709448971 0.0005656535292543213 0 -0.002382147266022672 0.00064111816015883475 0 -0.0025837630440283931 0.00083270641466175719 0 -0.002382147266022672 0.00064111816015883475 0 -0.0025837630440283931 0.00083270641466175719 0 -0.0024166136944157486 0.0010517964542435052 0 -0.001902150924547171 0.0008063592948119357 0 -0.003468984516686811 0.0018183670952715246 0 -0.0016902399471941173 0.0012164892393466177 0 -0.0015091986608396003 0.0014286209581543146 0 -0.0013655350282206838 0.0012236161443071822 0 -0.0016902399471941173 0.0012164892393466177 0 -0.0015091986608396003 0.0014286209581543146 0 -0.0017420770911543079 0.001526528606054471 0 -0.0011090647011909977 0.0012566425303874352 0 -0.0013655350282206838 0.0012236161443071822 0 -0.0012797662081186199 0.0014769792314120341 0 -0.0015091986608396003 0.0014286209581543146 0 -0.0013655350282206838 0.0012236161443071822 0 -0.0012797662081186199 0.0014769792314120341 0 -0.00045945236967115063 0.0005996336115458718 0 -0.0005018135957382963 2.632563313230528e-05 0 -8.8080994403306589e-05 1.0608715445871098e-05 0 -0.00088068668123848976 0.0010307235679863156 0 -0.00012008896925986769 0.00025691015055488578 0 -0.0011090647011909977 0.0012566425303874352 0 -0.0011838863120803781 0.0010051644110942819 0 -0.00093046836964962823 0.0010031083146471765 0 -0.00088068668123848976 0.0010307235679863156 0 -0.00086681219491245077 0.00094945800803228851 0 -0.0011090647011909977 0.0012566425303874352 0 -0.0013655350282206838 0.0012236161443071822 0 -0.0011838863120803781 0.0010051644110942819 0 -0.0013655350282206838 0.0012236161443071822 0 -0.0014216931133935297 0.00099769155035411231 0 -0.0011838863120803781 0.0010051644110942819 0 -0.0014216931133935297 0.00099769155035411231 0 -0.0012947002234975616 0.00089350043428597554 0 -0.0011838863120803781 0.0010051644110942819 0 -0.0014216931133935297 0.00099769155035411231 0 -0.0012947002234975616 0.00089350043428597554 0 -0.0014535653656716058 0.00082561851385074849 0 -0.0011838863120803781 0.0010051644110942819 0 -0.00093046836964962823 0.0010031083146471765 0 -0.0010215943563363175 0.00090356965177244071 0 -0.0012947002234975616 0.00089350043428597554 0 -0.0011838863120803781 0.0010051644110942819 0 -0.0011602322052069335 0.00084929971430817194 0 -0.0011838863120803781 0.0010051644110942819 0 -0.0011602322052069335 0.00084929971430817194 0 -0.0010215943563363175 0.00090356965177244071 0 -0.0010615205660536597 0.00081084890944671973 0 -0.0011602322052069335 0.00084929971430817194 0 -0.0010215943563363175 0.00090356965177244071 0 -0.0010615205660536597 0.00081084890944671973 0 -0.0011602322052069335 0.00084929971430817194 0 -0.0011793775083290194 0.00074814054087768498 0 -0.0011602322052069335 0.00084929971430817194 0 -0.0011793775083290194 0.00074814054087768498 0 -0.001293468782313651 0.00078133433892951841 0 -0.0011793775083290194 0.00074814054087768498 0 -0.0012736848361326984 0.00067653176090775907 0 -0.0012050615217675 0.00066784233083920313 0 -0.0011405091775316489 0.00071249677952011032 0 -0.0011793775083290194 0.00074814054087768498 0 -0.0012050615217675 0.00066784233083920313 0 -0.0010615205660536597 0.00081084890944671973 0 -0.0011405091775316489 0.00071249677952011032 0 -0.0011793775083290194 0.00074814054087768498 0 -0.0010615205660536597 0.00081084890944671973 0 -0.0011405091775316489 0.00071249677952011032 0 -0.0010289895398554697 0.00076330068638574508 0 -0.0012947002234975616 0.00089350043428597554 0 -0.001293468782313651 0.00078133433892951841 0 -0.0014535653656716058 0.00082561851385074849 0 -0.0012947002234975616 0.00089350043428597554 0 -0.0011602322052069335 0.00084929971430817194 0 -0.001293468782313651 0.00078133433892951841 0 -0.001293468782313651 0.00078133433892951841 0 -0.0014142272152577024 0.00065915294325935168 0 -0.0012736848361326984 0.00067653176090775907 0 -0.0011793775083290194 0.00074814054087768498 0 -0.001293468782313651 0.00078133433892951841 0 -0.0012736848361326984 0.00067653176090775907 0 -0.001293468782313651 0.00078133433892951841 0 -0.0014535653656716058 0.00082561851385074849 0 -0.0014142272152577024 0.00065915294325935168 0 -0.0014535653656716058 0.00082561851385074849 0 -0.0016425387233831809 0.00092314590254732984 0 -0.0016151139647771955 0.00063925860958676136 0 -0.0020272836263265132 0.00059788267701535046 0 -0.0020201935788623183 0.00024356553869984385 0 -0.0014535653656716058 0.00082561851385074849 0 -0.0016151139647771955 0.00063925860958676136 0 -0.0014142272152577024 0.00065915294325935168 0 -0.0014216931133935297 0.00099769155035411231 0 -0.0014535653656716058 0.00082561851385074849 0 -0.0016425387233831809 0.00092314590254732984 0 -0.0016902399471941173 0.0012164892393466177 0 -0.0014216931133935297 0.00099769155035411231 0 -0.0016425387233831809 0.00092314590254732984 0 -0.0023786250267145838 0.000205768295848529 0 -0.002532830996151278 0.00035795947026202955 0 -0.0025350921136604301 8.3114580237324175e-05 0 -0.002532830996151278 0.00035795947026202955 0 -0.0025350921136604301 8.3114580237324175e-05 0 -0.0026383678198306391 0.0002370060880917646 0 -0.002532830996151278 0.00035795947026202955 0 -0.0026383678198306391 0.0002370060880917646 0 -0.002650176253503559 0.00039834703967217501 0 -0.0023786250267145838 0.000205768295848529 0 -0.0025350921136604301 8.3114580237324175e-05 0 -0.0024189765842183614 -0.00013756258418829451 0 -0.0025350921136604301 8.3114580237324175e-05 0 -0.0024189765842183614 -0.00013756258418829451 0 -0.002654557065424468 -0.00020575204562973419 0 -0.0027301764000999844 0.00020305347900936082 0 -0.0027050571099019728 0.00016540433356301951 0 -0.002654557065424468 -0.00020575204562973419 0 -0.0026737172444618791 -1.3018255687115931e-05 0 -0.0026705051513138262 -0.00017287915235023106 0 -0.0027444549203478495 -0.00019174467143599685 0 -0.0026836958214844649 -0.00013539652658284759 0 -0.002654557065424468 -0.00020575204562973419 0 -0.0025350921136604301 8.3114580237324175e-05 0 -0.0027050571099019728 0.00016540433356301951 0 -0.002654557065424468 -0.00020575204562973419 0 -0.0027444549203478495 -0.00019174467143599685 0 -0.0027565992785118718 -0.00014417896370211075 0 -0.0026836958214844649 -0.00013539652658284759 0 -0.0027444549203478495 -0.00019174467143599685 0 -0.0028525830650276175 -0.00019449953710843531 0 -0.0027754819651163026 -0.00025759746492854042 0 -0.0027444549203478495 -0.00019174467143599685 0 -0.0027565992785118718 -0.00014417896370211075 0 -0.0028525830650276175 -0.00019449953710843531 0 -0.0027565992785118718 -0.00014417896370211075 0 -0.0028450252686673333 -0.00010173684655684573 0 -0.0027534605880620076 -0.00010574868264195073 0 -0.0027565992785118718 -0.00014417896370211075 0 -0.0028450252686673333 -0.00010173684655684573 0 -0.0028525830650276175 -0.00019449953710843531 0 -0.0028450252686673333 -0.00010173684655684573 0 -0.0027534605880620076 -0.00010574868264195073 0 -0.0027496294592292774 -4.2403515974311265e-05 0 -0.0027534605880620076 -0.00010574868264195073 0 -0.0026836958214844649 -0.00013539652658284759 0 -0.0027496294592292774 -4.2403515974311265e-05 0 -0.0027355949707196505 0.00021032206883675109 0 -0.0026383678198306391 0.0002370060880917646 0 -0.002650176253503559 0.00039834703967217501 0 -0.0025350921136604301 8.3114580237324175e-05 0 -0.0026383678198306391 0.0002370060880917646 0 -0.0027050571099019728 0.00016540433356301951 0 -0.0027355949707196505 0.00021032206883675109 0 -0.0026383678198306391 0.0002370060880917646 0 -0.0027050571099019728 0.00016540433356301951 0 -0.0026737172444618791 -1.3018255687115931e-05 0 -0.0026948687053379712 3.5602313690321998e-05 0 -0.0027565992785118718 -0.00014417896370211075 0 -0.0027534605880620076 -0.00010574868264195073 0 -0.0026836958214844649 -0.00013539652658284759 0 -0.0028958767947158 -0.00024488477313425606 0 -0.0028525830650276175 -0.00019449953710843531 0 -0.0027754819651163026 -0.00025759746492854042 0 -0.0028958767947158 -0.00024488477313425606 0 -0.0028525830650276175 -0.00019449953710843531 0 -0.0030967333012926926 -9.8758497273105918e-05 0 -0.0028450252686673333 -0.00010173684655684573 0 -0.0028525830650276175 -0.00019449953710843531 0 -0.0030967333012926926 -9.8758497273105918e-05 0 -0.0028807202082371851 -0.0050416127775097085 0 -0.0026220871306598401 -0.0051817515926912451 0 -0.0028998910262267377 -0.0048782458769096341 0 -0.0027643369130230331 -0.0027122201881969983 0 -0.0030027284834641772 -0.0024885645962457862 0 -0.0030027284834641772 -0.0024885645962457862 0 -0.0033562184339296724 -0.002104444269249022 0 -0.0032060081266844028 -0.004813239014475201 0 -0.0028998910262267377 -0.0048782458769096341 0 -0.0032740932842732547 -0.0045463025729122006 0 -0.0030967333012926926 -9.8758497273105918e-05 0 -0.0029145890788162699 6.2526658669400786e-06 0 -0.003028097329642758 0.00021099093255701255 0 -0.0028450252686673333 -0.00010173684655684573 0 -0.0030967333012926926 -9.8758497273105918e-05 0 -0.0029145890788162699 6.2526658669400786e-06 0 -0.003028097329642758 0.00021099093255701255 0 -0.0034058026540021878 0.00034748506497752572 0 -0.0029835717482555144 0.00058369714014598997 0 -0.0030967333012926926 -9.8758497273105918e-05 0 -0.003028097329642758 0.00021099093255701255 0 -0.0034058026540021878 0.00034748506497752572 0 -0.0026737172444618791 -1.3018255687115931e-05 0 -0.002822681846618168 0.0001803758136245814 0 -0.0026836958214844649 -0.00013539652658284759 0 -0.0027496294592292774 -4.2403515974311265e-05 0 -0.0027545153735557912 8.138889466910028e-05 0 -0.0026737172444618791 -1.3018255687115931e-05 0 -0.0027026667002324374 0.00044286479044746178 0 -0.0026102417917662464 -0.00020871566788148717 0 -0.0026396279708140479 0.00027708101336792497 0 -0.0029113103931333604 0.0003384584639498258 0 -0.0027355949707196505 0.00021032206883675109 0 -0.0027697034393287818 0.00060229581694477927 0 -0.002650176253503559 0.00039834703967217501 0 -0.0025836695709448971 0.0005656535292543213 0 -0.0025837630440283931 0.00083270641466175719 0 -0.0027697034393287818 0.00060229581694477927 0 -0.0025836695709448971 0.0005656535292543213 0 -0.0027697034393287818 0.00060229581694477927 0 -0.002650176253503559 0.00039834703967217501 0 -0.0029145890788162699 6.2526658669400786e-06 0 -0.0027496294592292774 -4.2403515974311265e-05 0 -0.0027545153735557912 8.138889466910028e-05 0 -0.0029145890788162699 6.2526658669400786e-06 0 -0.003028097329642758 0.00021099093255701255 0 -0.0027545153735557912 8.138889466910028e-05 0 -0.0028450252686673333 -0.00010173684655684573 0 -0.0029145890788162699 6.2526658669400786e-06 0 -0.0027496294592292774 -4.2403515974311265e-05 0 -0.0029113103931333604 0.0003384584639498258 0 -0.0028727902182641074 0.00065092175960417681 0 -0.0032360555351544323 0.00091020424384101158 0 -0.002822681846618168 0.0001803758136245814 0 -0.0031360287814068376 0.00076030833076199528 0 -0.003028097329642758 0.00021099093255701255 0 -0.0027545153735557912 8.138889466910028e-05 0 -0.0029835717482555144 0.00058369714014598997 0 -0.0026396279708140479 0.00027708101336792497 0 -0.0028727902182641074 0.00065092175960417681 0 -0.0026594946607308339 0.00078313015712962175 0 -0.0027026667002324374 0.00044286479044746178 0 -0.0027129503153478472 0.00090355274244253406 0 -0.0026396279708140479 0.00027708101336792497 0 -0.0029113103931333604 0.0003384584639498258 0 -0.0028727902182641074 0.00065092175960417681 0 -0.0025837630440283931 0.00083270641466175719 0 -0.0027697034393287818 0.00060229581694477927 0 -0.0027757637090402025 0.0010184621606875413 0 -0.0025837630440283931 0.00083270641466175719 0 -0.0027757637090402025 0.0010184621606875413 0 -0.0026068689835140467 0.0010764343097645608 0 -0.0027129503153478472 0.00090355274244253406 0 -0.0027052377618041021 0.00130417772281314 0 -0.0026594946607308339 0.00078313015712962175 0 -0.0029295741200301264 0.00095873284122310605 0 -0.002695293404578674 0.0013463969578476162 0 -0.0026506482574511162 0.0012347192617687922 0 -0.0027757637090402025 0.0010184621606875413 0 -0.0026068689835140467 0.0010764343097645608 0 -0.0026506482574511162 0.0012347192617687922 0 -0.0027757637090402025 0.0010184621606875413 0 -0.002695293404578674 0.0013463969578476162 0 -0.0028727902182641074 0.00065092175960417681 0 -0.0026594946607308339 0.00078313015712962175 0 -0.0029295741200301264 0.00095873284122310605 0 -0.0028727902182641074 0.00065092175960417681 0 -0.0029295741200301264 0.00095873284122310605 0 -0.0032360555351544323 0.00091020424384101158 0 -0.0029295741200301264 0.00095873284122310605 0 -0.0031209386810197269 0.0011716770246405989 0 -0.0032360555351544323 0.00091020424384101158 0 -0.0029200885208522033 0.0012263251599990692 0 -0.0028383889347962346 0.0013728273501400668 0 -0.002695293404578674 0.0013463969578476162 0 -0.0029295741200301264 0.00095873284122310605 0 -0.0029200885208522033 0.0012263251599990692 0 -0.002695293404578674 0.0013463969578476162 0 -0.0029295741200301264 0.00095873284122310605 0 -0.0029200885208522033 0.0012263251599990692 0 -0.0031209386810197269 0.0011716770246405989 0 -0.0029200885208522033 0.0012263251599990692 0 -0.0031209386810197269 0.0011716770246405989 0 -0.0029669076015653127 0.0013683613838402177 0 -0.0031209386810197269 0.0011716770246405989 0 -0.0031376426226052026 0.0013915580902895243 0 -0.0029669076015653127 0.0013683613838402177 0 -0.0031209386810197269 0.0011716770246405989 0 -0.0031376426226052026 0.0013915580902895243 0 -0.0033296898547741029 0.0013280496101950741 0 -0.0031376426226052026 0.0013915580902895243 0 -0.00310619558129208 0.0015567299343229618 0 -0.0029866008975731767 0.0015194130327009744 0 -0.0031376426226052026 0.0013915580902895243 0 -0.0029669076015653127 0.0013683613838402177 0 -0.0029866008975731767 0.0015194130327009744 0 -0.0031376426226052026 0.0013915580902895243 0 -0.0032314174815509327 0.0014710222295245573 0 -0.00310619558129208 0.0015567299343229618 0 -0.0029200885208522033 0.0012263251599990692 0 -0.0028383889347962346 0.0013728273501400668 0 -0.0029669076015653127 0.0013683613838402177 0 -0.0028383889347962346 0.0013728273501400668 0 -0.0029669076015653127 0.0013683613838402177 0 -0.0028643903680069904 0.0014807321916187491 0 -0.0029669076015653127 0.0013683613838402177 0 -0.0028643903680069904 0.0014807321916187491 0 -0.0029866008975731767 0.0015194130327009744 0 -0.0028383889347962346 0.0013728273501400668 0 -0.0028643903680069904 0.0014807321916187491 0 -0.0027625066074142336 0.001448363170867847 0 -0.0028643903680069904 0.0014807321916187491 0 -0.0027625066074142336 0.001448363170867847 0 -0.0028364463980359474 0.0016327554300516842 0 -0.0028383889347962346 0.0013728273501400668 0 -0.0027625066074142336 0.001448363170867847 0 -0.002695293404578674 0.0013463969578476162 0 -0.0027625066074142336 0.001448363170867847 0 -0.002695293404578674 0.0013463969578476162 0 -0.0026190650239915582 0.0014484681812360087 0 -0.0027045631399306843 0.001461444940740228 0 -0.002655224519865123 0.001362669425095446 0 -0.0026506482574511162 0.0012347192617687922 0 -0.0026190650239915582 0.0014484681812360087 0 -0.0025481872426040145 0.0012550212432415589 0 -0.0026506482574511162 0.0012347192617687922 0 -0.002695293404578674 0.0013463969578476162 0 -0.0026190650239915582 0.0014484681812360087 0 -0.0035278902231997587 -0.0045674329006601703 0 -0.0032740932842732547 -0.0045463025729122006 0 -0.0039231338939133657 -0.0032967566255946907 0 -0.0032740932842732547 -0.0045463025729122006 0 -0.0039231338939133657 -0.0032967566255946907 0 -0.0040371056297046461 -0.0024643263091366249 0 -0.0033562184339296724 -0.002104444269249022 0 -0.0039071885123153193 -0.00051835409413942754 0 -0.0034058026540021878 0.00034748506497752572 0 -0.0029835717482555144 0.00058369714014598997 0 -0.0037786425431757995 0.0012992224261029715 0 -0.0031209386810197269 0.0011716770246405989 0 -0.0032360555351544323 0.00091020424384101158 0 -0.0033296898547741029 0.0013280496101950741 0 -0.0029835717482555144 0.00058369714014598997 0 -0.0037786425431757995 0.0012992224261029715 0 -0.0036624739224874509 0.0014417922129660093 0 -0.0032360555351544323 0.00091020424384101158 0 -0.0033296898547741029 0.0013280496101950741 0 -0.0036624739224874509 0.0014417922129660093 0 -0.0031360287814068376 0.00076030833076199528 0 -0.003610364692684559 0.0014074314803918079 0 -0.0031376426226052026 0.0013915580902895243 0 -0.0032314174815509327 0.0014710222295245573 0 -0.0033296898547741029 0.0013280496101950741 0 -0.0032314174815509327 0.0014710222295245573 0 -0.0033296898547741029 0.0013280496101950741 0 -0.0033560805469941882 0.0014863862379739196 0 -0.0033296898547741029 0.0013280496101950741 0 -0.0034745454168213061 0.001491499678757333 0 -0.0033560805469941882 0.0014863862379739196 0 -0.0033296898547741029 0.0013280496101950741 0 -0.0036624739224874509 0.0014417922129660093 0 -0.0034745454168213061 0.001491499678757333 0 -0.0039231338939133657 -0.0032967566255946907 0 -0.0040371056297046461 -0.0024643263091366249 0 -0.0048009029880260899 -0.0026509224548694893 0 -0.0040371056297046461 -0.0024643263091366249 0 -0.0048009029880260899 -0.0026509224548694893 0 -0.0049233511207105634 -0.0020622844852250417 0 -0.0061694725036900789 -0.0034456743244514472 0 -0.0048009029880260899 -0.0026509224548694893 0 -0.0056976548652130522 -0.0019822828402618581 0 -0.0048009029880260899 -0.0026509224548694893 0 -0.0049233511207105634 -0.0020622844852250417 0 -0.0056976548652130522 -0.0019822828402618581 0 -0.0061694725036900789 -0.0034456743244514472 0 -0.0039231338939133657 -0.0032967566255946907 0 -0.0048009029880260899 -0.0026509224548694893 0 -0.0040371056297046461 -0.0024643263091366249 0 -0.0054338168549006756 -0.00061873117698228112 0 -0.0043606428329094025 0.0026899452954651675 0 -0.0037786425431757995 0.0012992224261029715 0 -0.0037679605139048777 0.0020921538424529804 0 -0.0043606428329094025 0.0026899452954651675 0 -0.0039071885123153193 -0.00051835409413942754 0 -0.004293433178682254 0.0025429991618930994 0 -0.0062046841451117146 -8.9936914003624672e-05 0 -0.0054338168549006756 -0.00061873117698228112 0 -0.0059501670926883302 0.00086197553760542834 0 -0.0049233511207105634 -0.0020622844852250417 0 -0.0056976548652130522 -0.0019822828402618581 0 -0.0054338168549006756 -0.00061873117698228112 0 -0.0040371056297046461 -0.0024643263091366249 0 -0.0049233511207105634 -0.0020622844852250417 0 -0.0054338168549006756 -0.00061873117698228112 0 -0.0037786425431757995 0.0012992224261029715 0 -0.0037679605139048777 0.0020921538424529804 0 -0.0036624739224874509 0.0014417922129660093 0 -0.0037679605139048777 0.0020921538424529804 0 -0.003563651577264103 0.0018374198945666981 0 -0.0036624739224874509 0.0014417922129660093 0 -0.0037679605139048777 0.0020921538424529804 0 -0.003563651577264103 0.0018374198945666981 0 -0.0033424757396864273 0.0020960210769459834 0 -0.003563651577264103 0.0018374198945666981 0 -0.0036624739224874509 0.0014417922129660093 0 -0.0035153552976558114 0.0016495171661086308 0 -0.0036624739224874509 0.0014417922129660093 0 -0.0034745454168213061 0.001491499678757333 0 -0.0035153552976558114 0.0016495171661086308 0 -0.0034745454168213061 0.001491499678757333 0 -0.0035153552976558114 0.0016495171661086308 0 -0.0033908851649822446 0.001615573535216241 0 -0.0035153552976558114 0.0016495171661086308 0 -0.0033908851649822446 0.001615573535216241 0 -0.0033483023424289537 0.001792756854881529 0 -0.0034745454168213061 0.001491499678757333 0 -0.0033908851649822446 0.001615573535216241 0 -0.0033560805469941882 0.0014863862379739196 0 -0.0033908851649822446 0.001615573535216241 0 -0.0033560805469941882 0.0014863862379739196 0 -0.0032248439075176277 0.0016087941169888201 0 -0.0032314174815509327 0.0014710222295245573 0 -0.0033560805469941882 0.0014863862379739196 0 -0.0032248439075176277 0.0016087941169888201 0 -0.0032248439075176277 0.0016087941169888201 0 -0.0033483023424289537 0.001792756854881529 0 -0.0031568738978259496 0.0017953640874545395 0 -0.0033908851649822446 0.001615573535216241 0 -0.0032248439075176277 0.0016087941169888201 0 -0.0033483023424289537 0.001792756854881529 0 -0.003220482773300508 0.0019031527228964128 0 -0.0033483023424289537 0.001792756854881529 0 -0.0031568738978259496 0.0017953640874545395 0 -0.003563651577264103 0.0018374198945666981 0 -0.0033483023424289537 0.001792756854881529 0 -0.0033424757396864273 0.0020960210769459834 0 -0.003563651577264103 0.0018374198945666981 0 -0.0035153552976558114 0.0016495171661086308 0 -0.0033483023424289537 0.001792756854881529 0 -0.003220482773300508 0.0019031527228964128 0 -0.0033483023424289537 0.001792756854881529 0 -0.0033424757396864273 0.0020960210769459834 0 -0.003220482773300508 0.0019031527228964128 0 -0.0033424757396864273 0.0020960210769459834 0 -0.0030871272980681741 0.0020110263952945158 0 -0.0037679605139048777 0.0020921538424529804 0 -0.0030635739041606157 0.0027910574358515896 0 -0.0043606428329094025 0.0026899452954651675 0 -0.0033424757396864273 0.0020960210769459834 0 -0.0030635739041606157 0.0027910574358515896 0 -0.0030871272980681741 0.0020110263952945158 0 -0.0037679605139048777 0.0020921538424529804 0 -0.0033424757396864273 0.0020960210769459834 0 -0.0030635739041606157 0.0027910574358515896 0 -0.0054338168549006756 -0.00061873117698228112 0 -0.0043606428329094025 0.0026899452954651675 0 -0.0059501670926883302 0.00086197553760542834 0 -0.0043606428329094025 0.0026899452954651675 0 -0.0058812436617996728 0.0029223164901908127 0 -0.0060103159254970267 0.0019761159010933558 0 -0.0053889270717899351 0.0036226395432132413 0 -0.0043606428329094025 0.0026899452954651675 0 -0.0058812436617996728 0.0029223164901908127 0 -0.0043606428329094025 0.0026899452954651675 0 -0.0060103159254970267 0.0019761159010933558 0 -0.0059501670926883302 0.00086197553760542834 0 -0.0045393145526391471 0.0028433879224634205 0 -0.0075024099646127506 0.0020884347816417632 0 -0.0031764185070147955 0.0017932663276052925 0 -0.0037644845467823219 0.0024419747319675 0 -0.0025261923746343505 0.0023051859463538442 0 -0.0027625066074142336 0.001448363170867847 0 -0.0026190650239915582 0.0014484681812360087 0 -0.0028364463980359474 0.0016327554300516842 0 -0.0027045631399306843 0.001461444940740228 0 -0.0045393145526391471 0.0028433879224634205 0 -0.0026190650239915582 0.0014484681812360087 0 -0.0028364463980359474 0.0016327554300516842 0 -0.0027965608874473435 0.0019546991512330403 0 -0.0028643903680069904 0.0014807321916187491 0 -0.0028364463980359474 0.0016327554300516842 0 -0.0029866008975731767 0.0015194130327009744 0 -0.0028364463980359474 0.0016327554300516842 0 -0.0029866008975731767 0.0015194130327009744 0 -0.0030267833679531067 0.0016982452186563811 0 -0.0028364463980359474 0.0016327554300516842 0 -0.0030267833679531067 0.0016982452186563811 0 -0.0029294908936086427 0.0018553519495637773 0 -0.0032314174815509327 0.0014710222295245573 0 -0.0032248439075176277 0.0016087941169888201 0 -0.00310619558129208 0.0015567299343229618 0 -0.0032248439075176277 0.0016087941169888201 0 -0.00310619558129208 0.0015567299343229618 0 -0.0030267833679531067 0.0016982452186563811 0 -0.00310619558129208 0.0015567299343229618 0 -0.0029866008975731767 0.0015194130327009744 0 -0.0030267833679531067 0.0016982452186563811 0 -0.0032248439075176277 0.0016087941169888201 0 -0.0030267833679531067 0.0016982452186563811 0 -0.0031568738978259496 0.0017953640874545395 0 -0.0030494984264855833 0.0018259971044755434 0 -0.0031568738978259496 0.0017953640874545395 0 -0.0030871272980681741 0.0020110263952945158 0 -0.003220482773300508 0.0019031527228964128 0 -0.0031568738978259496 0.0017953640874545395 0 -0.0030871272980681741 0.0020110263952945158 0 -0.0030267833679531067 0.0016982452186563811 0 -0.0030494984264855833 0.0018259971044755434 0 -0.0031568738978259496 0.0017953640874545395 0 -0.0030267833679531067 0.0016982452186563811 0 -0.0030494984264855833 0.0018259971044755434 0 -0.0029294908936086427 0.0018553519495637773 0 -0.0030494984264855833 0.0018259971044755434 0 -0.0029294908936086427 0.0018553519495637773 0 -0.0030871272980681741 0.0020110263952945158 0 -0.0029294908936086427 0.0018553519495637773 0 -0.0030871272980681741 0.0020110263952945158 0 -0.0028406867946214674 0.0019873172399839838 0 -0.0028364463980359474 0.0016327554300516842 0 -0.0029294908936086427 0.0018553519495637773 0 -0.0027965608874473435 0.0019546991512330403 0 -0.0029294908936086427 0.0018553519495637773 0 -0.0028406867946214674 0.0019873172399839838 0 -0.0027965608874473435 0.0019546991512330403 0 -0.004180147435585071 0.0027673258765397073 0 -0.0045393145526391471 0.0028433879224634205 0 -0.0078990321762612125 0.0033561385055826012 0 -0.0076435393541925984 0.0034695269969683318 0 -0.0078558584487258849 0.0037106676038924876 0 -0.0052468376236826497 0.0030249507573063567 0 -0.0045393145526391471 0.0028433879224634205 0 -0.0030635739041606157 0.0027910574358515896 0 -0.0028406867946214674 0.0019873172399839838 0 -0.0027551196328617035 0.0019602740683312145 0 -0.0030635739041606157 0.0027910574358515896 0 -0.0030871272980681741 0.0020110263952945158 0 -0.0028406867946214674 0.0019873172399839838 0 -0.0078558584487258849 0.0037106676038924876 0 -0.0081030616689153345 0.0035434114044720034 0 -0.008407911230766809 0.0037592599464346317 0 -0.0078990321762612125 0.0033561385055826012 0 -0.0078558584487258849 0.0037106676038924876 0 -0.0081030616689153345 0.0035434114044720034 0 -0.0078990321762612125 0.0033561385055826012 0 -0.0081030616689153345 0.0035434114044720034 0 -0.0084024657266906413 0.003477031405414225 0 -0.0099450079392801281 0.0054159934424138348 0 -0.012321874718945788 0.0030244672051237434 0 -0.0081030616689153345 0.0035434114044720034 0 -0.0084024657266906413 0.003477031405414225 0 -0.008407911230766809 0.0037592599464346317 0 -0.014516093309389364 -0.00037611410008823315 0 -0.014522851085431604 -4.3477115972563954e-05 0 -0.015247406416834818 -6.9546617093950932e-05 0 -0.014522851085431604 -4.3477115972563954e-05 0 -0.01492779543235451 0.00022283627479270583 0 -0.014518375140350179 0.00047040731346987538 0 -0.012321874718945788 0.0030244672051237434 0 -0.0075024099646127506 0.0020884347816417632 0 -0.015247406416834818 -6.9546617093950932e-05 0 -0.01492779543235451 0.00022283627479270583 0 -0.015397361233270679 0.00054381842965675338 0 -0.014522851085431604 -4.3477115972563954e-05 0 -0.015247406416834818 -6.9546617093950932e-05 0 -0.01492779543235451 0.00022283627479270583 0 -0.012839277797848787 4.8290298323773135e-05 0 -0.014126543075009393 0.0021640779494442658 0 -0.014145192324613136 0.0001800552333475551 0 -0.012053433169541316 0.00074878568246850832 0 -0.014956193201374004 0.00045261508501009224 0 -0.01492779543235451 0.00022283627479270583 0 -0.014927097800669673 0.00050654721878592187 0 -0.015397361233270679 0.00054381842965675338 0 -0.01492779543235451 0.00022283627479270583 0 -0.014927097800669673 0.00050654721878592187 0 -0.014518375140350179 0.00047040731346987538 0 -0.0066678677865984436 0.0016959830437794426 0 -0.0065329130446124999 0.0016848722094776798 0 -0.006522543833562662 0.0018899639742630643 0 -0.0031764185070147955 0.0017932663276052925 0 -0.0025261923746343505 0.0023051859463538442 0 -0.0024446249062286284 0.0015369689654783321 0 -0.0075024099646127506 0.0020884347816417632 0 -0.0044501138669444749 0.0016424900038627622 0 -0.012053433169541316 0.00074878568246850832 0 -0.0075024099646127506 0.0020884347816417632 0 -0.0031764185070147955 0.0017932663276052925 0 -0.0024446249062286284 0.0015369689654783321 0 -0.0025481872426040145 0.0012550212432415589 0 -0.006522543833562662 0.0018899639742630643 0 -0.0065149661761053782 0.0021044240659133674 0 -0.0068017092991253681 0.0019427706987553074 0 -0.0066678677865984436 0.0016959830437794426 0 -0.006522543833562662 0.0018899639742630643 0 -0.0068017092991253681 0.0019427706987553074 0 -0.012053433169541316 0.00074878568246850832 0 -0.006014269762913747 0.0014813388646723147 0 -0.0015091986608396003 0.0014286209581543146 0 -0.0017420770911543079 0.001526528606054471 0 -0.0014632948146375208 0.0017039642750881151 0 -0.003468984516686811 0.0018183670952715246 0 -0.006014269762913747 0.0014813388646723147 0 -0.0044501138669444749 0.0016424900038627622 0 -0.003468984516686811 0.0018183670952715246 0 -0.0024446249062286284 0.0015369689654783321 0 -0.0024166136944157486 0.0010517964542435052 0 -0.0025481872426040145 0.0012550212432415589 0 -0.0025837630440283931 0.00083270641466175719 0 -0.0024166136944157486 0.0010517964542435052 0 -0.0026068689835140467 0.0010764343097645608 0 -0.0024166136944157486 0.0010517964542435052 0 -0.0026068689835140467 0.0010764343097645608 0 -0.0025481872426040145 0.0012550212432415589 0 -0.0026506482574511162 0.0012347192617687922 0 -0.0026068689835140467 0.0010764343097645608 0 -0.0025481872426040145 0.0012550212432415589 0 -0.00022289108807822209 -0.00040203741640201123 0 -0.0005018135957382963 2.632563313230528e-05 0 -0.00056489721370129122 -0.00045058490062502705 0 -0.00022289108807822209 -0.00040203741640201123 0 -0.0005018135957382963 2.632563313230528e-05 0 -8.8080994403306589e-05 1.0608715445871098e-05 0 -0.00012008896925986769 0.00025691015055488578 0 -0.006014269762913747 0.0014813388646723147 0 -0.0015091986608396003 0.0014286209581543146 0 -0.0012797662081186199 0.0014769792314120341 0 -0.0014632948146375208 0.0017039642750881151 0 -0.00022289108807822209 -0.00040203741640201123 0 -8.8080994403306589e-05 1.0608715445871098e-05 0 0.00018863912684570559 -0.00052268626211478535 0 -0.014126543075009393 0.0021640779494442658 0 -0.016111463958287168 0.00097179914328266728 0 -0.014145192324613136 0.0001800552333475551 0 -0.00022289108807822209 -0.00040203741640201123 0 0.00018863912684570559 -0.00052268626211478535 0 -0.00039425655144464814 -0.00092802674639115763 0 -0.006014269762913747 0.0014813388646723147 0 -0.0087096027587919428 -9.6251174350348189e-05 0 -0.00022289108807822209 -0.00040203741640201123 0 -0.00056489721370129122 -0.00045058490062502705 0 -0.00039425655144464814 -0.00092802674639115763 0 -0.00056489721370129122 -0.00045058490062502705 0 -0.00039425655144464814 -0.00092802674639115763 0 -0.00070059889180421389 -0.00070267922320526297 0 -0.016298023350155583 0.00016547694576474455 0 -0.016722393132936313 0.00041623962272929526 0 -0.01640281256651881 0.00060997031029497487 0 -0.016111463958287168 0.00097179914328266728 0 -0.017119688156647446 0.00029890510686064758 0 -0.01640281256651881 0.00060997031029497487 0 -0.01588469352905052 0.0001677067636645658 0 -0.016652737073567424 0.00042250508521636223 0 -0.01640281256651881 0.00060997031029497487 0 -0.016111463958287168 0.00097179914328266728 0 -0.014145192324613136 0.0001800552333475551 0 -0.01640281256651881 0.00060997031029497487 0 -0.015397361233270679 0.00054381842965675338 0 -0.01588469352905052 0.0001677067636645658 0 -0.016215008181080789 0.00056027951208137178 0 -0.014956193201374004 0.00045261508501009224 0 -0.017095275137106538 0.00026031743520537893 0 -0.017194918168077125 0.0001953372862360665 0 -0.016987057358701728 0.00020258463295602021 0 -0.015247406416834818 -6.9546617093950932e-05 0 -0.015397361233270679 0.00054381842965675338 0 -0.01588469352905052 0.0001677067636645658 0 -0.017509675515261267 -0.0005933217477475471 0 -0.016298023350155583 0.00016547694576474455 0 -0.017095275137106538 0.00026031743520537893 0 -0.016987057358701728 0.00020258463295602021 0 -0.016924938920086213 0.0002279579063031986 0 -0.016987057358701728 0.00020258463295602021 0 -0.016924938920086213 0.0002279579063031986 0 -0.016652737073567424 0.00042250508521636223 0 -0.013454838414460378 -0.00038576311075015483 0 -0.0072193977454793491 -0.0013126678824014206 0 -0.0099396229181097154 -0.0010247025791006142 0 -0.0098641654303179508 -0.00087816996247088526 0 -0.0099280207698943176 -0.00091133265367322671 0 -0.016924938920086213 0.0002279579063031986 0 -0.016959110818874436 0.00021172373460808915 0 -0.016921082371205688 0.00025412819353049686 0 -0.016959110818874436 0.00021172373460808915 0 -0.016921082371205688 0.00025412819353049686 0 -0.017119688156647446 0.00029890510686064758 0 -0.016924938920086213 0.0002279579063031986 0 -0.016921082371205688 0.00025412819353049686 0 -0.016652737073567424 0.00042250508521636223 0 -0.00039425655144464814 -0.00092802674639115763 0 -0.0010158855055798861 -0.0013272065722868462 0 -0.00088773835700752001 -0.00090853663289088829 0 -0.016921082371205688 0.00025412819353049686 0 -0.016652737073567424 0.00042250508521636223 0 -0.017119688156647446 0.00029890510686064758 0 -0.0087096027587919428 -9.6251174350348189e-05 0 -0.0072193977454793491 -0.0013126678824014206 0 -0.01640281256651881 0.00060997031029497487 0 -0.016652737073567424 0.00042250508521636223 0 -0.017119688156647446 0.00029890510686064758 0 -0.0010279016970074562 -0.0014943612645221284 0 -0.0009951612976619019 -0.0010483402908591755 0 -0.0013225751258800287 -0.0016583730099743114 0 -0.0011103512548444408 -0.00066180399507664845 0 -0.0042390223956093554 -0.0016675630250690924 0 -0.0072193977454793491 -0.0013126678824014206 0 -0.0042390223956093554 -0.0016675630250690924 0 -0.0010279016970074562 -0.0014943612645221284 0 -0.0009951612976619019 -0.0010483402908591755 0 -0.00088773835700752001 -0.00090853663289088829 0 -0.0072193977454793491 -0.0013126678824014206 0 -0.0017934818780510648 -0.00054572495085458412 0 -0.0009951612976619019 -0.0010483402908591755 0 -0.0011658780499712769 -0.0011735309716741553 0 -0.0011894699484992694 -0.00096490862395313677 0 -0.0013360833405445154 -0.0010997028029583354 0 -0.0011658780499712769 -0.0011735309716741553 0 -0.0011894699484992694 -0.00096490862395313677 0 -0.0009951612976619019 -0.0010483402908591755 0 -0.0011658780499712769 -0.0011735309716741553 0 -0.0011371894274079331 -0.0013719437462992405 0 -0.0013360833405445154 -0.0010997028029583354 0 -0.0011658780499712769 -0.0011735309716741553 0 -0.001283954178413955 -0.0014621577362422262 0 -0.0011658780499712769 -0.0011735309716741553 0 -0.001283954178413955 -0.0014621577362422262 0 -0.0011371894274079331 -0.0013719437462992405 0 -0.0010685529871658473 -0.0024133780498475487 0 -0.00080403804378420323 -0.0038585170187210639 0 -0.0020928220959926273 -0.0032768386917321445 0 -0.0012829046078682593 -0.0017517537456495707 0 -0.0027821392185180451 -0.0030621716361393528 0 -0.0027821392185180451 -0.0030621716361393528 0 -0.0017497335466452187 -0.0041851868953269441 0 -0.0042390223956093554 -0.0016675630250690924 0 -0.0075335344195804092 -0.002539469294157944 0 -0.0057649183367759526 -0.0020246713811948517 0 -0.0049977940195929972 -0.0015638801336988141 0 -0.0055811926213384013 -0.0028861714804829116 0 -0.0027821392185180451 -0.0030621716361393528 0 -0.0042390223956093554 -0.0016675630250690924 0 -0.0027821392185180451 -0.0030621716361393528 0 -0.0075335344195804092 -0.002539469294157944 0 -0.0099396229181097154 -0.0010247025791006142 0 -0.0099280207698943176 -0.00091133265367322671 0 -0.0099871551128338787 -0.0010073059231519035 0 -0.001094744139483742 -0.0039395085178970234 0 -0.0009660874917240273 -0.004506159713526278 0 -0.002125532035711438 -0.0045877490463031778 0 -0.0023286604199338127 -0.0054641212486293963 0 -0.0009660874917240273 -0.004506159713526278 0 -0.002125532035711438 -0.0045877490463031778 0 -0.0033453897116090983 -0.0051663072658877911 0 -0.002125532035711438 -0.0045877490463031778 0 -0.0030595991367415448 -0.004055419422703873 0 -0.002125532035711438 -0.0045877490463031778 0 -0.0030595991367415448 -0.004055419422703873 0 -0.0020928220959926273 -0.0032768386917321445 0 -0.00080403804378420323 -0.0038585170187210639 0 -0.002125532035711438 -0.0045877490463031778 0 -0.0020928220959926273 -0.0032768386917321445 0 -0.0030595991367415448 -0.004055419422703873 0 -0.0032504117695564675 -0.0028217407130441516 0 -0.0044154413318712987 -0.0043345817931442045 0 -0.0033453897116090983 -0.0051663072658877911 0 -0.0030595991367415448 -0.004055419422703873 0 -0.0044154413318712987 -0.0043345817931442045 0 -0.0032504117695564675 -0.0028217407130441516 0 -0.0044154413318712987 -0.0043345817931442045 0 -0.0048671900545623134 -0.0024655928533733724 0 -0.0010685529871658473 -0.0024133780498475487 0 -0.0020928220959926273 -0.0032768386917321445 0 -0.0022223234377215908 -0.0017336012165607938 0 -0.0032504117695564675 -0.0028217407130441516 0 -0.0020928220959926273 -0.0032768386917321445 0 -0.0022223234377215908 -0.0017336012165607938 0 -0.0030595991367415448 -0.004055419422703873 0 -0.0032504117695564675 -0.0028217407130441516 0 -0.0020928220959926273 -0.0032768386917321445 0 -0.0022223234377215908 -0.0017336012165607938 0 -0.0032964117200644568 -0.0011148868029293491 0 -0.0019448444103622731 -0.00040098719715133324 0 -0.0010685529871658473 -0.0024133780498475487 0 -0.0022223234377215908 -0.0017336012165607938 0 -0.0014227595551887066 -0.00088891866045756021 0 -0.0022223234377215908 -0.0017336012165607938 0 -0.0019448444103622731 -0.00040098719715133324 0 -0.0014227595551887066 -0.00088891866045756021 0 -0.0032504117695564675 -0.0028217407130441516 0 -0.0022223234377215908 -0.0017336012165607938 0 -0.0032964117200644568 -0.0011148868029293491 0 -0.0032504117695564675 -0.0028217407130441516 0 -0.0032964117200644568 -0.0011148868029293491 0 -0.0048671900545623134 -0.0024655928533733724 0 -0.0032964117200644568 -0.0011148868029293491 0 -0.0019448444103622731 -0.00040098719715133324 0 -0.002620244634012617 0.0010115858790509802 0 -0.0019448444103622731 -0.00040098719715133324 0 -0.001170343686098122 -0.00037130943848408011 0 -0.0014353611946722328 0.00034929991136062392 0 -0.0019448444103622731 -0.00040098719715133324 0 -0.0014353611946722328 0.00034929991136062392 0 -0.002620244634012617 0.0010115858790509802 0 -0.0019448444103622731 -0.00040098719715133324 0 -0.001170343686098122 -0.00037130943848408011 0 -0.0014227595551887066 -0.00088891866045756021 0 -0.001170343686098122 -0.00037130943848408011 0 -0.00087254428901054211 -4.3477817420540358e-05 0 -0.0014353611946722328 0.00034929991136062392 0 -0.0005018135957382963 2.632563313230528e-05 0 -0.00056489721370129122 -0.00045058490062502705 0 -0.00087254428901054211 -4.3477817420540358e-05 0 -0.00056489721370129122 -0.00045058490062502705 0 -0.00087254428901054211 -4.3477817420540358e-05 0 -0.00090301864167099651 -0.00060158290617592664 0 -0.001170343686098122 -0.00037130943848408011 0 -0.00087254428901054211 -4.3477817420540358e-05 0 -0.00090301864167099651 -0.00060158290617592664 0 -0.00039425655144464814 -0.00092802674639115763 0 -0.00070059889180421389 -0.00070267922320526297 0 -0.00088773835700752001 -0.00090853663289088829 0 -0.00090301864167099651 -0.00060158290617592664 0 -0.001032826775111702 -0.00086656003073771039 0 -0.0011334058097804305 -0.00076095306772107102 0 -0.00056489721370129122 -0.00045058490062502705 0 -0.00090301864167099651 -0.00060158290617592664 0 -0.00070059889180421389 -0.00070267922320526297 0 -0.00090301864167099651 -0.00060158290617592664 0 -0.00070059889180421389 -0.00070267922320526297 0 -0.00088773835700752001 -0.00090853663289088829 0 -0.0009951612976619019 -0.0010483402908591755 0 -0.001032826775111702 -0.00086656003073771039 0 -0.0011894699484992694 -0.00096490862395313677 0 -0.00090301864167099651 -0.00060158290617592664 0 -0.001032826775111702 -0.00086656003073771039 0 -0.00088773835700752001 -0.00090853663289088829 0 -0.0009951612976619019 -0.0010483402908591755 0 -0.001032826775111702 -0.00086656003073771039 0 -0.00088773835700752001 -0.00090853663289088829 0 -0.0011894699484992694 -0.00096490862395313677 0 -0.0014227595551887066 -0.00088891866045756021 0 -0.0011334058097804305 -0.00076095306772107102 0 -0.001032826775111702 -0.00086656003073771039 0 -0.0011894699484992694 -0.00096490862395313677 0 -0.0011334058097804305 -0.00076095306772107102 0 -0.0013360833405445154 -0.0010997028029583354 0 -0.0011894699484992694 -0.00096490862395313677 0 -0.0014227595551887066 -0.00088891866045756021 0 -0.0012829046078682593 -0.0017517537456495707 0 -0.0013912211160790652 -0.0010087928026688434 0 -0.001170343686098122 -0.00037130943848408011 0 -0.0014227595551887066 -0.00088891866045756021 0 -0.0011334058097804305 -0.00076095306772107102 0 -0.001170343686098122 -0.00037130943848408011 0 -0.00090301864167099651 -0.00060158290617592664 0 -0.0011334058097804305 -0.00076095306772107102 0 -0.012198929989602919 -0.0028152200066669194 0 -0.011583364122259264 -0.0019604175721612579 0 -0.01146897672296732 -0.0030127495927386957 0 -0.010582470678515723 -0.002443242411091041 0 -0.010101332914471807 -0.0036397506367820852 0 -0.009622211920973114 -0.0029549981683492437 0 -0.0081442994469439738 -0.0048319589400019824 0 -0.0072417709188133403 -0.0022468591900329767 0 -0.0060827457781650824 -0.0039189099216348292 0 -0.0048671900545623134 -0.0024655928533733724 0 -0.0072417709188133403 -0.0022468591900329767 0 -0.0081442994469439738 -0.0048319589400019824 0 -0.0060827457781650824 -0.0039189099216348292 0 -0.0072417709188133403 -0.0022468591900329767 0 -0.0059278240216631339 -0.0054493020861373261 0 -0.0081442994469439738 -0.0048319589400019824 0 -0.0060827457781650824 -0.0039189099216348292 0 -0.0059278240216631339 -0.0054493020861373261 0 -0.0060827457781650824 -0.0039189099216348292 0 -0.0044154413318712987 -0.0043345817931442045 0 -0.0060827457781650824 -0.0039189099216348292 0 -0.0044154413318712987 -0.0043345817931442045 0 -0.0048671900545623134 -0.0024655928533733724 0 -0.0032964117200644568 -0.0011148868029293491 0 -0.0048671900545623134 -0.0024655928533733724 0 -0.0051798423283257481 -0.00038452311864177328 0 -0.0032964117200644568 -0.0011148868029293491 0 -0.0051798423283257481 -0.00038452311864177328 0 -0.002620244634012617 0.0010115858790509802 0 -0.0051798423283257481 -0.00038452311864177328 0 -0.0072417709188133403 -0.0022468591900329767 0 -0.0076723951555892648 0.00064642175475996633 0 -0.0048671900545623134 -0.0024655928533733724 0 -0.0051798423283257481 -0.00038452311864177328 0 -0.0072417709188133403 -0.0022468591900329767 0 -0.0072417709188133403 -0.0022468591900329767 0 -0.0076723951555892648 0.00064642175475996633 0 -0.0091713910239074898 -0.00097396748805537688 0 -0.009622211920973114 -0.0029549981683492437 0 -0.0072417709188133403 -0.0022468591900329767 0 -0.0091713910239074898 -0.00097396748805537688 0 -0.011516241780541038 -0.0006063845337975428 0 -0.010309947550150243 0.00067528524995272331 0 -0.0091713910239074898 -0.00097396748805537688 0 -0.0076723951555892648 0.00064642175475996633 0 -0.010309947550150243 0.00067528524995272331 0 -0.0091713910239074898 -0.00097396748805537688 0 -0.011516241780541038 -0.0006063845337975428 0 -0.009622211920973114 -0.0029549981683492437 0 -0.0091713910239074898 -0.00097396748805537688 0 -0.011530746397767775 -0.00065128202139045081 0 -0.010582470678515723 -0.002443242411091041 0 -0.011202050801953181 0.0036485777984658933 0 -0.0092939024957871715 0.0038713053644015864 0 -0.009386957514549597 0.0023897395200817273 0 -0.011548692516660622 0.0018638747387312582 0 -0.010309947550150243 0.00067528524995272331 0 -0.009386957514549597 0.0023897395200817273 0 -0.0076723951555892648 0.00064642175475996633 0 -0.010309947550150243 0.00067528524995272331 0 -0.009386957514549597 0.0023897395200817273 0 -0.0076723951555892648 0.00064642175475996633 0 -0.009386957514549597 0.0023897395200817273 0 -0.0075501665739328436 0.0029616118021716454 0 -0.0075501665739328436 0.0029616118021716454 0 -0.0061900884515848197 0.0036584839479352356 0 -0.007622249600076722 0.0049761669361419658 0 -0.0092939024957871715 0.0038713053644015864 0 -0.0075501665739328436 0.0029616118021716454 0 -0.007622249600076722 0.0049761669361419658 0 -0.0092939024957871715 0.0038713053644015864 0 -0.009386957514549597 0.0023897395200817273 0 -0.0075501665739328436 0.0029616118021716454 0 -0.0075501665739328436 0.0029616118021716454 0 -0.0061900884515848197 0.0036584839479352356 0 -0.0053831925721756907 0.0021066152451593525 0 -0.0051798423283257481 -0.00038452311864177328 0 -0.0076723951555892648 0.00064642175475996633 0 -0.0053831925721756907 0.0021066152451593525 0 -0.0076723951555892648 0.00064642175475996633 0 -0.0075501665739328436 0.0029616118021716454 0 -0.0053831925721756907 0.0021066152451593525 0 -0.0051798423283257481 -0.00038452311864177328 0 -0.0053831925721756907 0.0021066152451593525 0 -0.002620244634012617 0.0010115858790509802 0 -0.0029750416337514162 0.0019954738341075228 0 -0.00251249412007805 0.0014208146638644685 0 -0.0061900884515848197 0.0036584839479352356 0 -0.0053831925721756907 0.0021066152451593525 0 -0.0041550245682291471 0.0045856399561930682 0 -0.0053831925721756907 0.0021066152451593525 0 -0.0041550245682291471 0.0045856399561930682 0 -0.002620244634012617 0.0010115858790509802 0 -0.0029750416337514162 0.0019954738341075228 0 -0.0017911489891690357 0.00078665436819317909 0 -0.00051559297526689192 0.0013570632054207129 0 -0.00063967895804923247 0.0010391989237087931 0 0.00011904500723356713 0.00072814414909404474 0 -0.0029750416337514162 0.0019954738341075228 0 -0.00087547572343801838 0.0013976701581400958 0 -0.00051559297526689192 0.0013570632054207129 0 -0.00063967895804923247 0.0010391989237087931 0 -0.0013115209967866129 0.0012703768784601214 0 0.00011904500723356713 0.00072814414909404474 0 -0.0005618228496547526 0.00087548076506833354 0 -0.00022259997989510156 0.00057033554487472709 0 -0.00063967895804923247 0.0010391989237087931 0 0.00011904500723356713 0.00072814414909404474 0 -0.0005618228496547526 0.00087548076506833354 0 -0.0039582767617199009 0.0012439553947258099 0 -0.0040390258449818179 0.0011933119775594686 0 -0.0040375060864656894 0.0012686983771167733 0 -0.0061900884515848197 0.0036584839479352356 0 -0.0041550245682291471 0.0045856399561930682 0 -0.007622249600076722 0.0049761669361419658 0 -0.0029750416337514162 0.0019954738341075228 0 -0.0059612788460412496 0.0033464205896686049 0 -0.0039241120154051836 0.0011827392983200578 0 -0.0039582767617199009 0.0012439553947258099 0 -0.0040390258449818179 0.0011933119775594686 0 -0.0040390258449818179 0.0011933119775594686 0 -0.0040860329700630567 0.0012336816670968759 0 -0.0040375060864656894 0.0012686983771167733 0 -0.0040860329700630567 0.0012336816670968759 0 -0.0041059533582583543 0.0012656407459803562 0 -0.0040375060864656894 0.0012686983771167733 0 -0.0041602966320284894 0.0012050680244325429 0 -0.0040860329700630567 0.0012336816670968759 0 -0.0041059533582583543 0.0012656407459803562 0 -0.0080323687360969384 0.0023414531173064725 0 -0.0048513682087438338 0.00062210953633001699 0 -0.011202050801953181 0.0036485777984658933 0 -0.01085529275210797 0.0053773637734791614 0 -0.0092939024957871715 0.0038713053644015864 0 -0.01085529275210797 0.0053773637734791614 0 -0.0092939024957871715 0.0038713053644015864 0 -0.007622249600076722 0.0049761669361419658 0 -0.0041602966320284894 0.0012050680244325429 0 -0.0040390258449818179 0.0011933119775594686 0 -0.0040860329700630567 0.0012336816670968759 0 -0.0080323687360969384 0.0023414531173064725 0 -0.0059612788460412496 0.0033464205896686049 0 -0.00095628589154885815 0.00062666094303590937 0 -0.0013097945730696167 0.0009248212860545321 0 -0.0010849964095830408 0.00099197535569327169 0 -0.0013097945730696167 0.0009248212860545321 0 -0.0012243638622933565 0.0011105607137493862 0 -0.0010849964095830408 0.00099197535569327169 0 -0.00045945236967115063 0.0005996336115458718 0 -0.00095628589154885815 0.00062666094303590937 0 -0.00093046836964962823 0.0010031083146471765 0 -0.00095628589154885815 0.00062666094303590937 0 -0.0010849964095830408 0.00099197535569327169 0 -0.00093046836964962823 0.0010031083146471765 0 -0.00045945236967115063 0.0005996336115458718 0 -0.0005018135957382963 2.632563313230528e-05 0 -0.00095628589154885815 0.00062666094303590937 0 -0.0005018135957382963 2.632563313230528e-05 0 -0.00087254428901054211 -4.3477817420540358e-05 0 -0.00095628589154885815 0.00062666094303590937 0 -0.00095628589154885815 0.00062666094303590937 0 -0.0014353611946722328 0.00034929991136062392 0 -0.0013097945730696167 0.0009248212860545321 0 -0.00087254428901054211 -4.3477817420540358e-05 0 -0.00095628589154885815 0.00062666094303590937 0 -0.0014353611946722328 0.00034929991136062392 0 -0.0014353611946722328 0.00034929991136062392 0 -0.002620244634012617 0.0010115858790509802 0 -0.0017299915944168089 0.0011114198921801017 0 -0.0014353611946722328 0.00034929991136062392 0 -0.0013097945730696167 0.0009248212860545321 0 -0.0017299915944168089 0.0011114198921801017 0 -0.0013193495872212122 0.001289868515909902 0 -0.002620244634012617 0.0010115858790509802 0 -0.0013115209967866129 0.0012703768784601214 0 -0.0017299915944168089 0.0011114198921801017 0 -0.0012243638622933565 0.0011105607137493862 0 -0.0013115209967866129 0.0012703768784601214 0 -0.002620244634012617 0.0010115858790509802 0 -0.0017299915944168089 0.0011114198921801017 0 -0.0013115209967866129 0.0012703768784601214 0 -0.0013097945730696167 0.0009248212860545321 0 -0.0017299915944168089 0.0011114198921801017 0 -0.0012243638622933565 0.0011105607137493862 0 -0.0012243638622933565 0.0011105607137493862 0 -0.0010017741525917122 0.0010779062702179984 0 -0.00088926818217898742 0.00092426456882183463 0 -0.0012243638622933565 0.0011105607137493862 0 -0.00088926818217898742 0.00092426456882183463 0 -0.00098145193958269804 0.00091349002511379623 0 -0.0012243638622933565 0.0011105607137493862 0 -0.0013115209967866129 0.0012703768784601214 0 -0.0010017741525917122 0.0010779062702179984 0 -0.00063967895804923247 0.0010391989237087931 0 -0.0010017741525917122 0.0010779062702179984 0 -0.0005618228496547526 0.00087548076506833354 0 -0.00063967895804923247 0.0010391989237087931 0 -0.0013115209967866129 0.0012703768784601214 0 -0.0010017741525917122 0.0010779062702179984 0 -0.0005618228496547526 0.00087548076506833354 0 -0.00088926818217898742 0.00092426456882183463 0 -0.00022259997989510156 0.00057033554487472709 0 -0.0010017741525917122 0.0010779062702179984 0 -0.0005618228496547526 0.00087548076506833354 0 -0.00088926818217898742 0.00092426456882183463 0 -0.00088926818217898742 0.00092426456882183463 0 -0.00098145193958269804 0.00091349002511379623 0 -0.00076424245811559217 0.00066329491972515707 0 -0.00088926818217898742 0.00092426456882183463 0 -0.00076424245811559217 0.00066329491972515707 0 -0.00022259997989510156 0.00057033554487472709 0 -0.00098145193958269804 0.00091349002511379623 0 -0.00085454303167652721 0.00068540094936435727 0 -0.00076424245811559217 0.00066329491972515707 0 -0.00098145193958269804 0.00091349002511379623 0 -0.00088916877544324387 0.00065556735799719994 0 -0.00085454303167652721 0.00068540094936435727 0 -0.00098145193958269804 0.00091349002511379623 0 -0.0010849964095830408 0.00099197535569327169 0 -0.00093046836964962823 0.0010031083146471765 0 -0.0012243638622933565 0.0011105607137493862 0 -0.00098145193958269804 0.00091349002511379623 0 -0.0010849964095830408 0.00099197535569327169 0 -0.00098145193958269804 0.00091349002511379623 0 -0.00093046836964962823 0.0010031083146471765 0 -0.0010215943563363175 0.00090356965177244071 0 -0.0010615205660536597 0.00081084890944671973 0 -0.00098145193958269804 0.00091349002511379623 0 -0.0010215943563363175 0.00090356965177244071 0 -0.0010615205660536597 0.00081084890944671973 0 -0.00098145193958269804 0.00091349002511379623 0 -0.0010289895398554697 0.00076330068638574508 0 -0.0009549735894995384 0.00087910517877952767 0 -0.0009786614651250945 0.00073673238922700938 0 -0.00098145193958269804 0.00091349002511379623 0 -0.00090877770288141902 0.00067637478930336961 0 -0.00088916877544324387 0.00065556735799719994 0 -0.00088916877544324387 0.00065556735799719994 0 -0.00086864219592312211 0.00062018969609518187 0 -0.00088762110109162824 0.00060433118254908636 0 -0.00088916877544324387 0.00065556735799719994 0 -0.00086864219592312211 0.00062018969609518187 0 -0.00084927355141255385 0.0006314203929313249 0 -0.00088916877544324387 0.00065556735799719994 0 -0.00084927355141255385 0.0006314203929313249 0 -0.00085454303167652721 0.00068540094936435727 0 -0.00086864219592312211 0.00062018969609518187 0 -0.00084927355141255385 0.0006314203929313249 0 -0.00084410186270551552 0.00058934584465014715 0 -0.00084927355141255385 0.0006314203929313249 0 -0.00084410186270551552 0.00058934584465014715 0 -0.00078415367514324762 0.00052371797965283275 0 -0.00084410186270551552 0.00058934584465014715 0 -0.00084267795510877582 0.00055550969463718451 0 -0.00078415367514324762 0.00052371797965283275 0 -0.00086864219592312211 0.00062018969609518187 0 -0.00086275903900272211 0.00059026906021457522 0 -0.00088762110109162824 0.00060433118254908636 0 -0.00086275903900272211 0.00059026906021457522 0 -0.00084267795510877582 0.00055550969463718451 0 -0.00087262377141641653 0.00058049513938368319 0 -0.00086864219592312211 0.00062018969609518187 0 -0.00086275903900272211 0.00059026906021457522 0 -0.00084410186270551552 0.00058934584465014715 0 -0.00086275903900272211 0.00059026906021457522 0 -0.00084410186270551552 0.00058934584465014715 0 -0.00084267795510877582 0.00055550969463718451 0 -0.00084267795510877582 0.00055550969463718451 0 -0.00079603459704615984 0.00048963961561935589 0 -0.00085169516640504791 0.00052923121081836766 0 -0.00079603459704615984 0.00048963961561935589 0 -0.00078552616051025454 0.00042934363476247771 0 -0.00085169516640504791 0.00052923121081836766 0 -0.00084267795510877582 0.00055550969463718451 0 -0.00079603459704615984 0.00048963961561935589 0 -0.00078415367514324762 0.00052371797965283275 0 -0.00079603459704615984 0.00048963961561935589 0 -0.00078415367514324762 0.00052371797965283275 0 -0.00071709745109803965 0.00039955114895473266 0 -0.00078415367514324762 0.00052371797965283275 0 -0.00071709745109803965 0.00039955114895473266 0 -0.00064661669607099233 0.00038116439809623471 0 -0.00079603459704615984 0.00048963961561935589 0 -0.00071709745109803965 0.00039955114895473266 0 -0.00078552616051025454 0.00042934363476247771 0 -0.00071709745109803965 0.00039955114895473266 0 -0.00078552616051025454 0.00042934363476247771 0 -0.00069580416463333318 0.00028895782181671478 0 -0.00064661669607099233 0.00038116439809623471 0 -0.00075111692960579016 0.00054841273428900782 0 -0.00054367730902554572 0.00037306034701644854 0 -0.00071709745109803965 0.00039955114895473266 0 -0.00064661669607099233 0.00038116439809623471 0 -0.00061025256546935356 0.00028945783731517809 0 -0.00078415367514324762 0.00052371797965283275 0 -0.00064661669607099233 0.00038116439809623471 0 -0.00075111692960579016 0.00054841273428900782 0 -0.00075111692960579016 0.00054841273428900782 0 -0.00085454303167652721 0.00068540094936435727 0 -0.00076424245811559217 0.00066329491972515707 0 -0.00084927355141255385 0.0006314203929313249 0 -0.00078415367514324762 0.00052371797965283275 0 -0.00075111692960579016 0.00054841273428900782 0 -0.00084927355141255385 0.0006314203929313249 0 -0.00075111692960579016 0.00054841273428900782 0 -0.00085454303167652721 0.00068540094936435727 0 -0.00075111692960579016 0.00054841273428900782 0 -0.00076424245811559217 0.00066329491972515707 0 -0.00054367730902554572 0.00037306034701644854 0 -0.00076424245811559217 0.00066329491972515707 0 -0.00022259997989510156 0.00057033554487472709 0 -0.00054367730902554572 0.00037306034701644854 0 -0.00022259997989510156 0.00057033554487472709 0 0.00027358072104893854 0.00041014434259020911 0 0.00039283804069343995 0.00035496452395869082 0 -0.00015131976394091532 0.0005711573660810229 0 -7.3830389747881026e-05 0.00039386886851883743 0 0.00027358072104893854 0.00041014434259020911 0 0.00039283804069343995 0.00035496452395869082 0 0.00059477671332528175 0.00024430321244883925 0 -0.00064661669607099233 0.00038116439809623471 0 -0.00054367730902554572 0.00037306034701644854 0 -0.00051602449394920426 0.00024952269288387491 0 0.00059477671332528175 0.00024430321244883925 0 0.00073966976928008243 -4.3721819872221658e-05 0 0.00048212068168143168 0.00017905228481512273 0 0.00039283804069343995 0.00035496452395869082 0 0.00059477671332528175 0.00024430321244883925 0 0.00048212068168143168 0.00017905228481512273 0 -7.3830389747881026e-05 0.00039386886851883743 0 -1.9837322587766859e-05 0.00020710057471665433 0 0.00059477671332528175 0.00024430321244883925 0 0.00073966976928008243 -4.3721819872221658e-05 0 0.0010110374430972518 6.8925359929816898e-06 0 0.00073966976928008243 -4.3721819872221658e-05 0 0.0010110374430972518 6.8925359929816898e-06 0 0.0011414878988916593 -0.00025640430424939196 0 -2.9257621147948223e-05 -7.0886177538716284e-05 0 -1.9837322587766859e-05 0.00020710057471665433 0 -0.00037836784530203681 -1.4723287102098458e-05 0 -0.00053591652626038368 0.0001374330603519158 0 -0.00051602449394920426 0.00024952269288387491 0 0.00073966976928008243 -4.3721819872221658e-05 0 0.00034636991192885753 -5.5499235017039316e-05 0 0.00048212068168143168 0.00017905228481512273 0 -0.00053591652626038368 0.0001374330603519158 0 -0.00047710054169387682 -0.00010229193337719019 0 -0.00073175697335084455 0.0001184595601377912 0 -0.00037836784530203681 -1.4723287102098458e-05 0 -0.00053591652626038368 0.0001374330603519158 0 -0.00047710054169387682 -0.00010229193337719019 0 -0.00053591652626038368 0.0001374330603519158 0 -0.00069580416463333318 0.00028895782181671478 0 -0.00073175697335084455 0.0001184595601377912 0 -0.00053591652626038368 0.0001374330603519158 0 -0.00069580416463333318 0.00028895782181671478 0 -0.00061025256546935356 0.00028945783731517809 0 -0.00071709745109803965 0.00039955114895473266 0 -0.00069580416463333318 0.00028895782181671478 0 -0.00061025256546935356 0.00028945783731517809 0 -0.00053591652626038368 0.0001374330603519158 0 -0.00061025256546935356 0.00028945783731517809 0 -0.00051602449394920426 0.00024952269288387491 0 -0.00064661669607099233 0.00038116439809623471 0 -0.00061025256546935356 0.00028945783731517809 0 -0.00051602449394920426 0.00024952269288387491 0 -0.0040583740079865325 0.0013133491612413721 0 -0.0040166978522709878 0.0013075500002987139 0 -0.0040208595333475136 0.0013262761431856516 0 -0.0052961406819212161 0.0014442489043334111 0 -0.0048513682087438338 0.00062210953633001699 0 -0.0040583740079865325 0.0013133491612413721 0 -0.0041059533582583543 0.0012656407459803562 0 -0.0040375060864656894 0.0012686983771167733 0 -0.0040375060864656894 0.0012686983771167733 0 -0.0040166978522709878 0.0013075500002987139 0 -0.0039825140840594143 0.0012940517710392011 0 -0.0040583740079865325 0.0013133491612413721 0 -0.0040375060864656894 0.0012686983771167733 0 -0.0040166978522709878 0.0013075500002987139 0 -0.0040166978522709878 0.0013075500002987139 0 -0.0039825140840594143 0.0012940517710392011 0 -0.0039907866928016846 0.0013333217114676959 0 -0.0040166978522709878 0.0013075500002987139 0 -0.0039907866928016846 0.0013333217114676959 0 -0.0040208595333475136 0.0013262761431856516 0 0.00041609499220165806 0.00041548502616724496 0 0.00055460717692138578 0.00042483247771275622 0 0.00036816711825113672 0.00055780633985020027 0 0.00074387657970112107 0.00039207549916457646 0 0.00051537720397634701 0.00043677462337084075 0 0.00041609499220165806 0.00041548502616724496 0 0.00036816711825113672 0.00055780633985020027 0 0.00033659540783154065 0.00057281042930539287 0 -0.0019323361152148925 0.00092588888693506655 0 -0.00079605097298304328 0.00099253821958849176 0 0.00041609499220165806 0.00041548502616724496 0 0.00023183461870615778 0.00049150739638149064 0 0.00055460717692138578 0.00042483247771275622 0 -0.0017911489891690357 0.00078665436819317909 0 -0.0019323361152148925 0.00092588888693506655 0 -0.0039582767617199009 0.0012439553947258099 0 -0.0040375060864656894 0.0012686983771167733 0 -0.0039825140840594143 0.0012940517710392011 0 0.00011904500723356713 0.00072814414909404474 0 0.00041609499220165806 0.00041548502616724496 0 0.00023183461870615778 0.00049150739638149064 0 0.00011904500723356713 0.00072814414909404474 0 -0.00022259997989510156 0.00057033554487472709 0 0.00023183461870615778 0.00049150739638149064 0 -0.00022259997989510156 0.00057033554487472709 0 0.00027358072104893854 0.00041014434259020911 0 0.00023183461870615778 0.00049150739638149064 0 0.00027358072104893854 0.00041014434259020911 0 0.00059477671332528175 0.00024430321244883925 0 0.00055460717692138578 0.00042483247771275622 0 0.00027358072104893854 0.00041014434259020911 0 0.00023183461870615778 0.00049150739638149064 0 0.00055460717692138578 0.00042483247771275622 0 0.00059477671332528175 0.00024430321244883925 0 0.0010110374430972518 6.8925359929816898e-06 0 0.00096636915649504123 0.0002269052322419005 0 0.00059477671332528175 0.00024430321244883925 0 0.00055460717692138578 0.00042483247771275622 0 0.00096636915649504123 0.0002269052322419005 0 0.0010110374430972518 6.8925359929816898e-06 0 0.0012461218755742615 3.4294072372645936e-05 0 0.00096636915649504123 0.0002269052322419005 0 0.0010110374430972518 6.8925359929816898e-06 0 0.0013839816671349558 -0.00017084990640865727 0 0.0011414878988916593 -0.00025640430424939196 0 0.0012461218755742615 3.4294072372645936e-05 0 0.001493307964705383 -6.3389088940454677e-05 0 0.0013839816671349558 -0.00017084990640865727 0 0.0010110374430972518 6.8925359929816898e-06 0 0.0012461218755742615 3.4294072372645936e-05 0 0.0013839816671349558 -0.00017084990640865727 0 0.001493307964705383 -6.3389088940454677e-05 0 0.0016942907278754344 -0.00016550304066847749 0 0.0013839816671349558 -0.00017084990640865727 0 0.0012461218755742615 3.4294072372645936e-05 0 0.001493307964705383 -6.3389088940454677e-05 0 0.0013791982466448873 6.8322694717055978e-05 0 0.00055460717692138578 0.00042483247771275622 0 0.00096636915649504123 0.0002269052322419005 0 0.0014395740983703729 0.00026356723413297996 0 0.0013791982466448873 6.8322694717055978e-05 0 0.00125261149756194 0.00013668270416085954 0 0.0014395740983703729 0.00026356723413297996 0 0.0012461218755742615 3.4294072372645936e-05 0 0.0013791982466448873 6.8322694717055978e-05 0 0.00125261149756194 0.00013668270416085954 0 0.0012461218755742615 3.4294072372645936e-05 0 0.00125261149756194 0.00013668270416085954 0 0.00096636915649504123 0.0002269052322419005 0 0.00125261149756194 0.00013668270416085954 0 0.00096636915649504123 0.0002269052322419005 0 0.0014395740983703729 0.00026356723413297996 0 -0.0039907866928016846 0.0013333217114676959 0 -0.0040208595333475136 0.0013262761431856516 0 -0.0040172408395418571 0.0013485207665855552 0 -0.00079605097298304328 0.00099253821958849176 0 -0.0019968722967431589 0.00087752144060277706 0 0.0014896147975863824 0.00020732001163051848 0 0.0015713186139094913 -1.6714696814074533e-05 0 0.0016424241667818019 -2.1998803577408491e-05 0 0.00051537720397634701 0.00043677462337084075 0 -0.00079605097298304328 0.00099253821958849176 0 0.0013791982466448873 6.8322694717055978e-05 0 0.0014395740983703729 0.00026356723413297996 0 0.0015067283532518474 6.7349176393390129e-06 0 0.0014395740983703729 0.00026356723413297996 0 0.0014896147975863824 0.00020732001163051848 0 0.0015713186139094913 -1.6714696814074533e-05 0 0.0014395740983703729 0.00026356723413297996 0 0.0015067283532518474 6.7349176393390129e-06 0 0.0015713186139094913 -1.6714696814074533e-05 0 0.001493307964705383 -6.3389088940454677e-05 0 0.0015067283532518474 6.7349176393390129e-06 0 0.0016182976929001553 -0.00010998110836911069 0 0.001493307964705383 -6.3389088940454677e-05 0 0.0013791982466448873 6.8322694717055978e-05 0 0.0015067283532518474 6.7349176393390129e-06 0 0.001493307964705383 -6.3389088940454677e-05 0 0.0016182976929001553 -0.00010998110836911069 0 0.0016942907278754344 -0.00016550304066847749 0 0.0015067283532518474 6.7349176393390129e-06 0 0.0016182976929001553 -0.00010998110836911069 0 0.0015713186139094913 -1.6714696814074533e-05 0 0.0016182976929001553 -0.00010998110836911069 0 0.0015713186139094913 -1.6714696814074533e-05 0 0.0015842812431233885 -0.00010165933381153169 0 -0.0026856368704154419 0.00098568102219727307 0 -0.0019968722967431589 0.00087752144060277706 0 0.0015713186139094913 -1.6714696814074533e-05 0 0.0015842812431233885 -0.00010165933381153169 0 0.0016424241667818019 -2.1998803577408491e-05 0 0.0016182976929001553 -0.00010998110836911069 0 0.0015842812431233885 -0.00010165933381153169 0 0.0014885077264333393 -5.0996710208252191e-05 0 0.0013153570632520202 -0.00010532619149823199 0 0.0014885077264333393 -5.0996710208252191e-05 0 0.0015551804164528073 -0.00017758593782937724 0 0.0015842812431233885 -0.00010165933381153169 0 0.0014885077264333393 -5.0996710208252191e-05 0 0.0015551804164528073 -0.00017758593782937724 0 -0.00079861602607645267 0.00042248736110617543 0 -0.0019968722967431589 0.00087752144060277706 0 -0.0040583740079865325 0.0013133491612413721 0 -0.0040208595333475136 0.0013262761431856516 0 -0.0040172408395418571 0.0013485207665855552 0 -0.0052961406819212161 0.0014442489043334111 0 -0.0019968722967431589 0.00087752144060277706 0 -0.0062794112400149848 0.0015808764868845181 0 -0.0060377788989257122 0.0013399687358463565 0 -0.0059591495286262508 0.0017024386008448276 0 0.0022892298894929318 -0.00030134668642086814 0 0.0019358171695289699 -0.00070247041902726977 0 0.0023545097718691947 -0.00080214062277810146 0 0.0016182976929001553 -0.00010998110836911069 0 0.0014885077264333393 -5.0996710208252191e-05 0 0.0015159097335948266 6.066067052076055e-05 0 0.0022892298894929318 -0.00030134668642086814 0 0.0016942907278754344 -0.00016550304066847749 0 0.0019358171695289699 -0.00070247041902726977 0 0.0017469671433904244 -0.00012750679825414675 0 0.0017590897843986408 -0.00015235713351626206 0 0.0016182976929001553 -0.00010998110836911069 0 0.0015159097335948266 6.066067052076055e-05 0 0.0016942907278754344 -0.00016550304066847749 0 0.0016942907278754344 -0.00016550304066847749 0 0.0019358171695289699 -0.00070247041902726977 0 0.0016517930715314424 -0.00044852864791823611 0 0.0019358171695289699 -0.00070247041902726977 0 0.0016517930715314424 -0.00044852864791823611 0 0.0014680995391912286 -0.00053684444218574253 0 0.0019358171695289699 -0.00070247041902726977 0 0.0014680995391912286 -0.00053684444218574253 0 0.0018875574903504295 -0.00090894450595213508 0 0.0016942907278754344 -0.00016550304066847749 0 0.0016517930715314424 -0.00044852864791823611 0 0.0013839816671349558 -0.00017084990640865727 0 0.0016517930715314424 -0.00044852864791823611 0 0.0013839816671349558 -0.00017084990640865727 0 0.0014680995391912286 -0.00053684444218574253 0 0.0013839816671349558 -0.00017084990640865727 0 0.0011414878988916593 -0.00025640430424939196 0 0.0014680995391912286 -0.00053684444218574253 0 0.0014680995391912286 -0.00053684444218574253 0 0.0016410572225195891 -0.00089193510530122071 0 0.0011763855087476127 -0.00054626324584352778 0 0.0011414878988916593 -0.00025640430424939196 0 0.0014680995391912286 -0.00053684444218574253 0 0.0011763855087476127 -0.00054626324584352778 0 0.0014680995391912286 -0.00053684444218574253 0 0.0016410572225195891 -0.00089193510530122071 0 0.0018875574903504295 -0.00090894450595213508 0 0.0016410572225195891 -0.00089193510530122071 0 0.0021092387700317621 -0.0011656473748148505 0 0.0018875574903504295 -0.00090894450595213508 0 0.0016410572225195891 -0.00089193510530122071 0 0.0021092387700317621 -0.0011656473748148505 0 0.0016218171321715272 -0.0011955087626238808 0 0.0021092387700317621 -0.0011656473748148505 0 0.0018875574903504295 -0.00090894450595213508 0 0.0021783937655875728 -0.0011063828655531553 0 0.0019358171695289699 -0.00070247041902726977 0 0.0018875574903504295 -0.00090894450595213508 0 0.0021783937655875728 -0.0011063828655531553 0 0.0019358171695289699 -0.00070247041902726977 0 0.0021783937655875728 -0.0011063828655531553 0 0.0023545097718691947 -0.00080214062277810146 0 0.0027640510749030248 -0.0010062207027623899 0 0.0032296492818743258 -0.00071467661145554085 0 0.0034010651252624298 -0.00085369184408991608 0 0.0038488408902140289 -0.00091591266119876822 0 0.003869393315031013 -0.00052913726593653825 0 0.0040883993345827742 -0.00077179998340926254 0 0.0038488408902140289 -0.00091591266119876822 0 0.003869393315031013 -0.00052913726593653825 0 0.00066772511212421332 -0.00074490906662058804 0 0.00037396851862996397 -0.00078748438157523015 0 0.00062072704109811564 -0.00041059096217188607 0 0.00037396851862996397 -0.00078748438157523015 0 -8.6456242997011361e-05 -0.00048323125649262991 0 0.00062072704109811564 -0.00041059096217188607 0 0.00037396851862996397 -0.00078748438157523015 0 -8.6456242997011361e-05 -0.00048323125649262991 0 0.00019616444355297023 -0.001154508259570056 0 -0.00037836784530203681 -1.4723287102098458e-05 0 -8.6456242997011361e-05 -0.00048323125649262991 0 -0.00047710054169387682 -0.00010229193337719019 0 -2.9257621147948223e-05 -7.0886177538716284e-05 0 -0.00012862680595706306 -0.00045784228253747776 0 0.00034636991192885753 -5.5499235017039316e-05 0 -8.6456242997011361e-05 -0.00048323125649262991 0 0.00062072704109811564 -0.00041059096217188607 0 0.00073966976928008243 -4.3721819872221658e-05 0 0.00034636991192885753 -5.5499235017039316e-05 0 0.00062072704109811564 -0.00041059096217188607 0 0.00073966976928008243 -4.3721819872221658e-05 0 0.00062072704109811564 -0.00041059096217188607 0 0.00091615349596104888 -0.00033222268352021565 0 0.0011414878988916593 -0.00025640430424939196 0 0.00091615349596104888 -0.00033222268352021565 0 0.0011763855087476127 -0.00054626324584352778 0 0.00073966976928008243 -4.3721819872221658e-05 0 0.0011414878988916593 -0.00025640430424939196 0 0.00091615349596104888 -0.00033222268352021565 0 0.0011763855087476127 -0.00054626324584352778 0 0.00093222481922023695 -0.00062793008215853926 0 0.0012595791081709293 -0.00086936563111238499 0 0.00091615349596104888 -0.00033222268352021565 0 0.0011763855087476127 -0.00054626324584352778 0 0.00093222481922023695 -0.00062793008215853926 0 0.00062072704109811564 -0.00041059096217188607 0 0.00091615349596104888 -0.00033222268352021565 0 0.00093222481922023695 -0.00062793008215853926 0 0.00066772511212421332 -0.00074490906662058804 0 0.00062072704109811564 -0.00041059096217188607 0 0.00093222481922023695 -0.00062793008215853926 0 0.00066772511212421332 -0.00074490906662058804 0 0.00093222481922023695 -0.00062793008215853926 0 0.00090870216030297928 -0.00090129157717130785 0 0.00093222481922023695 -0.00062793008215853926 0 0.00090870216030297928 -0.00090129157717130785 0 0.0012595791081709293 -0.00086936563111238499 0 0.00090870216030297928 -0.00090129157717130785 0 0.0012595791081709293 -0.00086936563111238499 0 0.0011865233882991178 -0.0010808593595631002 0 0.0016410572225195891 -0.00089193510530122071 0 0.0011763855087476127 -0.00054626324584352778 0 0.0012595791081709293 -0.00086936563111238499 0 0.0016410572225195891 -0.00089193510530122071 0 0.0012595791081709293 -0.00086936563111238499 0 0.0016218171321715272 -0.0011955087626238808 0 0.0012595791081709293 -0.00086936563111238499 0 0.0016218171321715272 -0.0011955087626238808 0 0.0011865233882991178 -0.0010808593595631002 0 0.00090870216030297928 -0.00090129157717130785 0 0.0011865233882991178 -0.0010808593595631002 0 0.00085959461580635294 -0.001139963840598358 0 0.0016218171321715272 -0.0011955087626238808 0 0.0011865233882991178 -0.0010808593595631002 0 0.0012827482241874958 -0.0013467906090091218 0 0.0011865233882991178 -0.0010808593595631002 0 0.00085959461580635294 -0.001139963840598358 0 0.0012827482241874958 -0.0013467906090091218 0 0.00085959461580635294 -0.001139963840598358 0 0.00062098140329156643 -0.0012812815057669791 0 0.00089671401200029795 -0.0014123880536970146 0 0.00085959461580635294 -0.001139963840598358 0 0.00062098140329156643 -0.0012812815057669791 0 0.00054874804232292939 -0.0011181228071737842 0 0.00085959461580635294 -0.001139963840598358 0 0.00054874804232292939 -0.0011181228071737842 0 0.00050929585395495102 -0.00099431026958491666 0 0.00090870216030297928 -0.00090129157717130785 0 0.00085959461580635294 -0.001139963840598358 0 0.00050929585395495102 -0.00099431026958491666 0 0.00066772511212421332 -0.00074490906662058804 0 0.00090870216030297928 -0.00090129157717130785 0 0.00050929585395495102 -0.00099431026958491666 0 0.00066772511212421332 -0.00074490906662058804 0 0.00037396851862996397 -0.00078748438157523015 0 0.00050929585395495102 -0.00099431026958491666 0 0.00037396851862996397 -0.00078748438157523015 0 0.00050929585395495102 -0.00099431026958491666 0 0.00019616444355297023 -0.001154508259570056 0 0.00054874804232292939 -0.0011181228071737842 0 0.00050929585395495102 -0.00099431026958491666 0 0.00031789380947439748 -0.0010868191047805164 0 0.00050929585395495102 -0.00099431026958491666 0 0.00019616444355297023 -0.001154508259570056 0 0.00031789380947439748 -0.0010868191047805164 0 0.00031789380947439748 -0.0010868191047805164 0 0.00039572640696197725 -0.0011187217242409851 0 0.00045014068530120134 -0.0010505580609832033 0 0.00054874804232292939 -0.0011181228071737842 0 0.00031789380947439748 -0.0010868191047805164 0 0.00039572640696197725 -0.0011187217242409851 0 0.00062098140329156643 -0.0012812815057669791 0 0.00039572640696197725 -0.0011187217242409851 0 0.0003632669790680198 -0.0013636492377222555 0 0.00062098140329156643 -0.0012812815057669791 0 0.00054874804232292939 -0.0011181228071737842 0 0.00039572640696197725 -0.0011187217242409851 0 0.00065477829771385266 -0.0011294996028281303 0 0.00088165845774275733 -0.0011727896568640224 0 0.00058465078385940949 -0.0011804063097583368 0 0.00088165845774275733 -0.0011727896568640224 0 0.00039572640696197725 -0.0011187217242409851 0 0.00045014068530120134 -0.0010505580609832033 0 0.00039429487072155243 -0.0011106487775146955 0 0.00087710552153414702 -0.0012299679727930722 0 0.00092050088831438471 -0.0011209289621816924 0 0.00077607460544027276 -0.0010922158967295447 0 0.00087710552153414702 -0.0012299679727930722 0 0.00091821654309647211 -0.0012470250083418866 0 0.00092050088831438471 -0.0011209289621816924 0 0.00091821654309647211 -0.0012470250083418866 0 0.0010801561828482065 -0.0012141648386891472 0 0.00092050088831438471 -0.0011209289621816924 0 0.0010801561828482065 -0.0012141648386891472 0 0.0013756119403994589 -0.0013040113362796611 0 0.0010770387622396889 -0.0010120418186577562 0 0.0010801561828482065 -0.0012141648386891472 0 0.0011414554837164432 -0.0013319823366104847 0 0.0013756119403994589 -0.0013040113362796611 0 0.00091821654309647211 -0.0012470250083418866 0 0.0010801561828482065 -0.0012141648386891472 0 0.0011414554837164432 -0.0013319823366104847 0 0.0011414554837164432 -0.0013319823366104847 0 0.001414669409177276 -0.0014313227881682477 0 0.0011525422950667953 -0.0015825851059458956 0 0.00091821654309647211 -0.0012470250083418866 0 0.0011414554837164432 -0.0013319823366104847 0 0.00075720184388360871 -0.0012699449055920545 0 0.0011414554837164432 -0.0013319823366104847 0 0.00075720184388360871 -0.0012699449055920545 0 0.0011525422950667953 -0.0015825851059458956 0 0.00019616444355297023 -0.001154508259570056 0 0.00075720184388360871 -0.0012699449055920545 0 0.0011525422950667953 -0.0015825851059458956 0 0.00031789380947439748 -0.0010868191047805164 0 0.00045014068530120134 -0.0010505580609832033 0 0.00075720184388360871 -0.0012699449055920545 0 0.00018800435189228462 -0.0011905142123784754 0 0.0001044648379174169 -0.0013445763627317113 0 0.00019616444355297023 -0.001154508259570056 0 0.00031789380947439748 -0.0010868191047805164 0 0.00075720184388360871 -0.0012699449055920545 0 0.00065477829771385266 -0.0011294996028281303 0 0.00076062735761713799 -0.0012800907857110676 0 0.00087710552153414702 -0.0012299679727930722 0 0.00091821654309647211 -0.0012470250083418866 0 0.00075720184388360871 -0.0012699449055920545 0 0.0015407557474334042 -0.0013829630981477211 0 0.0016048865594307125 -0.0012634059351830879 0 0.0015417615861867599 -0.0014557103095978821 0 0.0015407557474334042 -0.0013829630981477211 0 0.0014954330170850805 -0.0014416310301069734 0 0.0015417615861867599 -0.0014557103095978821 0 0.0015407557474334042 -0.0013829630981477211 0 0.0013756119403994589 -0.0013040113362796611 0 0.0016048865594307125 -0.0012634059351830879 0 0.0015407557474334042 -0.0013829630981477211 0 0.0013756119403994589 -0.0013040113362796611 0 0.001414669409177276 -0.0014313227881682477 0 0.001414669409177276 -0.0014313227881682477 0 0.0015125227888963496 -0.0015031625852978906 0 0.0011525422950667953 -0.0015825851059458956 0 0.0011414554837164432 -0.0013319823366104847 0 0.0013756119403994589 -0.0013040113362796611 0 0.001414669409177276 -0.0014313227881682477 0 -0.00023876094747928161 -0.0010984986114024251 0 0.00022182231554789632 -0.0014029232261283415 0 0.0015167762168941429 -0.0014232217422781017 0 0.0015125227888963496 -0.0015031625852978906 0 0.0014950232043473947 -0.001385959400579179 0 0.0015407557474334042 -0.0013829630981477211 0 0.001414669409177276 -0.0014313227881682477 0 0.0014978418377705914 -0.00143203000851836 0 0.0014978418377705914 -0.00143203000851836 0 0.0015167762168941429 -0.0014232217422781017 0 0.0015125227888963496 -0.0015031625852978906 0 0.001414669409177276 -0.0014313227881682477 0 0.0014978418377705914 -0.00143203000851836 0 0.0015125227888963496 -0.0015031625852978906 0 0.0015407557474334042 -0.0013829630981477211 0 0.0015167762168941429 -0.0014232217422781017 0 0.001514382015591472 -0.0014104463944495231 0 0.0015407557474334042 -0.0013829630981477211 0 0.0014978418377705914 -0.00143203000851836 0 0.0015167762168941429 -0.0014232217422781017 0 -0.0018485691807460429 -0.00075919794072584269 0 -0.0019863350317313334 -0.00068735166720484779 0 -0.0020204547176310675 -0.00082851279737526239 0 -0.0018485691807460429 -0.00075919794072584269 0 -0.0018449550022330862 -0.00086593753137047312 0 -0.0017353127866579635 -0.00084082362557888739 0 -0.0018485691807460429 -0.00075919794072584269 0 -0.0018449550022330862 -0.00086593753137047312 0 -0.0020204547176310675 -0.00082851279737526239 0 -0.0018449550022330862 -0.00086593753137047312 0 -0.0019377664207747695 -0.00092274845921601486 0 -0.0020204547176310675 -0.00082851279737526239 0 -0.0019377664207747695 -0.00092274845921601486 0 -0.0017503459781161325 -0.00093522711966865949 0 -0.001734235007945014 -0.0010347036930409054 0 -0.0018449550022330862 -0.00086593753137047312 0 -0.0019377664207747695 -0.00092274845921601486 0 -0.0017503459781161325 -0.00093522711966865949 0 -0.0017503459781161325 -0.00093522711966865949 0 -0.001734235007945014 -0.0010347036930409054 0 -0.0016406383748014477 -0.00091061203098560361 0 -0.0017503459781161325 -0.00093522711966865949 0 -0.0016406383748014477 -0.00091061203098560361 0 -0.0017353127866579635 -0.00084082362557888739 0 -0.0016406383748014477 -0.00091061203098560361 0 -0.0016458267336498201 -0.00082653103140921988 0 -0.0017353127866579635 -0.00084082362557888739 0 -0.0018449550022330862 -0.00086593753137047312 0 -0.0017503459781161325 -0.00093522711966865949 0 -0.0017353127866579635 -0.00084082362557888739 0 -0.0018485691807460429 -0.00075919794072584269 0 -0.0017353127866579635 -0.00084082362557888739 0 -0.0016863541900157325 -0.00071421234909134967 0 -0.0016458267336498201 -0.00082653103140921988 0 -0.0016863541900157325 -0.00071421234909134967 0 -0.0015679904601457685 -0.00077172973334562443 0 -0.0016458267336498201 -0.00082653103140921988 0 -0.0017353127866579635 -0.00084082362557888739 0 -0.0016863541900157325 -0.00071421234909134967 0 -0.00023876094747928161 -0.0010984986114024251 0 0.0001044648379174169 -0.0013445763627317113 0 -0.001734235007945014 -0.0010347036930409054 0 -0.0013946361832930152 -0.00091661706750325504 0 -0.0010211028119974108 -0.0011165396886269928 0 -0.0016863541900157325 -0.00071421234909134967 0 -0.0015679904601457685 -0.00077172973334562443 0 -0.0015043339740683584 -0.00067552588018300879 0 -0.0014541133104060918 -0.00079202551129495963 0 -0.0013312327315962934 -0.00073264220385805233 0 -0.0015043339740683584 -0.00067552588018300879 0 -0.0015679904601457685 -0.00077172973334562443 0 -0.0014541133104060918 -0.00079202551129495963 0 -0.0015043339740683584 -0.00067552588018300879 0 -0.0014541133104060918 -0.00079202551129495963 0 -0.0015462473901583413 -0.00085165287450463575 0 -0.0013946361832930152 -0.00091661706750325504 0 -0.0015679904601457685 -0.00077172973334562443 0 -0.0014541133104060918 -0.00079202551129495963 0 -0.0015462473901583413 -0.00085165287450463575 0 -0.0016458267336498201 -0.00082653103140921988 0 -0.0015679904601457685 -0.00077172973334562443 0 -0.0015462473901583413 -0.00085165287450463575 0 -0.0016406383748014477 -0.00091061203098560361 0 -0.0016458267336498201 -0.00082653103140921988 0 -0.0015462473901583413 -0.00085165287450463575 0 -0.0016406383748014477 -0.00091061203098560361 0 -0.0015462473901583413 -0.00085165287450463575 0 -0.0013946361832930152 -0.00091661706750325504 0 -0.001734235007945014 -0.0010347036930409054 0 -0.0016406383748014477 -0.00091061203098560361 0 -0.0013946361832930152 -0.00091661706750325504 0 -0.0013946361832930152 -0.00091661706750325504 0 -0.0013312327315962934 -0.00073264220385805233 0 -0.0011615216759853085 -0.00080133113887526205 0 -0.0013312327315962934 -0.00073264220385805233 0 -0.0011615216759853085 -0.00080133113887526205 0 -0.0011558568260140144 -0.00055444532729186883 0 -0.0014541133104060918 -0.00079202551129495963 0 -0.0013946361832930152 -0.00091661706750325504 0 -0.0013312327315962934 -0.00073264220385805233 0 -0.0013312327315962934 -0.00073264220385805233 0 -0.0013295575130119893 -0.0005518474069300314 0 -0.0011558568260140144 -0.00055444532729186883 0 -0.0013312327315962934 -0.00073264220385805233 0 -0.0013295575130119893 -0.0005518474069300314 0 -0.0015043339740683584 -0.00067552588018300879 0 -0.0013295575130119893 -0.0005518474069300314 0 -0.0012271433739020421 -0.00037145298531035607 0 -0.0011558568260140144 -0.00055444532729186883 0 -0.0012271433739020421 -0.00037145298531035607 0 -0.0013998475260777396 -0.00039400363734427997 0 -0.0013326035478634119 -0.00021319315574469365 0 -0.0013295575130119893 -0.0005518474069300314 0 -0.0012271433739020421 -0.00037145298531035607 0 -0.0013998475260777396 -0.00039400363734427997 0 -0.0013998475260777396 -0.00039400363734427997 0 -0.0015517563729971306 -0.00041703310603791638 0 -0.0014747284561847892 -0.00052788631199136089 0 -0.0013998475260777396 -0.00039400363734427997 0 -0.0015517563729971306 -0.00041703310603791638 0 -0.0014882704483627188 -0.00028914929491321428 0 -0.0015517563729971306 -0.00041703310603791638 0 -0.0014882704483627188 -0.00028914929491321428 0 -0.001615099739578054 -0.00031662762489897245 0 -0.0015517563729971306 -0.00041703310603791638 0 -0.0014747284561847892 -0.00052788631199136089 0 -0.0016239258705448166 -0.00055811298964299834 0 -0.0014747284561847892 -0.00052788631199136089 0 -0.0015043339740683584 -0.00067552588018300879 0 -0.0016239258705448166 -0.00055811298964299834 0 -0.0013295575130119893 -0.0005518474069300314 0 -0.0013998475260777396 -0.00039400363734427997 0 -0.0014747284561847892 -0.00052788631199136089 0 -0.0013295575130119893 -0.0005518474069300314 0 -0.0014747284561847892 -0.00052788631199136089 0 -0.0015043339740683584 -0.00067552588018300879 0 -0.0016863541900157325 -0.00071421234909134967 0 -0.0015043339740683584 -0.00067552588018300879 0 -0.0016239258705448166 -0.00055811298964299834 0 -0.0016863541900157325 -0.00071421234909134967 0 -0.0016239258705448166 -0.00055811298964299834 0 -0.0018215914009587226 -0.00058418082276139147 0 -0.0018485691807460429 -0.00075919794072584269 0 -0.0016863541900157325 -0.00071421234909134967 0 -0.0018215914009587226 -0.00058418082276139147 0 -0.0016986637075338624 -0.00043371253707409868 0 -0.0018631188816481171 -0.00037468676392272575 0 -0.0018215914009587226 -0.00058418082276139147 0 -0.0015517563729971306 -0.00041703310603791638 0 -0.0016239258705448166 -0.00055811298964299834 0 -0.0016986637075338624 -0.00043371253707409868 0 -0.0015517563729971306 -0.00041703310603791638 0 -0.0016986637075338624 -0.00043371253707409868 0 -0.001615099739578054 -0.00031662762489897245 0 -0.0016986637075338624 -0.00043371253707409868 0 -0.0017333262874418616 -0.00030760373471505322 0 -0.001615099739578054 -0.00031662762489897245 0 -0.0016986637075338624 -0.00043371253707409868 0 -0.0018631188816481171 -0.00037468676392272575 0 -0.0017333262874418616 -0.00030760373471505322 0 -0.0016239258705448166 -0.00055811298964299834 0 -0.0016986637075338624 -0.00043371253707409868 0 -0.0018215914009587226 -0.00058418082276139147 0 -0.0018631188816481171 -0.00037468676392272575 0 -0.0018215914009587226 -0.00058418082276139147 0 -0.0020352418286942804 -0.0005608489710684627 0 -0.0018631188816481171 -0.00037468676392272575 0 -0.0020352418286942804 -0.0005608489710684627 0 -0.0020407792555623872 -0.00040737909876015129 0 -0.0018215914009587226 -0.00058418082276139147 0 -0.0019863350317313334 -0.00068735166720484779 0 -0.0020352418286942804 -0.0005608489710684627 0 -0.0018485691807460429 -0.00075919794072584269 0 -0.0018215914009587226 -0.00058418082276139147 0 -0.0019863350317313334 -0.00068735166720484779 0 -8.6456242997011361e-05 -0.00048323125649262991 0 0.00019616444355297023 -0.001154508259570056 0 -0.00046877663364307818 -0.00074873519072813689 0 0.00019616444355297023 -0.001154508259570056 0 -0.00046877663364307818 -0.00074873519072813689 0 -0.0010211028119974108 -0.0011165396886269928 0 -0.00046877663364307818 -0.00074873519072813689 0 -0.00089753342556832 -0.00067548720286118478 0 -0.00060428657464441646 -0.00038898342762493435 0 -0.00046877663364307818 -0.00074873519072813689 0 -0.0010211028119974108 -0.0011165396886269928 0 -0.00089753342556832 -0.00067548720286118478 0 -0.0013946361832930152 -0.00091661706750325504 0 -0.0010211028119974108 -0.0011165396886269928 0 -0.0011615216759853085 -0.00080133113887526205 0 -0.0011615216759853085 -0.00080133113887526205 0 -0.00089753342556832 -0.00067548720286118478 0 -0.0011558568260140144 -0.00055444532729186883 0 -0.0010211028119974108 -0.0011165396886269928 0 -0.0011615216759853085 -0.00080133113887526205 0 -0.00089753342556832 -0.00067548720286118478 0 -0.00089753342556832 -0.00067548720286118478 0 -0.00098201404215772395 -0.00033460581204743626 0 -0.00060428657464441646 -0.00038898342762493435 0 -0.00089753342556832 -0.00067548720286118478 0 -0.0011558568260140144 -0.00055444532729186883 0 -0.00098201404215772395 -0.00033460581204743626 0 -0.0012271433739020421 -0.00037145298531035607 0 -0.00098201404215772395 -0.00033460581204743626 0 -0.0011488213089884062 -0.00019856057521064612 0 -0.0012271433739020421 -0.00037145298531035607 0 -0.0011558568260140144 -0.00055444532729186883 0 -0.00098201404215772395 -0.00033460581204743626 0 -8.6456242997011361e-05 -0.00048323125649262991 0 -0.00060428657464441646 -0.00038898342762493435 0 -0.00047710054169387682 -0.00010229193337719019 0 -0.00098201404215772395 -0.00033460581204743626 0 -0.00060428657464441646 -0.00038898342762493435 0 -0.0007411425575965119 -0.0001470243994741511 0 -0.00060428657464441646 -0.00038898342762493435 0 -0.00047710054169387682 -0.00010229193337719019 0 -0.0007411425575965119 -0.0001470243994741511 0 -8.6456242997011361e-05 -0.00048323125649262991 0 -0.00046877663364307818 -0.00074873519072813689 0 -0.00060428657464441646 -0.00038898342762493435 0 -0.00047710054169387682 -0.00010229193337719019 0 -0.0007411425575965119 -0.0001470243994741511 0 -0.00073175697335084455 0.0001184595601377912 0 -0.0007411425575965119 -0.0001470243994741511 0 -0.00073175697335084455 0.0001184595601377912 0 -0.00096817808731705722 -5.2577745104348787e-05 0 -0.00069580416463333318 0.00028895782181671478 0 -0.00073175697335084455 0.0001184595601377912 0 -0.00079730001265361505 0.00028797426865871797 0 -0.00073175697335084455 0.0001184595601377912 0 -0.0009037376088179604 0.00027167200739104289 0 -0.00079730001265361505 0.00028797426865871797 0 -0.00073175697335084455 0.0001184595601377912 0 -0.0009037376088179604 0.00027167200739104289 0 -0.00095064325831085018 0.00012693525808263272 0 -0.0009037376088179604 0.00027167200739104289 0 -0.00089526674063133331 0.00041704325875058853 0 -0.00098519183404753292 0.00038824583714270824 0 -0.0009037376088179604 0.00027167200739104289 0 -0.00079730001265361505 0.00028797426865871797 0 -0.00089526674063133331 0.00041704325875058853 0 -0.00069580416463333318 0.00028895782181671478 0 -0.00079730001265361505 0.00028797426865871797 0 -0.00079903251314605947 0.00037146007388418013 0 -0.0010675221720757354 0.00027273407797372145 0 -0.0012440928221962868 0.00016638217757835951 0 -0.0012207110279459309 0.00035453490950388864 0 -0.0010675221720757354 0.00027273407797372145 0 -0.0012207110279459309 0.00035453490950388864 0 -0.0010882769284932688 0.00043010428918002135 0 -0.0009037376088179604 0.00027167200739104289 0 -0.0010675221720757354 0.00027273407797372145 0 -0.00098519183404753292 0.00038824583714270824 0 -0.0009037376088179604 0.00027167200739104289 0 -0.0010675221720757354 0.00027273407797372145 0 -0.00095064325831085018 0.00012693525808263272 0 -0.0010675221720757354 0.00027273407797372145 0 -0.00095064325831085018 0.00012693525808263272 0 -0.0010900388282299282 0.00010934273378889042 0 -0.0010900388282299282 0.00010934273378889042 0 -0.0012047968118764963 -1.9560892853080491e-05 0 -0.0012440928221962868 0.00016638217757835951 0 -0.0010675221720757354 0.00027273407797372145 0 -0.0010900388282299282 0.00010934273378889042 0 -0.0012440928221962868 0.00016638217757835951 0 -0.0010900388282299282 0.00010934273378889042 0 -0.00096817808731705722 -5.2577745104348787e-05 0 -0.0012047968118764963 -1.9560892853080491e-05 0 -0.00073175697335084455 0.0001184595601377912 0 -0.00095064325831085018 0.00012693525808263272 0 -0.00096817808731705722 -5.2577745104348787e-05 0 -0.00095064325831085018 0.00012693525808263272 0 -0.0010900388282299282 0.00010934273378889042 0 -0.00096817808731705722 -5.2577745104348787e-05 0 -0.00098201404215772395 -0.00033460581204743626 0 -0.0007411425575965119 -0.0001470243994741511 0 -0.00096817808731705722 -5.2577745104348787e-05 0 -0.00096817808731705722 -5.2577745104348787e-05 0 -0.0011488213089884062 -0.00019856057521064612 0 -0.0012047968118764963 -1.9560892853080491e-05 0 -0.00098201404215772395 -0.00033460581204743626 0 -0.00096817808731705722 -5.2577745104348787e-05 0 -0.0011488213089884062 -0.00019856057521064612 0 -0.0011488213089884062 -0.00019856057521064612 0 -0.0013326035478634119 -0.00021319315574469365 0 -0.0012047968118764963 -1.9560892853080491e-05 0 -0.0012271433739020421 -0.00037145298531035607 0 -0.0011488213089884062 -0.00019856057521064612 0 -0.0013326035478634119 -0.00021319315574469365 0 -0.0013998475260777396 -0.00039400363734427997 0 -0.0013326035478634119 -0.00021319315574469365 0 -0.0014882704483627188 -0.00028914929491321428 0 -0.0013326035478634119 -0.00021319315574469365 0 -0.0014882704483627188 -0.00028914929491321428 0 -0.0014602892479483752 -0.00017785923333195317 0 -0.0014882704483627188 -0.00028914929491321428 0 -0.0015675741348935104 -0.00021407827542304833 0 -0.0014602892479483752 -0.00017785923333195317 0 -0.0014882704483627188 -0.00028914929491321428 0 -0.0015675741348935104 -0.00021407827542304833 0 -0.001615099739578054 -0.00031662762489897245 0 -0.0015675741348935104 -0.00021407827542304833 0 -0.0014602892479483752 -0.00017785923333195317 0 -0.0015401975568304135 -0.00012074049007178826 0 -0.0013326035478634119 -0.00021319315574469365 0 -0.0014602892479483752 -0.00017785923333195317 0 -0.0013880130013111636 -5.8714108181334212e-05 0 -0.0014602892479483752 -0.00017785923333195317 0 -0.0013880130013111636 -5.8714108181334212e-05 0 -0.0015401975568304135 -0.00012074049007178826 0 -0.0013880130013111636 -5.8714108181334212e-05 0 -0.0015401975568304135 -0.00012074049007178826 0 -0.0015250744543698048 -1.4366605432258707e-05 0 -0.0015401975568304135 -0.00012074049007178826 0 -0.0015250744543698048 -1.4366605432258707e-05 0 -0.0016396951140124167 -6.7244254301152126e-05 0 -0.0015250744543698048 -1.4366605432258707e-05 0 -0.0014431699373752896 7.4239001919277771e-05 0 -0.0015305056384212531 6.4662504012519842e-05 0 -0.0015250744543698048 -1.4366605432258707e-05 0 -0.0016122761994812975 2.483717961813696e-05 0 -0.0015305056384212531 6.4662504012519842e-05 0 -0.0013880130013111636 -5.8714108181334212e-05 0 -0.0015250744543698048 -1.4366605432258707e-05 0 -0.0014431699373752896 7.4239001919277771e-05 0 -0.0013880130013111636 -5.8714108181334212e-05 0 -0.0013264122617143357 5.0151395742923439e-05 0 -0.0014431699373752896 7.4239001919277771e-05 0 -0.0013264122617143357 5.0151395742923439e-05 0 -0.0012047968118764963 -1.9560892853080491e-05 0 -0.0012440928221962868 0.00016638217757835951 0 -0.0013880130013111636 -5.8714108181334212e-05 0 -0.0013264122617143357 5.0151395742923439e-05 0 -0.0012047968118764963 -1.9560892853080491e-05 0 -0.0013326035478634119 -0.00021319315574469365 0 -0.0013880130013111636 -5.8714108181334212e-05 0 -0.0012047968118764963 -1.9560892853080491e-05 0 -0.0018631188816481171 -0.00037468676392272575 0 -0.0019888640587715201 -0.00025649864143133884 0 -0.0020407792555623872 -0.00040737909876015129 0 -0.0018631188816481171 -0.00037468676392272575 0 -0.001818289592857552 -0.00021821890658708874 0 -0.0017333262874418616 -0.00030760373471505322 0 -0.0018631188816481171 -0.00037468676392272575 0 -0.0019888640587715201 -0.00025649864143133884 0 -0.001818289592857552 -0.00021821890658708874 0 -0.001818289592857552 -0.00021821890658708874 0 -0.0017333262874418616 -0.00030760373471505322 0 -0.0016721820291295797 -0.00019358242367016463 0 -0.0017333262874418616 -0.00030760373471505322 0 -0.001615099739578054 -0.00031662762489897245 0 -0.0016721820291295797 -0.00019358242367016463 0 -0.0015675741348935104 -0.00021407827542304833 0 -0.0015401975568304135 -0.00012074049007178826 0 -0.0016721820291295797 -0.00019358242367016463 0 -0.0015675741348935104 -0.00021407827542304833 0 -0.001615099739578054 -0.00031662762489897245 0 -0.0016721820291295797 -0.00019358242367016463 0 -0.0015401975568304135 -0.00012074049007178826 0 -0.0016721820291295797 -0.00019358242367016463 0 -0.0016396951140124167 -6.7244254301152126e-05 0 -0.0016396951140124167 -6.7244254301152126e-05 0 -0.0016122761994812975 2.483717961813696e-05 0 -0.0017252866796155281 1.5181238942367331e-05 0 -0.0015250744543698048 -1.4366605432258707e-05 0 -0.0016396951140124167 -6.7244254301152126e-05 0 -0.0016122761994812975 2.483717961813696e-05 0 -0.0016396951140124167 -6.7244254301152126e-05 0 -0.0017252866796155281 1.5181238942367331e-05 0 -0.0017554835156726142 -9.4496900854259243e-05 0 -0.001818289592857552 -0.00021821890658708874 0 -0.0016721820291295797 -0.00019358242367016463 0 -0.0017554835156726142 -9.4496900854259243e-05 0 -0.0016721820291295797 -0.00019358242367016463 0 -0.0016396951140124167 -6.7244254301152126e-05 0 -0.0017554835156726142 -9.4496900854259243e-05 0 -0.0019888640587715201 -0.00025649864143133884 0 -0.0018745267461360048 -6.5270367493010879e-05 0 -0.0020402328452981482 -7.08036315445966e-05 0 -0.001818289592857552 -0.00021821890658708874 0 -0.0017554835156726142 -9.4496900854259243e-05 0 -0.0018745267461360048 -6.5270367493010879e-05 0 -0.0017252866796155281 1.5181238942367331e-05 0 -0.0018745267461360048 -6.5270367493010879e-05 0 -0.0018128900602581838 7.7186444770136617e-05 0 -0.0017252866796155281 1.5181238942367331e-05 0 -0.0017554835156726142 -9.4496900854259243e-05 0 -0.0018745267461360048 -6.5270367493010879e-05 0 -0.0018745267461360048 -6.5270367493010879e-05 0 -0.0019135237074104409 3.8365040372658446e-05 0 -0.0020402328452981482 -7.08036315445966e-05 0 -0.0019888640587715201 -0.00025649864143133884 0 -0.001818289592857552 -0.00021821890658708874 0 -0.0018745267461360048 -6.5270367493010879e-05 0 -0.001980283680604229 4.516501034072956e-05 0 -0.002776237526868603 -0.00044114874504390324 0 -0.0017191365759586799 0.00025220739007621878 0 -0.0014735184870331007 0.00051740039849040907 0 -0.0020071010529398442 0.00019279523943854459 0 -0.0024423134919437316 -0.00027038784615497988 0 -0.0025992768261321212 -0.00032737445220618825 0 -0.0026049281059434782 -0.00034150728280386725 0 -0.001980283680604229 4.516501034072956e-05 0 -0.0022926295534914467 -7.3050380410241285e-05 0 -0.0018755223716060085 0.00014079992367718836 0 -0.0017191365759586799 0.00025220739007621878 0 -0.0020071010529398442 0.00019279523943854459 0 -0.001958064782266968 7.6311844470731009e-05 0 -0.0018755223716060085 0.00014079992367718836 0 -0.0020071010529398442 0.00019279523943854459 0 -0.001958064782266968 7.6311844470731009e-05 0 -0.0019135237074104409 3.8365040372658446e-05 0 -0.0020402328452981482 -7.08036315445966e-05 0 -0.001958064782266968 7.6311844470731009e-05 0 -0.0019135237074104409 3.8365040372658446e-05 0 -0.0018755223716060085 0.00014079992367718836 0 -0.0019135237074104409 3.8365040372658446e-05 0 -0.0018128900602581838 7.7186444770136617e-05 0 -0.0018755223716060085 0.00014079992367718836 0 -0.0018745267461360048 -6.5270367493010879e-05 0 -0.0019135237074104409 3.8365040372658446e-05 0 -0.0018128900602581838 7.7186444770136617e-05 0 -0.0018128900602581838 7.7186444770136617e-05 0 -0.0017780047994681986 0.00015160415798642939 0 -0.0018755223716060085 0.00014079992367718836 0 -0.0017780047994681986 0.00015160415798642939 0 -0.0018755223716060085 0.00014079992367718836 0 -0.0017191365759586799 0.00025220739007621878 0 -0.0017780047994681986 0.00015160415798642939 0 -0.001686346514162274 0.00012839715100887742 0 -0.0017191365759586799 0.00025220739007621878 0 -0.0018128900602581838 7.7186444770136617e-05 0 -0.0017780047994681986 0.00015160415798642939 0 -0.001686346514162274 0.00012839715100887742 0 -0.001686346514162274 0.00012839715100887742 0 -0.0016084201863430982 0.00020199761000781822 0 -0.0017191365759586799 0.00025220739007621878 0 -0.0017252866796155281 1.5181238942367331e-05 0 -0.0018128900602581838 7.7186444770136617e-05 0 -0.001686346514162274 0.00012839715100887742 0 -0.0016122761994812975 2.483717961813696e-05 0 -0.0017252866796155281 1.5181238942367331e-05 0 -0.001686346514162274 0.00012839715100887742 0 -0.0016122761994812975 2.483717961813696e-05 0 -0.001686346514162274 0.00012839715100887742 0 -0.0015746718664953517 0.00012276785440578221 0 -0.0016122761994812975 2.483717961813696e-05 0 -0.0015746718664953517 0.00012276785440578221 0 -0.0015305056384212531 6.4662504012519842e-05 0 -0.001686346514162274 0.00012839715100887742 0 -0.0015746718664953517 0.00012276785440578221 0 -0.0016084201863430982 0.00020199761000781822 0 -0.0015746718664953517 0.00012276785440578221 0 -0.0016084201863430982 0.00020199761000781822 0 -0.001512272898588862 0.00020339181597198424 0 -0.0017191365759586799 0.00025220739007621878 0 -0.0015535684234215686 0.00030497904219333171 0 -0.0014735184870331007 0.00051740039849040907 0 -0.0016084201863430982 0.00020199761000781822 0 -0.0017191365759586799 0.00025220739007621878 0 -0.0015535684234215686 0.00030497904219333171 0 -0.0012440928221962868 0.00016638217757835951 0 -0.0013997101149684288 0.0001782679531074993 0 -0.0013433347975909189 0.00029264986802345544 0 -0.0013264122617143357 5.0151395742923439e-05 0 -0.0012440928221962868 0.00016638217757835951 0 -0.0013997101149684288 0.0001782679531074993 0 -0.0013264122617143357 5.0151395742923439e-05 0 -0.0014431699373752896 7.4239001919277771e-05 0 -0.0013997101149684288 0.0001782679531074993 0 -0.0014431699373752896 7.4239001919277771e-05 0 -0.0014887985557320933 0.00013226355010318978 0 -0.0013997101149684288 0.0001782679531074993 0 -0.0014431699373752896 7.4239001919277771e-05 0 -0.0015305056384212531 6.4662504012519842e-05 0 -0.0014887985557320933 0.00013226355010318978 0 -0.0015746718664953517 0.00012276785440578221 0 -0.0015305056384212531 6.4662504012519842e-05 0 -0.0014887985557320933 0.00013226355010318978 0 -0.0014887985557320933 0.00013226355010318978 0 -0.001512272898588862 0.00020339181597198424 0 -0.0013997101149684288 0.0001782679531074993 0 -0.0015746718664953517 0.00012276785440578221 0 -0.0014887985557320933 0.00013226355010318978 0 -0.001512272898588862 0.00020339181597198424 0 -0.0013997101149684288 0.0001782679531074993 0 -0.0014526407242450045 0.0002857195299982343 0 -0.0013433347975909189 0.00029264986802345544 0 -0.001512272898588862 0.00020339181597198424 0 -0.0013997101149684288 0.0001782679531074993 0 -0.0014526407242450045 0.0002857195299982343 0 -0.001512272898588862 0.00020339181597198424 0 -0.0014526407242450045 0.0002857195299982343 0 -0.0015535684234215686 0.00030497904219333171 0 -0.0016084201863430982 0.00020199761000781822 0 -0.001512272898588862 0.00020339181597198424 0 -0.0015535684234215686 0.00030497904219333171 0 -0.0014526407242450045 0.0002857195299982343 0 -0.0015535684234215686 0.00030497904219333171 0 -0.0014638349620170507 0.00038858925669513715 0 -0.0014526407242450045 0.0002857195299982343 0 -0.0014638349620170507 0.00038858925669513715 0 -0.0013972456448339498 0.00034702234437632596 0 -0.0014526407242450045 0.0002857195299982343 0 -0.0013972456448339498 0.00034702234437632596 0 -0.0013433347975909189 0.00029264986802345544 0 -0.0014638349620170507 0.00038858925669513715 0 -0.0013972456448339498 0.00034702234437632596 0 -0.0013349315146707114 0.00041581298296781966 0 -0.0013972456448339498 0.00034702234437632596 0 -0.0013433347975909189 0.00029264986802345544 0 -0.0013349315146707114 0.00041581298296781966 0 -0.0012440928221962868 0.00016638217757835951 0 -0.0013433347975909189 0.00029264986802345544 0 -0.0012207110279459309 0.00035453490950388864 0 -0.0013433347975909189 0.00029264986802345544 0 -0.0012207110279459309 0.00035453490950388864 0 -0.0013349315146707114 0.00041581298296781966 0 -0.0012207110279459309 0.00035453490950388864 0 -0.0013349315146707114 0.00041581298296781966 0 -0.0012408529422697726 0.00053800408425891031 0 -0.0013349315146707114 0.00041581298296781966 0 -0.0014586244840464754 0.00047247670432957784 0 -0.0012408529422697726 0.00053800408425891031 0 -0.0015535684234215686 0.00030497904219333171 0 -0.0014638349620170507 0.00038858925669513715 0 -0.0014735184870331007 0.00051740039849040907 0 -0.0014638349620170507 0.00038858925669513715 0 -0.0013349315146707114 0.00041581298296781966 0 -0.0014586244840464754 0.00047247670432957784 0 -0.001980283680604229 4.516501034072956e-05 0 -0.0012831760735475073 0.00047178258814186563 0 -0.0018836982738108237 0.00024907285700264775 0 -0.001980283680604229 4.516501034072956e-05 0 -0.001598669304069321 0.00033395648345187163 0 -0.0014703278967385033 0.00039869291759130369 0 -0.0014973416710820219 0.00051495637912940811 0 -0.0024611654995734312 -0.00031685283897411908 0 -0.0025274830780836915 -0.00030245885231856774 0 -0.0025992768261321212 -0.00032737445220618825 0 -0.0024611654995734312 -0.00031685283897411908 0 -0.0025274830780836915 -0.00030245885231856774 0 -0.0024189765842183614 -0.00013756258418829451 0 -0.0025823071597957359 -0.00030528452233102578 0 -0.0025274830780836915 -0.00030245885231856774 0 -0.0025693215592707888 -0.00026409495781202775 0 -0.0025823071597957359 -0.00030528452233102578 0 -0.0025274830780836915 -0.00030245885231856774 0 -0.0025992768261321212 -0.00032737445220618825 0 -0.0025693215592707888 -0.00026409495781202775 0 -0.0024189765842183614 -0.00013756258418829451 0 -0.002654557065424468 -0.00020575204562973419 0 -0.0025274830780836915 -0.00030245885231856774 0 -0.0025693215592707888 -0.00026409495781202775 0 -0.0024189765842183614 -0.00013756258418829451 0 -0.001598669304069321 0.00033395648345187163 0 -0.0016151139647771955 0.00063925860958676136 0 -0.0014973416710820219 0.00051495637912940811 0 -0.001980283680604229 4.516501034072956e-05 0 -0.0020201935788623183 0.00024356553869984385 0 -0.0016151139647771955 0.00063925860958676136 0 -0.0014973416710820219 0.00051495637912940811 0 -0.0014142272152577024 0.00065915294325935168 0 -0.0014703278967385033 0.00039869291759130369 0 -0.0014973416710820219 0.00051495637912940811 0 -0.001388888485251423 0.00054086604417223605 0 -0.0014973416710820219 0.00051495637912940811 0 -0.0014142272152577024 0.00065915294325935168 0 -0.001388888485251423 0.00054086604417223605 0 -0.0014142272152577024 0.00065915294325935168 0 -0.0013102220096853291 0.00060671510656650949 0 -0.0012736848361326984 0.00067653176090775907 0 -0.0014142272152577024 0.00065915294325935168 0 -0.001388888485251423 0.00054086604417223605 0 -0.0013102220096853291 0.00060671510656650949 0 -0.0014703278967385033 0.00039869291759130369 0 -0.001388888485251423 0.00054086604417223605 0 -0.001225870483779472 0.00056099292192220336 0 -0.00122311636932828 0.00048306437527671363 0 -0.0010535454225066674 0.00058862914782530833 0 -0.0010410947083016786 0.0005753051763205283 0 -0.001388888485251423 0.00054086604417223605 0 -0.001225870483779472 0.00056099292192220336 0 -0.0013102220096853291 0.00060671510656650949 0 -0.001225870483779472 0.00056099292192220336 0 -0.0012538558817870784 0.00062863889142772888 0 -0.0012050615217675 0.00066784233083920313 0 -0.001225870483779472 0.00056099292192220336 0 -0.0012538558817870784 0.00062863889142772888 0 -0.0013102220096853291 0.00060671510656650949 0 -0.0012538558817870784 0.00062863889142772888 0 -0.0013102220096853291 0.00060671510656650949 0 -0.0012736848361326984 0.00067653176090775907 0 -0.0012538558817870784 0.00062863889142772888 0 -0.0012736848361326984 0.00067653176090775907 0 -0.0012050615217675 0.00066784233083920313 0 -0.0011405091775316489 0.00071249677952011032 0 -0.0010289895398554697 0.00076330068638574508 0 -0.001225870483779472 0.00056099292192220336 0 -0.0009786614651250945 0.00073673238922700938 0 -0.0011561317622208322 0.00056743455075617083 0 -0.00090877770288141902 0.00067637478930336961 0 -0.0010535454225066674 0.00058862914782530833 0 -0.0010410947083016786 0.0005753051763205283 0 -0.0011405091775316489 0.00071249677952011032 0 -0.001225870483779472 0.00056099292192220336 0 -0.0012050615217675 0.00066784233083920313 0 -0.00090877770288141902 0.00067637478930336961 0 -0.00088916877544324387 0.00065556735799719994 0 -0.0010410947083016786 0.0005753051763205283 0 -0.00088916877544324387 0.00065556735799719994 0 -0.00088762110109162824 0.00060433118254908636 0 -0.00092270474026040353 0.00058457658057846622 0 -0.00089234303273241723 0.00064565625381567896 0 -0.0009803812001471211 0.0005922971957652201 0 -0.00088762110109162824 0.00060433118254908636 0 -0.00089138268974092683 0.00057099150131517391 0 -0.00092270474026040353 0.00058457658057846622 0 -0.00086275903900272211 0.00059026906021457522 0 -0.00088762110109162824 0.00060433118254908636 0 -0.00087262377141641653 0.00058049513938368319 0 -0.00088762110109162824 0.00060433118254908636 0 -0.00087262377141641653 0.00058049513938368319 0 -0.00089138268974092683 0.00057099150131517391 0 -0.00089138268974092683 0.00057099150131517391 0 -0.00089126045497004217 0.00054905514422485006 0 -0.00085169516640504791 0.00052923121081836766 0 -0.00087262377141641653 0.00058049513938368319 0 -0.00089138268974092683 0.00057099150131517391 0 -0.00085169516640504791 0.00052923121081836766 0 -0.00084267795510877582 0.00055550969463718451 0 -0.00087262377141641653 0.00058049513938368319 0 -0.00085169516640504791 0.00052923121081836766 0 -0.00089138268974092683 0.00057099150131517391 0 -0.00092270474026040353 0.00058457658057846622 0 -0.00090725777270367347 0.00056585304145853155 0 -0.00089126045497004217 0.00054905514422485006 0 -0.00090725777270367347 0.00056585304145853155 0 -0.00092415313792415543 0.00054043401677120564 0 -0.00089138268974092683 0.00057099150131517391 0 -0.00089126045497004217 0.00054905514422485006 0 -0.00090725777270367347 0.00056585304145853155 0 -0.00092270474026040353 0.00058457658057846622 0 -0.00090725777270367347 0.00056585304145853155 0 -0.00092415313792415543 0.00054043401677120564 0 -0.00092415313792415543 0.00054043401677120564 0 -0.00089653302343788664 0.00050388441654282325 0 -0.00094480887649509438 0.00049822192035576596 0 -0.00089126045497004217 0.00054905514422485006 0 -0.00092415313792415543 0.00054043401677120564 0 -0.00089653302343788664 0.00050388441654282325 0 -0.00089126045497004217 0.00054905514422485006 0 -0.00089653302343788664 0.00050388441654282325 0 -0.00085127190976463712 0.00047199726315482821 0 -0.00089653302343788664 0.00050388441654282325 0 -0.00085127190976463712 0.00047199726315482821 0 -0.00089526674063133331 0.00041704325875058853 0 -0.00089653302343788664 0.00050388441654282325 0 -0.00094480887649509438 0.00049822192035576596 0 -0.00089526674063133331 0.00041704325875058853 0 -0.00078552616051025454 0.00042934363476247771 0 -0.00085169516640504791 0.00052923121081836766 0 -0.00085127190976463712 0.00047199726315482821 0 -0.00089126045497004217 0.00054905514422485006 0 -0.00085169516640504791 0.00052923121081836766 0 -0.00085127190976463712 0.00047199726315482821 0 -0.00078552616051025454 0.00042934363476247771 0 -0.00069580416463333318 0.00028895782181671478 0 -0.00079903251314605947 0.00037146007388418013 0 -0.00079730001265361505 0.00028797426865871797 0 -0.00079903251314605947 0.00037146007388418013 0 -0.00089526674063133331 0.00041704325875058853 0 -0.00078552616051025454 0.00042934363476247771 0 -0.00085127190976463712 0.00047199726315482821 0 -0.00079903251314605947 0.00037146007388418013 0 -0.00085127190976463712 0.00047199726315482821 0 -0.00079903251314605947 0.00037146007388418013 0 -0.00089526674063133331 0.00041704325875058853 0 -0.00094480887649509438 0.00049822192035576596 0 -0.00089526674063133331 0.00041704325875058853 0 -0.00099125733606932076 0.00045871374067098209 0 -0.0012831760735475073 0.00047178258814186563 0 -0.0011561317622208322 0.00056743455075617083 0 -0.0012831760735475073 0.00047178258814186563 0 -0.0009803812001471211 0.0005922971957652201 0 -0.0012408529422697726 0.00053800408425891031 0 -0.00092270474026040353 0.00058457658057846622 0 -0.0010346776272279988 0.00051517370923669331 0 -0.0010675221720757354 0.00027273407797372145 0 -0.00098519183404753292 0.00038824583714270824 0 -0.0010882769284932688 0.00043010428918002135 0 -0.00089526674063133331 0.00041704325875058853 0 -0.00098519183404753292 0.00038824583714270824 0 -0.00099125733606932076 0.00045871374067098209 0 -0.00098519183404753292 0.00038824583714270824 0 -0.00099125733606932076 0.00045871374067098209 0 -0.0010882769284932688 0.00043010428918002135 0 -0.00099125733606932076 0.00045871374067098209 0 -0.0010882769284932688 0.00043010428918002135 0 -0.0010346776272279988 0.00051517370923669331 0 -0.0012207110279459309 0.00035453490950388864 0 -0.0012408529422697726 0.00053800408425891031 0 -0.0010882769284932688 0.00043010428918002135 0 -0.0012408529422697726 0.00053800408425891031 0 -0.0010882769284932688 0.00043010428918002135 0 -0.0010346776272279988 0.00051517370923669331 0 -0.00092415313792415543 0.00054043401677120564 0 -0.00094480887649509438 0.00049822192035576596 0 -0.0010346776272279988 0.00051517370923669331 0 -0.00092270474026040353 0.00058457658057846622 0 -0.00092415313792415543 0.00054043401677120564 0 -0.0010346776272279988 0.00051517370923669331 0 -0.00094480887649509438 0.00049822192035576596 0 -0.00099125733606932076 0.00045871374067098209 0 -0.0010346776272279988 0.00051517370923669331 0 -0.0028071668290318044 -0.00030468156725486348 0 -0.0027754819651163026 -0.00025759746492854042 0 -0.0026849685215240269 -0.00031661137579662955 0 -0.0027643369130230331 -0.0027122201881969983 0 -0.0026268172460445663 -0.0027544326773773172 0 -0.0024509202455465099 -0.0052951638600044161 0 -0.0026220871306598401 -0.0051817515926912451 0 -0.002429084333515844 -0.00518072498798418 0 -0.0028958767947158 -0.00024488477313425606 0 -0.0028071668290318044 -0.00030468156725486348 0 -0.0027754819651163026 -0.00025759746492854042 0 -0.0027444549203478495 -0.00019174467143599685 0 -0.0027754819651163026 -0.00025759746492854042 0 -0.002654557065424468 -0.00020575204562973419 0 -0.0027754819651163026 -0.00025759746492854042 0 -0.002654557065424468 -0.00020575204562973419 0 -0.002668942899809209 -0.0002876339218218319 0 -0.002654557065424468 -0.00020575204562973419 0 -0.0026165245107531631 -0.00029504671100509473 0 -0.002668942899809209 -0.0002876339218218319 0 -0.0025693215592707888 -0.00026409495781202775 0 -0.002654557065424468 -0.00020575204562973419 0 -0.0026165245107531631 -0.00029504671100509473 0 -0.0026165245107531631 -0.00029504671100509473 0 -0.002668942899809209 -0.0002876339218218319 0 -0.0026114788409316949 -0.00032237957028267338 0 -0.0026165245107531631 -0.00029504671100509473 0 -0.0026020804570804391 -0.00031605572591960685 0 -0.0026114788409316949 -0.00032237957028267338 0 -0.0025823071597957359 -0.00030528452233102578 0 -0.0025693215592707888 -0.00026409495781202775 0 -0.0026165245107531631 -0.00029504671100509473 0 -0.0025823071597957359 -0.00030528452233102578 0 -0.0026165245107531631 -0.00029504671100509473 0 -0.0026020804570804391 -0.00031605572591960685 0 -0.0027754819651163026 -0.00025759746492854042 0 -0.002668942899809209 -0.0002876339218218319 0 -0.0026849685215240269 -0.00031661137579662955 0 -0.002668942899809209 -0.0002876339218218319 0 -0.0026064684168908225 -0.00032189480530350978 0 -0.0026849685215240269 -0.00031661137579662955 0 -0.0026064684168908225 -0.00032189480530350978 0 -0.0025397836784172329 -0.00030418927871333958 0 -0.0026849685215240269 -0.00031661137579662955 0 -0.0022926295534914467 -7.3050380410241285e-05 0 -0.0025261229490799566 -0.0002762815155772748 0 -0.0026064684168908225 -0.00032189480530350978 0 -0.0026049281059434782 -0.00034150728280386725 0 -0.0025397836784172329 -0.00030418927871333958 0 -0.0025823071597957359 -0.00030528452233102578 0 -0.0025992768261321212 -0.00032737445220618825 0 -0.0026020804570804391 -0.00031605572591960685 0 -0.0025992768261321212 -0.00032737445220618825 0 -0.0026114788409316949 -0.00032237957028267338 0 -0.0026049281059434782 -0.00034150728280386725 0 -0.0025992768261321212 -0.00032737445220618825 0 -0.0026020804570804391 -0.00031605572591960685 0 -0.0026114788409316949 -0.00032237957028267338 0 -0.0026064684168908225 -0.00032189480530350978 0 -0.0026114788409316949 -0.00032237957028267338 0 -0.0026049281059434782 -0.00034150728280386725 0 -0.002668942899809209 -0.0002876339218218319 0 -0.0026064684168908225 -0.00032189480530350978 0 -0.0026114788409316949 -0.00032237957028267338 0 -0.001958064782266968 7.6311844470731009e-05 0 -0.0020071010529398442 0.00019279523943854459 0 -0.0020402328452981482 -7.08036315445966e-05 0 -0.0020071010529398442 0.00019279523943854459 0 -0.0020402328452981482 -7.08036315445966e-05 0 -0.0025397836784172329 -0.00030418927871333958 0 -0.0020402328452981482 -7.08036315445966e-05 0 -0.0022779531284206904 -0.00043369006490067037 0 -0.0025397836784172329 -0.00030418927871333958 0 -0.0019888640587715201 -0.00025649864143133884 0 -0.0020402328452981482 -7.08036315445966e-05 0 -0.0022779531284206904 -0.00043369006490067037 0 -0.0019888640587715201 -0.00025649864143133884 0 -0.0022779531284206904 -0.00043369006490067037 0 -0.0020407792555623872 -0.00040737909876015129 0 -0.0022779531284206904 -0.00043369006490067037 0 -0.0025397836784172329 -0.00030418927871333958 0 -0.002575823685979048 -0.00056889493669226858 0 -0.0025397836784172329 -0.00030418927871333958 0 -0.0026816297999189896 -0.00042758619405327929 0 -0.0026849685215240269 -0.00031661137579662955 0 -0.0025397836784172329 -0.00030418927871333958 0 -0.0026816297999189896 -0.00042758619405327929 0 -0.002575823685979048 -0.00056889493669226858 0 -0.0026816297999189896 -0.00042758619405327929 0 -0.0026849685215240269 -0.00031661137579662955 0 -0.002833634043305752 -0.00044150234731628866 0 -0.0026816297999189896 -0.00042758619405327929 0 -0.002833634043305752 -0.00044150234731628866 0 -0.002757291162294308 -0.00062979749884545895 0 -0.0028071668290318044 -0.00030468156725486348 0 -0.0026849685215240269 -0.00031661137579662955 0 -0.002833634043305752 -0.00044150234731628866 0 -0.0022305706749431529 -0.0051622723655603666 0 -0.002429084333515844 -0.00518072498798418 0 -0.0023072646455089508 -0.0048861769287606048 0 -0.0026268172460445663 -0.0027544326773773172 0 -0.0025519204013186277 -0.0026358092994731141 0 -0.002833634043305752 -0.00044150234731628866 0 -0.002757291162294308 -0.00062979749884545895 0 -0.0029456409338429589 -0.00090395333867343086 0 -0.0025519204013186277 -0.0026358092994731141 0 -0.0026701637543606266 -0.0028138684181936006 0 -0.002027690085612285 -0.0047730650993341485 0 -0.0020164951775066327 -0.0045224136520074058 0 -0.0023072646455089508 -0.0048861769287606048 0 -0.0020164951775066327 -0.0045224136520074058 0 -0.0023072646455089508 -0.0048861769287606048 0 -0.0021332548741533498 -0.0043657441565883338 0 -0.0026816297999189896 -0.00042758619405327929 0 -0.002757291162294308 -0.00062979749884545895 0 -0.002575823685979048 -0.00056889493669226858 0 -0.002757291162294308 -0.00062979749884545895 0 -0.002575823685979048 -0.00056889493669226858 0 -0.0025772917968530872 -0.00073745033220123533 0 -0.002757291162294308 -0.00062979749884545895 0 -0.0027434015961295766 -0.00086955270784563237 0 -0.0029456409338429589 -0.00090395333867343086 0 -0.002757291162294308 -0.00062979749884545895 0 -0.0027434015961295766 -0.00086955270784563237 0 -0.0025772917968530872 -0.00073745033220123533 0 -0.0027434015961295766 -0.00086955270784563237 0 -0.0025692207565209488 -0.0011251003462745426 0 -0.0021691492242169323 -0.0011467842579724649 0 -0.0027434015961295766 -0.00086955270784563237 0 -0.0027359704007170974 -0.0010788061316369714 0 -0.0029456409338429589 -0.00090395333867343086 0 -0.0027434015961295766 -0.00086955270784563237 0 -0.0025692207565209488 -0.0011251003462745426 0 -0.0027359704007170974 -0.0010788061316369714 0 -0.0027359704007170974 -0.0010788061316369714 0 -0.0029456409338429589 -0.00090395333867343086 0 -0.0027384347955073064 -0.0014649509431090345 0 -0.0021332548741533498 -0.0043657441565883338 0 -0.0019768728777288256 -0.0043221002458378698 0 -0.0019026970728037442 -0.004171726529427904 0 -0.0020164951775066327 -0.0045224136520074058 0 -0.0021332548741533498 -0.0043657441565883338 0 -0.0019768728777288256 -0.0043221002458378698 0 -0.0019863350317313334 -0.00068735166720484779 0 -0.0020352418286942804 -0.0005608489710684627 0 -0.0021916070930544703 -0.00070005523646391073 0 -0.0022779531284206904 -0.00043369006490067037 0 -0.0020352418286942804 -0.0005608489710684627 0 -0.0020407792555623872 -0.00040737909876015129 0 -0.0022779531284206904 -0.00043369006490067037 0 -0.0020352418286942804 -0.0005608489710684627 0 -0.0021916070930544703 -0.00070005523646391073 0 -0.0022779531284206904 -0.00043369006490067037 0 -0.0021916070930544703 -0.00070005523646391073 0 -0.0024252247803463523 -0.00069798983768339898 0 -0.0022779531284206904 -0.00043369006490067037 0 -0.0024252247803463523 -0.00069798983768339898 0 -0.002575823685979048 -0.00056889493669226858 0 -0.0024252247803463523 -0.00069798983768339898 0 -0.002575823685979048 -0.00056889493669226858 0 -0.0025772917968530872 -0.00073745033220123533 0 -0.0026179092895658651 -0.0008765682704772029 0 -0.0021510218862682506 -0.0009087156112278737 0 -0.0027434015961295766 -0.00086955270784563237 0 -0.0021691492242169323 -0.0011467842579724649 0 -0.0015547529122106338 -0.000916666041819022 0 -0.0027434015961295766 -0.00086955270784563237 0 -0.0025772917968530872 -0.00073745033220123533 0 -0.0023632276670236202 -0.00092731914155061304 0 -0.0024252247803463523 -0.00069798983768339898 0 -0.0025772917968530872 -0.00073745033220123533 0 -0.0023632276670236202 -0.00092731914155061304 0 -0.0019377664207747695 -0.00092274845921601486 0 -0.0023632276670236202 -0.00092731914155061304 0 -0.0020204547176310675 -0.00082851279737526239 0 -0.00023876094747928161 -0.0010984986114024251 0 -0.0021510218862682506 -0.0009087156112278737 0 -0.00036023351034411176 -0.0010501705370693363 0 -0.0015547529122106338 -0.000916666041819022 0 -0.0012755659743393377 -0.0014177387754604881 0 -0.0019377664207747695 -0.00092274845921601486 0 -0.001734235007945014 -0.0010347036930409054 0 -0.0023632276670236202 -0.00092731914155061304 0 -0.0021916070930544703 -0.00070005523646391073 0 -0.0024252247803463523 -0.00069798983768339898 0 -0.0023632276670236202 -0.00092731914155061304 0 -0.0021916070930544703 -0.00070005523646391073 0 -0.0023632276670236202 -0.00092731914155061304 0 -0.0020204547176310675 -0.00082851279737526239 0 -0.0019863350317313334 -0.00068735166720484779 0 -0.0021916070930544703 -0.00070005523646391073 0 -0.0020204547176310675 -0.00082851279737526239 0 0.001514382015591472 -0.0014104463944495231 0 0.0014950232043473947 -0.001385959400579179 0 0.0014954330170850805 -0.0014416310301069734 0 0.0015167762168941429 -0.0014232217422781017 0 0.001514382015591472 -0.0014104463944495231 0 0.0014950232043473947 -0.001385959400579179 0 -0.0021691492242169323 -0.0011467842579724649 0 -0.0015547529122106338 -0.000916666041819022 0 -0.0012755659743393377 -0.0014177387754604881 0 -0.0021691492242169323 -0.0011467842579724649 0 -0.0012755659743393377 -0.0014177387754604881 0 -0.0021659953002746693 -0.0017534021528613809 0 0.0014950232043473947 -0.001385959400579179 0 0.0013481148072995847 -0.0014253987290538729 0 0.0014954330170850805 -0.0014416310301069734 0 0.00022182231554789632 -0.0014029232261283415 0 -0.00029354593965476517 -0.0015194870119532005 0 0.0013481148072995847 -0.0014253987290538729 0 0.001326928967914267 -0.0015192307631578929 0 0.0014063024804795011 -0.0015360651348042004 0 0.0013481148072995847 -0.0014253987290538729 0 0.0014954330170850805 -0.0014416310301069734 0 0.0014063024804795011 -0.0015360651348042004 0 0.0015407557474334042 -0.0013829630981477211 0 0.001514382015591472 -0.0014104463944495231 0 0.0014954330170850805 -0.0014416310301069734 0 -0.0017205614115950749 -0.0040243893450166964 0 -0.0019026970728037442 -0.004171726529427904 0 -0.0018970166609589077 -0.0038976634464214267 0 -0.0029456409338429589 -0.00090395333867343086 0 -0.0027384347955073064 -0.0014649509431090345 0 -0.0030010725007777852 -0.0020694814571130707 0 -0.0021332548741533498 -0.0043657441565883338 0 -0.0019026970728037442 -0.004171726529427904 0 -0.0018970166609589077 -0.0038976634464214267 0 -0.0026701637543606266 -0.0028138684181936006 0 -0.0015146560848914559 -0.0023105841875027009 0 -0.0018113812345752849 -0.0042286272107430762 0 -0.0019768728777288256 -0.0043221002458378698 0 -0.0019026970728037442 -0.004171726529427904 0 -0.0025692207565209488 -0.0011251003462745426 0 -0.0027359704007170974 -0.0010788061316369714 0 -0.0027384347955073064 -0.0014649509431090345 0 -0.0021659953002746693 -0.0017534021528613809 0 -0.0027384347955073064 -0.0014649509431090345 0 -0.0030010725007777852 -0.0020694814571130707 0 -0.0021691492242169323 -0.0011467842579724649 0 -0.0021659953002746693 -0.0017534021528613809 0 -0.0027384347955073064 -0.0014649509431090345 0 -0.0025692207565209488 -0.0011251003462745426 0 -0.0021691492242169323 -0.0011467842579724649 0 -0.0027384347955073064 -0.0014649509431090345 0 0.0013481148072995847 -0.0014253987290538729 0 0.001326928967914267 -0.0015192307631578929 0 0.0011946253268314878 -0.0015049455662983773 0 -0.00029354593965476517 -0.0015194870119532005 0 -0.0015146560848914559 -0.0023105841875027009 0 0.001326928967914267 -0.0015192307631578929 0 0.0011946253268314878 -0.0015049455662983773 0 0.0012833945102518345 -0.0015897285476991949 0 -0.0015471068933301604 -0.0039202331439571504 0 -0.0015146560848914559 -0.0023105841875027009 0 -0.0014410574430911522 -0.0039298292490041993 0 -0.00067541023756597816 -0.0035482680306756402 0 -0.00073387158427715984 -0.0042380318333833291 0 -0.0017205614115950749 -0.0040243893450166964 0 -0.0014410574430911522 -0.0039298292490041993 0 -0.0018970166609589077 -0.0038976634464214267 0 -0.0015146560848914559 -0.0023105841875027009 0 0.0071682148569685127 -0.0053463044372191971 0 0.0011946253268314878 -0.0015049455662983773 0 0.0012560176422138855 -0.0016495149442165261 0 0.0012380422569598548 -0.0017038877105661563 0 -0.00067541023756597816 -0.0035482680306756402 0 -0.00073387158427715984 -0.0042380318333833291 0 -0.00057128280599876425 -0.0047203447899162362 0 -0.0014410574430911522 -0.0039298292490041993 0 -0.00073387158427715984 -0.0042380318333833291 0 -0.0011735508900837111 -0.0042175699151232393 0 -0.00073387158427715984 -0.0042380318333833291 0 -0.00083053920642713996 -0.0047558125411074756 0 -0.00071362713576277883 -0.0046468492674148114 0 0.00085844640070217263 -0.0054892970122481328 0 0.0082258970814671085 -0.005850393510882507 0 -0.00073387158427715984 -0.0042380318333833291 0 -0.0011029281134532353 -0.0043833376672610226 0 -0.0011735508900837111 -0.0042175699151232393 0 -0.00073387158427715984 -0.0042380318333833291 0 -0.00092229947214139045 -0.0045843620509554671 0 -0.0011029281134532353 -0.0043833376672610226 0 -0.00073387158427715984 -0.0042380318333833291 0 -0.00071362713576277883 -0.0046468492674148114 0 -0.00057128280599876425 -0.0047203447899162362 0 0.0011946253268314878 -0.0015049455662983773 0 0.0012833945102518345 -0.0015897285476991949 0 0.0012560176422138855 -0.0016495149442165261 0 0.001326928967914267 -0.0015192307631578929 0 0.0012833945102518345 -0.0015897285476991949 0 0.0013338197316789019 -0.0016175503073721004 0 0.0012833945102518345 -0.0015897285476991949 0 0.0013338197316789019 -0.0016175503073721004 0 0.0012883102725957426 -0.0016432626554356016 0 0.0013338197316789019 -0.0016175503073721004 0 0.0012883102725957426 -0.0016432626554356016 0 0.0012994371657948621 -0.0016817416396170688 0 0.0012833945102518345 -0.0015897285476991949 0 0.0012883102725957426 -0.0016432626554356016 0 0.0012560176422138855 -0.0016495149442165261 0 0.0012883102725957426 -0.0016432626554356016 0 0.0012714066696045965 -0.001676053917624362 0 0.0012994371657948621 -0.0016817416396170688 0 0.0012560176422138855 -0.0016495149442165261 0 0.0012714066696045965 -0.001676053917624362 0 0.0012579587917608238 -0.0016871224328703846 0 0.0012883102725957426 -0.0016432626554356016 0 0.0012560176422138855 -0.0016495149442165261 0 0.0012714066696045965 -0.001676053917624362 0 0.012249652009577703 -0.0063185046294790669 0 0.01181807266271258 -0.0061500986705522731 0 0.012155468873253975 -0.0060920559457239547 0 0.0024962458484382145 -0.0019676885191040432 0 0.0018342501940795386 -0.0019419692331453919 0 0.0016932060268058326 -0.0017062138858226798 0 0.0012994371657948621 -0.0016817416396170688 0 0.0012593809530633048 -0.0017061818282951098 0 0.0013408538385123916 -0.0016966565655821828 0 0.0012714066696045965 -0.001676053917624362 0 0.0012994371657948621 -0.0016817416396170688 0 0.0012593809530633048 -0.0017061818282951098 0 0.0052685268667770624 -0.0039019933000132546 0 0.0009656980349072897 -0.0017478228144796023 0 0.0052685268667770624 -0.0039019933000132546 0 0.007187598251246468 -0.0040629861866497332 0 0.0013338197316789019 -0.0016175503073721004 0 0.0012994371657948621 -0.0016817416396170688 0 0.0013408538385123916 -0.0016966565655821828 0 0.020375436208732851 -0.0086993753439951332 0 0.020129358998802072 -0.0087212220341244349 0 0.020305661035259086 -0.0079729346545427578 0 0.01231165691119805 -0.006349329028378016 0 0.012249652009577703 -0.0063185046294790669 0 0.012155468873253975 -0.0060920559457239547 0 0.0071682148569685127 -0.0053463044372191971 0 0.017253396497913687 -0.0074089769108588886 0 -0.00083053920642713996 -0.0047558125411074756 0 -0.00071362713576277883 -0.0046468492674148114 0 -0.0005391654683022689 -0.0047239201069846099 0 0.0082258970814671085 -0.005850393510882507 0 0.0071682148569685127 -0.0053463044372191971 0 0.003914476171253769 -0.0043172137332483261 0 0.0071682148569685127 -0.0053463044372191971 0 0.0012714066696045965 -0.001676053917624362 0 0.0012579587917608238 -0.0016871224328703846 0 0.0012593809530633048 -0.0017061818282951098 0 0.0012560176422138855 -0.0016495149442165261 0 0.0012380422569598548 -0.0017038877105661563 0 0.0012579587917608238 -0.0016871224328703846 0 0.0012380422569598548 -0.0017038877105661563 0 0.0012579587917608238 -0.0016871224328703846 0 0.0012593809530633048 -0.0017061818282951098 0 0.0071682148569685127 -0.0053463044372191971 0 0.0052685268667770624 -0.0039019933000132546 0 0.0014954330170850805 -0.0014416310301069734 0 0.0014801399778378286 -0.0015823668060467222 0 0.0015417615861867599 -0.0014557103095978821 0 0.0014954330170850805 -0.0014416310301069734 0 0.0014801399778378286 -0.0015823668060467222 0 0.0014063024804795011 -0.0015360651348042004 0 0.0014801399778378286 -0.0015823668060467222 0 0.0015386449161707641 -0.0016561339237424321 0 0.0015417615861867599 -0.0014557103095978821 0 0.0014801399778378286 -0.0015823668060467222 0 0.0014047072892602627 -0.0016261691405915748 0 0.0014063024804795011 -0.0015360651348042004 0 0.001326928967914267 -0.0015192307631578929 0 0.0013338197316789019 -0.0016175503073721004 0 0.0014063024804795011 -0.0015360651348042004 0 0.0013338197316789019 -0.0016175503073721004 0 0.0014047072892602627 -0.0016261691405915748 0 0.0013408538385123916 -0.0016966565655821828 0 0.0013338197316789019 -0.0016175503073721004 0 0.0014047072892602627 -0.0016261691405915748 0 0.0014063024804795011 -0.0015360651348042004 0 0.0014047072892602627 -0.0016261691405915748 0 0.0013408538385123916 -0.0016966565655821828 0 0.0014923327358260282 -0.0017401007632359303 0 0.0009656980349072897 -0.0017478228144796023 0 0.001734581319954518 -0.0017800426268176398 0 0.0018342501940795386 -0.0019419692331453919 0 0.0016932060268058326 -0.0017062138858226798 0 0.0014923327358260282 -0.0017401007632359303 0 0.0016932060268058326 -0.0017062138858226798 0 0.0014923327358260282 -0.0017401007632359303 0 0.0014895533639449855 -0.0018716453259448494 0 0.0014923327358260282 -0.0017401007632359303 0 0.0014895533639449855 -0.0018716453259448494 0 0.0015386449161707641 -0.0016561339237424321 0 0.0014801399778378286 -0.0015823668060467222 0 0.0014047072892602627 -0.0016261691405915748 0 0.0014923327358260282 -0.0017401007632359303 0 0.0014801399778378286 -0.0015823668060467222 0 0.0014923327358260282 -0.0017401007632359303 0 0.0015386449161707641 -0.0016561339237424321 0 0.011300112511096081 -0.0059768638411084197 0 0.011647015168415259 -0.0058565708571974599 0 0.011207719655825177 -0.0056603559720078186 0 0.007187598251246468 -0.0040629861866497332 0 0.0063142931583954568 -0.0038937823475406722 0 0.01181807266271258 -0.0061500986705522731 0 0.011300112511096081 -0.0059768638411084197 0 0.011647015168415259 -0.0058565708571974599 0 0.01181807266271258 -0.0061500986705522731 0 0.011647015168415259 -0.0058565708571974599 0 0.011955695602994476 -0.0059648671643896898 0 0.011647015168415259 -0.0058565708571974599 0 0.011947261707052409 -0.0057587361151383585 0 0.011955695602994476 -0.0059648671643896898 0 0.011947261707052409 -0.0057587361151383585 0 0.011808268216673192 -0.0055091345004580428 0 0.012092131620252137 -0.0053711977538548243 0 0.011647015168415259 -0.0058565708571974599 0 0.011808268216673192 -0.0055091345004580428 0 0.011497759925364063 -0.0054163196849448467 0 0.011647015168415259 -0.0058565708571974599 0 0.011947261707052409 -0.0057587361151383585 0 0.011808268216673192 -0.0055091345004580428 0 0.011647015168415259 -0.0058565708571974599 0 0.011497759925364063 -0.0054163196849448467 0 0.011207719655825177 -0.0056603559720078186 0 0.011497759925364063 -0.0054163196849448467 0 0.010984398077762714 -0.0053179455107492798 0 0.011207719655825177 -0.0056603559720078186 0 0.020375436208732851 -0.0086993753439951332 0 0.020305661035259086 -0.0079729346545427578 0 0.020901784281947555 -0.007918369337210053 0 0.01231165691119805 -0.006349329028378016 0 0.012406800826321862 -0.0058902393052354804 0 0.012155468873253975 -0.0060920559457239547 0 0.01181807266271258 -0.0061500986705522731 0 0.012155468873253975 -0.0060920559457239547 0 0.011955695602994476 -0.0059648671643896898 0 0.012155468873253975 -0.0060920559457239547 0 0.011955695602994476 -0.0059648671643896898 0 0.012138393565484856 -0.0058754728704710135 0 0.011947261707052409 -0.0057587361151383585 0 0.011955695602994476 -0.0059648671643896898 0 0.012138393565484856 -0.0058754728704710135 0 0.012406800826321862 -0.0058902393052354804 0 0.012138393565484856 -0.0058754728704710135 0 0.012222358701739525 -0.0056564981571358801 0 0.012406800826321862 -0.0058902393052354804 0 0.012155468873253975 -0.0060920559457239547 0 0.012138393565484856 -0.0058754728704710135 0 0.012222358701739525 -0.0056564981571358801 0 0.012493317298385863 -0.0053777751415197191 0 0.012092131620252137 -0.0053711977538548243 0 0.011947261707052409 -0.0057587361151383585 0 0.012222358701739525 -0.0056564981571358801 0 0.012092131620252137 -0.0053711977538548243 0 0.011947261707052409 -0.0057587361151383585 0 0.012138393565484856 -0.0058754728704710135 0 0.012222358701739525 -0.0056564981571358801 0 0.020305661035259086 -0.0079729346545427578 0 0.020708220372070173 -0.0074863876175943044 0 0.020433494378045244 -0.0072242497003151777 0 0.020305661035259086 -0.0079729346545427578 0 0.020708220372070173 -0.0074863876175943044 0 0.020901784281947555 -0.007918369337210053 0 0.012406800826321862 -0.0058902393052354804 0 0.012222358701739525 -0.0056564981571358801 0 0.012493317298385863 -0.0053777751415197191 0 0.017253396497913687 -0.0074089769108588886 0 0.016267506397708579 -0.006190235565002822 0 0.016267506397708579 -0.006190235565002822 0 0.017918774737472259 -0.0056207178979372514 0 0.020708220372070173 -0.0074863876175943044 0 0.02080515105120441 -0.0071318562870275309 0 0.020433494378045244 -0.0072242497003151777 0 0.020433494378045244 -0.0072242497003151777 0 0.020914114350371202 -0.0067222408830686494 0 0.020461885745083133 -0.0062476756684828683 0 0.02080515105120441 -0.0071318562870275309 0 0.020433494378045244 -0.0072242497003151777 0 0.020914114350371202 -0.0067222408830686494 0 0.020655189377625387 -0.0066372039626822884 0 0.020490141112093258 -0.0064274873213761305 0 0.019911749443490143 -0.0060877039340621903 0 0.019767005736760067 -0.0059456096798459037 0 0.019852894296016502 -0.0058149291114443615 0 0.020490141112093258 -0.0064274873213761305 0 0.020631003951219324 -0.0059582716465454832 0 0.012493317298385863 -0.0053777751415197191 0 0.01255222488664942 -0.0048602234277579041 0 0.012508742282184583 -0.0048375950964370026 0 0.020914114350371202 -0.0067222408830686494 0 0.020847328306181776 -0.0064417700792088499 0 0.020461885745083133 -0.0062476756684828683 0 0.020967469695807858 -0.0064445612761340944 0 0.02087195449077572 -0.0056544328174545216 0 0.021220012850808594 -0.006194840124463882 0 0.017918774737472259 -0.0056207178979372514 0 0.016623584164172978 -0.0056291415515035137 0 0.018196318865767933 -0.0050528907126276348 0 0.018745294419741404 -0.0053367940620945992 0 0.018191269271510171 -0.006222088950873607 0 0.017918774737472259 -0.0056207178979372514 0 0.018637360655427058 -0.0060135572186049936 0 0.016623584164172978 -0.0056291415515035137 0 0.018637360655427058 -0.0060135572186049936 0 0.019911749443490143 -0.0060877039340621903 0 0.019765922643643304 -0.0060133645344629715 0 0.019767005736760067 -0.0059456096798459037 0 0.020490141112093258 -0.0064274873213761305 0 0.017918774737472259 -0.0056207178979372514 0 0.012502312717968995 -0.0048083901853189894 0 0.012031297411813854 -0.0049217224419182623 0 0.011882082025036175 -0.004533682909823436 0 0.012502312717968995 -0.0048083901853189894 0 0.012031297411813854 -0.0049217224419182623 0 0.012092131620252137 -0.0053711977538548243 0 0.012493317298385863 -0.0053777751415197191 0 0.012508742282184583 -0.0048375950964370026 0 0.012092131620252137 -0.0053711977538548243 0 0.016623584164172978 -0.0056291415515035137 0 0.010899238931281727 -0.0053572398754912071 0 0.011808268216673192 -0.0055091345004580428 0 0.012092131620252137 -0.0053711977538548243 0 0.011788477648614105 -0.0051919223212119944 0 0.012031297411813854 -0.0049217224419182623 0 0.012092131620252137 -0.0053711977538548243 0 0.011788477648614105 -0.0051919223212119944 0 0.011808268216673192 -0.0055091345004580428 0 0.011788477648614105 -0.0051919223212119944 0 0.011497759925364063 -0.0054163196849448467 0 0.011497759925364063 -0.0054163196849448467 0 0.011430058934549415 -0.0047902845558909207 0 0.010984398077762714 -0.0053179455107492798 0 0.011788477648614105 -0.0051919223212119944 0 0.011497759925364063 -0.0054163196849448467 0 0.011430058934549415 -0.0047902845558909207 0 0.012031297411813854 -0.0049217224419182623 0 0.011430058934549415 -0.0047902845558909207 0 0.011882082025036175 -0.004533682909823436 0 0.012031297411813854 -0.0049217224419182623 0 0.011788477648614105 -0.0051919223212119944 0 0.011430058934549415 -0.0047902845558909207 0 0.011430058934549415 -0.0047902845558909207 0 0.011882082025036175 -0.004533682909823436 0 0.011433391336418406 -0.0043629458869531724 0 0.015481121740254728 -0.0056286984693102275 0 0.014219549952520822 -0.0050911423536074401 0 0.019042043371514238 -0.0065580672939427606 0 0.018575764747073353 -0.0053800443706856814 0 0.017110336597658964 -0.0058779109934361451 0 0.018575764747073353 -0.0053800443706856814 0 0.017110336597658964 -0.0058779109934361451 0 0.017866509978944931 -0.0044724059239819834 0 0.018575764747073353 -0.0053800443706856814 0 0.019746973239155165 -0.0053874340328993516 0 0.018987828471130036 -0.0045657829596440274 0 0.019042043371514238 -0.0065580672939427606 0 0.018575764747073353 -0.0053800443706856814 0 0.019746973239155165 -0.0053874340328993516 0 0.019746973239155165 -0.0053874340328993516 0 0.020931985264729686 -0.0049338788991538114 0 0.020923213690360015 -0.0064237630742536222 0 0.020775395112849454 -0.0044045802957702962 0 0.021153980168456557 -0.0061701519940204654 0 0.02209837300789488 -0.0046830413940267927 0 0.020931985264729686 -0.0049338788991538114 0 0.020923213690360015 -0.0064237630742536222 0 0.021247096972845773 -0.0066748545656597161 0 0.02092798853930361 -0.0047815398139580368 0 0.020631003951219324 -0.0059582716465454832 0 0.018637360655427058 -0.0060135572186049936 0 0.020204175727223914 -0.0067788620926694208 0 0.020901394442451458 -0.0071956017809549607 0 0.020923213690360015 -0.0064237630742536222 0 0.021247096972845773 -0.0066748545656597161 0 0.020762073081952034 -0.0073917545721423642 0 0.020896071788312928 -0.0071868196754650013 0 0.020923213690360015 -0.0064237630742536222 0 0.018637360655427058 -0.0060135572186049936 0 0.020631003951219324 -0.0059582716465454832 0 0.016623584164172978 -0.0056291415515035137 0 0.015481121740254728 -0.0056286984693102275 0 0.020762073081952034 -0.0073917545721423642 0 0.019042043371514238 -0.0065580672939427606 0 0.020923213690360015 -0.0064237630742536222 0 0.019042043371514238 -0.0065580672939427606 0 0.019746973239155165 -0.0053874340328993516 0 0.020923213690360015 -0.0064237630742536222 0 0.010098522150287727 -0.0042199366735483964 0 0.0098620407708379428 -0.0042181680979082332 0 0.0099974117793980733 -0.0040143718441128292 0 0.0098620407708379428 -0.0042181680979082332 0 0.0099974117793980733 -0.0040143718441128292 0 0.0098190648448378357 -0.0040628793849488828 0 0.010098522150287727 -0.0042199366735483964 0 0.0099974117793980733 -0.0040143718441128292 0 0.01020370699840383 -0.0040312294520924979 0 0.010098522150287727 -0.0042199366735483964 0 0.01020370699840383 -0.0040312294520924979 0 0.010420129380322952 -0.0042506551700485619 0 0.01020370699840383 -0.0040312294520924979 0 0.010368631667393467 -0.0038806045262049583 0 0.010420129380322952 -0.0042506551700485619 0 0.010226851024217526 -0.0044513378325723059 0 0.010420129380322952 -0.0042506551700485619 0 0.010407283511549757 -0.0046837679516000749 0 0.010098522150287727 -0.0042199366735483964 0 0.010226851024217526 -0.0044513378325723059 0 0.010013401605196743 -0.004475101764377579 0 0.010098522150287727 -0.0042199366735483964 0 0.010226851024217526 -0.0044513378325723059 0 0.010420129380322952 -0.0042506551700485619 0 0.010098522150287727 -0.0042199366735483964 0 0.010013401605196743 -0.004475101764377579 0 0.0099494415968898967 -0.0043276415743990285 0 0.010098522150287727 -0.0042199366735483964 0 0.0098620407708379428 -0.0042181680979082332 0 0.0099494415968898967 -0.0043276415743990285 0 0.0098620407708379428 -0.0042181680979082332 0 0.0099494415968898967 -0.0043276415743990285 0 0.0098182103769836673 -0.0044176409854511361 0 0.010013401605196743 -0.004475101764377579 0 0.0099494415968898967 -0.0043276415743990285 0 0.0098182103769836673 -0.0044176409854511361 0 0.0098182103769836673 -0.0044176409854511361 0 0.0096422690127733173 -0.0043466408314334747 0 0.0096328651272666026 -0.00455034061082101 0 0.0096422690127733173 -0.0043466408314334747 0 0.0094764882722996463 -0.0042678461745644771 0 0.0096718007157721754 -0.0041585178582351666 0 0.0098620407708379428 -0.0042181680979082332 0 0.0098182103769836673 -0.0044176409854511361 0 0.0096422690127733173 -0.0043466408314334747 0 0.0098620407708379428 -0.0042181680979082332 0 0.0096422690127733173 -0.0043466408314334747 0 0.0096718007157721754 -0.0041585178582351666 0 0.0096422690127733173 -0.0043466408314334747 0 0.009377088001557083 -0.0044714035060013976 0 0.0096328651272666026 -0.00455034061082101 0 0.0096422690127733173 -0.0043466408314334747 0 0.009377088001557083 -0.0044714035060013976 0 0.0094764882722996463 -0.0042678461745644771 0 0.009377088001557083 -0.0044714035060013976 0 0.0094764882722996463 -0.0042678461745644771 0 0.0091862046452427116 -0.0042500728990262178 0 0.0094764882722996463 -0.0042678461745644771 0 0.0094769959857077257 -0.0040988432158781665 0 0.0091862046452427116 -0.0042500728990262178 0 0.0094769959857077257 -0.0040988432158781665 0 0.0091862046452427116 -0.0042500728990262178 0 0.0092866123868846837 -0.0040252793203762165 0 0.0094764882722996463 -0.0042678461745644771 0 0.0094769959857077257 -0.0040988432158781665 0 0.0096718007157721754 -0.0041585178582351666 0 0.0094769959857077257 -0.0040988432158781665 0 0.0096970896414533617 -0.0039785580937551166 0 0.009526807244904071 -0.0039168509119183355 0 0.0094769959857077257 -0.0040988432158781665 0 0.009526807244904071 -0.0039168509119183355 0 0.0092866123868846837 -0.0040252793203762165 0 0.0098620407708379428 -0.0042181680979082332 0 0.0096718007157721754 -0.0041585178582351666 0 0.0098190648448378357 -0.0040628793849488828 0 0.0094769959857077257 -0.0040988432158781665 0 0.0096718007157721754 -0.0041585178582351666 0 0.0096970896414533617 -0.0039785580937551166 0 0.0096718007157721754 -0.0041585178582351666 0 0.0098190648448378357 -0.0040628793849488828 0 0.0096970896414533617 -0.0039785580937551166 0 0.0098190648448378357 -0.0040628793849488828 0 0.0096970896414533617 -0.0039785580937551166 0 0.0098927046751081348 -0.0038406141111888099 0 0.0096970896414533617 -0.0039785580937551166 0 0.0097211935933668604 -0.0037887535141715566 0 0.009526807244904071 -0.0039168509119183355 0 0.0096970896414533617 -0.0039785580937551166 0 0.0097211935933668604 -0.0037887535141715566 0 0.0098927046751081348 -0.0038406141111888099 0 0.0097211935933668604 -0.0037887535141715566 0 0.0098927046751081348 -0.0038406141111888099 0 0.0098694091294834058 -0.0036355411240494837 0 0.009526807244904071 -0.0039168509119183355 0 0.0092866123868846837 -0.0040252793203762165 0 0.0093118078043289039 -0.0037990318299756425 0 0.0097211935933668604 -0.0037887535141715566 0 0.009526807244904071 -0.0039168509119183355 0 0.0095736657722457867 -0.0037265682444675725 0 0.009526807244904071 -0.0039168509119183355 0 0.0095736657722457867 -0.0037265682444675725 0 0.0093118078043289039 -0.0037990318299756425 0 0.0095736657722457867 -0.0037265682444675725 0 0.0095007738602375311 -0.0035613136538389192 0 0.0093118078043289039 -0.0037990318299756425 0 0.0097211935933668604 -0.0037887535141715566 0 0.0095736657722457867 -0.0037265682444675725 0 0.0097076657870570557 -0.0035946268331092965 0 0.0095736657722457867 -0.0037265682444675725 0 0.0095007738602375311 -0.0035613136538389192 0 0.0097076657870570557 -0.0035946268331092965 0 0.0095007738602375311 -0.0035613136538389192 0 0.0097076657870570557 -0.0035946268331092965 0 0.0097346064761642034 -0.0033694635190411265 0 0.0097211935933668604 -0.0037887535141715566 0 0.0098694091294834058 -0.0036355411240494837 0 0.0097076657870570557 -0.0035946268331092965 0 0.0097076657870570557 -0.0035946268331092965 0 0.0098458729059797551 -0.0034883822381175378 0 0.0097346064761642034 -0.0033694635190411265 0 0.0098694091294834058 -0.0036355411240494837 0 0.0097076657870570557 -0.0035946268331092965 0 0.0098458729059797551 -0.0034883822381175378 0 0.0098458729059797551 -0.0034883822381175378 0 0.0099646001204755173 -0.0035245231961989181 0 0.0099634480817060497 -0.0034159888000910993 0 0.0098694091294834058 -0.0036355411240494837 0 0.0098458729059797551 -0.0034883822381175378 0 0.0099646001204755173 -0.0035245231961989181 0 0.0099646001204755173 -0.0035245231961989181 0 0.010094591254386215 -0.0034888710283764593 0 0.0099634480817060497 -0.0034159888000910993 0 0.0099646001204755173 -0.0035245231961989181 0 0.010094591254386215 -0.0034888710283764593 0 0.01004043675607951 -0.0036283098052142136 0 0.010094591254386215 -0.0034888710283764593 0 0.01004043675607951 -0.0036283098052142136 0 0.010203809242448899 -0.0036221644390046813 0 0.01004043675607951 -0.0036283098052142136 0 0.010134306005692763 -0.0037953861725265876 0 0.010203809242448899 -0.0036221644390046813 0 0.0098694091294834058 -0.0036355411240494837 0 0.0099646001204755173 -0.0035245231961989181 0 0.01004043675607951 -0.0036283098052142136 0 0.0098927046751081348 -0.0038406141111888099 0 0.0098694091294834058 -0.0036355411240494837 0 0.01004043675607951 -0.0036283098052142136 0 0.0098927046751081348 -0.0038406141111888099 0 0.01004043675607951 -0.0036283098052142136 0 0.010134306005692763 -0.0037953861725265876 0 0.0099974117793980733 -0.0040143718441128292 0 0.01020370699840383 -0.0040312294520924979 0 0.010134306005692763 -0.0037953861725265876 0 0.0099974117793980733 -0.0040143718441128292 0 0.0098927046751081348 -0.0038406141111888099 0 0.010134306005692763 -0.0037953861725265876 0 0.0099974117793980733 -0.0040143718441128292 0 0.0098190648448378357 -0.0040628793849488828 0 0.0098927046751081348 -0.0038406141111888099 0 0.010134306005692763 -0.0037953861725265876 0 0.010368631667393467 -0.0038806045262049583 0 0.010203809242448899 -0.0036221644390046813 0 0.01020370699840383 -0.0040312294520924979 0 0.010134306005692763 -0.0037953861725265876 0 0.010368631667393467 -0.0038806045262049583 0 0.010094591254386215 -0.0034888710283764593 0 0.010356002563099593 -0.003524924920910662 0 0.010203809242448899 -0.0036221644390046813 0 0.010368631667393467 -0.0038806045262049583 0 0.010356002563099593 -0.003524924920910662 0 0.010203809242448899 -0.0036221644390046813 0 0.010368631667393467 -0.0038806045262049583 0 0.010356002563099593 -0.003524924920910662 0 0.010900100219644014 -0.0041508765853889842 0 0.011057959882522927 -0.0042810542573803682 0 0.011249593179282293 -0.0044988808683690098 0 0.011140906715780389 -0.0042244820829833241 0 0.010641392227399229 -0.0038719651199702913 0 0.011088423424391557 -0.0043421934368037532 0 0.014219549952520822 -0.0050911423536074401 0 0.012859163259459598 -0.0046768296991943721 0 0.011433391336418406 -0.0043629458869531724 0 0.011249593179282293 -0.0044988808683690098 0 0.011140906715780389 -0.0042244820829833241 0 0.017110336597658964 -0.0058779109934361451 0 0.016261786537313187 -0.0046901775982045989 0 0.014422160344767079 -0.0050472205851836436 0 0.011430058934549415 -0.0047902845558909207 0 0.011433391336418406 -0.0043629458869531724 0 0.011249593179282293 -0.0044988808683690098 0 0.011412332417594956 -0.0047504258218301421 0 0.011088423424391557 -0.0043421934368037532 0 0.011430058934549415 -0.0047902845558909207 0 0.010900100219644014 -0.0041508765853889842 0 0.010764671708532701 -0.0045685441146824388 0 0.010368631667393467 -0.0038806045262049583 0 0.010900100219644014 -0.0041508765853889842 0 0.010420129380322952 -0.0042506551700485619 0 0.010900100219644014 -0.0041508765853889842 0 0.010420129380322952 -0.0042506551700485619 0 0.010764671708532701 -0.0045685441146824388 0 0.010420129380322952 -0.0042506551700485619 0 0.010407283511549757 -0.0046837679516000749 0 0.010764671708532701 -0.0045685441146824388 0 0.010407283511549757 -0.0046837679516000749 0 0.010659493587095137 -0.0049606784134029677 0 0.010327981615543073 -0.00522925208236656 0 0.010407283511549757 -0.0046837679516000749 0 0.010764671708532701 -0.0045685441146824388 0 0.010659493587095137 -0.0049606784134029677 0 0.011430058934549415 -0.0047902845558909207 0 0.010764671708532701 -0.0045685441146824388 0 0.010659493587095137 -0.0049606784134029677 0 0.011430058934549415 -0.0047902845558909207 0 0.010659493587095137 -0.0049606784134029677 0 0.010984398077762714 -0.0053179455107492798 0 0.010659493587095137 -0.0049606784134029677 0 0.010984398077762714 -0.0053179455107492798 0 0.010327981615543073 -0.00522925208236656 0 0.010984398077762714 -0.0053179455107492798 0 0.010327981615543073 -0.00522925208236656 0 0.010717292286262052 -0.005804774044383944 0 0.010327981615543073 -0.00522925208236656 0 0.0098916588336440958 -0.0050470801510153849 0 0.0097885975077882017 -0.0053442466550545934 0 0.010327981615543073 -0.00522925208236656 0 0.0097885975077882017 -0.0053442466550545934 0 0.010053678992221541 -0.0056055413291939754 0 0.010327981615543073 -0.00522925208236656 0 0.0098916588336440958 -0.0050470801510153849 0 0.010117762493429345 -0.0047733497240670594 0 0.010407283511549757 -0.0046837679516000749 0 0.010327981615543073 -0.00522925208236656 0 0.010117762493429345 -0.0047733497240670594 0 0.0098916588336440958 -0.0050470801510153849 0 0.010117762493429345 -0.0047733497240670594 0 0.0098218988195476215 -0.0047152097507188392 0 0.010013401605196743 -0.004475101764377579 0 0.010117762493429345 -0.0047733497240670594 0 0.0098218988195476215 -0.0047152097507188392 0 0.010013401605196743 -0.004475101764377579 0 0.0098182103769836673 -0.0044176409854511361 0 0.0098218988195476215 -0.0047152097507188392 0 0.010226851024217526 -0.0044513378325723059 0 0.010407283511549757 -0.0046837679516000749 0 0.010117762493429345 -0.0047733497240670594 0 0.010226851024217526 -0.0044513378325723059 0 0.010013401605196743 -0.004475101764377579 0 0.010117762493429345 -0.0047733497240670594 0 0.009377088001557083 -0.0044714035060013976 0 0.0094733900526867022 -0.0047755371781274675 0 0.0096328651272666026 -0.00455034061082101 0 0.009377088001557083 -0.0044714035060013976 0 0.0094733900526867022 -0.0047755371781274675 0 0.0091718204928348014 -0.0046883280154820326 0 0.0094733900526867022 -0.0047755371781274675 0 0.0098218988195476215 -0.0047152097507188392 0 0.0096328651272666026 -0.00455034061082101 0 0.0098182103769836673 -0.0044176409854511361 0 0.0098218988195476215 -0.0047152097507188392 0 0.0096328651272666026 -0.00455034061082101 0 0.0098916588336440958 -0.0050470801510153849 0 0.0098218988195476215 -0.0047152097507188392 0 0.0096611704468522169 -0.0049695267031467918 0 0.0094733900526867022 -0.0047755371781274675 0 0.0098218988195476215 -0.0047152097507188392 0 0.0096611704468522169 -0.0049695267031467918 0 0.0094733900526867022 -0.0047755371781274675 0 0.0096611704468522169 -0.0049695267031467918 0 0.0094377880237645883 -0.0050834480353317661 0 0.0094733900526867022 -0.0047755371781274675 0 0.0092543527590297683 -0.0049351297580156467 0 0.0091718204928348014 -0.0046883280154820326 0 0.0094733900526867022 -0.0047755371781274675 0 0.0094377880237645883 -0.0050834480353317661 0 0.0092543527590297683 -0.0049351297580156467 0 0.0094377880237645883 -0.0050834480353317661 0 0.0092543527590297683 -0.0049351297580156467 0 0.0091711940484625609 -0.0052021837808363738 0 0.0097885975077882017 -0.0053442466550545934 0 0.0092962811144875531 -0.0054698675826359922 0 0.010053678992221541 -0.0056055413291939754 0 0.0094377880237645883 -0.0050834480353317661 0 0.0093772158416913585 -0.0052729569051482511 0 0.0091711940484625609 -0.0052021837808363738 0 0.0066583614667758305 -0.0049338378602454278 0 0.0060422536420828626 -0.0039983698891658138 0 0.0093772158416913585 -0.0052729569051482511 0 0.0096074634720472157 -0.0052268124796688081 0 0.0092962811144875531 -0.0054698675826359922 0 0.0094377880237645883 -0.0050834480353317661 0 0.0093772158416913585 -0.0052729569051482511 0 0.0096074634720472157 -0.0052268124796688081 0 0.0093772158416913585 -0.0052729569051482511 0 0.0092962811144875531 -0.0054698675826359922 0 0.0091711940484625609 -0.0052021837808363738 0 0.0098916588336440958 -0.0050470801510153849 0 0.0096611704468522169 -0.0049695267031467918 0 0.0096074634720472157 -0.0052268124796688081 0 0.0096074634720472157 -0.0052268124796688081 0 0.0097885975077882017 -0.0053442466550545934 0 0.0092962811144875531 -0.0054698675826359922 0 0.0098916588336440958 -0.0050470801510153849 0 0.0096074634720472157 -0.0052268124796688081 0 0.0097885975077882017 -0.0053442466550545934 0 0.0096611704468522169 -0.0049695267031467918 0 0.0094377880237645883 -0.0050834480353317661 0 0.0096074634720472157 -0.0052268124796688081 0 0.0029740629226880752 -0.002951124305989095 0 0.0023119823768524448 -0.0026097363719928646 0 0.0029846694843733233 -0.0024533306515615106 0 0.0066583614667758305 -0.0049338378602454278 0 0.0052461841403751725 -0.0041897867503181271 0 0.0023119823768524448 -0.0026097363719928646 0 0.0025808093367519422 -0.0021579722215950953 0 0.0029846694843733233 -0.0024533306515615106 0 0.0023119823768524448 -0.0026097363719928646 0 0.00210664027156175 -0.0020013214388549644 0 0.0025808093367519422 -0.0021579722215950953 0 0.00210664027156175 -0.0020013214388549644 0 0.0025808093367519422 -0.0021579722215950953 0 0.0024855454411904878 -0.0017629414457475136 0 0.0025808093367519422 -0.0021579722215950953 0 0.0029846694843733233 -0.0024533306515615106 0 0.0030021858604497142 -0.0019829082147669714 0 0.0020972746888683657 -0.0015338806003021817 0 0.004053287884119963 -0.0029607307178526688 0 0.0025808093367519422 -0.0021579722215950953 0 0.0024855454411904878 -0.0017629414457475136 0 0.0030021858604497142 -0.0019829082147669714 0 0.011300112511096081 -0.0059768638411084197 0 0.011207719655825177 -0.0056603559720078186 0 0.010717292286262052 -0.005804774044383944 0 0.010984398077762714 -0.0053179455107492798 0 0.011207719655825177 -0.0056603559720078186 0 0.010717292286262052 -0.005804774044383944 0 0.0060422536420828626 -0.0039983698891658138 0 0.0063069473960865588 -0.0040408556502150158 0 0.010327981615543073 -0.00522925208236656 0 0.010053678992221541 -0.0056055413291939754 0 0.010717292286262052 -0.005804774044383944 0 0.0023119823768524448 -0.0026097363719928646 0 0.00210664027156175 -0.0020013214388549644 0 0.0017847827843595293 -0.0022260453769140788 0 0.00210664027156175 -0.0020013214388549644 0 0.0017847827843595293 -0.0022260453769140788 0 0.0016658534709521806 -0.0017054239368893328 0 0.0063142931583954568 -0.0038937823475406722 0 0.0063069473960865588 -0.0040408556502150158 0 0.0014895533639449855 -0.0018716453259448494 0 0.0017847827843595293 -0.0022260453769140788 0 0.0016658534709521806 -0.0017054239368893328 0 0.0016658534709521806 -0.0017054239368893328 0 0.0015386449161707641 -0.0016561339237424321 0 0.0015417615861867599 -0.0014557103095978821 0 0.0014895533639449855 -0.0018716453259448494 0 0.0016658534709521806 -0.0017054239368893328 0 0.0015386449161707641 -0.0016561339237424321 0 0.00210664027156175 -0.0020013214388549644 0 0.0016658534709521806 -0.0017054239368893328 0 0.0019781683802656369 -0.0016329465218817621 0 0.0016658534709521806 -0.0017054239368893328 0 0.0019781683802656369 -0.0016329465218817621 0 0.0016048865594307125 -0.0012634059351830879 0 0.0016658534709521806 -0.0017054239368893328 0 0.0016048865594307125 -0.0012634059351830879 0 0.0015417615861867599 -0.0014557103095978821 0 0.0024855454411904878 -0.0017629414457475136 0 0.0023616429961807869 -0.0012862016704305117 0 0.0029527527921980722 -0.0013914938034188501 0 0.0024855454411904878 -0.0017629414457475136 0 0.0029527527921980722 -0.0013914938034188501 0 0.0029088519791706379 -0.0019890801502977398 0 0.00210664027156175 -0.0020013214388549644 0 0.0019781683802656369 -0.0016329465218817621 0 0.0024855454411904878 -0.0017629414457475136 0 0.0019781683802656369 -0.0016329465218817621 0 0.0024855454411904878 -0.0017629414457475136 0 0.0023616429961807869 -0.0012862016704305117 0 0.0013756119403994589 -0.0013040113362796611 0 0.0016048865594307125 -0.0012634059351830879 0 0.0010770387622396889 -0.0010120418186577562 0 0.0016241565801067592 -0.0012372628028022724 0 0.0016907113391012537 -0.0011422331836272359 0 0.0019781683802656369 -0.0016329465218817621 0 0.0016048865594307125 -0.0012634059351830879 0 0.0023616429961807869 -0.0012862016704305117 0 0.0010801561828482065 -0.0012141648386891472 0 0.0010770387622396889 -0.0010120418186577562 0 0.00092050088831438471 -0.0011209289621816924 0 0.0016907113391012537 -0.0011422331836272359 0 0.0019608837210469882 -0.0014412639231310463 0 0.0010770387622396889 -0.0010120418186577562 0 0.00092050088831438471 -0.0011209289621816924 0 0.00078301243266224113 -0.00097596456972071587 0 0.00092050088831438471 -0.0011209289621816924 0 0.00077607460544027276 -0.0010922158967295447 0 0.00078301243266224113 -0.00097596456972071587 0 0.00062098140329156643 -0.0012812815057669791 0 0.0003632669790680198 -0.0013636492377222555 0 0.00053858265218542287 -0.001640569236043909 0 0.0017510267185644895 -0.0017437893906289122 0 0.0019608837210469882 -0.0014412639231310463 0 0.00088165845774275733 -0.0011727896568640224 0 0.0017510267185644895 -0.0017437893906289122 0 0.00088165845774275733 -0.0011727896568640224 0 0.0019608837210469882 -0.0014412639231310463 0 0.0013668122734620614 -0.0012367493511085223 0 0.0016556758627048365 -0.001674991602981118 0 0.0013331884705134801 -0.001617264480604989 0 0.0033004462640832881 -0.0018465030387252899 0 0.0028994044606933298 -0.0017756814417672442 0 0.0033590673828128702 -0.0025453371011618965 0 0.0019608837210469882 -0.0014412639231310463 0 0.004053287884119963 -0.0029607307178526688 0 0.0028994044606933298 -0.0017756814417672442 0 0.0033590673828128702 -0.0025453371011618965 0 0.0028082640785179712 -0.0029208107294765454 0 0.0033004462640832881 -0.0018465030387252899 0 0.0033590673828128702 -0.0025453371011618965 0 0.0039713571839586591 -0.0028672433228850744 0 0.0017510267185644895 -0.0017437893906289122 0 0.0027686751550631398 -0.0022834382807202995 0 0.0014507698438350899 -0.0016534170675335494 0 0.0016130285788294473 -0.0016813301004526011 0 0.0016038179360835533 -0.0018757123311836301 0 0.00053858265218542287 -0.001640569236043909 0 0.0010043453276932339 -0.0017154830561849734 0 0.00089671401200029795 -0.0014123880536970146 0 0.0017510267185644895 -0.0017437893906289122 0 0.0011966790824788811 -0.0016604554819575233 0 0.0010043453276932339 -0.0017154830561849734 0 0.00089671401200029795 -0.0014123880536970146 0 0.0012827482241874958 -0.0013467906090091218 0 0.00062098140329156643 -0.0012812815057669791 0 0.00053858265218542287 -0.001640569236043909 0 0.00089671401200029795 -0.0014123880536970146 0 0.00085959461580635294 -0.001139963840598358 0 0.00089671401200029795 -0.0014123880536970146 0 0.0012827482241874958 -0.0013467906090091218 0 0.0016218171321715272 -0.0011955087626238808 0 0.0012827482241874958 -0.0013467906090091218 0 0.0017283871594499264 -0.001668320758710777 0 0.0010043453276932339 -0.0017154830561849734 0 0.0012827482241874958 -0.0013467906090091218 0 0.0017283871594499264 -0.001668320758710777 0 0.0016218171321715272 -0.0011955087626238808 0 0.0021404734422829021 -0.001606716321528513 0 0.0017283871594499264 -0.001668320758710777 0 0.0021404734422829021 -0.001606716321528513 0 0.0017283871594499264 -0.001668320758710777 0 0.0019024179180942345 -0.0019142179186092459 0 0.0011966790824788811 -0.0016604554819575233 0 0.0016944018089857938 -0.0016992902391655283 0 0.0017283871594499264 -0.001668320758710777 0 0.0019024179180942345 -0.0019142179186092459 0 0.0016038179360835533 -0.0018757123311836301 0 0.0016130285788294473 -0.0016813301004526011 0 0.0017283871594499264 -0.001668320758710777 0 0.0016038179360835533 -0.0018757123311836301 0 0.0019024179180942345 -0.0019142179186092459 0 0.002359597800265002 -0.002004765378361304 0 0.0019649556091432458 -0.0023516178185565466 0 0.0019024179180942345 -0.0019142179186092459 0 0.0019649556091432458 -0.0023516178185565466 0 0.0016038179360835533 -0.0018757123311836301 0 0.0038891601403109018 -0.0036342166196651725 0 0.0027686751550631398 -0.0022834382807202995 0 0.0021404734422829021 -0.001606716321528513 0 0.0019024179180942345 -0.0019142179186092459 0 0.002359597800265002 -0.002004765378361304 0 0.0038891601403109018 -0.0036342166196651725 0 0.0020350621828659904 -0.0021801706447238142 0 0.0019649556091432458 -0.0023516178185565466 0 0.0027450139258677004 -0.0022696933035758126 0 0.0027615264534210974 -0.0025505052609289497 0 0.002359597800265002 -0.002004765378361304 0 0.0019649556091432458 -0.0023516178185565466 0 0.0027450139258677004 -0.0022696933035758126 0 0.00716248916247167 -0.0055199127067205103 0 0.0068994498726428133 -0.0060488462850485048 0 0.0066290202268060906 -0.005355208693440785 0 0.0038891601403109018 -0.0036342166196651725 0 0.0058768336481284916 -0.0051191610088512311 0 0.0061827619841711232 -0.0058251622838653098 0 0.0068994498726428133 -0.0060488462850485048 0 0.0066290202268060906 -0.005355208693440785 0 0.0075141818373303726 -0.0058057504791652545 0 0.00716248916247167 -0.0055199127067205103 0 0.0068994498726428133 -0.0060488462850485048 0 0.0075853294956756178 -0.0052951112366018526 0 0.0075141818373303726 -0.0058057504791652545 0 0.00716248916247167 -0.0055199127067205103 0 0.0052461841403751725 -0.0041897867503181271 0 0.004053287884119963 -0.0029607307178526688 0 0.0033590673828128702 -0.0025453371011618965 0 0.0028082640785179712 -0.0029208107294765454 0 0.0037259979587368542 -0.0034005086003424958 0 0.004053287884119963 -0.0029607307178526688 0 0.0058768336481284916 -0.0051191610088512311 0 0.0075141818373303726 -0.0058057504791652545 0 0.0074369433525154722 -0.006275653804507053 0 0.0068994498726428133 -0.0060488462850485048 0 0.0046169177434181689 -0.0038728997584387284 0 0.0037259979587368542 -0.0034005086003424958 0 0.0039713571839586591 -0.0028672433228850744 0 0.0033590673828128702 -0.0025453371011618965 0 0.0037259979587368542 -0.0034005086003424958 0 0.0039713571839586591 -0.0028672433228850744 0 0.0037567518923684864 -0.0014092338166089712 0 0.0039364093876319527 -0.0018003610225258107 0 0.0041222509868213764 -0.0015047423457281968 0 0.0037567518923684864 -0.0014092338166089712 0 0.003626920102297107 -0.0017872854645782082 0 0.0039364093876319527 -0.0018003610225258107 0 0.0034010651252624298 -0.00085369184408991608 0 0.0038488408902140289 -0.00091591266119876822 0 0.0037567518923684864 -0.0014092338166089712 0 0.0038488408902140289 -0.00091591266119876822 0 0.0037567518923684864 -0.0014092338166089712 0 0.004101246633863939 -0.001126603414444659 0 0.0034010651252624298 -0.00085369184408991608 0 0.0037567518923684864 -0.0014092338166089712 0 0.0032817147804586728 -0.0014666161640638331 0 0.0037567518923684864 -0.0014092338166089712 0 0.0032817147804586728 -0.0014666161640638331 0 0.003626920102297107 -0.0017872854645782082 0 0.0032817147804586728 -0.0014666161640638331 0 0.0025755565604945623 -0.0014204005458163984 0 0.0027712926529802526 -0.0019001399694558512 0 0.0021092387700317621 -0.0011656473748148505 0 0.0021783937655875728 -0.0011063828655531553 0 0.0025755565604945623 -0.0014204005458163984 0 0.0027640510749030248 -0.0010062207027623899 0 0.0025540203734698342 -0.0014126784204840893 0 0.0034010651252624298 -0.00085369184408991608 0 0.0032817147804586728 -0.0014666161640638331 0 0.0025755565604945623 -0.0014204005458163984 0 0.0021092387700317621 -0.0011656473748148505 0 0.0021404734422829021 -0.001606716321528513 0 0.0025755565604945623 -0.0014204005458163984 0 0.0021092387700317621 -0.0011656473748148505 0 0.0016218171321715272 -0.0011955087626238808 0 0.0021404734422829021 -0.001606716321528513 0 0.0021404734422829021 -0.001606716321528513 0 0.0025755565604945623 -0.0014204005458163984 0 0.0027712926529802526 -0.0019001399694558512 0 0.0021404734422829021 -0.001606716321528513 0 0.002359597800265002 -0.002004765378361304 0 0.0027712926529802526 -0.0019001399694558512 0 0.002359597800265002 -0.002004765378361304 0 0.0027712926529802526 -0.0019001399694558512 0 0.0027450139258677004 -0.0022696933035758126 0 0.0027712926529802526 -0.0019001399694558512 0 0.0027450139258677004 -0.0022696933035758126 0 0.003143500113685924 -0.0022811465440203326 0 0.0027450139258677004 -0.0022696933035758126 0 0.003240416270896856 -0.0025545158430839827 0 0.0027615264534210974 -0.0025505052609289497 0 0.0027450139258677004 -0.0022696933035758126 0 0.003143500113685924 -0.0022811465440203326 0 0.003240416270896856 -0.0025545158430839827 0 0.003143500113685924 -0.0022811465440203326 0 0.0034833455326838698 -0.0024408574227521248 0 0.003240416270896856 -0.0025545158430839827 0 0.003143500113685924 -0.0022811465440203326 0 0.0033927410058310231 -0.0020967017183344222 0 0.0034833455326838698 -0.0024408574227521248 0 0.0033927410058310231 -0.0020967017183344222 0 0.0036998829872053867 -0.0024024742462115446 0 0.0034833455326838698 -0.0024408574227521248 0 0.0027712926529802526 -0.0019001399694558512 0 0.003143500113685924 -0.0022811465440203326 0 0.0033927410058310231 -0.0020967017183344222 0 0.0032817147804586728 -0.0014666161640638331 0 0.0027712926529802526 -0.0019001399694558512 0 0.0033927410058310231 -0.0020967017183344222 0 0.0033927410058310231 -0.0020967017183344222 0 0.003626920102297107 -0.0017872854645782082 0 0.0038157290737419461 -0.0020750500309104857 0 0.0032817147804586728 -0.0014666161640638331 0 0.0033927410058310231 -0.0020967017183344222 0 0.003626920102297107 -0.0017872854645782082 0 0.0033927410058310231 -0.0020967017183344222 0 0.0038517729390516418 -0.0023136646425326777 0 0.0038157290737419461 -0.0020750500309104857 0 0.0033927410058310231 -0.0020967017183344222 0 0.0036998829872053867 -0.0024024742462115446 0 0.0038517729390516418 -0.0023136646425326777 0 0.0038517729390516418 -0.0023136646425326777 0 0.0040196779594344461 -0.002272330013431717 0 0.0038157290737419461 -0.0020750500309104857 0 0.0038517729390516418 -0.0023136646425326777 0 0.0040196779594344461 -0.002272330013431717 0 0.0040369618095779077 -0.0024523864437303402 0 0.0040196779594344461 -0.002272330013431717 0 0.0041311390244862531 -0.002392787209391694 0 0.0041937167754292834 -0.0022851041617635327 0 0.0040196779594344461 -0.002272330013431717 0 0.0040820207748552212 -0.0020879471732201788 0 0.0041937167754292834 -0.0022851041617635327 0 0.0040196779594344461 -0.002272330013431717 0 0.0040820207748552212 -0.0020879471732201788 0 0.0038157290737419461 -0.0020750500309104857 0 0.0040820207748552212 -0.0020879471732201788 0 0.0038157290737419461 -0.0020750500309104857 0 0.0039364093876319527 -0.0018003610225258107 0 0.003626920102297107 -0.0017872854645782082 0 0.0038157290737419461 -0.0020750500309104857 0 0.0039364093876319527 -0.0018003610225258107 0 0.0042558588143849383 -0.002704873693872015 0 0.0042725561629010636 -0.0025940920026772105 0 0.0043619121768377431 -0.002667149701891251 0 0.0042558588143849383 -0.002704873693872015 0 0.0041389251114517436 -0.0026118255268343812 0 0.0041058240336458614 -0.0027277481665173254 0 0.0042558588143849383 -0.002704873693872015 0 0.0041389251114517436 -0.0026118255268343812 0 0.0042725561629010636 -0.0025940920026772105 0 0.0041389251114517436 -0.0026118255268343812 0 0.0041653229792355017 -0.0025094384148853181 0 0.0042725561629010636 -0.0025940920026772105 0 0.0041653229792355017 -0.0025094384148853181 0 0.0041311390244862531 -0.002392787209391694 0 0.0040369618095779077 -0.0024523864437303402 0 0.0040196779594344461 -0.002272330013431717 0 0.0041311390244862531 -0.002392787209391694 0 0.0040369618095779077 -0.0024523864437303402 0 0.0041653229792355017 -0.0025094384148853181 0 0.0041311390244862531 -0.002392787209391694 0 0.0042495826743393951 -0.0024554481740786988 0 0.0041389251114517436 -0.0026118255268343812 0 0.0040369618095779077 -0.0024523864437303402 0 0.0039278127266423575 -0.0025648093379888421 0 0.0041389251114517436 -0.0026118255268343812 0 0.0041653229792355017 -0.0025094384148853181 0 0.0040369618095779077 -0.0024523864437303402 0 0.0036998829872053867 -0.0024024742462115446 0 0.0039278127266423575 -0.0025648093379888421 0 0.0036782924714567375 -0.002641922109099104 0 0.0039278127266423575 -0.0025648093379888421 0 0.0039423705195383912 -0.00270521210944388 0 0.0036782924714567375 -0.002641922109099104 0 0.0038517729390516418 -0.0023136646425326777 0 0.0040369618095779077 -0.0024523864437303402 0 0.0039278127266423575 -0.0025648093379888421 0 0.0036998829872053867 -0.0024024742462115446 0 0.0038517729390516418 -0.0023136646425326777 0 0.0039278127266423575 -0.0025648093379888421 0 0.0039278127266423575 -0.0025648093379888421 0 0.0039423705195383912 -0.00270521210944388 0 0.0041058240336458614 -0.0027277481665173254 0 0.0041058240336458614 -0.0027277481665173254 0 0.0040659376476030826 -0.0028624043278657075 0 0.0042795657052385212 -0.002798147572078549 0 0.0041389251114517436 -0.0026118255268343812 0 0.0039278127266423575 -0.0025648093379888421 0 0.0041058240336458614 -0.0027277481665173254 0 0.0042558588143849383 -0.002704873693872015 0 0.0041058240336458614 -0.0027277481665173254 0 0.0042795657052385212 -0.002798147572078549 0 0.0039423705195383912 -0.00270521210944388 0 0.0041058240336458614 -0.0027277481665173254 0 0.0040659376476030826 -0.0028624043278657075 0 0.0040659376476030826 -0.0028624043278657075 0 0.0036782924714567375 -0.002641922109099104 0 0.0036892325286379144 -0.0028137875079628232 0 0.0040659376476030826 -0.0028624043278657075 0 0.0036892325286379144 -0.0028137875079628232 0 0.0042793408787288019 -0.0030846105163724827 0 0.0039423705195383912 -0.00270521210944388 0 0.0040659376476030826 -0.0028624043278657075 0 0.0036782924714567375 -0.002641922109099104 0 0.0036998829872053867 -0.0024024742462115446 0 0.0034833455326838698 -0.0024408574227521248 0 0.0036782924714567375 -0.002641922109099104 0 0.0034833455326838698 -0.0024408574227521248 0 0.0036782924714567375 -0.002641922109099104 0 0.003240416270896856 -0.0025545158430839827 0 0.0036782924714567375 -0.002641922109099104 0 0.003240416270896856 -0.0025545158430839827 0 0.0036892325286379144 -0.0028137875079628232 0 0.003240416270896856 -0.0025545158430839827 0 0.0036892325286379144 -0.0028137875079628232 0 0.0029367649715941156 -0.002791206574453052 0 0.0041506696793433594 -0.003067966064241417 0 0.0042175386337317041 -0.0038529163746805124 0 0.0036892325286379144 -0.0028137875079628232 0 0.0042793408787288019 -0.0030846105163724827 0 0.0029367649715941156 -0.002791206574453052 0 0.0042793408787288019 -0.0030846105163724827 0 0.0049702393300203014 -0.0026852490069479494 0 0.0050056610379356631 -0.0027372118195260076 0 0.0042793408787288019 -0.0030846105163724827 0 0.0044317970216722945 -0.0028890465780200881 0 0.0050056610379356631 -0.0027372118195260076 0 0.0044317970216722945 -0.0028890465780200881 0 0.0045512453365974676 -0.0026501257884956652 0 0.0050056610379356631 -0.0027372118195260076 0 0.0040659376476030826 -0.0028624043278657075 0 0.0042793408787288019 -0.0030846105163724827 0 0.0044317970216722945 -0.0028890465780200881 0 0.0044317970216722945 -0.0028890465780200881 0 0.0042795657052385212 -0.002798147572078549 0 0.0044093331790860425 -0.0027506900719198608 0 0.0040659376476030826 -0.0028624043278657075 0 0.0044317970216722945 -0.0028890465780200881 0 0.0042795657052385212 -0.002798147572078549 0 0.0044317970216722945 -0.0028890465780200881 0 0.0044093331790860425 -0.0027506900719198608 0 0.0045512453365974676 -0.0026501257884956652 0 0.0044093331790860425 -0.0027506900719198608 0 0.0044420507016029037 -0.0026149010499135245 0 0.0045512453365974676 -0.0026501257884956652 0 0.0044420507016029037 -0.0026149010499135245 0 0.0043687312947316382 -0.0027112095854503518 0 0.004421184601640862 -0.0026430697480712782 0 0.0044093331790860425 -0.0027506900719198608 0 0.0044420507016029037 -0.0026149010499135245 0 0.0043687312947316382 -0.0027112095854503518 0 0.0042795657052385212 -0.002798147572078549 0 0.0044093331790860425 -0.0027506900719198608 0 0.0043687312947316382 -0.0027112095854503518 0 0.0042558588143849383 -0.002704873693872015 0 0.0042795657052385212 -0.002798147572078549 0 0.0043687312947316382 -0.0027112095854503518 0 0.0042558588143849383 -0.002704873693872015 0 0.0043687312947316382 -0.0027112095854503518 0 0.0043619121768377431 -0.002667149701891251 0 0.007538530832026942 -0.0044530069428950674 0 0.0087641502613512272 -0.0045469309205445566 0 0.006555679884378756 -0.003245244193491678 0 0.007538530832026942 -0.0044530069428950674 0 0.0082783777318039698 -0.0053746466937053487 0 0.0065611485876911268 -0.0046711232554490813 0 0.0079470939953389767 -0.0052831387111186966 0 0.0065627225406852969 -0.0046843550148764537 0 0.007538530832026942 -0.0044530069428950674 0 0.0065611485876911268 -0.0046711232554490813 0 0.006555679884378756 -0.003245244193491678 0 0.007538530832026942 -0.0044530069428950674 0 0.0087641502613512272 -0.0045469309205445566 0 0.0082783777318039698 -0.0053746466937053487 0 0.0087641502613512272 -0.0045469309205445566 0 0.0091718204928348014 -0.0046883280154820326 0 0.0090578547149433707 -0.004446191257867064 0 0.0087641502613512272 -0.0045469309205445566 0 0.0091718204928348014 -0.0046883280154820326 0 0.0089855877380551914 -0.0049343896737036189 0 0.009377088001557083 -0.0044714035060013976 0 0.0091718204928348014 -0.0046883280154820326 0 0.0090578547149433707 -0.004446191257867064 0 0.0089855877380551914 -0.0049343896737036189 0 0.0091711940484625609 -0.0052021837808363738 0 0.0082783777318039698 -0.0053746466937053487 0 0.0092543527590297683 -0.0049351297580156467 0 0.0091718204928348014 -0.0046883280154820326 0 0.0089855877380551914 -0.0049343896737036189 0 0.0092543527590297683 -0.0049351297580156467 0 0.0089855877380551914 -0.0049343896737036189 0 0.0091711940484625609 -0.0052021837808363738 0 0.0087641502613512272 -0.0045469309205445566 0 0.0089855877380551914 -0.0049343896737036189 0 0.0082783777318039698 -0.0053746466937053487 0 0.0092962811144875531 -0.0054698675826359922 0 0.0091711940484625609 -0.0052021837808363738 0 0.0082783777318039698 -0.0053746466937053487 0 0.0075853294956756178 -0.0052951112366018526 0 0.00716248916247167 -0.0055199127067205103 0 0.0070871736332785221 -0.0050331733559524751 0 0.0066583614667758305 -0.0049338378602454278 0 0.0079470939953389767 -0.0052831387111186966 0 0.0066290202268060906 -0.005355208693440785 0 0.0070871736332785221 -0.0050331733559524751 0 0.0065611485876911268 -0.0046711232554490813 0 0.00716248916247167 -0.0055199127067205103 0 0.0066290202268060906 -0.005355208693440785 0 0.0070871736332785221 -0.0050331733559524751 0 0.0061827619841711232 -0.0058251622838653098 0 0.0066290202268060906 -0.005355208693440785 0 0.0052535816692977329 -0.0047846327602242686 0 0.0066290202268060906 -0.005355208693440785 0 0.0052535816692977329 -0.0047846327602242686 0 0.0065611485876911268 -0.0046711232554490813 0 0.0024648591637413692 -0.0024340872417519719 0 0.0027615264534210974 -0.0025505052609289497 0 0.0029367649715941156 -0.002791206574453052 0 0.0038891601403109018 -0.0036342166196651725 0 0.0042175386337317041 -0.0038529163746805124 0 0.003240416270896856 -0.0025545158430839827 0 0.0027615264534210974 -0.0025505052609289497 0 0.0029367649715941156 -0.002791206574453052 0 0.0052535816692977329 -0.0047846327602242686 0 0.0065611485876911268 -0.0046711232554490813 0 0.0053453097609080652 -0.0035599021637320264 0 0.0065611485876911268 -0.0046711232554490813 0 0.006555679884378756 -0.003245244193491678 0 0.0053453097609080652 -0.0035599021637320264 0 0.0042793408787288019 -0.0030846105163724827 0 0.0053453097609080652 -0.0035599021637320264 0 0.0049702393300203014 -0.0026852490069479494 0 0.006555679884378756 -0.003245244193491678 0 0.0053453097609080652 -0.0035599021637320264 0 0.0049702393300203014 -0.0026852490069479494 0 0.0042793408787288019 -0.0030846105163724827 0 0.0052535816692977329 -0.0047846327602242686 0 0.0053453097609080652 -0.0035599021637320264 0 0.0073119897592457978 -0.0038366387599929872 0 0.0058286666798983413 -0.003236749186283814 0 0.0080531316825152698 -0.0043827711075069987 0 0.0077148303607375898 -0.0035495733982336998 0 0.0084809636331168517 -0.0038605499928927706 0 0.0080531316825152698 -0.0043827711075069987 0 0.0066447563858755996 -0.0038368248950405503 0 0.0077148303607375898 -0.0035495733982336998 0 0.0077148303607375898 -0.0035495733982336998 0 0.0084809636331168517 -0.0038605499928927706 0 0.0086493287172802139 -0.0034092778977679386 0 0.0084809636331168517 -0.0038605499928927706 0 0.0090958022916713174 -0.0036317088985097978 0 0.0086493287172802139 -0.0034092778977679386 0 0.0086724146100678277 -0.0045174681665511012 0 0.0073119897592457978 -0.0038366387599929872 0 0.0080531316825152698 -0.0043827711075069987 0 0.0084809636331168517 -0.0038605499928927706 0 0.0088915272639392175 -0.0040498830558060748 0 0.0087641502613512272 -0.0045469309205445566 0 0.0080531316825152698 -0.0043827711075069987 0 0.008839901404548876 -0.004314151702200896 0 0.0080531316825152698 -0.0043827711075069987 0 0.008839901404548876 -0.004314151702200896 0 0.0088915272639392175 -0.0040498830558060748 0 0.0091862046452427116 -0.0042500728990262178 0 0.0090578547149433707 -0.004446191257867064 0 0.008839901404548876 -0.004314151702200896 0 0.009377088001557083 -0.0044714035060013976 0 0.0091862046452427116 -0.0042500728990262178 0 0.0090578547149433707 -0.004446191257867064 0 0.0087641502613512272 -0.0045469309205445566 0 0.0090578547149433707 -0.004446191257867064 0 0.008839901404548876 -0.004314151702200896 0 0.0091862046452427116 -0.0042500728990262178 0 0.008839901404548876 -0.004314151702200896 0 0.0088915272639392175 -0.0040498830558060748 0 0.0091862046452427116 -0.0042500728990262178 0 0.0088915272639392175 -0.0040498830558060748 0 0.0092866123868846837 -0.0040252793203762165 0 0.0088915272639392175 -0.0040498830558060748 0 0.0092866123868846837 -0.0040252793203762165 0 0.0093118078043289039 -0.0037990318299756425 0 0.0088915272639392175 -0.0040498830558060748 0 0.0093118078043289039 -0.0037990318299756425 0 0.0090958022916713174 -0.0036317088985097978 0 0.0084809636331168517 -0.0038605499928927706 0 0.0088915272639392175 -0.0040498830558060748 0 0.0090958022916713174 -0.0036317088985097978 0 0.0095007738602375311 -0.0035613136538389192 0 0.0093118078043289039 -0.0037990318299756425 0 0.0090958022916713174 -0.0036317088985097978 0 0.0095007738602375311 -0.0035613136538389192 0 0.0090958022916713174 -0.0036317088985097978 0 0.0095241588608883099 -0.0032604438937791406 0 0.0090958022916713174 -0.0036317088985097978 0 0.0095241588608883099 -0.0032604438937791406 0 0.0091458687684375095 -0.0032695984876255687 0 0.0090958022916713174 -0.0036317088985097978 0 0.0091458687684375095 -0.0032695984876255687 0 0.0086493287172802139 -0.0034092778977679386 0 0.0091458687684375095 -0.0032695984876255687 0 0.0095472275615855612 -0.0029933792844529191 0 0.0090154091323982766 -0.0028105999513986031 0 0.0091458687684375095 -0.0032695984876255687 0 0.0090154091323982766 -0.0028105999513986031 0 0.0086493287172802139 -0.0034092778977679386 0 0.0095241588608883099 -0.0032604438937791406 0 0.0091458687684375095 -0.0032695984876255687 0 0.0095472275615855612 -0.0029933792844529191 0 0.0095241588608883099 -0.0032604438937791406 0 0.0095472275615855612 -0.0029933792844529191 0 0.0096840165776290749 -0.0030655219716589155 0 0.0095472275615855612 -0.0029933792844529191 0 0.0099271230566516724 -0.0027146715959021754 0 0.0090154091323982766 -0.0028105999513986031 0 0.0099271230566516724 -0.0027146715959021754 0 0.0090154091323982766 -0.0028105999513986031 0 0.0092834029986795241 -0.0019845682782423392 0 0.0099271230566516724 -0.0027146715959021754 0 0.0092834029986795241 -0.0019845682782423392 0 0.010279605323166107 -0.0018585353798377395 0 0.0090154091323982766 -0.0028105999513986031 0 0.0084779426451978696 -0.002068521343734597 0 0.0080294456997232477 -0.0026904506305387515 0 0.0090154091323982766 -0.0028105999513986031 0 0.0092834029986795241 -0.0019845682782423392 0 0.0084779426451978696 -0.002068521343734597 0 0.0090154091323982766 -0.0028105999513986031 0 0.0086493287172802139 -0.0034092778977679386 0 0.0080294456997232477 -0.0026904506305387515 0 0.0077148303607375898 -0.0035495733982336998 0 0.0086493287172802139 -0.0034092778977679386 0 0.0080294456997232477 -0.0026904506305387515 0 0.0077148303607375898 -0.0035495733982336998 0 0.0067082996679314055 -0.0025303440483342141 0 0.0080294456997232477 -0.0026904506305387515 0 0.0066447563858755996 -0.0038368248950405503 0 0.0077148303607375898 -0.0035495733982336998 0 0.0067082996679314055 -0.0025303440483342141 0 0.0067082996679314055 -0.0025303440483342141 0 0.007627102316940082 -0.0016640159035741272 0 0.0065400292408199145 -0.0014712827102062694 0 0.0067082996679314055 -0.0025303440483342141 0 0.0080294456997232477 -0.0026904506305387515 0 0.007627102316940082 -0.0016640159035741272 0 0.0084779426451978696 -0.002068521343734597 0 0.0080294456997232477 -0.0026904506305387515 0 0.007627102316940082 -0.0016640159035741272 0 0.007627102316940082 -0.0016640159035741272 0 0.0065400292408199145 -0.0014712827102062694 0 0.0077157664972280805 -0.00050563632865703275 0 0.007627102316940082 -0.0016640159035741272 0 0.0077157664972280805 -0.00050563632865703275 0 0.0087040466259107763 -0.0011154073829273061 0 0.0065004360363005208 -0.00059385889231339543 0 0.0077157664972280805 -0.00050563632865703275 0 0.0070996782631663341 0.00037170929583407318 0 0.0065400292408199145 -0.0014712827102062694 0 0.0065004360363005208 -0.00059385889231339543 0 0.0077157664972280805 -0.00050563632865703275 0 0.0077157664972280805 -0.00050563632865703275 0 0.0090344511667654389 7.8312670546975779e-05 0 0.0087040466259107763 -0.0011154073829273061 0 0.0090344511667654389 7.8312670546975779e-05 0 0.0099966995848620871 -0.00021986712869955495 0 0.0087040466259107763 -0.0011154073829273061 0 0.0099966995848620871 -0.00021986712869955495 0 0.0098088250117812099 -0.0012287914586032506 0 0.010982065736520509 -0.00095419304191319458 0 0.0099966995848620871 -0.00021986712869955495 0 0.0098088250117812099 -0.0012287914586032506 0 0.0087040466259107763 -0.0011154073829273061 0 0.0092834029986795241 -0.0019845682782423392 0 0.0098088250117812099 -0.0012287914586032506 0 0.0087040466259107763 -0.0011154073829273061 0 0.0092834029986795241 -0.0019845682782423392 0 0.0098088250117812099 -0.0012287914586032506 0 0.010279605323166107 -0.0018585353798377395 0 0.0092834029986795241 -0.0019845682782423392 0 0.0084779426451978696 -0.002068521343734597 0 0.0087040466259107763 -0.0011154073829273061 0 0.0084779426451978696 -0.002068521343734597 0 0.007627102316940082 -0.0016640159035741272 0 0.0087040466259107763 -0.0011154073829273061 0 0.0046125125470562241 -0.0021302816641501805 0 0.0045126429714709496 -0.0024128561985184769 0 0.0044723642688143366 -0.0022514680835654774 0 0.0046125125470562241 -0.0021302816641501805 0 0.0045126429714709496 -0.0024128561985184769 0 0.0047598623966462056 -0.0023078316759994688 0 0.0044420507016029037 -0.0026149010499135245 0 0.0045126429714709496 -0.0024128561985184769 0 0.0044673405103189453 -0.0024266840203049497 0 0.0044420507016029037 -0.0026149010499135245 0 0.0045126429714709496 -0.0024128561985184769 0 0.0045512453365974676 -0.0026501257884956652 0 0.0045512453365974676 -0.0026501257884956652 0 0.0047598623966462056 -0.0023078316759994688 0 0.0050056610379356631 -0.0027372118195260076 0 0.0045126429714709496 -0.0024128561985184769 0 0.0045512453365974676 -0.0026501257884956652 0 0.0047598623966462056 -0.0023078316759994688 0 0.0046125125470562241 -0.0021302816641501805 0 0.0047598623966462056 -0.0023078316759994688 0 0.0048857013944905827 -0.0017314532782858451 0 0.0047598623966462056 -0.0023078316759994688 0 0.005466915837139639 -0.0019721231172667233 0 0.0048857013944905827 -0.0017314532782858451 0 0.0047598623966462056 -0.0023078316759994688 0 0.0050056610379356631 -0.0027372118195260076 0 0.005466915837139639 -0.0019721231172667233 0 0.0066447563858755996 -0.0038368248950405503 0 0.0067082996679314055 -0.0025303440483342141 0 0.0050056610379356631 -0.0027372118195260076 0 0.0058286666798983413 -0.003236749186283814 0 0.0050398910937207121 -0.0027699878839530369 0 0.0067082996679314055 -0.0025303440483342141 0 0.0065400292408199145 -0.0014712827102062694 0 0.005466915837139639 -0.0019721231172667233 0 0.0067082996679314055 -0.0025303440483342141 0 0.0050056610379356631 -0.0027372118195260076 0 0.005466915837139639 -0.0019721231172667233 0 0.0065400292408199145 -0.0014712827102062694 0 0.005466915837139639 -0.0019721231172667233 0 0.005644787455756215 -0.0012145152731086826 0 0.0065400292408199145 -0.0014712827102062694 0 0.0065004360363005208 -0.00059385889231339543 0 0.005644787455756215 -0.0012145152731086826 0 0.0065004360363005208 -0.00059385889231339543 0 0.005644787455756215 -0.0012145152731086826 0 0.0058938571558378641 -0.00021473360639200716 0 0.005644787455756215 -0.0012145152731086826 0 0.0051684222398317263 -0.001171112006052899 0 0.0058938571558378641 -0.00021473360639200716 0 0.005644787455756215 -0.0012145152731086826 0 0.0051684222398317263 -0.001171112006052899 0 0.0048857013944905827 -0.0017314532782858451 0 0.005466915837139639 -0.0019721231172667233 0 0.005644787455756215 -0.0012145152731086826 0 0.0048857013944905827 -0.0017314532782858451 0 0.0051684222398317263 -0.001171112006052899 0 0.0048857013944905827 -0.0017314532782858451 0 0.0048113245275762731 -0.0013821044056340562 0 0.0048113245275762731 -0.0013821044056340562 0 0.0045978432781307978 -0.0012343289159651367 0 0.0050848425008240914 -0.00076379749893012809 0 0.0051684222398317263 -0.001171112006052899 0 0.0048113245275762731 -0.0013821044056340562 0 0.0050848425008240914 -0.00076379749893012809 0 0.0048113245275762731 -0.0013821044056340562 0 0.0045496188731732196 -0.001524921082400264 0 0.0045702923780242717 -0.0018563996687025526 0 0.0048113245275762731 -0.0013821044056340562 0 0.0045978432781307978 -0.0012343289159651367 0 0.0045496188731732196 -0.001524921082400264 0 0.0045978432781307978 -0.0012343289159651367 0 0.0045496188731732196 -0.001524921082400264 0 0.0044913124113126644 -0.001172584677108885 0 0.0091084269891993745 -0.0013569467589261577 0 0.012901238636081896 -0.0033874649878839328 0 0.0046125125470562241 -0.0021302816641501805 0 0.0048857013944905827 -0.0017314532782858451 0 0.0045702923780242717 -0.0018563996687025526 0 0.0048857013944905827 -0.0017314532782858451 0 0.0048113245275762731 -0.0013821044056340562 0 0.0045702923780242717 -0.0018563996687025526 0 0.0046125125470562241 -0.0021302816641501805 0 0.0045702923780242717 -0.0018563996687025526 0 0.0044723642688143366 -0.0022514680835654774 0 0.036147354584492329 -0.0084962475088213533 0 0.0299358077186586 -0.0088869080435348743 0 0.034800149479386394 -0.0086960579792279644 0 0.033550742081627755 -0.010826661892178822 0 0.036044206660973549 -0.0090978819185177917 0 0.034800149479386394 -0.0086960579792279644 0 0.033550742081627755 -0.010826661892178822 0 0.031995035948263008 -0.011366402790251485 0 0.0045978432781307978 -0.0012343289159651367 0 0.0045626029271902836 -0.0011494817775560703 0 0.0050848425008240914 -0.00076379749893012809 0 0.033550742081627755 -0.010826661892178822 0 0.03360901520011348 -0.012179287978102362 0 0.036044206660973549 -0.0090978819185177917 0 0.016702256418457139 -0.0034942234455305459 0 0.03043190707303399 -0.0058397180227768176 0 0.016702256418457139 -0.0034942234455305459 0 0.012615310090205702 -0.0012678875951051473 0 0.033550742081627755 -0.010826661892178822 0 0.03360901520011348 -0.012179287978102362 0 0.033190503604536785 -0.012224270828898241 0 0.0045978432781307978 -0.0012343289159651367 0 0.0045481041438772737 -0.0011817588808626352 0 0.0045626029271902836 -0.0011494817775560703 0 0.014262218049797496 -0.0052753800121418054 0 0.014579843900748291 -0.0048233506463684671 0 0.013754043579282839 -0.0049128517107992547 0 0.012901238636081896 -0.0033874649878839328 0 0.01697092680463989 -0.0048815139918982316 0 0.012901238636081896 -0.0033874649878839328 0 0.016702256418457139 -0.0034942234455305459 0 0.016702256418457139 -0.0034942234455305459 0 0.01697092680463989 -0.0048815139918982316 0 0.021586111672620235 -0.0021367408786487985 0 0.021608899040261295 -0.0020869244139334526 0 0.02169043980202957 -0.0021506554919059478 0 0.021608899040261295 -0.0020869244139334526 0 0.02169043980202957 -0.0021506554919059478 0 0.021631211033171571 -0.0021659273917019688 0 0.0051684222398317263 -0.001171112006052899 0 0.0050848425008240914 -0.00076379749893012809 0 0.0058938571558378641 -0.00021473360639200716 0 0.012615310090205702 -0.0012678875951051473 0 0.013872858950484318 -0.0011069226070289258 0 0.021608899040261295 -0.0020869244139334526 0 0.021631211033171571 -0.0021659273917019688 0 0.02151537336644856 -0.001994230169764309 0 0.02151537336644856 -0.001994230169764309 0 0.021515097347967416 -0.0021941811647987822 0 0.021379384924643679 -0.0020425059474563131 0 0.021631211033171571 -0.0021659273917019688 0 0.02151537336644856 -0.001994230169764309 0 0.021515097347967416 -0.0021941811647987822 0 0.021631211033171571 -0.0021659273917019688 0 0.021515097347967416 -0.0021941811647987822 0 0.021627674205807083 -0.0023317670538471657 0 0.021627674205807083 -0.0023317670538471657 0 0.021692499331226155 -0.0024482085444329608 0 0.021659549121815745 -0.0023176710094175343 0 0.021627674205807083 -0.0023317670538471657 0 0.021708767611231573 -0.0022947401080727508 0 0.021659549121815745 -0.0023176710094175343 0 0.038179394815136991 -0.0066249187479822738 0 0.037913566693380765 -0.0056314962657748107 0 0.039157157345063337 -0.0051276911589117928 0 0.029766030340778821 -0.0044550365387504383 0 0.029910539154984268 -0.0037549225987638536 0 0.021631211033171571 -0.0021659273917019688 0 0.021627674205807083 -0.0023317670538471657 0 0.021708767611231573 -0.0022947401080727508 0 0.034800149479386394 -0.0086960579792279644 0 0.036044206660973549 -0.0090978819185177917 0 0.03749610014698964 -0.0066279193573413019 0 0.03043190707303399 -0.0058397180227768176 0 0.029766030340778821 -0.0044550365387504383 0 0.03642937756243643 -0.008071160214003073 0 0.036930704507720638 -0.0068624225430311348 0 0.03749610014698964 -0.0066279193573413019 0 0.036044206660973549 -0.0090978819185177917 0 0.038179394815136991 -0.0066249187479822738 0 0.03749610014698964 -0.0066279193573413019 0 0.036147354584492329 -0.0084962475088213533 0 0.037186302726032003 -0.00674885180907014 0 0.02169043980202957 -0.0021506554919059478 0 0.021631211033171571 -0.0021659273917019688 0 0.021708767611231573 -0.0022947401080727508 0 0.038179394815136991 -0.0066249187479822738 0 0.037483624351491697 -0.0061775991273302199 0 0.03749610014698964 -0.0066279193573413019 0 0.038179394815136991 -0.0066249187479822738 0 0.037483624351491697 -0.0061775991273302199 0 0.037913566693380765 -0.0056314962657748107 0 0.037483624351491697 -0.0061775991273302199 0 0.037913566693380765 -0.0056314962657748107 0 0.037024246128154796 -0.0057330303154201892 0 0.037483624351491697 -0.0061775991273302199 0 0.037024246128154796 -0.0057330303154201892 0 0.036998229845619915 -0.0063071287008021927 0 0.037483624351491697 -0.0061775991273302199 0 0.03749610014698964 -0.0066279193573413019 0 0.036998229845619915 -0.0063071287008021927 0 0.036930704507720638 -0.0068624225430311348 0 0.03749610014698964 -0.0066279193573413019 0 0.036998229845619915 -0.0063071287008021927 0 0.036930704507720638 -0.0068624225430311348 0 0.036998229845619915 -0.0063071287008021927 0 0.036486192377015385 -0.0064877325112342428 0 0.036998229845619915 -0.0063071287008021927 0 0.036486192377015385 -0.0064877325112342428 0 0.036468803241105179 -0.0059652714438524698 0 0.037024246128154796 -0.0057330303154201892 0 0.036998229845619915 -0.0063071287008021927 0 0.036468803241105179 -0.0059652714438524698 0 0.037024246128154796 -0.0057330303154201892 0 0.036468803241105179 -0.0059652714438524698 0 0.036207462008187592 -0.0053963218777868362 0 0.036468803241105179 -0.0059652714438524698 0 0.035880850573185255 -0.0062570893003249198 0 0.036207462008187592 -0.0053963218777868362 0 0.036486192377015385 -0.0064877325112342428 0 0.035880850573185255 -0.0062570893003249198 0 0.035747137335265231 -0.0071083430626152347 0 0.036486192377015385 -0.0064877325112342428 0 0.036468803241105179 -0.0059652714438524698 0 0.035880850573185255 -0.0062570893003249198 0 0.036545817687611719 -0.0070818078897876271 0 0.036098913525432999 -0.0075229588673518723 0 0.035747137335265231 -0.0071083430626152347 0 0.03642937756243643 -0.008071160214003073 0 0.036930704507720638 -0.0068624225430311348 0 0.036545817687611719 -0.0070818078897876271 0 0.036486192377015385 -0.0064877325112342428 0 0.036545817687611719 -0.0070818078897876271 0 0.035747137335265231 -0.0071083430626152347 0 0.036930704507720638 -0.0068624225430311348 0 0.036486192377015385 -0.0064877325112342428 0 0.036545817687611719 -0.0070818078897876271 0 0.03642937756243643 -0.008071160214003073 0 0.036545817687611719 -0.0070818078897876271 0 0.036098913525432999 -0.0075229588673518723 0 0.036098913525432999 -0.0075229588673518723 0 0.035660128957485764 -0.0078477820329314191 0 0.035747137335265231 -0.0071083430626152347 0 0.03642937756243643 -0.008071160214003073 0 0.036098913525432999 -0.0075229588673518723 0 0.035660128957485764 -0.0078477820329314191 0 0.020594306545138639 -0.0021754073699831412 0 0.020730842662880705 -0.0017138914008699873 0 0.021092772819325964 -0.0020274384018841461 0 0.020943267639633556 -0.00045457675857976562 0 0.020283720103737881 6.4647443408562749e-05 0 0.020216972982130581 -0.00087727750940765049 0 0.020594306545138639 -0.0021754073699831412 0 0.01995766659320718 -0.0017280259755520664 0 0.020730842662880705 -0.0017138914008699873 0 0.021354363047560162 -0.001572742107908483 0 0.016371942470597756 -0.00022250662897730703 0 0.0090344511667654389 7.8312670546975779e-05 0 0.01032810323265425 0.0013936116988095067 0 0.0085803828975677607 0.00090895790222294539 0 0.0090344511667654389 7.8312670546975779e-05 0 0.0099966995848620871 -0.00021986712869955495 0 0.01032810323265425 0.0013936116988095067 0 0.016371942470597756 -0.00022250662897730703 0 0.014415224827129374 -0.00041904513620312424 0 0.0077157664972280805 -0.00050563632865703275 0 0.0090344511667654389 7.8312670546975779e-05 0 0.0085803828975677607 0.00090895790222294539 0 0.020730842662880705 -0.0017138914008699873 0 0.021270821760289171 -0.0018479291533313091 0 0.021092772819325964 -0.0020274384018841461 0 0.0077157664972280805 -0.00050563632865703275 0 0.0085803828975677607 0.00090895790222294539 0 0.0070996782631663341 0.00037170929583407318 0 0.014415224827129374 -0.00041904513620312424 0 0.014217720647024212 -0.0007366478807874935 0 0.02151537336644856 -0.001994230169764309 0 0.021270821760289171 -0.0018479291533313091 0 0.021379384924643679 -0.0020425059474563131 0 0.013872858950484318 -0.0011069226070289258 0 0.014217720647024212 -0.0007366478807874935 0 0.0065004360363005208 -0.00059385889231339543 0 0.0058938571558378641 -0.00021473360639200716 0 0.0070996782631663341 0.00037170929583407318 0 0.021379384924643679 -0.0020425059474563131 0 0.021092772819325964 -0.0020274384018841461 0 0.02134530663968183 -0.0022082481025422337 0 0.021270821760289171 -0.0018479291533313091 0 0.021379384924643679 -0.0020425059474563131 0 0.021092772819325964 -0.0020274384018841461 0 0.021515097347967416 -0.0021941811647987822 0 0.021379384924643679 -0.0020425059474563131 0 0.02134530663968183 -0.0022082481025422337 0 0.020594306545138639 -0.0021754073699831412 0 0.021092772819325964 -0.0020274384018841461 0 0.021117517327348238 -0.0022546497234161005 0 0.020594306545138639 -0.0021754073699831412 0 0.021117517327348238 -0.0022546497234161005 0 0.021146894062466524 -0.0024216368423160806 0 0.021092772819325964 -0.0020274384018841461 0 0.021117517327348238 -0.0022546497234161005 0 0.02134530663968183 -0.0022082481025422337 0 0.021117517327348238 -0.0022546497234161005 0 0.021294249024208425 -0.0023008130840130249 0 0.02134530663968183 -0.0022082481025422337 0 0.021294249024208425 -0.0023008130840130249 0 0.021146894062466524 -0.0024216368423160806 0 0.021482937008950626 -0.0023608837885185181 0 0.021117517327348238 -0.0022546497234161005 0 0.021294249024208425 -0.0023008130840130249 0 0.021146894062466524 -0.0024216368423160806 0 0.021515097347967416 -0.0021941811647987822 0 0.021627674205807083 -0.0023317670538471657 0 0.021482937008950626 -0.0023608837885185181 0 0.021515097347967416 -0.0021941811647987822 0 0.02134530663968183 -0.0022082481025422337 0 0.021482937008950626 -0.0023608837885185181 0 0.021294249024208425 -0.0023008130840130249 0 0.02134530663968183 -0.0022082481025422337 0 0.021482937008950626 -0.0023608837885185181 0 0.021146894062466524 -0.0024216368423160806 0 0.021482937008950626 -0.0023608837885185181 0 0.021692499331226155 -0.0024482085444329608 0 0.021627674205807083 -0.0023317670538471657 0 0.021482937008950626 -0.0023608837885185181 0 0.021692499331226155 -0.0024482085444329608 0 0.021597744190521927 -0.0017206467362508057 0 0.021779103751421138 -0.0026854490600812515 0 0.022144033087965649 -0.002837622236681494 0 0.021692499331226155 -0.0024482085444329608 0 0.022091494994489837 -0.0023763558469822319 0 0.022144033087965649 -0.002837622236681494 0 0.022488970010599962 -0.0025151635367836869 0 0.022091494994489837 -0.0023763558469822319 0 0.021559139641392434 -0.00095950423142097615 0 0.021093194135032755 -0.0013948044243691702 0 0.020888066311304476 -0.00099445450894400465 0 0.021093194135032755 -0.0013948044243691702 0 0.020888066311304476 -0.00099445450894400465 0 0.020627712481906025 -0.0013569530448687974 0 0.021597744190521927 -0.0017206467362508057 0 0.021331512262056335 -0.0022651956900561665 0 0.020943267639633556 -0.00045457675857976562 0 0.021559139641392434 -0.00095950423142097615 0 0.020888066311304476 -0.00099445450894400465 0 0.021354363047560162 -0.001572742107908483 0 0.021597744190521927 -0.0017206467362508057 0 0.020943267639633556 -0.00045457675857976562 0 0.020888066311304476 -0.00099445450894400465 0 0.020216972982130581 -0.00087727750940765049 0 0.020888066311304476 -0.00099445450894400465 0 0.020627712481906025 -0.0013569530448687974 0 0.020216972982130581 -0.00087727750940765049 0 0.020627712481906025 -0.0013569530448687974 0 0.020263401928857783 -0.0013170563006737279 0 0.020216972982130581 -0.00087727750940765049 0 0.020627712481906025 -0.0013569530448687974 0 0.020263401928857783 -0.0013170563006737279 0 0.020322663871418914 -0.0016663165926721559 0 0.020263401928857783 -0.0013170563006737279 0 0.01988502049278551 -0.0013317195881591166 0 0.020322663871418914 -0.0016663165926721559 0 0.020263401928857783 -0.0013170563006737279 0 0.01988502049278551 -0.0013317195881591166 0 0.020216972982130581 -0.00087727750940765049 0 0.01934285801250183 -0.0010691419586512014 0 0.019078477249906221 -0.0014352998517444858 0 0.019586019852563353 -0.0017193447965895921 0 0.01988502049278551 -0.0013317195881591166 0 0.01934285801250183 -0.0010691419586512014 0 0.019586019852563353 -0.0017193447965895921 0 0.01988502049278551 -0.0013317195881591166 0 0.01934285801250183 -0.0010691419586512014 0 0.019657312659980733 -0.00058117226644913177 0 0.01934285801250183 -0.0010691419586512014 0 0.019657312659980733 -0.00058117226644913177 0 0.019010819448536082 -0.00059311356964984524 0 0.01988502049278551 -0.0013317195881591166 0 0.019657312659980733 -0.00058117226644913177 0 0.020216972982130581 -0.00087727750940765049 0 0.020283720103737881 6.4647443408562749e-05 0 0.019657312659980733 -0.00058117226644913177 0 0.020216972982130581 -0.00087727750940765049 0 0.020283720103737881 6.4647443408562749e-05 0 0.019657312659980733 -0.00058117226644913177 0 0.019336617511728774 -3.7937257381792839e-05 0 0.016371942470597756 -0.00022250662897730703 0 0.018488723339923123 -0.00025174576490384745 0 0.019657312659980733 -0.00058117226644913177 0 0.019336617511728774 -3.7937257381792839e-05 0 0.019010819448536082 -0.00059311356964984524 0 0.016853228185498552 -0.00045850957259072181 0 0.017596331170169739 -0.0011216128457683403 0 0.016633997028799696 -0.001266136914861486 0 0.016371942470597756 -0.00022250662897730703 0 0.013767935969216919 -0.0001660751825709975 0 0.01577838124789761 -0.00056065074198108388 0 0.016853228185498552 -0.00045850957259072181 0 0.016633997028799696 -0.001266136914861486 0 0.0099966995848620871 -0.00021986712869955495 0 0.01032810323265425 0.0013936116988095067 0 0.012151929299302269 0.00041994434608297565 0 0.017596331170169739 -0.0011216128457683403 0 0.018226576608853677 -0.00041640114867010048 0 0.018314247256582487 -0.0008999403850380313 0 0.016853228185498552 -0.00045850957259072181 0 0.017596331170169739 -0.0011216128457683403 0 0.018226576608853677 -0.00041640114867010048 0 0.018488723339923123 -0.00025174576490384745 0 0.01806231581397828 -0.00039112187742835547 0 0.019336617511728774 -3.7937257381792839e-05 0 0.018226576608853677 -0.00041640114867010048 0 0.019010819448536082 -0.00059311356964984524 0 0.018226576608853677 -0.00041640114867010048 0 0.018395818209727549 -0.00049170749462322581 0 0.018314247256582487 -0.0008999403850380313 0 0.018226576608853677 -0.00041640114867010048 0 0.018597371122413102 -0.00079411021234430154 0 0.018395818209727549 -0.00049170749462322581 0 0.018597371122413102 -0.00079411021234430154 0 0.018347468476004065 -0.0007438084368107565 0 0.018395818209727549 -0.00049170749462322581 0 0.01934285801250183 -0.0010691419586512014 0 0.018597371122413102 -0.00079411021234430154 0 0.019010819448536082 -0.00059311356964984524 0 0.018226576608853677 -0.00041640114867010048 0 0.018597371122413102 -0.00079411021234430154 0 0.019010819448536082 -0.00059311356964984524 0 0.018597371122413102 -0.00079411021234430154 0 0.019078477249906221 -0.0014352998517444858 0 0.018559977599771002 -0.0014402133064513791 0 0.01934285801250183 -0.0010691419586512014 0 0.018597371122413102 -0.00079411021234430154 0 0.019078477249906221 -0.0014352998517444858 0 0.02473392431747181 -0.0015412577940868177 0 0.024984345721940956 -0.0020439111158938521 0 0.018597371122413102 -0.00079411021234430154 0 0.018347468476004065 -0.0007438084368107565 0 0.018559977599771002 -0.0014402133064513791 0 0.031232128697420106 -0.0024556207821186098 0 0.03123282434445819 -0.002450376799607629 0 0.031130826121353979 -0.0024555232109428724 0 0.031232128697420106 -0.0024556207821186098 0 0.031286364750883491 -0.0025070328028445324 0 0.031242268484697962 -0.0024100275071306876 0 0.031232128697420106 -0.0024556207821186098 0 0.031286364750883491 -0.0025070328028445324 0 0.03123282434445819 -0.002450376799607629 0 0.031232128697420106 -0.0024556207821186098 0 0.031242268484697962 -0.0024100275071306876 0 0.03125781249758567 -0.0023059570197314708 0 0.02473392431747181 -0.0015412577940868177 0 0.025327889855371127 -0.001568051335245209 0 0.031236041696368049 -0.0025625027005273708 0 0.031206606369876953 -0.0024784583442962441 0 0.031111598579902852 -0.002529053621983861 0 0.031159659431845687 -0.0026117218048101287 0 0.031236041696368049 -0.0025625027005273708 0 0.031214050521359112 -0.0026750549003307267 0 0.031159659431845687 -0.0026117218048101287 0 0.031236041696368049 -0.0025625027005273708 0 0.031111598579902852 -0.002529053621983861 0 0.031236041696368049 -0.0025625027005273708 0 0.031206606369876953 -0.0024784583442962441 0 0.031286364750883491 -0.0025070328028445324 0 0.031206606369876953 -0.0024784583442962441 0 0.031286364750883491 -0.0025070328028445324 0 0.031242268484697962 -0.0024100275071306876 0 0.031236041696368049 -0.0025625027005273708 0 0.031286364750883491 -0.0025070328028445324 0 0.031329762301709689 -0.0025635224449195985 0 0.031206606369876953 -0.0024784583442962441 0 0.031242268484697962 -0.0024100275071306876 0 0.031152809643091677 -0.0023571533371227744 0 0.031242268484697962 -0.0024100275071306876 0 0.031152809643091677 -0.0023571533371227744 0 0.031179724954256239 -0.0022700967577637078 0 0.031206606369876953 -0.0024784583442962441 0 0.031152809643091677 -0.0023571533371227744 0 0.031091689987505691 -0.0024180994915312245 0 0.031152809643091677 -0.0023571533371227744 0 0.031091689987505691 -0.0024180994915312245 0 0.031046606825786985 -0.0023049631814075489 0 0.031206606369876953 -0.0024784583442962441 0 0.031091689987505691 -0.0024180994915312245 0 0.031111598579902852 -0.002529053621983861 0 0.031097226852147261 -0.002236410074065321 0 0.031045348564319133 -0.0020957871999956208 0 0.030994734407145428 -0.0021847090295598042 0 0.031046606825786985 -0.0023049631814075489 0 0.031097226852147261 -0.002236410074065321 0 0.030994734407145428 -0.0021847090295598042 0 0.031152809643091677 -0.0023571533371227744 0 0.031046606825786985 -0.0023049631814075489 0 0.031097226852147261 -0.002236410074065321 0 0.031152809643091677 -0.0023571533371227744 0 0.031097226852147261 -0.002236410074065321 0 0.031179724954256239 -0.0022700967577637078 0 0.031179724954256239 -0.0022700967577637078 0 0.031169080391369678 -0.0020664289796071744 0 0.03125781249758567 -0.0023059570197314708 0 0.031242268484697962 -0.0024100275071306876 0 0.031179724954256239 -0.0022700967577637078 0 0.03125781249758567 -0.0023059570197314708 0 0.031097226852147261 -0.002236410074065321 0 0.031179724954256239 -0.0022700967577637078 0 0.031123616079327121 -0.0021659217667302682 0 0.031179724954256239 -0.0022700967577637078 0 0.031169080391369678 -0.0020664289796071744 0 0.031123616079327121 -0.0021659217667302682 0 0.031169080391369678 -0.0020664289796071744 0 0.031123616079327121 -0.0021659217667302682 0 0.031045348564319133 -0.0020957871999956208 0 0.019717703184732229 -0.00078279966591621793 0 0.019197552305669243 -0.00077652104944087713 0 0.019378020831391451 -0.0010189806105168097 0 0.023336875098245693 -0.0011453409369280541 0 0.019475769733451578 -0.00036828753758003091 0 0.031169080391369678 -0.0020664289796071744 0 0.031045348564319133 -0.0020957871999956208 0 0.03092435092801555 -0.0018802592635158073 0 0.031097226852147261 -0.002236410074065321 0 0.031123616079327121 -0.0021659217667302682 0 0.031045348564319133 -0.0020957871999956208 0 0.031045348564319133 -0.0020957871999956208 0 0.03092435092801555 -0.0018802592635158073 0 0.030938353460300383 -0.0020672207486465456 0 0.031045348564319133 -0.0020957871999956208 0 0.030994734407145428 -0.0021847090295598042 0 0.030938353460300383 -0.0020672207486465456 0 0.018395818209727549 -0.00049170749462322581 0 0.018734371303151545 -0.00044670010216912886 0 0.018687312481136847 -0.00070101312954006173 0 0.018347468476004065 -0.0007438084368107565 0 0.018395818209727549 -0.00049170749462322581 0 0.018734371303151545 -0.00044670010216912886 0 0.023336875098245693 -0.0011453409369280541 0 0.025327889855371127 -0.001568051335245209 0 0.019525117847367775 -0.00081006027359420082 0 0.018734371303151545 -0.00044670010216912886 0 0.019197552305669243 -0.00077652104944087713 0 0.018734371303151545 -0.00044670010216912886 0 0.018687312481136847 -0.00070101312954006173 0 0.019197552305669243 -0.00077652104944087713 0 0.019197552305669243 -0.00077652104944087713 0 0.018894665700131052 -0.0010325115952576067 0 0.019378020831391451 -0.0010189806105168097 0 0.018687312481136847 -0.00070101312954006173 0 0.019197552305669243 -0.00077652104944087713 0 0.018894665700131052 -0.0010325115952576067 0 0.018687312481136847 -0.00070101312954006173 0 0.018894665700131052 -0.0010325115952576067 0 0.018314247256582487 -0.0008999403850380313 0 0.018395818209727549 -0.00049170749462322581 0 0.018687312481136847 -0.00070101312954006173 0 0.018314247256582487 -0.0008999403850380313 0 0.018314247256582487 -0.0008999403850380313 0 0.018559620497372531 -0.0016799497274486183 0 0.017869269074232527 -0.0015248161868021328 0 0.018894665700131052 -0.0010325115952576067 0 0.018314247256582487 -0.0008999403850380313 0 0.018559620497372531 -0.0016799497274486183 0 0.018894665700131052 -0.0010325115952576067 0 0.018559620497372531 -0.0016799497274486183 0 0.019316780344544097 -0.0013450415158193253 0 0.018894665700131052 -0.0010325115952576067 0 0.019378020831391451 -0.0010189806105168097 0 0.019316780344544097 -0.0013450415158193253 0 0.018559620497372531 -0.0016799497274486183 0 0.019316780344544097 -0.0013450415158193253 0 0.019366837390813907 -0.0018037477554757673 0 0.018559620497372531 -0.0016799497274486183 0 0.019405195702709079 -0.0025367528646927087 0 0.018643118726741029 -0.003227062210795249 0 0.018559620497372531 -0.0016799497274486183 0 0.019366837390813907 -0.0018037477554757673 0 0.019405195702709079 -0.0025367528646927087 0 0.018559620497372531 -0.0016799497274486183 0 0.017494296570475805 -0.0028057568171282817 0 0.017869269074232527 -0.0015248161868021328 0 0.018559620497372531 -0.0016799497274486183 0 0.017494296570475805 -0.0028057568171282817 0 0.018643118726741029 -0.003227062210795249 0 0.023336875098245693 -0.0011453409369280541 0 0.026874653818888258 -0.00098387997578148491 0 0.020056340923918989 0.00041329006697838147 0 0.020879700513473827 -0.00068628815424214115 0 0.021817537404939573 -7.2954185891347027e-05 0 0.020879700513473827 -0.00068628815424214115 0 0.021817537404939573 -7.2954185891347027e-05 0 0.021798106828909179 -0.0010428494109568965 0 0.019717703184732229 -0.00078279966591621793 0 0.020633323057991371 -0.0014676923626537072 0 0.01983043727171975 -0.0012228812528196548 0 0.023336875098245693 -0.0011453409369280541 0 0.020264717348177426 -0.00074180157043629092 0 0.020633323057991371 -0.0014676923626537072 0 0.02005340015154914 -0.0015241336650128664 0 0.01983043727171975 -0.0012228812528196548 0 0.019717703184732229 -0.00078279966591621793 0 0.019378020831391451 -0.0010189806105168097 0 0.01983043727171975 -0.0012228812528196548 0 0.019378020831391451 -0.0010189806105168097 0 0.019316780344544097 -0.0013450415158193253 0 0.01983043727171975 -0.0012228812528196548 0 0.019316780344544097 -0.0013450415158193253 0 0.019366837390813907 -0.0018037477554757673 0 0.02005340015154914 -0.0015241336650128664 0 0.019316780344544097 -0.0013450415158193253 0 0.02005340015154914 -0.0015241336650128664 0 0.01983043727171975 -0.0012228812528196548 0 0.019366837390813907 -0.0018037477554757673 0 0.019405195702709079 -0.0025367528646927087 0 0.02005340015154914 -0.0015241336650128664 0 0.02005340015154914 -0.0015241336650128664 0 0.020846752745293719 -0.0020423531963763017 0 0.020427321056223559 -0.0026580774557414776 0 0.020100673594100768 -0.0016099412252631219 0 0.0204508891434231 -0.0028704209538564411 0 0.019405195702709079 -0.0025367528646927087 0 0.02005340015154914 -0.0015241336650128664 0 0.020529607212652113 -0.0031398804872504516 0 0.020264717348177426 -0.00074180157043629092 0 0.021835761356484372 -0.0022884417255072068 0 0.020633323057991371 -0.0014676923626537072 0 0.020846752745293719 -0.0020423531963763017 0 0.021717005150559278 -0.0021502517073604282 0 0.020879700513473827 -0.00068628815424214115 0 0.021717005150559278 -0.0021502517073604282 0 0.021798106828909179 -0.0010428494109568965 0 0.020633323057991371 -0.0014676923626537072 0 0.02005340015154914 -0.0015241336650128664 0 0.020846752745293719 -0.0020423531963763017 0 0.020846752745293719 -0.0020423531963763017 0 0.020427321056223559 -0.0026580774557414776 0 0.021717005150559278 -0.0021502517073604282 0 0.020427321056223559 -0.0026580774557414776 0 0.021717005150559278 -0.0021502517073604282 0 0.021696595882276071 -0.0034242351274107003 0 0.019405195702709079 -0.0025367528646927087 0 0.020529607212652113 -0.0031398804872504516 0 0.019694385753025151 -0.0039486862834826634 0 0.020931985264729686 -0.0049338788991538114 0 0.020529607212652113 -0.0031398804872504516 0 0.019694385753025151 -0.0039486862834826634 0 0.019746973239155165 -0.0053874340328993516 0 0.020931985264729686 -0.0049338788991538114 0 0.019694385753025151 -0.0039486862834826634 0 0.020775395112849454 -0.0044045802957702962 0 0.02209837300789488 -0.0046830413940267927 0 0.021696595882276071 -0.0034242351274107003 0 0.020775395112849454 -0.0044045802957702962 0 0.020427321056223559 -0.0026580774557414776 0 0.021696595882276071 -0.0034242351274107003 0 0.02092798853930361 -0.0047815398139580368 0 0.0204508891434231 -0.0028704209538564411 0 0.017494296570475805 -0.0028057568171282817 0 0.018643118726741029 -0.003227062210795249 0 0.017866509978944931 -0.0044724059239819834 0 0.019405195702709079 -0.0025367528646927087 0 0.019694385753025151 -0.0039486862834826634 0 0.018643118726741029 -0.003227062210795249 0 0.018643118726741029 -0.003227062210795249 0 0.018987828471130036 -0.0045657829596440274 0 0.017866509978944931 -0.0044724059239819834 0 0.019746973239155165 -0.0053874340328993516 0 0.019694385753025151 -0.0039486862834826634 0 0.018987828471130036 -0.0045657829596440274 0 0.019694385753025151 -0.0039486862834826634 0 0.018643118726741029 -0.003227062210795249 0 0.018987828471130036 -0.0045657829596440274 0 0.018575764747073353 -0.0053800443706856814 0 0.018987828471130036 -0.0045657829596440274 0 0.017866509978944931 -0.0044724059239819834 0 0.017494296570475805 -0.0028057568171282817 0 0.017866509978944931 -0.0044724059239819834 0 0.016261786537313187 -0.0046901775982045989 0 0.017110336597658964 -0.0058779109934361451 0 0.017866509978944931 -0.0044724059239819834 0 0.016261786537313187 -0.0046901775982045989 0 0.016261786537313187 -0.0046901775982045989 0 0.015365606325684508 -0.0033196777458828343 0 0.015135730394585777 -0.004232067726056288 0 0.017494296570475805 -0.0028057568171282817 0 0.016261786537313187 -0.0046901775982045989 0 0.015365606325684508 -0.0033196777458828343 0 0.017494296570475805 -0.0028057568171282817 0 0.015365606325684508 -0.0033196777458828343 0 0.014679841307767999 -0.00086151166627831651 0 0.013955737385141607 -0.0027914800433236488 0 0.015365606325684508 -0.0033196777458828343 0 0.014679841307767999 -0.00086151166627831651 0 0.013955737385141607 -0.0027914800433236488 0 0.015365606325684508 -0.0033196777458828343 0 0.014458140689662601 -0.0038803398251774038 0 0.013955737385141607 -0.0027914800433236488 0 0.014458140689662601 -0.0038803398251774038 0 0.013217082917067375 -0.0037433014355030781 0 0.016261786537313187 -0.0046901775982045989 0 0.015135730394585777 -0.004232067726056288 0 0.014422160344767079 -0.0050472205851836436 0 0.014458140689662601 -0.0038803398251774038 0 0.014422160344767079 -0.0050472205851836436 0 0.013217082917067375 -0.0037433014355030781 0 0.015365606325684508 -0.0033196777458828343 0 0.014458140689662601 -0.0038803398251774038 0 0.015135730394585777 -0.004232067726056288 0 0.014458140689662601 -0.0038803398251774038 0 0.015135730394585777 -0.004232067726056288 0 0.014422160344767079 -0.0050472205851836436 0 0.014422160344767079 -0.0050472205851836436 0 0.011372818037261704 -0.0036833170678425881 0 0.013217082917067375 -0.0037433014355030781 0 0.010356002563099593 -0.003524924920910662 0 0.010037123248309203 -0.0032552277276982904 0 0.0099011693609053295 -0.0029686179461147653 0 0.011057959882522927 -0.0042810542573803682 0 0.011140906715780389 -0.0042244820829833241 0 0.010842052769841945 -0.0040587420008951578 0 0.010641392227399229 -0.0038719651199702913 0 0.010732483270446951 -0.0035632818871771908 0 0.012859163259459598 -0.0046768296991943721 0 0.010732483270446951 -0.0035632818871771908 0 0.010094591254386215 -0.0034888710283764593 0 0.010356002563099593 -0.003524924920910662 0 0.010072852955926892 -0.0033805344194460137 0 0.010356002563099593 -0.003524924920910662 0 0.010072852955926892 -0.0033805344194460137 0 0.010037123248309203 -0.0032552277276982904 0 0.010094591254386215 -0.0034888710283764593 0 0.0099634480817060497 -0.0034159888000910993 0 0.010072852955926892 -0.0033805344194460137 0 0.0099634480817060497 -0.0034159888000910993 0 0.010072852955926892 -0.0033805344194460137 0 0.009937962413351896 -0.003267250989920748 0 0.010072852955926892 -0.0033805344194460137 0 0.010037123248309203 -0.0032552277276982904 0 0.009937962413351896 -0.003267250989920748 0 0.0095241588608883099 -0.0032604438937791406 0 0.0097346064761642034 -0.0033694635190411265 0 0.0097918401888134488 -0.0031261816929243976 0 0.0095007738602375311 -0.0035613136538389192 0 0.0095241588608883099 -0.0032604438937791406 0 0.0097346064761642034 -0.0033694635190411265 0 0.0097346064761642034 -0.0033694635190411265 0 0.009844403583319436 -0.0032509287130508707 0 0.0097918401888134488 -0.0031261816929243976 0 0.0097346064761642034 -0.0033694635190411265 0 0.009844403583319436 -0.0032509287130508707 0 0.0098654111878075362 -0.0033512153498688742 0 0.009844403583319436 -0.0032509287130508707 0 0.009937962413351896 -0.003267250989920748 0 0.0098736157161717665 -0.0031674146501848724 0 0.0098458729059797551 -0.0034883822381175378 0 0.0097346064761642034 -0.0033694635190411265 0 0.0098654111878075362 -0.0033512153498688742 0 0.0099634480817060497 -0.0034159888000910993 0 0.0098654111878075362 -0.0033512153498688742 0 0.009937962413351896 -0.003267250989920748 0 0.0098458729059797551 -0.0034883822381175378 0 0.0099634480817060497 -0.0034159888000910993 0 0.0098654111878075362 -0.0033512153498688742 0 0.009844403583319436 -0.0032509287130508707 0 0.0098654111878075362 -0.0033512153498688742 0 0.009937962413351896 -0.003267250989920748 0 0.010037123248309203 -0.0032552277276982904 0 0.0099253969204370143 -0.003133003122052795 0 0.0099011693609053295 -0.0029686179461147653 0 0.009937962413351896 -0.003267250989920748 0 0.0099253969204370143 -0.003133003122052795 0 0.0098736157161717665 -0.0031674146501848724 0 0.010037123248309203 -0.0032552277276982904 0 0.009937962413351896 -0.003267250989920748 0 0.0099253969204370143 -0.003133003122052795 0 0.0098605014451034288 -0.0030098890686374711 0 0.0098787407259210286 -0.0030625461641444985 0 0.0097918401888134488 -0.0031261816929243976 0 0.0099253969204370143 -0.003133003122052795 0 0.0098787407259210286 -0.0030625461641444985 0 0.0099011693609053295 -0.0029686179461147653 0 0.0098605014451034288 -0.0030098890686374711 0 0.0098787407259210286 -0.0030625461641444985 0 0.0099011693609053295 -0.0029686179461147653 0 0.009844403583319436 -0.0032509287130508707 0 0.0098736157161717665 -0.0031674146501848724 0 0.0097918401888134488 -0.0031261816929243976 0 0.0098787407259210286 -0.0030625461641444985 0 0.0098736157161717665 -0.0031674146501848724 0 0.0097918401888134488 -0.0031261816929243976 0 0.0099253969204370143 -0.003133003122052795 0 0.0098787407259210286 -0.0030625461641444985 0 0.0098736157161717665 -0.0031674146501848724 0 0.0095472275615855612 -0.0029933792844529191 0 0.0096840165776290749 -0.0030655219716589155 0 0.009854024621061875 -0.0029066446966174411 0 0.0097918401888134488 -0.0031261816929243976 0 0.0096840165776290749 -0.0030655219716589155 0 0.009854024621061875 -0.0029066446966174411 0 0.0098605014451034288 -0.0030098890686374711 0 0.0097918401888134488 -0.0031261816929243976 0 0.009854024621061875 -0.0029066446966174411 0 0.0095241588608883099 -0.0032604438937791406 0 0.0097918401888134488 -0.0031261816929243976 0 0.0096840165776290749 -0.0030655219716589155 0 0.0099271230566516724 -0.0027146715959021754 0 0.009854024621061875 -0.0029066446966174411 0 0.0099011693609053295 -0.0029686179461147653 0 0.0095472275615855612 -0.0029933792844529191 0 0.0099271230566516724 -0.0027146715959021754 0 0.009854024621061875 -0.0029066446966174411 0 0.0099606127370257709 -0.0028758354544105649 0 0.010732483270446951 -0.0035632818871771908 0 0.0099271230566516724 -0.0027146715959021754 0 0.011372818037261704 -0.0036833170678425881 0 0.010910799718775108 -0.0026080602889355562 0 0.011372818037261704 -0.0036833170678425881 0 0.011737090586190997 -0.0032167461240248702 0 0.010910799718775108 -0.0026080602889355562 0 0.011372818037261704 -0.0036833170678425881 0 0.011737090586190997 -0.0032167461240248702 0 0.012333712856206795 -0.0032382809847226589 0 0.0098605014451034288 -0.0030098890686374711 0 0.009854024621061875 -0.0029066446966174411 0 0.0099011693609053295 -0.0029686179461147653 0 0.011597691357421122 -0.0025991393368674826 0 0.010910799718775108 -0.0026080602889355562 0 0.011607309981238116 -0.0019055221523289992 0 0.011737090586190997 -0.0032167461240248702 0 0.011597691357421122 -0.0025991393368674826 0 0.010910799718775108 -0.0026080602889355562 0 0.010910799718775108 -0.0026080602889355562 0 0.010279605323166107 -0.0018585353798377395 0 0.011607309981238116 -0.0019055221523289992 0 0.0099271230566516724 -0.0027146715959021754 0 0.010910799718775108 -0.0026080602889355562 0 0.010279605323166107 -0.0018585353798377395 0 0.013955737385141607 -0.0027914800433236488 0 0.013217082917067375 -0.0037433014355030781 0 0.013006597860380701 -0.0028991611683969591 0 0.013217082917067375 -0.0037433014355030781 0 0.012333712856206795 -0.0032382809847226589 0 0.013006597860380701 -0.0028991611683969591 0 0.011372818037261704 -0.0036833170678425881 0 0.013217082917067375 -0.0037433014355030781 0 0.012333712856206795 -0.0032382809847226589 0 0.011737090586190997 -0.0032167461240248702 0 0.012333712856206795 -0.0032382809847226589 0 0.012234906958526286 -0.0026734379953284111 0 0.012333712856206795 -0.0032382809847226589 0 0.012234906958526286 -0.0026734379953284111 0 0.013006597860380701 -0.0028991611683969591 0 0.012234906958526286 -0.0026734379953284111 0 0.012971407561846515 -0.0020071605624905767 0 0.011607309981238116 -0.0019055221523289992 0 0.011737090586190997 -0.0032167461240248702 0 0.011597691357421122 -0.0025991393368674826 0 0.012234906958526286 -0.0026734379953284111 0 0.011597691357421122 -0.0025991393368674826 0 0.012234906958526286 -0.0026734379953284111 0 0.011607309981238116 -0.0019055221523289992 0 0.012234906958526286 -0.0026734379953284111 0 0.013006597860380701 -0.0028991611683969591 0 0.012971407561846515 -0.0020071605624905767 0 0.013955737385141607 -0.0027914800433236488 0 0.013006597860380701 -0.0028991611683969591 0 0.012971407561846515 -0.0020071605624905767 0 0.012971407561846515 -0.0020071605624905767 0 0.012450104845356635 -0.00097218531387989503 0 0.014679841307767999 -0.00086151166627831651 0 0.012971407561846515 -0.0020071605624905767 0 0.012450104845356635 -0.00097218531387989503 0 0.011607309981238116 -0.0019055221523289992 0 0.010279605323166107 -0.0018585353798377395 0 0.011607309981238116 -0.0019055221523289992 0 0.010982065736520509 -0.00095419304191319458 0 0.012450104845356635 -0.00097218531387989503 0 0.011607309981238116 -0.0019055221523289992 0 0.010982065736520509 -0.00095419304191319458 0 0.0098088250117812099 -0.0012287914586032506 0 0.010279605323166107 -0.0018585353798377395 0 0.010982065736520509 -0.00095419304191319458 0 0.0099966995848620871 -0.00021986712869955495 0 0.010982065736520509 -0.00095419304191319458 0 0.012151929299302269 0.00041994434608297565 0 0.013767935969216919 -0.0001660751825709975 0 0.016168010595334532 -0.0015346022380031861 0 0.012450104845356635 -0.00097218531387989503 0 0.010982065736520509 -0.00095419304191319458 0 0.012151929299302269 0.00041994434608297565 0 0.012450104845356635 -0.00097218531387989503 0 0.012151929299302269 0.00041994434608297565 0 0.014679841307767999 -0.00086151166627831651 0 0.017596331170169739 -0.0011216128457683403 0 0.016633997028799696 -0.001266136914861486 0 0.017330806375529501 -0.0019047476296482058 0 0.017596331170169739 -0.0011216128457683403 0 0.017869269074232527 -0.0015248161868021328 0 0.017330806375529501 -0.0019047476296482058 0 0.017596331170169739 -0.0011216128457683403 0 0.018314247256582487 -0.0008999403850380313 0 0.017869269074232527 -0.0015248161868021328 0 0.017408527957701876 -0.0026956645304054873 0 0.016168010595334532 -0.0015346022380031861 0 0.017494296570475805 -0.0028057568171282817 0 0.017869269074232527 -0.0015248161868021328 0 0.017330806375529501 -0.0019047476296482058 0 0.013955737385141607 -0.0027914800433236488 0 0.012971407561846515 -0.0020071605624905767 0 0.014679841307767999 -0.00086151166627831651 0 0.0086712071941437915 -0.0005226442048422153 0 0.0086478011561941254 -0.00080252167345774904 0 0.0083926604174361652 -0.00014253607957125848 0 0.0086304620108811677 -0.00078804539597131186 0 0.0085332643873172864 -0.00062103808451138094 0 0.0085982277519243751 -0.00024160682398165724 0 0.0086712071941437915 -0.0005226442048422153 0 0.0083926604174361652 -0.00014253607957125848 0 0.0085982277519243751 -0.00024160682398165724 0 0.0083926604174361652 -0.00014253607957125848 0 0.0085101036451842322 -8.9313560927850965e-05 0 0.011551876240719924 4.0894695526965258e-05 0 0.013538188888097024 -4.5779156929227597e-07 0 0.010288265790265448 3.960161862050706e-07 0 0.0085982277519243751 -0.00024160682398165724 0 0.0086311121045288142 -0.00018340894253313219 0 0.0085101036451842322 -8.9313560927850965e-05 0 0.0085982277519243751 -0.00024160682398165724 0 0.0086311121045288142 -0.00018340894253313219 0 0.0087758950313939748 -0.00031572234331647881 0 0.008801242700035513 -0.00031843733296324554 0 0.0087758950313939748 -0.00031572234331647881 0 0.0089130252532968624 -0.00019635667335768771 0 0.0086311121045288142 -0.00018340894253313219 0 0.008801242700035513 -0.00031843733296324554 0 0.0087758950313939748 -0.00031572234331647881 0 0.0085982277519243751 -0.00024160682398165724 0 0.0087758950313939748 -0.00031572234331647881 0 0.0086712071941437915 -0.0005226442048422153 0 0.008801242700035513 -0.00031843733296324554 0 0.0089130252532968624 -0.00019635667335768771 0 0.0089313086708299443 -9.7406017730904454e-05 0 0.0087758950313939748 -0.00031572234331647881 0 0.0088327120544332109 -0.00068563297479387597 0 0.0086712071941437915 -0.0005226442048422153 0 0.011551876240719924 4.0894695526965258e-05 0 0.013538188888097024 -4.5779156929227597e-07 0 0.013623629653570975 -0.00011328947767532913 0 0.0098632677241116632 -2.314050370526437e-05 0 0.013216131131787677 -2.328469357956316e-05 0 0.0088239602765783753 -0.00028779589282310969 0 0.0089030059742585439 -0.00059651517600206128 0 0.0088327120544332109 -0.00068563297479387597 0 0.0086712071941437915 -0.0005226442048422153 0 0.0087402479901696698 -0.00079401731246532884 0 0.0086712071941437915 -0.0005226442048422153 0 0.0086478011561941254 -0.00080252167345774904 0 0.0087402479901696698 -0.00079401731246532884 0 0.0086478011561941254 -0.00080252167345774904 0 0.008814341595861603 -0.00092166714394933112 0 0.0088000347983997109 -0.0008454351662586844 0 0.0086478011561941254 -0.00080252167345774904 0 0.008814341595861603 -0.00092166714394933112 0 0.0087996856907585144 -0.001081076128741969 0 0.008814341595861603 -0.00092166714394933112 0 0.008892713266036037 -0.00085063093209840801 0 0.0088000347983997109 -0.0008454351662586844 0 0.008814341595861603 -0.00092166714394933112 0 0.0089663394396746077 -0.0010971808378058391 0 0.008892713266036037 -0.00085063093209840801 0 0.0089829238390424313 -0.0010661965482857509 0 0.0090442514433773224 -0.0012490365958441776 0 0.0089663394396746077 -0.0010971808378058391 0 0.0087996856907585144 -0.001081076128741969 0 0.0087901088722766845 -0.001133302252577114 0 0.008814341595861603 -0.00092166714394933112 0 0.0089663394396746077 -0.0010971808378058391 0 0.0087996856907585144 -0.001081076128741969 0 0.0086478011561941254 -0.00080252167345774904 0 0.0087996856907585144 -0.001081076128741969 0 0.0086816217115260191 -0.0011215889705797743 0 0.0087996856907585144 -0.001081076128741969 0 0.0086816217115260191 -0.0011215889705797743 0 0.0087901088722766845 -0.001133302252577114 0 0.0086816217115260191 -0.0011215889705797743 0 0.0086869629188312796 -0.0011516595043121443 0 0.0086856454572319941 -0.0011506606307745814 0 0.0085332643873172864 -0.00062103808451138094 0 0.0088188119688167362 -0.00068163249592455635 0 0.0086816217115260191 -0.0011215889705797743 0 0.0087901088722766845 -0.001133302252577114 0 0.0086869629188312796 -0.0011516595043121443 0 0.0087901088722766845 -0.001133302252577114 0 0.0086858063612307839 -0.0011654417638208838 0 0.0089103794147828898 -0.0011437607268559474 0 0.0087901088722766845 -0.001133302252577114 0 0.0086869629188312796 -0.0011516595043121443 0 0.0086858063612307839 -0.0011654417638208838 0 0.0086869629188312796 -0.0011516595043121443 0 0.0086858063612307839 -0.0011654417638208838 0 0.0086029829997375535 -0.0010906099234283149 0 0.0086869629188312796 -0.0011516595043121443 0 0.0086029829997375535 -0.0010906099234283149 0 0.0086856454572319941 -0.0011506606307745814 0 0.0085725712837192488 -6.8986506249216098e-05 0 0.0084053826251397172 4.2638955774955932e-05 0 0.0081877350105315459 -0.00057023069671789835 0 0.0083926604174361652 -0.00014253607957125848 0 0.0085725712837192488 -6.8986506249216098e-05 0 0.0084053826251397172 4.2638955774955932e-05 0 0.0083926604174361652 -0.00014253607957125848 0 0.0084053826251397172 4.2638955774955932e-05 0 0.0085101036451842322 -8.9313560927850965e-05 0 0.011551876240719924 4.0894695526965258e-05 0 0.010288265790265448 3.960161862050706e-07 0 0.0084421438997710641 2.6094857708177876e-05 0 0.010288265790265448 3.960161862050706e-07 0 0.0084421438997710641 2.6094857708177876e-05 0 0.0070405348891367627 -5.5463511304404545e-07 0 0.0086311121045288142 -0.00018340894253313219 0 0.008801242700035513 -0.00031843733296324554 0 0.0084421438997710641 2.6094857708177876e-05 0 0.0086311121045288142 -0.00018340894253313219 0 0.0085101036451842322 -8.9313560927850965e-05 0 0.0084421438997710641 2.6094857708177876e-05 0 0.0098632677241116632 -2.314050370526437e-05 0 0.00884065409165459 0.00014990237629069325 0 0.0084053826251397172 4.2638955774955932e-05 0 0.0085101036451842322 -8.9313560927850965e-05 0 0.0084421438997710641 2.6094857708177876e-05 0 0.0084053826251397172 4.2638955774955932e-05 0 0.0084421438997710641 2.6094857708177876e-05 0 0.0070405348891367627 -5.5463511304404545e-07 0 0.0084053826251397172 4.2638955774955932e-05 0 0.0070405348891367627 -5.5463511304404545e-07 0 0.0081877350105315459 -0.00057023069671789835 0 0.0070307202425472764 -9.8293405356120815e-07 0 0.0052385190136879506 7.0748079000796252e-06 0 0.0048572840226912637 9.8830648117074176e-07 0 0.0070370536807472482 -8.5018136317691543e-08 0 0.0066769063547633496 -0.00021352114381708535 0 0.0085725712837192488 -6.8986506249216098e-05 0 0.0081877350105315459 -0.00057023069671789835 0 0.0086735477222210505 -0.00082661575114767688 0 0.0066769063547633496 -0.00021352114381708535 0 0.0069066020175331299 -0.00060257863472847658 0 0.0052385190136879506 7.0748079000796252e-06 0 0.0050285541894081794 -6.2677076391422207e-06 0 0.0049443575766633802 -6.9377973302536328e-05 0 0.0052385190136879506 7.0748079000796252e-06 0 0.0050285541894081794 -6.2677076391422207e-06 0 0.0050915917447038129 -4.3312757536842459e-06 0 0.0050285541894081794 -6.2677076391422207e-06 0 0.0050915917447038129 -4.3312757536842459e-06 0 0.0051388596520333821 4.5207343952895031e-05 0 0.0052385190136879506 7.0748079000796252e-06 0 0.0048572840226912637 9.8830648117074176e-07 0 0.0050915917447038129 -4.3312757536842459e-06 0 0.0048572840226912637 9.8830648117074176e-07 0 0.0050915917447038129 -4.3312757536842459e-06 0 0.0051388596520333821 4.5207343952895031e-05 0 0.0048499665912776534 1.4602249651999539e-07 0 0.003105081376412419 0.00014761537878591 0 0.0021305420620564394 4.7980884046961755e-07 0 0.001226518089673029 -0.00016717886524638786 0 0.00051151987901111562 0.00026719006931832207 0 0.0048476697889998695 -1.4720599680148825e-06 0 0.0021305420620564394 4.7980884046961755e-07 0 0.001226518089673029 -0.00016717886524638786 0 0.0050285541894081794 -6.2677076391422207e-06 0 0.0051388596520333821 4.5207343952895031e-05 0 0.0047836286600853838 9.1157747120638855e-05 0 0.0051388596520333821 4.5207343952895031e-05 0 0.0048741331916370978 0.00046971115353639143 0 0.0047836286600853838 9.1157747120638855e-05 0 -0.00028900786388385468 0.00024078273696456797 0 0.00051151987901111562 0.00026719006931832207 0 0.00015814789218067968 0.00033477673311455871 0 0.001226518089673029 -0.00016717886524638786 0 0.00051151987901111562 0.00026719006931832207 0 0.00015814789218067968 0.00033477673311455871 0 0.003105081376412419 0.00014761537878591 0 0.0029870808975133844 0.00024990458481116842 0 -0.00059087598611502203 1.3175751539109188e-06 0 0.0021305420620564394 4.7980884046961755e-07 0 0.00051151987901111562 0.00026719006931832207 0 0.004495587990066937 0.00040969486058095507 0 0.0048741331916370978 0.00046971115353639143 0 0.0047836286600853838 9.1157747120638855e-05 0 0.0044217716437043144 0.00092288873528599904 0 0.004495587990066937 0.00040969486058095507 0 0.0048741331916370978 0.00046971115353639143 0 0.004495587990066937 0.00040969486058095507 0 0.0047836286600853838 9.1157747120638855e-05 0 0.0045564174234868663 -0.00018652173349672236 0 -0.0014491186034861373 0.00069191411247322948 0 0.0027628523055537664 -0.00034810589035527576 0 -0.0063465996277948218 0.00058260814019101643 0 -0.0062101465987882982 0.0007523459923225944 0 -0.0061006208066896198 0.00070375371817504439 0 0.0027628523055537664 -0.00034810589035527576 0 0.0079498499494688978 -0.0009219557202749017 0 0.0079390900096041363 -0.00011321983978486349 0 0.0074729714984300578 -0.00057801578537150587 0 0.0080208185850834252 -0.001002130888371224 0 0.0081486366926542646 -0.00040241059524883174 0 0.0084032372553345131 -0.00085514969052743659 0 0.0080208185850834252 -0.001002130888371224 0 0.0071793440915425676 -0.00013994780130708451 0 0.0079390900096041363 -0.00011321983978486349 0 0.0074729714984300578 -0.00057801578537150587 0 0.0047836286600853838 9.1157747120638855e-05 0 0.0045564174234868663 -0.00018652173349672236 0 0.00484529219934103 -0.00034072035017801769 0 0.0050285541894081794 -6.2677076391422207e-06 0 0.0047836286600853838 9.1157747120638855e-05 0 0.0049443575766633802 -6.9377973302536328e-05 0 0.0047020084518419446 0.00028497704095355067 0 0.0069066020175331299 -0.00060257863472847658 0 0.0081486366926542646 -0.00040241059524883174 0 0.0085259732836987737 -0.00071047356401619246 0 0.0084032372553345131 -0.00085514969052743659 0 0.0027628523055537664 -0.00034810589035527576 0 0.0069066020175331299 -0.00060257863472847658 0 0.0088188119688167362 -0.00068163249592455635 0 0.0069066020175331299 -0.00060257863472847658 0 0.0086029829997375535 -0.0010906099234283149 0 0.0086856454572319941 -0.0011506606307745814 0 0.0084032372553345131 -0.00085514969052743659 0 0.0086856454572319941 -0.0011506606307745814 0 0.0085259732836987737 -0.00071047356401619246 0 0.0084032372553345131 -0.00085514969052743659 0 0.0080514695788902642 -0.0013119071719058819 0 0.0084064749508191376 -0.00085922591277767238 0 0.0073601425172958607 -0.0015435142307101989 0 0.0084032372553345131 -0.00085514969052743659 0 0.0080208185850834252 -0.001002130888371224 0 0.0086858063612307839 -0.0011654417638208838 0 0.0086029829997375535 -0.0010906099234283149 0 0.0084032372553345131 -0.00085514969052743659 0 0.0074729714984300578 -0.00057801578537150587 0 0.0080208185850834252 -0.001002130888371224 0 0.0074746051166744822 -0.0010294149267972637 0 0.0074729714984300578 -0.00057801578537150587 0 0.0074746051166744822 -0.0010294149267972637 0 0.0070669006498547205 -0.00094912049053203363 0 0.0073601425172958607 -0.0015435142307101989 0 0.0074746051166744822 -0.0010294149267972637 0 0.0070669006498547205 -0.00094912049053203363 0 0.0073601425172958607 -0.0015435142307101989 0 0.0080208185850834252 -0.001002130888371224 0 0.0074746051166744822 -0.0010294149267972637 0 0.0070669006498547205 -0.00094912049053203363 0 0.0064626298727786238 -0.00090645980276602442 0 0.0067329495539356849 -0.0014184160437889241 0 0.0070669006498547205 -0.00094912049053203363 0 0.0064626298727786238 -0.00090645980276602442 0 0.0068431329996941096 -0.00051748662046128657 0 0.0074729714984300578 -0.00057801578537150587 0 0.0070669006498547205 -0.00094912049053203363 0 0.0068431329996941096 -0.00051748662046128657 0 0.0064626298727786238 -0.00090645980276602442 0 0.005845822068029043 -0.00088713103289575783 0 0.0061941922458398687 -0.0015246372748890635 0 0.0064626298727786238 -0.00090645980276602442 0 0.0061544844837173483 -6.7875730565553375e-05 0 0.005845822068029043 -0.00088713103289575783 0 0.0064626298727786238 -0.00090645980276602442 0 0.0061544844837173483 -6.7875730565553375e-05 0 0.0068431329996941096 -0.00051748662046128657 0 0.0071793440915425676 -0.00013994780130708451 0 0.0079390900096041363 -0.00011321983978486349 0 0.0062790918656960328 0.0006675804735854626 0 0.0071793440915425676 -0.00013994780130708451 0 0.0061544844837173483 -6.7875730565553375e-05 0 0.0068431329996941096 -0.00051748662046128657 0 0.00710611915825448 -0.00014092682387608027 0 0.0058101551417124222 -3.7875164109246719e-05 0 0.0071793440915425676 -0.00013994780130708451 0 0.0074729714984300578 -0.00057801578537150587 0 0.0068431329996941096 -0.00051748662046128657 0 0.0027628523055537664 -0.00034810589035527576 0 -0.0003264976083750067 0.00086072155626718591 0 0.0071793440915425676 -0.00013994780130708451 0 0.0054354430673259398 -2.8863921288055794e-05 0 0.0062790918656960328 0.0006675804735854626 0 0.0054354430673259398 -2.8863921288055794e-05 0 0.0062790918656960328 0.0006675804735854626 0 0.0047189597369985872 0.00049351702125422848 0 0.0062790918656960328 0.0006675804735854626 0 0.0047753417905402563 0.0013075886387914906 0 0.0047189597369985872 0.00049351702125422848 0 -0.0003264976083750067 0.00086072155626718591 0 -0.00038981422711173756 0.00091007487102671058 0 -0.0060566046754683273 0.00049410519349850758 0 -0.0061006208066896198 0.00070375371817504439 0 -0.0057950420126663717 0.00062527778715500127 0 -0.0062988841704639193 0.00043195745711788495 0 -0.0063465996277948218 0.00058260814019101643 0 -0.0061006208066896198 0.00070375371817504439 0 -0.0062988841704639193 0.00043195745711788495 0 -0.0060566046754683273 0.00049410519349850758 0 -0.0061006208066896198 0.00070375371817504439 0 -0.001030022330602942 0.0012612901254799328 0 -0.00038981422711173756 0.00091007487102671058 0 0.0035013999306095531 0.0019352840167184461 0 0.0038985671226493446 0.0010818963210036503 0 0.0047753417905402563 0.0013075886387914906 0 0.0038985671226493446 0.0010818963210036503 0 0.0047753417905402563 0.0013075886387914906 0 0.0047189597369985872 0.00049351702125422848 0 0.0054354430673259398 -2.8863921288055794e-05 0 0.0047189597369985872 0.00049351702125422848 0 0.0039780184491702624 0.00015145528796729936 0 0.0038985671226493446 0.0010818963210036503 0 0.0039780184491702624 0.00015145528796729936 0 0.0033984598763438026 0.00056495882314991797 0 0.0038985671226493446 0.0010818963210036503 0 0.0047189597369985872 0.00049351702125422848 0 0.0039780184491702624 0.00015145528796729936 0 0.0047179640136740131 0.00017828437071887857 0 0.0054029807149484155 -0.00037888500640788326 0 0.0048513480132047265 -0.00076741532747359275 0 0.0047179640136740131 0.00017828437071887857 0 0.0048513480132047265 -0.00076741532747359275 0 0.0039037339973507362 -0.00061576701262542211 0 0.0061544844837173483 -6.7875730565553375e-05 0 0.0054029807149484155 -0.00037888500640788326 0 0.005845822068029043 -0.00088713103289575783 0 0.0058101551417124222 -3.7875164109246719e-05 0 0.0043322606058191927 0.00015616086244202822 0 0.0061544844837173483 -6.7875730565553375e-05 0 0.0047179640136740131 0.00017828437071887857 0 0.0054029807149484155 -0.00037888500640788326 0 0.0057943996856752401 -0.00097495824780042357 0 0.0053913326218444713 -0.0015293951316161557 0 0.0054029807149484155 -0.00037888500640788326 0 0.005845822068029043 -0.00088713103289575783 0 0.0048513480132047265 -0.00076741532747359275 0 0.005845822068029043 -0.00088713103289575783 0 0.0048513480132047265 -0.00076741532747359275 0 0.005014906710268551 -0.0017934144201054074 0 0.0048513480132047265 -0.00076741532747359275 0 0.005014906710268551 -0.0017934144201054074 0 0.0042660727968468603 -0.001144771463767396 0 0.0048513480132047265 -0.00076741532747359275 0 0.0042660727968468603 -0.001144771463767396 0 0.0039037339973507362 -0.00061576701262542211 0 0.0053913326218444713 -0.0015293951316161557 0 0.0045395271594399827 -0.0024655112141704922 0 0.005014906710268551 -0.0017934144201054074 0 0.0043636240187279298 -0.0023821056540539419 0 0.0042661901309884792 -0.0017467197098880332 0 0.005014906710268551 -0.0017934144201054074 0 0.0042661901309884792 -0.0017467197098880332 0 0.0042660727968468603 -0.001144771463767396 0 0.0053711149985963234 -0.0019352931226033793 0 0.0058629512267588313 -0.0020202256910384193 0 0.005591431356851655 -0.0023997946856605134 0 0.0056080871728663049 -0.0014820294348285668 0 0.0053711149985963234 -0.0019352931226033793 0 0.0058629512267588313 -0.0020202256910384193 0 0.005845822068029043 -0.00088713103289575783 0 0.0056080871728663049 -0.0014820294348285668 0 0.0061941922458398687 -0.0015246372748890635 0 0.0056080871728663049 -0.0014820294348285668 0 0.0058629512267588313 -0.0020202256910384193 0 0.0061941922458398687 -0.0015246372748890635 0 0.0064626298727786238 -0.00090645980276602442 0 0.0061941922458398687 -0.0015246372748890635 0 0.0067329495539356849 -0.0014184160437889241 0 0.0061941922458398687 -0.0015246372748890635 0 0.0067329495539356849 -0.0014184160437889241 0 0.0066858924836843501 -0.002047972147273557 0 0.0080514695788902642 -0.0013119071719058819 0 0.0077977921137117384 -0.0015964847895311323 0 0.0073601425172958607 -0.0015435142307101989 0 0.0070669006498547205 -0.00094912049053203363 0 0.0067329495539356849 -0.0014184160437889241 0 0.0073601425172958607 -0.0015435142307101989 0 0.0067329495539356849 -0.0014184160437889241 0 0.0066858924836843501 -0.002047972147273557 0 0.0058629512267588313 -0.0020202256910384193 0 0.0061941922458398687 -0.0015246372748890635 0 0.0066858924836843501 -0.002047972147273557 0 0.0058629512267588313 -0.0020202256910384193 0 0.0066858924836843501 -0.002047972147273557 0 0.0062164896097393644 -0.0024545142379657492 0 0.0077977921137117384 -0.0015964847895311323 0 0.0076315820712985587 -0.0017799721586255874 0 0.0089663394396746077 -0.0010971808378058391 0 0.0089103794147828898 -0.0011437607268559474 0 0.008971313371256626 -0.0011779810232586119 0 0.0089663394396746077 -0.0010971808378058391 0 0.0087901088722766845 -0.001133302252577114 0 0.0089103794147828898 -0.0011437607268559474 0 0.0089663394396746077 -0.0010971808378058391 0 0.0090473111551075524 -0.0012571413051793191 0 0.0091835451745741759 -0.0013674002469701812 0 0.0089663394396746077 -0.0010971808378058391 0 0.008971313371256626 -0.0011779810232586119 0 0.0090473111551075524 -0.0012571413051793191 0 0.008971313371256626 -0.0011779810232586119 0 0.0090473111551075524 -0.0012571413051793191 0 0.0090283490433518913 -0.0013171970918611402 0 0.0076315820712985587 -0.0017799721586255874 0 0.0071840941429759195 -0.0021956139741756819 0 0.008971313371256626 -0.0011779810232586119 0 0.0088826375838741197 -0.0013112372252028397 0 0.0090283490433518913 -0.0013171970918611402 0 0.0062164896097393644 -0.0024545142379657492 0 0.0058527579153636383 -0.0028239084433908323 0 0.005591431356851655 -0.0023997946856605134 0 0.0058527579153636383 -0.0028239084433908323 0 0.005591431356851655 -0.0023997946856605134 0 0.0053446589577932158 -0.0027652725124603247 0 0.0058629512267588313 -0.0020202256910384193 0 0.0062164896097393644 -0.0024545142379657492 0 0.005591431356851655 -0.0023997946856605134 0 0.008859019683309502 -0.00019488208399140406 0 0.0089931080680745682 -0.00061035451558691975 0 0.0084440068498413904 -0.00052004849717890867 0 0.008859019683309502 -0.00019488208399140406 0 0.0092696641575934144 -0.00022294429583843102 0 0.0089931080680745682 -0.00061035451558691975 0 0.0067597773779464508 -0.0014638982170732653 0 0.0092230183866828484 -0.0003136210997162069 0 0.008859019683309502 -0.00019488208399140406 0 0.0092696641575934144 -0.00022294429583843102 0 0.0090568237170237983 0.00027622860081785787 0 0.0053711149985963234 -0.0019352931226033793 0 0.005591431356851655 -0.0023997946856605134 0 0.0051264261524732579 -0.0023076778857969893 0 0.005591431356851655 -0.0023997946856605134 0 0.0051264261524732579 -0.0023076778857969893 0 0.0053446589577932158 -0.0027652725124603247 0 0.0096806903309846811 -0.00099054656991510873 0 0.0090692231922603443 -0.00066133425673592307 0 0.0092596861909340286 -0.0013311624287202241 0 0.0093728805421780959 -0.00028068505014012206 0 0.0096806903309846811 -0.00099054656991510873 0 0.0090692231922603443 -0.00066133425673592307 0 0.0067597773779464508 -0.0014638982170732653 0 0.0075228671028333199 -0.0019308510990685935 0 0.0089931080680745682 -0.00061035451558691975 0 0.0087352790133845629 -0.0010377789975853403 0 0.0084440068498413904 -0.00052004849717890867 0 0.0090692231922603443 -0.00066133425673592307 0 0.0087352790133845629 -0.0010377789975853403 0 0.0092596861909340286 -0.0013311624287202241 0 0.0092230183866828484 -0.0003136210997162069 0 0.0086938538444812554 -0.0010658133001897312 0 0.0087352790133845629 -0.0010377789975853403 0 0.0084440068498413904 -0.00052004849717890867 0 0.0082194325930555114 -0.0010583986496736334 0 0.0084440068498413904 -0.00052004849717890867 0 0.0078615769755439168 -0.00060095254233464407 0 0.0082194325930555114 -0.0010583986496736334 0 0.0078615769755439168 -0.00060095254233464407 0 0.0074474920175322127 -0.00061575029981272779 0 0.0077028990043461259 -0.0011249189994240775 0 0.0078615769755439168 -0.00060095254233464407 0 0.0077028990043461259 -0.0011249189994240775 0 0.0082194325930555114 -0.0010583986496736334 0 0.0078615769755439168 -0.00060095254233464407 0 0.0075699667136643169 -0.00025991706451225738 0 0.0074474920175322127 -0.00061575029981272779 0 0.0084440068498413904 -0.00052004849717890867 0 0.0078615769755439168 -0.00060095254233464407 0 0.0079535465346012094 -0.00011366998500100659 0 0.0078615769755439168 -0.00060095254233464407 0 0.0079535465346012094 -0.00011366998500100659 0 0.0075699667136643169 -0.00025991706451225738 0 0.0079535465346012094 -0.00011366998500100659 0 0.0075646752860861676 0.00018390204587332066 0 0.0075699667136643169 -0.00025991706451225738 0 0.008859019683309502 -0.00019488208399140406 0 0.0084404827502472732 -7.7095071684857546e-05 0 0.0085889834663330604 0.00035753389094328594 0 0.008859019683309502 -0.00019488208399140406 0 0.0084440068498413904 -0.00052004849717890867 0 0.0084404827502472732 -7.7095071684857546e-05 0 0.0084440068498413904 -0.00052004849717890867 0 0.0079535465346012094 -0.00011366998500100659 0 0.0084404827502472732 -7.7095071684857546e-05 0 0.0084404827502472732 -7.7095071684857546e-05 0 0.0085889834663330604 0.00035753389094328594 0 0.0079502730214216586 0.00066111175513205317 0 0.0079535465346012094 -0.00011366998500100659 0 0.0084404827502472732 -7.7095071684857546e-05 0 0.0079502730214216586 0.00066111175513205317 0 0.0079535465346012094 -0.00011366998500100659 0 0.0079502730214216586 0.00066111175513205317 0 0.0075646752860861676 0.00018390204587332066 0 0.004868007409360461 -0.0010646301654793798 0 0.0048659548759157779 -0.0010602170560681623 0 0.0048528093693542664 -0.0010623115349298823 0 0.004868007409360461 -0.0010646301654793798 0 0.0048528093693542664 -0.0010623115349298823 0 0.0048549377846159765 -0.0010619085653653707 0 0.0067192169757662153 -8.3058289835218017e-05 0 0.0051650994972127773 -0.0012052380418595019 0 0.0085889834663330604 0.00035753389094328594 0 0.0079502730214216586 0.00066111175513205317 0 0.0088388645414963669 0.00077159581402687285 0 0.004868007409360461 -0.0010646301654793798 0 0.0048833886212023879 -0.0010664891296277097 0 0.0048659548759157779 -0.0010602170560681623 0 0.0035493680873784845 -0.0019045951202306048 0 0.0037441568997240728 -0.0023862972482966119 0 0.0039739284291763176 -0.0021022584432807334 0 0.008859019683309502 -0.00019488208399140406 0 0.0085889834663330604 0.00035753389094328594 0 0.0090568237170237983 0.00027622860081785787 0 0.0085889834663330604 0.00035753389094328594 0 0.0088388645414963669 0.00077159581402687285 0 0.0090568237170237983 0.00027622860081785787 0 0.0051650994972127773 -0.0012052380418595019 0 0.0063711684715648323 -0.0010336304577149686 0 0.0067597773779464508 -0.0014638982170732653 0 0.0063711684715648323 -0.0010336304577149686 0 0.0043636240187279298 -0.0023821056540539419 0 0.0037441568997240728 -0.0023862972482966119 0 0.0039739284291763176 -0.0021022584432807334 0 0.0045395271594399827 -0.0024655112141704922 0 0.0067597773779464508 -0.0014638982170732653 0 0.0043636240187279298 -0.0023821056540539419 0 0.0039551095715688444 -0.0028543885349456219 0 0.0037441568997240728 -0.0023862972482966119 0 0.0051650994972127773 -0.0012052380418595019 0 0.0034017240804974391 -0.0019629105058435593 0 0.0035493680873784845 -0.0019045951202306048 0 0.0039739284291763176 -0.0021022584432807334 0 0.0042661901309884792 -0.0017467197098880332 0 0.0029018974899297934 -0.0019474362088699761 0 0.0042661901309884792 -0.0017467197098880332 0 0.0035934214085984635 -0.0012921131785862713 0 0.0043636240187279298 -0.0023821056540539419 0 0.0039739284291763176 -0.0021022584432807334 0 0.0042661901309884792 -0.0017467197098880332 0 0.0042661901309884792 -0.0017467197098880332 0 0.0042660727968468603 -0.001144771463767396 0 0.0035934214085984635 -0.0012921131785862713 0 0.0035934214085984635 -0.0012921131785862713 0 0.0031314944627392795 -0.00075609615893556376 0 0.0039037339973507362 -0.00061576701262542211 0 0.0042660727968468603 -0.001144771463767396 0 0.0035934214085984635 -0.0012921131785862713 0 0.0039037339973507362 -0.00061576701262542211 0 0.0029018974899297934 -0.0019474362088699761 0 0.0031314944627392795 -0.00075609615893556376 0 0.0024247991335154288 -0.0006688537341915556 0 0.0029018974899297934 -0.0019474362088699761 0 0.0035934214085984635 -0.0012921131785862713 0 0.0031314944627392795 -0.00075609615893556376 0 0.0051650994972127773 -0.0012052380418595019 0 0.0035186726244120486 -0.00087332730511992609 0 0.0031314944627392795 -0.00075609615893556376 0 0.0030347452263389074 0.00026885474497155847 0 0.0024247991335154288 -0.0006688537341915556 0 0.0031314944627392795 -0.00075609615893556376 0 0.0039037339973507362 -0.00061576701262542211 0 0.0030347452263389074 0.00026885474497155847 0 0.0047179640136740131 0.00017828437071887857 0 0.0039037339973507362 -0.00061576701262542211 0 0.0030347452263389074 0.00026885474497155847 0 0.0043322606058191927 0.00015616086244202822 0 0.0031090486784513338 0.00026626237770756013 0 0.0039780184491702624 0.00015145528796729936 0 0.0033984598763438026 0.00056495882314991797 0 0.0030347452263389074 0.00026885474497155847 0 0.0033984598763438026 0.00056495882314991797 0 0.0030347452263389074 0.00026885474497155847 0 0.0030213957159830646 0.00071365443530164768 0 0.0030347452263389074 0.00026885474497155847 0 0.0026299159448462009 0.00078450511457390571 0 0.0021053074129585322 0.00038277957888200849 0 0.0030347452263389074 0.00026885474497155847 0 0.0030213957159830646 0.00071365443530164768 0 0.0026299159448462009 0.00078450511457390571 0 0.0030213957159830646 0.00071365443530164768 0 0.0030064750943477785 0.0012201929144996404 0 0.0026299159448462009 0.00078450511457390571 0 0.0024267603798116149 0.0013501963350773562 0 0.0030064750943477785 0.0012201929144996404 0 0.0026299159448462009 0.00078450511457390571 0 0.0032679037324336501 0.00065543127921298676 0 0.0032485932545225013 0.0013990913049101263 0 0.0035013999306095531 0.0019352840167184461 0 0.0038985671226493446 0.0010818963210036503 0 0.0027459670776117263 0.0015956754551462149 0 0.0033984598763438026 0.00056495882314991797 0 0.0030213957159830646 0.00071365443530164768 0 0.0030064750943477785 0.0012201929144996404 0 0.0038985671226493446 0.0010818963210036503 0 0.0033984598763438026 0.00056495882314991797 0 0.0027459670776117263 0.0015956754551462149 0 0.0048901247423801591 -0.0009340250830325587 0 0.0048767379408742933 -0.0010236124783704233 0 0.0048027662503596549 -0.0010002250969219004 0 0.0033185161520621754 0.00013143097636183419 0 0.00351286762414167 -0.00033412214330824056 0 0.0024267603798116149 0.0013501963350773562 0 0.0026299159448462009 0.00078450511457390571 0 0.0018421681124209644 0.0011575627058245455 0 0.0026299159448462009 0.00078450511457390571 0 0.0018421681124209644 0.0011575627058245455 0 0.0021053074129585322 0.00038277957888200849 0 0.0048767379408742933 -0.0010236124783704233 0 0.0048214469747976567 -0.0010422311709319008 0 0.0048027662503596549 -0.0010002250969219004 0 0.0048767379408742933 -0.0010236124783704233 0 0.0048531914052513747 -0.0010546661930809413 0 0.0048214469747976567 -0.0010422311709319008 0 0.0030347452263389074 0.00026885474497155847 0 0.0021053074129585322 0.00038277957888200849 0 0.0024247991335154288 -0.0006688537341915556 0 0.0048767379408742933 -0.0010236124783704233 0 0.0048531914052513747 -0.0010546661930809413 0 0.0048726111537320364 -0.001050749445804546 0 0.00351286762414167 -0.00033412214330824056 0 0.0035186726244120486 -0.00087332730511992609 0 0.0048833886212023879 -0.0010664891296277097 0 0.0048726111537320364 -0.001050749445804546 0 0.0048659548759157779 -0.0010602170560681623 0 0.0048531914052513747 -0.0010546661930809413 0 0.0048726111537320364 -0.001050749445804546 0 0.0048659548759157779 -0.0010602170560681623 0 0.0048531914052513747 -0.0010546661930809413 0 0.0048659548759157779 -0.0010602170560681623 0 0.0048528093693542664 -0.0010623115349298823 0 0.0048531914052513747 -0.0010546661930809413 0 0.0048528093693542664 -0.0010623115349298823 0 0.0048358492299069179 -0.0010600995314844371 0 0.0048528093693542664 -0.0010623115349298823 0 0.0048452360708313314 -0.0010629639854839198 0 0.0048358492299069179 -0.0010600995314844371 0 0.0048358492299069179 -0.0010600995314844371 0 0.0048397114212023074 -0.0010647527251935926 0 0.0048097068951583255 -0.001057804858029045 0 0.0048452360708313314 -0.0010629639854839198 0 0.0048358492299069179 -0.0010600995314844371 0 0.0048397114212023074 -0.0010647527251935926 0 0.0048452360708313314 -0.0010629639854839198 0 0.0048397114212023074 -0.0010647527251935926 0 0.004846730173858972 -0.0010626818876668487 0 0.0048397114212023074 -0.0010647527251935926 0 0.0048097068951583255 -0.001057804858029045 0 0.0048465103970860629 -0.0010668115925313536 0 0.0047855454308142727 -0.00158681296046354 0 0.005431345414523267 -0.0011971950512403957 0 0.004665387104659126 -0.002098959645121328 0 0.0048195522967690568 -0.0019559666287846528 0 0.0047773722317019226 -0.0023181851147974419 0 0.0046471235579858654 -0.0022540200668889889 0 0.004665387104659126 -0.002098959645121328 0 0.0047773722317019226 -0.0023181851147974419 0 0.0046471235579858654 -0.0022540200668889889 0 0.0046306791590264322 -0.0023379865878648447 0 0.0047773722317019226 -0.0023181851147974419 0 0.0046471235579858654 -0.0022540200668889889 0 0.0045511476200934152 -0.0022969600134191111 0 0.0046306791590264322 -0.0023379865878648447 0 0.0053384071650063305 -0.0011648375784603252 0 0.005431345414523267 -0.0011971950512403957 0 0.0046471235579858654 -0.0022540200668889889 0 0.004665387104659126 -0.002098959645121328 0 0.0045232413649593326 -0.0021801538328780679 0 0.004665387104659126 -0.002098959645121328 0 0.0048195522967690568 -0.0019559666287846528 0 0.0045056747590204145 -0.0018305236505351866 0 0.0047855454308142727 -0.00158681296046354 0 0.0047735948705502941 -0.0012458470045199927 0 0.0048195522967690568 -0.0019559666287846528 0 0.0048009697431096081 -0.0015090788403350659 0 0.0045056747590204145 -0.0018305236505351866 0 0.0048531914052513747 -0.0010546661930809413 0 0.0048358492299069179 -0.0010600995314844371 0 0.0048214469747976567 -0.0010422311709319008 0 0.0048358492299069179 -0.0010600995314844371 0 0.0048097068951583255 -0.001057804858029045 0 0.0048214469747976567 -0.0010422311709319008 0 0.0048097068951583255 -0.001057804858029045 0 0.0048214469747976567 -0.0010422311709319008 0 0.0047644469269763371 -0.0010315263714599642 0 0.0048214469747976567 -0.0010422311709319008 0 0.0047644469269763371 -0.0010315263714599642 0 0.0048027662503596549 -0.0010002250969219004 0 0.0047735948705502941 -0.0012458470045199927 0 0.0047114332750175904 -0.0010284357498929304 0 0.0048009697431096081 -0.0015090788403350659 0 0.004689631903339383 -0.00099794362080354642 0 0.0044221318855334913 -0.001294381440264873 0 0.0047644469269763371 -0.0010315263714599642 0 0.004689631903339383 -0.00099794362080354642 0 0.0048027662503596549 -0.0010002250969219004 0 0.004735221780076215 -0.00083615219042921423 0 0.0048901247423801591 -0.0009340250830325587 0 0.0048027662503596549 -0.0010002250969219004 0 0.004735221780076215 -0.00083615219042921423 0 0.004689631903339383 -0.00099794362080354642 0 0.0048027662503596549 -0.0010002250969219004 0 0.0037567518923684864 -0.0014092338166089712 0 0.004101246633863939 -0.001126603414444659 0 0.0041222509868213764 -0.0015047423457281968 0 0.004101246633863939 -0.001126603414444659 0 0.0044221318855334913 -0.001294381440264873 0 0.0041222509868213764 -0.0015047423457281968 0 0.0043601169574398095 -0.00085729266682612259 0 0.004101246633863939 -0.001126603414444659 0 0.0044221318855334913 -0.001294381440264873 0 0.0043601169574398095 -0.00085729266682612259 0 0.004689631903339383 -0.00099794362080354642 0 0.0044221318855334913 -0.001294381440264873 0 0.0044221318855334913 -0.001294381440264873 0 0.0041222509868213764 -0.0015047423457281968 0 0.0045056747590204145 -0.0018305236505351866 0 0.0048009697431096081 -0.0015090788403350659 0 0.0044221318855334913 -0.001294381440264873 0 0.0045056747590204145 -0.0018305236505351866 0 0.0039364093876319527 -0.0018003610225258107 0 0.0041222509868213764 -0.0015047423457281968 0 0.0041933564683218523 -0.001879882794161231 0 0.0041222509868213764 -0.0015047423457281968 0 0.0041933564683218523 -0.001879882794161231 0 0.0045056747590204145 -0.0018305236505351866 0 0.0040820207748552212 -0.0020879471732201788 0 0.0039364093876319527 -0.0018003610225258107 0 0.0041933564683218523 -0.001879882794161231 0 0.0040820207748552212 -0.0020879471732201788 0 0.0041933564683218523 -0.001879882794161231 0 0.0043270966412878049 -0.0021412973447325723 0 0.0041933564683218523 -0.001879882794161231 0 0.0045056747590204145 -0.0018305236505351866 0 0.0043270966412878049 -0.0021412973447325723 0 0.004665387104659126 -0.002098959645121328 0 0.0045056747590204145 -0.0018305236505351866 0 0.0045232413649593326 -0.0021801538328780679 0 0.0045056747590204145 -0.0018305236505351866 0 0.0045232413649593326 -0.0021801538328780679 0 0.0043270966412878049 -0.0021412973447325723 0 0.0045232413649593326 -0.0021801538328780679 0 0.0043270966412878049 -0.0021412973447325723 0 0.0044608996663886421 -0.0023312209919700501 0 0.0043270966412878049 -0.0021412973447325723 0 0.0043295010580218004 -0.0023353345609255652 0 0.0044608996663886421 -0.0023312209919700501 0 0.0045232413649593326 -0.0021801538328780679 0 0.0045511476200934152 -0.0022969600134191111 0 0.0044608996663886421 -0.0023312209919700501 0 0.0046471235579858654 -0.0022540200668889889 0 0.0045232413649593326 -0.0021801538328780679 0 0.0045511476200934152 -0.0022969600134191111 0 0.0040820207748552212 -0.0020879471732201788 0 0.0043270966412878049 -0.0021412973447325723 0 0.0041937167754292834 -0.0022851041617635327 0 0.0043270966412878049 -0.0021412973447325723 0 0.0041937167754292834 -0.0022851041617635327 0 0.0043295010580218004 -0.0023353345609255652 0 0.0041311390244862531 -0.002392787209391694 0 0.0041937167754292834 -0.0022851041617635327 0 0.0042495826743393951 -0.0024554481740786988 0 0.0041937167754292834 -0.0022851041617635327 0 0.0042495826743393951 -0.0024554481740786988 0 0.0043295010580218004 -0.0023353345609255652 0 0.0042495826743393951 -0.0024554481740786988 0 0.0043295010580218004 -0.0023353345609255652 0 0.0043825149270866363 -0.0024421409576141748 0 0.0042495826743393951 -0.0024554481740786988 0 0.0043825149270866363 -0.0024421409576141748 0 0.0043336290875332995 -0.0025194760981380473 0 0.0043825149270866363 -0.0024421409576141748 0 0.0043336290875332995 -0.0025194760981380473 0 0.0044258971123767709 -0.0025158715744319224 0 0.0041653229792355017 -0.0025094384148853181 0 0.0042495826743393951 -0.0024554481740786988 0 0.0042725561629010636 -0.0025940920026772105 0 0.0042495826743393951 -0.0024554481740786988 0 0.0043336290875332995 -0.0025194760981380473 0 0.0042725561629010636 -0.0025940920026772105 0 0.0043336290875332995 -0.0025194760981380473 0 0.0042725561629010636 -0.0025940920026772105 0 0.0043922171029178395 -0.0025797462760990676 0 0.0043336290875332995 -0.0025194760981380473 0 0.0043922171029178395 -0.0025797462760990676 0 0.0044258971123767709 -0.0025158715744319224 0 0.0043922171029178395 -0.0025797462760990676 0 0.0043619121768377431 -0.002667149701891251 0 0.0044357747846320026 -0.0026297057757416606 0 0.0042725561629010636 -0.0025940920026772105 0 0.0043922171029178395 -0.0025797462760990676 0 0.0043619121768377431 -0.002667149701891251 0 0.0045065881800982061 -0.0025943049952744557 0 0.0044788528753746193 -0.0025559316459685985 0 0.0044357747846320026 -0.0026297057757416606 0 0.0043922171029178395 -0.0025797462760990676 0 0.0044788528753746193 -0.0025559316459685985 0 0.0044357747846320026 -0.0026297057757416606 0 0.0044788528753746193 -0.0025559316459685985 0 0.0044848637775726065 -0.0024625535872549774 0 0.0044258971123767709 -0.0025158715744319224 0 0.0043922171029178395 -0.0025797462760990676 0 0.0044788528753746193 -0.0025559316459685985 0 0.0044258971123767709 -0.0025158715744319224 0 0.0045065881800982061 -0.0025943049952744557 0 0.0044788528753746193 -0.0025559316459685985 0 0.0045442588568357332 -0.0025463803337593834 0 0.0044788528753746193 -0.0025559316459685985 0 0.0045513455034791881 -0.0024789289099958266 0 0.0045442588568357332 -0.0025463803337593834 0 0.0044788528753746193 -0.0025559316459685985 0 0.0044848637775726065 -0.0024625535872549774 0 0.0045513455034791881 -0.0024789289099958266 0 0.0044848637775726065 -0.0024625535872549774 0 0.0045645073286228674 -0.002389504624091477 0 0.0045513455034791881 -0.0024789289099958266 0 0.0043825149270866363 -0.0024421409576141748 0 0.0044848637775726065 -0.0024625535872549774 0 0.0044258971123767709 -0.0025158715744319224 0 0.0043295010580218004 -0.0023353345609255652 0 0.0043825149270866363 -0.0024421409576141748 0 0.0044608996663886421 -0.0023312209919700501 0 0.0043825149270866363 -0.0024421409576141748 0 0.0044848637775726065 -0.0024625535872549774 0 0.0044608996663886421 -0.0023312209919700501 0 0.0045511476200934152 -0.0022969600134191111 0 0.0044608996663886421 -0.0023312209919700501 0 0.0045645073286228674 -0.002389504624091477 0 0.0044848637775726065 -0.0024625535872549774 0 0.0044608996663886421 -0.0023312209919700501 0 0.0045645073286228674 -0.002389504624091477 0 0.005431345414523267 -0.0011971950512403957 0 0.0062350445031496005 3.2685420056464686e-06 0 0.004846730173858972 -0.0010626818876668487 0 0.0048513961213752215 -0.0010611309743629254 0 0.0048589663593316505 -0.0010570042461877471 0 0.005431345414523267 -0.0011971950512403957 0 0.0056930641417406447 -0.0013789162461544315 0 0.0067437766347508326 2.524454152638828e-05 0 0.0067509241327262598 -0.00012572308364023561 0 0.006729251497611357 -0.00021222514231097761 0 0.0047773722317019226 -0.0023181851147974419 0 0.0046129296133268364 -0.0024794752807539397 0 0.0045787938316452564 -0.0025981337823055071 0 0.0046306791590264322 -0.0023379865878648447 0 0.0046243641034070431 -0.0024023779801332166 0 0.0047773722317019226 -0.0023181851147974419 0 0.0045511476200934152 -0.0022969600134191111 0 0.0045645073286228674 -0.002389504624091477 0 0.0046306791590264322 -0.0023379865878648447 0 0.0067437766347508326 2.524454152638828e-05 0 0.0067725210751161547 -0.00012251241306488093 0 0.0067509241327262598 -0.00012572308364023561 0 0.0045645073286228674 -0.002389504624091477 0 0.0046306791590264322 -0.0023379865878648447 0 0.0046243641034070431 -0.0024023779801332166 0 0.0046243641034070431 -0.0024023779801332166 0 0.0047773722317019226 -0.0023181851147974419 0 0.0046129296133268364 -0.0024794752807539397 0 0.0046243641034070431 -0.0024023779801332166 0 0.0046129296133268364 -0.0024794752807539397 0 0.0045513455034791881 -0.0024789289099958266 0 0.0045645073286228674 -0.002389504624091477 0 0.0046243641034070431 -0.0024023779801332166 0 0.0045513455034791881 -0.0024789289099958266 0 0.0067192169757662153 -8.3058289835218017e-05 0 0.0062350445031496005 3.2685420056464686e-06 0 0.004868007409360461 -0.0010646301654793798 0 0.0048549377846159765 -0.0010619085653653707 0 0.0048589663593316505 -0.0010570042461877471 0 0.0048528093693542664 -0.0010623115349298823 0 0.0048452360708313314 -0.0010629639854839198 0 0.0048549377846159765 -0.0010619085653653707 0 0.0048452360708313314 -0.0010629639854839198 0 0.0048549377846159765 -0.0010619085653653707 0 0.0048513961213752215 -0.0010611309743629254 0 0.0048452360708313314 -0.0010629639854839198 0 0.004846730173858972 -0.0010626818876668487 0 0.0048513961213752215 -0.0010611309743629254 0 0.0048549377846159765 -0.0010619085653653707 0 0.0048513961213752215 -0.0010611309743629254 0 0.0048589663593316505 -0.0010570042461877471 0 0.0079502730214216586 0.00066111175513205317 0 0.0075646752860861676 0.00018390204587332066 0 0.0070476216912382563 0.00053174887817171934 0 0.0075646752860861676 0.00018390204587332066 0 0.0070476216912382563 0.00053174887817171934 0 0.0071157710372411302 -0.00024321414103300581 0 0.0062350445031496005 3.2685420056464686e-06 0 0.0070607239208697438 -0.00031609220875101926 0 0.0067773322529836944 -0.00011067813218273602 0 0.006729251497611357 -0.00021222514231097761 0 0.0068741260295781563 -0.00041771456473425 0 0.0046129296133268364 -0.0024794752807539397 0 0.0045442588568357332 -0.0025463803337593834 0 0.0045787938316452564 -0.0025981337823055071 0 0.0046129296133268364 -0.0024794752807539397 0 0.0045513455034791881 -0.0024789289099958266 0 0.0045442588568357332 -0.0025463803337593834 0 0.0067773322529836944 -0.00011067813218273602 0 0.0067509241327262598 -0.00012572308364023561 0 0.006729251497611357 -0.00021222514231097761 0 0.0062350445031496005 3.2685420056464686e-06 0 0.0063491311138665447 7.5531013111009222e-06 0 0.0045065881800982061 -0.0025943049952744557 0 0.0045787938316452564 -0.0025981337823055071 0 0.0044828807274006196 -0.0026125639210078234 0 0.0045065881800982061 -0.0025943049952744557 0 0.0045442588568357332 -0.0025463803337593834 0 0.0045787938316452564 -0.0025981337823055071 0 0.0045787938316452564 -0.0025981337823055071 0 0.0044378177667672132 -0.0025904199838752999 0 0.0044828807274006196 -0.0026125639210078234 0 0.006729251497611357 -0.00021222514231097761 0 0.0068741260295781563 -0.00041771456473425 0 0.0066029373823809695 -0.00065146895527852251 0 0.0056930641417406447 -0.0013789162461544315 0 0.0055144978874888621 -0.0016224011836155213 0 0.0075646752860861676 0.00018390204587332066 0 0.0071157710372411302 -0.00024321414103300581 0 0.0075699667136643169 -0.00025991706451225738 0 0.0071157710372411302 -0.00024321414103300581 0 0.0075699667136643169 -0.00025991706451225738 0 0.0074474920175322127 -0.00061575029981272779 0 0.0071157710372411302 -0.00024321414103300581 0 0.0074474920175322127 -0.00061575029981272779 0 0.0070869468870355928 -0.0010340369574963946 0 0.0070607239208697438 -0.00031609220875101926 0 0.0070665382353612104 -0.0010145624268697068 0 0.0074474920175322127 -0.00061575029981272779 0 0.0070869468870355928 -0.0010340369574963946 0 0.0077028990043461259 -0.0011249189994240775 0 0.0068741260295781563 -0.00041771456473425 0 0.0066029373823809695 -0.00065146895527852251 0 0.0070869468870355928 -0.0010340369574963946 0 0.0066029373823809695 -0.00065146895527852251 0 0.0066931812889186931 -0.0011592017669385356 0 0.0070869468870355928 -0.0010340369574963946 0 0.0044378177667672132 -0.0025904199838752999 0 0.0044643591305050185 -0.0026018272960342788 0 0.004498231902852365 -0.0024944573936740177 0 0.0044643591305050185 -0.0026018272960342788 0 0.0044632420067559396 -0.0025367585216324691 0 0.004498231902852365 -0.0024944573936740177 0 0.0044420507016029037 -0.0026149010499135245 0 0.0044632420067559396 -0.0025367585216324691 0 0.004421184601640862 -0.0026430697480712782 0 0.0044643591305050185 -0.0026018272960342788 0 0.0044632420067559396 -0.0025367585216324691 0 0.004421184601640862 -0.0026430697480712782 0 0.004421184601640862 -0.0026430697480712782 0 0.0043619121768377431 -0.002667149701891251 0 0.0044357747846320026 -0.0026297057757416606 0 0.0043687312947316382 -0.0027112095854503518 0 0.004421184601640862 -0.0026430697480712782 0 0.0043619121768377431 -0.002667149701891251 0 0.0044643591305050185 -0.0026018272960342788 0 0.004421184601640862 -0.0026430697480712782 0 0.0044357747846320026 -0.0026297057757416606 0 0.0044643591305050185 -0.0026018272960342788 0 0.0044357747846320026 -0.0026297057757416606 0 0.0044828807274006196 -0.0026125639210078234 0 0.0045065881800982061 -0.0025943049952744557 0 0.0044357747846320026 -0.0026297057757416606 0 0.0044828807274006196 -0.0026125639210078234 0 0.0044378177667672132 -0.0025904199838752999 0 0.0044643591305050185 -0.0026018272960342788 0 0.0044828807274006196 -0.0026125639210078234 0 0.0047564155047410094 -0.0024796698665540671 0 0.0044970485363370963 -0.0023429757294972718 0 0.0042988069083778587 -0.0019397972009277059 0 0.0054037700785146631 -0.0019898587503659766 0 0.005359953916487332 -0.0028553201542299896 0 0.0047564155047410094 -0.0024796698665540671 0 0.0045709325330883727 -0.0023529385661658722 0 0.0053975139335657608 -0.0028388540263506799 0 0.0047564155047410094 -0.0024796698665540671 0 0.0044970485363370963 -0.0023429757294972718 0 0.004528186291467784 -0.0023963492751092014 0 0.0047564155047410094 -0.0024796698665540671 0 0.004528186291467784 -0.0023963492751092014 0 0.0045709325330883727 -0.0023529385661658722 0 0.0045126429714709496 -0.0024128561985184769 0 0.0044723642688143366 -0.0022514680835654774 0 0.0044673405103189453 -0.0024266840203049497 0 0.0044970485363370963 -0.0023429757294972718 0 0.0044673405103189453 -0.0024266840203049497 0 0.004528186291467784 -0.0023963492751092014 0 0.0044970485363370963 -0.0023429757294972718 0 0.0044723642688143366 -0.0022514680835654774 0 0.0044673405103189453 -0.0024266840203049497 0 0.0044632420067559396 -0.0025367585216324691 0 0.0044673405103189453 -0.0024266840203049497 0 0.004528186291467784 -0.0023963492751092014 0 0.0044420507016029037 -0.0026149010499135245 0 0.0044632420067559396 -0.0025367585216324691 0 0.0044673405103189453 -0.0024266840203049497 0 0.0044632420067559396 -0.0025367585216324691 0 0.004528186291467784 -0.0023963492751092014 0 0.004498231902852365 -0.0024944573936740177 0 0.0044378177667672132 -0.0025904199838752999 0 0.004498231902852365 -0.0024944573936740177 0 0.0045709325330883727 -0.0023529385661658722 0 0.004528186291467784 -0.0023963492751092014 0 0.004498231902852365 -0.0024944573936740177 0 0.0045709325330883727 -0.0023529385661658722 0 0.0066029373823809695 -0.00065146895527852251 0 0.0066931812889186931 -0.0011592017669385356 0 0.0062086896049216335 -0.0014762344918549835 0 0.0055144978874888621 -0.0016224011836155213 0 0.0054037700785146631 -0.0019898587503659766 0 0.0066931812889186931 -0.0011592017669385356 0 0.006897679063295933 -0.0015482321337262457 0 0.0070869468870355928 -0.0010340369574963946 0 0.0066931812889186931 -0.0011592017669385356 0 0.006897679063295933 -0.0015482321337262457 0 0.0062086896049216335 -0.0014762344918549835 0 0.006897679063295933 -0.0015482321337262457 0 0.0070869468870355928 -0.0010340369574963946 0 0.0074637721265871319 -0.0017208670879289838 0 0.0070869468870355928 -0.0010340369574963946 0 0.0074637721265871319 -0.0017208670879289838 0 0.0077028990043461259 -0.0011249189994240775 0 0.0074637721265871319 -0.0017208670879289838 0 0.0069908500582725385 -0.0022532600036331827 0 0.0078320749240846886 -0.0023623754724989214 0 0.006897679063295933 -0.0015482321337262457 0 0.0074637721265871319 -0.0017208670879289838 0 0.0069908500582725385 -0.0022532600036331827 0 0.0062086896049216335 -0.0014762344918549835 0 0.0069908500582725385 -0.0022532600036331827 0 0.0053975139335657608 -0.0028388540263506799 0 0.006897679063295933 -0.0015482321337262457 0 0.0062086896049216335 -0.0014762344918549835 0 0.0069908500582725385 -0.0022532600036331827 0 0.0073130239669799355 -0.002032246983770782 0 0.0050990537279160912 -0.0032340048743073747 0 0.0069908500582725385 -0.0022532600036331827 0 0.005565857942898671 -0.0030901146783798576 0 0.0053975139335657608 -0.0028388540263506799 0 0.0069908500582725385 -0.0022532600036331827 0 0.0073420140395442134 -0.0027723362407810282 0 0.0069355623934253393 -0.0028391546085045115 0 0.0069908500582725385 -0.0022532600036331827 0 0.0073420140395442134 -0.0027723362407810282 0 0.0078320749240846886 -0.0023623754724989214 0 0.0073420140395442134 -0.0027723362407810282 0 0.0072093304089272288 -0.0031299963705090947 0 0.0081003860998229982 -0.0032302476048059769 0 0.030519894758235501 -0.0080639616879089032 0 0.030196884414167211 -0.0078607847282771964 0 0.028398093739734207 -0.0084565220284386899 0 0.01957250314283385 -0.0055894947505904851 0 0.01786553779511784 -0.0059652204969282419 0 0.0073420140395442134 -0.0027723362407810282 0 0.0072093304089272288 -0.0031299963705090947 0 0.0069355623934253393 -0.0028391546085045115 0 0.0050990537279160912 -0.0032340048743073747 0 0.015845276193980833 -0.0052360917947104728 0 0.0072093304089272288 -0.0031299963705090947 0 0.0069355623934253393 -0.0028391546085045115 0 0.0068677209451645793 -0.0031041658620214593 0 0.0054228541666232468 -0.0030015568118178246 0 0.005565857942898671 -0.0030901146783798576 0 0.0054470653248253585 -0.0029983830381445152 0 0.0054228541666232468 -0.0030015568118178246 0 0.0053509890283280105 -0.0029730776515787738 0 0.0054470653248253585 -0.0029983830381445152 0 0.01957250314283385 -0.0055894947505904851 0 0.015845276193980833 -0.0052360917947104728 0 0.0047564155047410094 -0.0024796698665540671 0 0.0053975139335657608 -0.0028388540263506799 0 0.0053509890283280105 -0.0029730776515787738 0 0.0054228541666232468 -0.0030015568118178246 0 0.005565857942898671 -0.0030901146783798576 0 0.0053975139335657608 -0.0028388540263506799 0 0.0050900074940188186 -0.0022325184428473245 0 0.0038745285629835481 -0.0026389322178346814 0 0.0054228541666232468 -0.0030015568118178246 0 0.0053975139335657608 -0.0028388540263506799 0 0.0053509890283280105 -0.0029730776515787738 0 0.0045702923780242717 -0.0018563996687025526 0 0.0044723642688143366 -0.0022514680835654774 0 0.0042988069083778587 -0.0019397972009277059 0 0.0044970485363370963 -0.0023429757294972718 0 0.0044723642688143366 -0.0022514680835654774 0 0.0042988069083778587 -0.0019397972009277059 0 0.0045496188731732196 -0.001524921082400264 0 0.0045702923780242717 -0.0018563996687025526 0 0.0042988069083778587 -0.0019397972009277059 0 0.0053509890283280105 -0.0029730776515787738 0 0.005559288440707833 -0.002973999696162309 0 0.0054470653248253585 -0.0029983830381445152 0 0.0045496188731732196 -0.001524921082400264 0 0.0044913124113126644 -0.001172584677108885 0 0.0042988069083778587 -0.0019397972009277059 0 0.012901238636081896 -0.0033874649878839328 0 0.0038745285629835481 -0.0026389322178346814 0 0.0055704813084482743 -0.0029786489898585926 0 0.0053509890283280105 -0.0029730776515787738 0 0.005559288440707833 -0.002973999696162309 0 0.01697092680463989 -0.0048815139918982316 0 0.0299358077186586 -0.0088869080435348743 0 0.033550742081627755 -0.010826661892178822 0 0.033190503604536785 -0.012224270828898241 0 0.031995035948263008 -0.011366402790251485 0 0.01697092680463989 -0.0048815139918982316 0 0.015845276193980833 -0.0052360917947104728 0 0.021002606538368572 -0.00574371307599051 0 0.020872932304512638 -0.0056522308119353049 0 0.020731614214887777 -0.0057886903073700036 0 0.0299358077186586 -0.0088869080435348743 0 0.015845276193980833 -0.0052360917947104728 0 0.030889324280807425 -0.0077844126238527309 0 0.030805499500616167 -0.0078396208925878078 0 0.030714967100010742 -0.0077431810307465338 0 0.030889324280807425 -0.0077844126238527309 0 0.030714967100010742 -0.0077431810307465338 0 0.030735376583367866 -0.0074481387516397105 0 0.030519894758235501 -0.0080639616879089032 0 0.030805499500616167 -0.0078396208925878078 0 0.030714967100010742 -0.0077431810307465338 0 0.035035234883055481 -0.0085675073871425249 0 0.034769301402494381 -0.0078190219624723351 0 0.033127071848518909 -0.0083463832786702143 0 0.0299358077186586 -0.0088869080435348743 0 0.032540550953307427 -0.0079585933133933303 0 0.035028154634019579 -0.009642466059048083 0 0.035035234883055481 -0.0085675073871425249 0 0.033127071848518909 -0.0083463832786702143 0 0.03642937756243643 -0.008071160214003073 0 0.035035234883055481 -0.0085675073871425249 0 0.035660128957485764 -0.0078477820329314191 0 0.03642937756243643 -0.008071160214003073 0 0.035028154634019579 -0.009642466059048083 0 0.035035234883055481 -0.0085675073871425249 0 0.035035234883055481 -0.0085675073871425249 0 0.035660128957485764 -0.0078477820329314191 0 0.034769301402494381 -0.0078190219624723351 0 0.035747137335265231 -0.0071083430626152347 0 0.034769301402494381 -0.0078190219624723351 0 0.034498401421306814 -0.0065572834082268227 0 0.035660128957485764 -0.0078477820329314191 0 0.035747137335265231 -0.0071083430626152347 0 0.034769301402494381 -0.0078190219624723351 0 0.034498401421306814 -0.0065572834082268227 0 0.03274613240824116 -0.0059604909941952033 0 0.033127071848518909 -0.0083463832786702143 0 0.034769301402494381 -0.0078190219624723351 0 0.034498401421306814 -0.0065572834082268227 0 0.033127071848518909 -0.0083463832786702143 0 0.034498401421306814 -0.0065572834082268227 0 0.03274613240824116 -0.0059604909941952033 0 0.034367405171884913 -0.0049568090726379386 0 0.035880850573185255 -0.0062570893003249198 0 0.035747137335265231 -0.0071083430626152347 0 0.034498401421306814 -0.0065572834082268227 0 0.034498401421306814 -0.0065572834082268227 0 0.035307747142686405 -0.005566105666120179 0 0.034367405171884913 -0.0049568090726379386 0 0.035880850573185255 -0.0062570893003249198 0 0.034498401421306814 -0.0065572834082268227 0 0.035307747142686405 -0.005566105666120179 0 0.035880850573185255 -0.0062570893003249198 0 0.035307747142686405 -0.005566105666120179 0 0.036207462008187592 -0.0053963218777868362 0 0.03274613240824116 -0.0059604909941952033 0 0.030758555644157373 -0.0067237441509508961 0 0.030914424982744857 -0.0050739403242117623 0 0.030515929090838029 -0.0067048851489909436 0 0.032540550953307427 -0.0079585933133933303 0 0.03274613240824116 -0.0059604909941952033 0 0.030758555644157373 -0.0067237441509508961 0 0.033127071848518909 -0.0083463832786702143 0 0.030758555644157373 -0.0067237441509508961 0 0.030347283304190613 -0.0074447461311654851 0 0.030002130485694001 -0.0072604335376009162 0 0.030758555644157373 -0.0067237441509508961 0 0.030347283304190613 -0.0074447461311654851 0 0.030735376583367866 -0.0074481387516397105 0 0.030347283304190613 -0.0074447461311654851 0 0.030735376583367866 -0.0074481387516397105 0 0.030463663680016979 -0.0076795831723439701 0 0.030714967100010742 -0.0077431810307465338 0 0.030735376583367866 -0.0074481387516397105 0 0.030463663680016979 -0.0076795831723439701 0 0.030519894758235501 -0.0080639616879089032 0 0.030714967100010742 -0.0077431810307465338 0 0.030463663680016979 -0.0076795831723439701 0 0.030519894758235501 -0.0080639616879089032 0 0.030463663680016979 -0.0076795831723439701 0 0.030196884414167211 -0.0078607847282771964 0 0.030347283304190613 -0.0074447461311654851 0 0.030257319111028705 -0.0077039553132224377 0 0.029716600161753069 -0.0079366136859165149 0 0.030257319111028705 -0.0077039553132224377 0 0.030196884414167211 -0.0078607847282771964 0 0.029716600161753069 -0.0079366136859165149 0 0.030347283304190613 -0.0074447461311654851 0 0.030463663680016979 -0.0076795831723439701 0 0.030257319111028705 -0.0077039553132224377 0 0.030463663680016979 -0.0076795831723439701 0 0.030257319111028705 -0.0077039553132224377 0 0.030196884414167211 -0.0078607847282771964 0 0.030196884414167211 -0.0078607847282771964 0 0.028100917619583356 -0.0072512401713110538 0 0.028398093739734207 -0.0084565220284386899 0 0.030117052962956272 -0.0078655198291985237 0 0.028919342171863816 -0.0076013842569928221 0 0.028100917619583356 -0.0072512401713110538 0 0.027271495705155593 -0.007657898617663958 0 0.028398093739734207 -0.0084565220284386899 0 0.028100917619583356 -0.0072512401713110538 0 0.027271495705155593 -0.007657898617663958 0 0.026782240281662102 -0.0070259573120100153 0 0.029716600161753069 -0.0079366136859165149 0 0.029338742062660506 -0.0067878635113501245 0 0.028076064529499165 -0.0075729587188074713 0 0.028919342171863816 -0.0076013842569928221 0 0.027424757130112852 -0.0072642089129054642 0 0.029716600161753069 -0.0079366136859165149 0 0.030002130485694001 -0.0072604335376009162 0 0.029338742062660506 -0.0067878635113501245 0 0.030347283304190613 -0.0074447461311654851 0 0.029716600161753069 -0.0079366136859165149 0 0.030002130485694001 -0.0072604335376009162 0 0.030758555644157373 -0.0067237441509508961 0 0.029338742062660506 -0.0067878635113501245 0 0.029571983786433532 -0.0056295142921219659 0 0.030758555644157373 -0.0067237441509508961 0 0.030002130485694001 -0.0072604335376009162 0 0.029338742062660506 -0.0067878635113501245 0 0.029338742062660506 -0.0067878635113501245 0 0.028654099478342007 -0.0059069538490263002 0 0.029571983786433532 -0.0056295142921219659 0 0.029338742062660506 -0.0067878635113501245 0 0.028654099478342007 -0.0059069538490263002 0 0.028076064529499165 -0.0075729587188074713 0 0.028654099478342007 -0.0059069538490263002 0 0.029571983786433532 -0.0056295142921219659 0 0.028295974683895716 -0.004909561420773356 0 0.030758555644157373 -0.0067237441509508961 0 0.029571983786433532 -0.0056295142921219659 0 0.030914424982744857 -0.0050739403242117623 0 0.026456256176674461 -0.0056498815037400304 0 0.027262857649714357 -0.0050090259277825516 0 0.026222676577187777 -0.0047126579232085672 0 0.026456256176674461 -0.0056498815037400304 0 0.027262857649714357 -0.0050090259277825516 0 0.027497612022109718 -0.0059539342646262421 0 0.028654099478342007 -0.0059069538490263002 0 0.027497612022109718 -0.0059539342646262421 0 0.028295974683895716 -0.004909561420773356 0 0.027262857649714357 -0.0050090259277825516 0 0.027497612022109718 -0.0059539342646262421 0 0.028295974683895716 -0.004909561420773356 0 0.028654099478342007 -0.0059069538490263002 0 0.027497612022109718 -0.0059539342646262421 0 0.028076064529499165 -0.0075729587188074713 0 0.027497612022109718 -0.0059539342646262421 0 0.028076064529499165 -0.0075729587188074713 0 0.026102180524369935 -0.0067043992087047919 0 0.026456256176674461 -0.0056498815037400304 0 0.027497612022109718 -0.0059539342646262421 0 0.026102180524369935 -0.0067043992087047919 0 0.026782240281662102 -0.0070259573120100153 0 0.026378580431559981 -0.007590867672560348 0 0.026102180524369935 -0.0067043992087047919 0 0.027424757130112852 -0.0072642089129054642 0 0.026169635964125231 -0.0067552476560319447 0 0.027271495705155593 -0.007657898617663958 0 0.026782240281662102 -0.0070259573120100153 0 0.026378580431559981 -0.007590867672560348 0 0.027271495705155593 -0.007657898617663958 0 0.026378580431559981 -0.007590867672560348 0 0.026831911398327926 -0.0081411432258802693 0 0.026378580431559981 -0.007590867672560348 0 0.025541817303123836 -0.0075906174229605815 0 0.026102180524369935 -0.0067043992087047919 0 0.026378580431559981 -0.007590867672560348 0 0.025969350762857418 -0.0082645879265427977 0 0.025541817303123836 -0.0075906174229605815 0 0.026378580431559981 -0.007590867672560348 0 0.025969350762857418 -0.0082645879265427977 0 0.026831911398327926 -0.0081411432258802693 0 0.013096643437641369 -0.00016882791621973143 0 0.013702594878035292 -0.0016771600945798756 0 0.015176432177588529 -3.0704460559530613e-06 0 0.019962925843933315 -0.0041203716959176606 0 0.019040337367371776 -0.0050236805564364863 0 0.013096643437641369 -0.00016882791621973143 0 0.013702594878035292 -0.0016771600945798756 0 0.012771742834606196 -0.0012894957898924465 0 0.0095339538236437864 -0.0022478820220623499 0 0.0086594781150478532 -0.0024551484633458858 0 0.0089976703833050467 -0.0018940250047814219 0 0.010635941038353552 -0.0016573252292048943 0 0.019040337367371776 -0.0050236805564364863 0 0.010393072157881898 -0.002154535007162122 0 0.0094837295628686785 -0.0032335487039082222 0 0.0086594781150478532 -0.0024551484633458858 0 0.010635941038353552 -0.0016573252292048943 0 0.0084024663933493955 -0.0026117278575924969 0 0.027701467951068603 -0.0071982379535554799 0 0.019040337367371776 -0.0050236805564364863 0 0.019040337367371776 -0.0050236805564364863 0 0.01786553779511784 -0.0059652204969282419 0 0.0094837295628686785 -0.0032335487039082222 0 0.0081003860998229982 -0.0032302476048059769 0 0.0086594781150478532 -0.0024551484633458858 0 0.027271495705155593 -0.007657898617663958 0 0.026401966969639264 -0.0086020593995447432 0 0.028398093739734207 -0.0084565220284386899 0 0.0073420140395442134 -0.0027723362407810282 0 0.0081003860998229982 -0.0032302476048059769 0 0.0078320749240846886 -0.0023623754724989214 0 0.0081003860998229982 -0.0032302476048059769 0 0.0078320749240846886 -0.0023623754724989214 0 0.0086594781150478532 -0.0024551484633458858 0 0.0078320749240846886 -0.0023623754724989214 0 0.0086594781150478532 -0.0024551484633458858 0 0.0084658317274462422 -0.0019733421692156141 0 0.0084658317274462422 -0.0019733421692156141 0 0.0086288928483524499 -0.0014907603244899499 0 0.0089976703833050467 -0.0018940250047814219 0 0.0084658317274462422 -0.0019733421692156141 0 0.0080372474294247657 -0.0016348491991692085 0 0.0086288928483524499 -0.0014907603244899499 0 0.0086594781150478532 -0.0024551484633458858 0 0.0084658317274462422 -0.0019733421692156141 0 0.0089976703833050467 -0.0018940250047814219 0 0.0078320749240846886 -0.0023623754724989214 0 0.0084658317274462422 -0.0019733421692156141 0 0.0080372474294247657 -0.0016348491991692085 0 0.0074637721265871319 -0.0017208670879289838 0 0.0078320749240846886 -0.0023623754724989214 0 0.0080372474294247657 -0.0016348491991692085 0 0.0080372474294247657 -0.0016348491991692085 0 0.0077028990043461259 -0.0011249189994240775 0 0.0082194325930555114 -0.0010583986496736334 0 0.0074637721265871319 -0.0017208670879289838 0 0.0080372474294247657 -0.0016348491991692085 0 0.0077028990043461259 -0.0011249189994240775 0 0.0080372474294247657 -0.0016348491991692085 0 0.0086288928483524499 -0.0014907603244899499 0 0.0082194325930555114 -0.0010583986496736334 0 0.0087352790133845629 -0.0010377789975853403 0 0.0086288928483524499 -0.0014907603244899499 0 0.0082194325930555114 -0.0010583986496736334 0 0.0086288928483524499 -0.0014907603244899499 0 0.0092596861909340286 -0.0013311624287202241 0 0.0089976703833050467 -0.0018940250047814219 0 0.0087352790133845629 -0.0010377789975853403 0 0.0086288928483524499 -0.0014907603244899499 0 0.0092596861909340286 -0.0013311624287202241 0 0.0096806903309846811 -0.00099054656991510873 0 0.0092596861909340286 -0.0013311624287202241 0 0.0099704394272438213 -0.0017096516838828945 0 0.0092596861909340286 -0.0013311624287202241 0 0.0094392603652089704 -0.0017994680701697483 0 0.0099704394272438213 -0.0017096516838828945 0 0.0095339538236437864 -0.0022478820220623499 0 0.0094392603652089704 -0.0017994680701697483 0 0.0099704394272438213 -0.0017096516838828945 0 0.010635941038353552 -0.0016573252292048943 0 0.0082522955081672702 -0.0019816135191642217 0 0.0092596861909340286 -0.0013311624287202241 0 0.0094392603652089704 -0.0017994680701697483 0 0.0089976703833050467 -0.0018940250047814219 0 0.0095339538236437864 -0.0022478820220623499 0 0.0094392603652089704 -0.0017994680701697483 0 0.0089976703833050467 -0.0018940250047814219 0 0.0088753615229707726 -0.0015312591304423031 0 0.0089961027032378175 -0.0016781764652544641 0 0.0087763681685151442 -0.0017018971380419329 0 0.0088753615229707726 -0.0015312591304423031 0 0.0089961027032378175 -0.0016781764652544641 0 0.0090665309246898886 -0.0014597950397199509 0 0.0088753615229707726 -0.0015312591304423031 0 0.0087051896495381701 -0.0015287863846653483 0 0.0087763681685151442 -0.0017018971380419329 0 0.010149934554683786 -0.0015258295860584618 0 0.0097374405040632737 -0.0020230215892045184 0 0.0095787709548441138 -0.0016094995315826509 0 0.0082522955081672702 -0.0019816135191642217 0 0.010606418946844916 -0.0016171077561399556 0 0.0071840941429759195 -0.0021956139741756819 0 0.0082522955081672702 -0.0019816135191642217 0 0.0075228671028333199 -0.0019308510990685935 0 0.0082522955081672702 -0.0019816135191642217 0 0.0058527579153636383 -0.0028239084433908323 0 0.0053446589577932158 -0.0027652725124603247 0 0.0055524657964680698 -0.0031887749011875149 0 0.0088826375838741197 -0.0013112372252028397 0 0.0088753615229707726 -0.0015312591304423031 0 0.0087051896495381701 -0.0015287863846653483 0 0.0088826375838741197 -0.0013112372252028397 0 0.0088753615229707726 -0.0015312591304423031 0 0.0090665309246898886 -0.0014597950397199509 0 0.0088826375838741197 -0.0013112372252028397 0 0.0090283490433518913 -0.0013171970918611402 0 0.0090665309246898886 -0.0014597950397199509 0 0.0090283490433518913 -0.0013171970918611402 0 0.0090665309246898886 -0.0014597950397199509 0 0.009191215601684264 -0.0014673365702780182 0 0.0090473111551075524 -0.0012571413051793191 0 0.009191215601684264 -0.0014673365702780182 0 0.0091835451745741759 -0.0013674002469701812 0 0.0090473111551075524 -0.0012571413051793191 0 0.0090283490433518913 -0.0013171970918611402 0 0.009191215601684264 -0.0014673365702780182 0 0.009191215601684264 -0.0014673365702780182 0 0.0091223003842733907 -0.0014976051833366769 0 0.0091835451745741759 -0.0013674002469701812 0 0.0093610188836601889 -0.0016127502801920838 0 0.0092204585184297479 -0.0012823177707880541 0 0.0091223003842733907 -0.0014976051833366769 0 0.009191215601684264 -0.0014673365702780182 0 0.0093610188836601889 -0.0016127502801920838 0 0.0091223003842733907 -0.0014976051833366769 0 0.0097402065930315765 -0.0017012630756650131 0 0.0094437528598524164 -0.0016492130552006774 0 0.0089961027032378175 -0.0016781764652544641 0 0.0090665309246898886 -0.0014597950397199509 0 0.0093610188836601889 -0.0016127502801920838 0 0.0090665309246898886 -0.0014597950397199509 0 0.009191215601684264 -0.0014673365702780182 0 0.0093610188836601889 -0.0016127502801920838 0 0.010542053097237294 -0.0017307723315171369 0 0.0093610188836601889 -0.0016127502801920838 0 0.0096163926144401668 -0.0007537361366961742 0 0.0092204585184297479 -0.0012823177707880541 0 0.0089702812950101969 -0.0010677030689772615 0 0.0091223003842733907 -0.0014976051833366769 0 0.0092204585184297479 -0.0012823177707880541 0 0.0096163926144401668 -0.0007537361366961742 0 0.0089702812950101969 -0.0010677030689772615 0 0.0093610188836601889 -0.0016127502801920838 0 0.0092204585184297479 -0.0012823177707880541 0 0.0096163926144401668 -0.0007537361366961742 0 0.017183857081411909 -0.0047333313994828577 0 0.013669035410969376 -0.004015066247010199 0 0.023214915979222955 -0.0081334794701244315 0 0.022547173100766888 -0.007731250326815862 0 0.022537956566815266 -0.0087582138810773282 0 0.023214915979222955 -0.0081334794701244315 0 0.023824836972556759 -0.0086223433837665647 0 0.022537956566815266 -0.0087582138810773282 0 0.023214915979222955 -0.0081334794701244315 0 0.023824836972556759 -0.0086223433837665647 0 0.023738889836279232 -0.0078556478400501756 0 0.023824836972556759 -0.0086223433837665647 0 0.024985348360434718 -0.0084588216740047045 0 0.024441258260420106 -0.0076537241251679183 0 0.017183857081411909 -0.0047333313994828577 0 0.017885175174996552 -0.0044585798740382028 0 0.023824836972556759 -0.0086223433837665647 0 0.023738889836279232 -0.0078556478400501756 0 0.024441258260420106 -0.0076537241251679183 0 0.024985348360434718 -0.0084588216740047045 0 0.025541817303123836 -0.0075906174229605815 0 0.024441258260420106 -0.0076537241251679183 0 0.010542053097237294 -0.0017307723315171369 0 0.0096163926144401668 -0.0007537361366961742 0 0.010934212411449323 -0.0011618761822621889 0 0.0097402065930315765 -0.0017012630756650131 0 0.010606418946844916 -0.0016171077561399556 0 0.010542053097237294 -0.0017307723315171369 0 0.010934212411449323 -0.0011618761822621889 0 0.011907136007075408 -0.0017467675626934552 0 0.0096163926144401668 -0.0007537361366961742 0 0.011122906318698207 -0.00042189660513436303 0 0.010934212411449323 -0.0011618761822621889 0 0.011122906318698207 -0.00042189660513436303 0 0.010934212411449323 -0.0011618761822621889 0 0.011758140505549091 -0.001333307791411831 0 0.013702594878035292 -0.0016771600945798756 0 0.011969359142319497 -0.0018812289336494746 0 0.012771742834606196 -0.0012894957898924465 0 0.010635941038353552 -0.0016573252292048943 0 0.010606418946844916 -0.0016171077561399556 0 0.011969359142319497 -0.0018812289336494746 0 0.011758140505549091 -0.001333307791411831 0 0.012771742834606196 -0.0012894957898924465 0 0.010934212411449323 -0.0011618761822621889 0 0.011907136007075408 -0.0017467675626934552 0 0.011758140505549091 -0.001333307791411831 0 0.010606418946844916 -0.0016171077561399556 0 0.011033007497389429 -0.001719219298674845 0 0.013096643437641369 -0.00016882791621973143 0 0.011758140505549091 -0.001333307791411831 0 0.012771742834606196 -0.0012894957898924465 0 0.019962925843933315 -0.0041203716959176606 0 0.017885175174996552 -0.0044585798740382028 0 0.013096643437641369 -0.00016882791621973143 0 0.011122906318698207 -0.00042189660513436303 0 0.011758140505549091 -0.001333307791411831 0 0.025969350762857418 -0.0082645879265427977 0 0.024985348360434718 -0.0084588216740047045 0 0.025541817303123836 -0.0075906174229605815 0 0.025541817303123836 -0.0075906174229605815 0 0.025148165057131407 -0.0069283815325544822 0 0.024441258260420106 -0.0076537241251679183 0 0.025148165057131407 -0.0069283815325544822 0 0.024226388523091745 -0.0065914846571863955 0 0.024441258260420106 -0.0076537241251679183 0 0.025541817303123836 -0.0075906174229605815 0 0.025148165057131407 -0.0069283815325544822 0 0.026102180524369935 -0.0067043992087047919 0 0.026456256176674461 -0.0056498815037400304 0 0.026102180524369935 -0.0067043992087047919 0 0.025309229826649189 -0.0058693730223370461 0 0.025148165057131407 -0.0069283815325544822 0 0.026102180524369935 -0.0067043992087047919 0 0.025309229826649189 -0.0058693730223370461 0 0.025309229826649189 -0.0058693730223370461 0 0.024204124947574793 -0.0053533182862152886 0 0.024226388523091745 -0.0065914846571863955 0 0.025148165057131407 -0.0069283815325544822 0 0.025309229826649189 -0.0058693730223370461 0 0.024226388523091745 -0.0065914846571863955 0 0.025309229826649189 -0.0058693730223370461 0 0.024204124947574793 -0.0053533182862152886 0 0.024962293858982038 -0.0047529511022207744 0 0.026456256176674461 -0.0056498815037400304 0 0.025309229826649189 -0.0058693730223370461 0 0.026222676577187777 -0.0047126579232085672 0 0.025309229826649189 -0.0058693730223370461 0 0.026222676577187777 -0.0047126579232085672 0 0.024962293858982038 -0.0047529511022207744 0 0.023159424501893046 -0.0051272877082007519 0 0.023137090698404108 -0.0056450177434388231 0 0.022966467340666402 -0.0052722964085226073 0 0.023566274698569128 -0.0054177457548263783 0 0.023267636007158657 -0.0048473401498816682 0 0.024204124947574793 -0.0053533182862152886 0 0.024788692811479583 -0.0044260750921294809 0 0.023092903177620104 -0.0058404030053073527 0 0.024788692811479583 -0.0044260750921294809 0 0.023641350218034353 -0.0052212574973011473 0 0.023566274698569128 -0.0054177457548263783 0 0.023267636007158657 -0.0048473401498816682 0 0.023137090698404108 -0.0056450177434388231 0 0.023159424501893046 -0.0051272877082007519 0 0.022966467340666402 -0.0052722964085226073 0 0.023062584608690911 -0.0051683017115523025 0 0.024204124947574793 -0.0053533182862152886 0 0.023949357322355751 -0.0046325492522431375 0 0.024962293858982038 -0.0047529511022207744 0 0.023147660803671973 -0.0047636048699473601 0 0.024204124947574793 -0.0053533182862152886 0 0.023949357322355751 -0.0046325492522431375 0 0.023566274698569128 -0.0054177457548263783 0 0.024204124947574793 -0.0053533182862152886 0 0.023671289025953508 -0.0058257958625893705 0 0.024204124947574793 -0.0053533182862152886 0 0.023671289025953508 -0.0058257958625893705 0 0.024226388523091745 -0.0065914846571863955 0 0.023403747123897738 -0.0062733207514652578 0 0.023671289025953508 -0.0058257958625893705 0 0.024226388523091745 -0.0065914846571863955 0 0.023403747123897738 -0.0062733207514652578 0 0.023671289025953508 -0.0058257958625893705 0 0.023137090698404108 -0.0056450177434388231 0 0.023566274698569128 -0.0054177457548263783 0 0.023671289025953508 -0.0058257958625893705 0 0.023137090698404108 -0.0056450177434388231 0 0.023403747123897738 -0.0062733207514652578 0 0.023137090698404108 -0.0056450177434388231 0 0.022828347765416205 -0.0060803805760414357 0 0.023403747123897738 -0.0062733207514652578 0 0.02303632641841883 -0.0066689668058417017 0 0.023550622397787109 -0.0069312849762161264 0 0.023403747123897738 -0.0062733207514652578 0 0.02303632641841883 -0.0066689668058417017 0 0.022828347765416205 -0.0060803805760414357 0 0.023403747123897738 -0.0062733207514652578 0 0.023550622397787109 -0.0069312849762161264 0 0.024226388523091745 -0.0065914846571863955 0 0.02303632641841883 -0.0066689668058417017 0 0.023550622397787109 -0.0069312849762161264 0 0.02311722737597708 -0.007077573529036903 0 0.02303632641841883 -0.0066689668058417017 0 0.02311722737597708 -0.007077573529036903 0 0.02272527348325102 -0.0071100656050717918 0 0.023550622397787109 -0.0069312849762161264 0 0.024226388523091745 -0.0065914846571863955 0 0.023869704275945664 -0.0073363251477121744 0 0.024226388523091745 -0.0065914846571863955 0 0.023869704275945664 -0.0073363251477121744 0 0.024441258260420106 -0.0076537241251679183 0 0.023869704275945664 -0.0073363251477121744 0 0.023738889836279232 -0.0078556478400501756 0 0.024441258260420106 -0.0076537241251679183 0 0.02311722737597708 -0.007077573529036903 0 0.022956137827977879 -0.0073870443841285507 0 0.02272527348325102 -0.0071100656050717918 0 0.02311722737597708 -0.007077573529036903 0 0.022956137827977879 -0.0073870443841285507 0 0.02332335969934745 -0.0075474675314433897 0 0.023550622397787109 -0.0069312849762161264 0 0.023869704275945664 -0.0073363251477121744 0 0.02332335969934745 -0.0075474675314433897 0 0.023550622397787109 -0.0069312849762161264 0 0.02311722737597708 -0.007077573529036903 0 0.02332335969934745 -0.0075474675314433897 0 0.023869704275945664 -0.0073363251477121744 0 0.023738889836279232 -0.0078556478400501756 0 0.02332335969934745 -0.0075474675314433897 0 0.023214915979222955 -0.0081334794701244315 0 0.023738889836279232 -0.0078556478400501756 0 0.02332335969934745 -0.0075474675314433897 0 0.022956137827977879 -0.0073870443841285507 0 0.02332335969934745 -0.0075474675314433897 0 0.022707909575601076 -0.0077174597047768283 0 0.023214915979222955 -0.0081334794701244315 0 0.02332335969934745 -0.0075474675314433897 0 0.022547173100766888 -0.007731250326815862 0 0.023915301426660939 -0.0066200953158122551 0 0.017617483714051925 -0.0054543028710841331 0 0.022702812348286413 -0.0077200436176469624 0 0.022357026694192903 -0.007473703874094322 0 0.021695081837725214 -0.007999625873849921 0 0.017617483714051925 -0.0054543028710841331 0 0.017912518706540526 -0.005915697470015655 0 0.022956137827977879 -0.0073870443841285507 0 0.022707909575601076 -0.0077174597047768283 0 0.022707254633055871 -0.0076057158116171145 0 0.022956137827977879 -0.0073870443841285507 0 0.022707254633055871 -0.0076057158116171145 0 0.022687053282656473 -0.0073943439329359041 0 0.022702812348286413 -0.0077200436176469624 0 0.022707254633055871 -0.0076057158116171145 0 0.022357026694192903 -0.007473703874094322 0 0.022707254633055871 -0.0076057158116171145 0 0.022357026694192903 -0.007473703874094322 0 0.022687053282656473 -0.0073943439329359041 0 0.022357026694192903 -0.007473703874094322 0 0.022178427514797271 -0.0070701868886405639 0 0.02272527348325102 -0.0071100656050717918 0 0.022357026694192903 -0.007473703874094322 0 0.02272527348325102 -0.0071100656050717918 0 0.022687053282656473 -0.0073943439329359041 0 0.022956137827977879 -0.0073870443841285507 0 0.02272527348325102 -0.0071100656050717918 0 0.022687053282656473 -0.0073943439329359041 0 0.021809216328216311 -0.0074144751790220466 0 0.021479122342121685 -0.0068807921312195259 0 0.021339766548033493 -0.0076408684245954928 0 0.021809216328216311 -0.0074144751790220466 0 0.021339766548033493 -0.0076408684245954928 0 0.021695081837725214 -0.007999625873849921 0 0.022357026694192903 -0.007473703874094322 0 0.021809216328216311 -0.0074144751790220466 0 0.021695081837725214 -0.007999625873849921 0 0.022178427514797271 -0.0070701868886405639 0 0.021809216328216311 -0.0074144751790220466 0 0.021479122342121685 -0.0068807921312195259 0 0.022357026694192903 -0.007473703874094322 0 0.022178427514797271 -0.0070701868886405639 0 0.021809216328216311 -0.0074144751790220466 0 0.022564924187319969 -0.0056461828728585619 0 0.022669934783799826 -0.0054587195503668605 0 0.023435639335975124 -0.004435103542086676 0 0.023175362847174408 -0.0048256416671931352 0 0.023691679969767711 -0.0045278455306583592 0 0.021479122342121685 -0.0068807921312195259 0 0.022425888410604777 -0.0065822387737273069 0 0.0221665537219808 -0.0060631321867316281 0 0.022178427514797271 -0.0070701868886405639 0 0.021479122342121685 -0.0068807921312195259 0 0.022425888410604777 -0.0065822387737273069 0 0.02303632641841883 -0.0066689668058417017 0 0.02272527348325102 -0.0071100656050717918 0 0.022425888410604777 -0.0065822387737273069 0 0.022178427514797271 -0.0070701868886405639 0 0.02272527348325102 -0.0071100656050717918 0 0.022425888410604777 -0.0065822387737273069 0 0.02303632641841883 -0.0066689668058417017 0 0.022425888410604777 -0.0065822387737273069 0 0.022828347765416205 -0.0060803805760414357 0 0.022669934783799826 -0.0054587195503668605 0 0.022926822285560564 -0.0052703830999131845 0 0.023175362847174408 -0.0048256416671931352 0 0.023216565405838264 -0.0050967517239306299 0 0.022966467340666402 -0.0052722964085226073 0 0.023137090698404108 -0.0056450177434388231 0 0.022828347765416205 -0.0060803805760414357 0 0.022966467340666402 -0.0052722964085226073 0 0.022828347765416205 -0.0060803805760414357 0 0.0221665537219808 -0.0060631321867316281 0 0.022966467340666402 -0.0052722964085226073 0 0.022425888410604777 -0.0065822387737273069 0 0.022828347765416205 -0.0060803805760414357 0 0.0221665537219808 -0.0060631321867316281 0 0.023175362847174408 -0.0048256416671931352 0 0.023460226066660723 -0.0050857705692498043 0 0.023691679969767711 -0.0045278455306583592 0 0.023175362847174408 -0.0048256416671931352 0 0.023216565405838264 -0.0050967517239306299 0 0.023460226066660723 -0.0050857705692498043 0 0.025641801080074477 -0.0028268609612416523 0 0.028530479944266121 -0.002896148522035701 0 0.023216565405838264 -0.0050967517239306299 0 0.023460226066660723 -0.0050857705692498043 0 0.023137496694191639 -0.0052747454944741664 0 0.023460226066660723 -0.0050857705692498043 0 0.023137496694191639 -0.0052747454944741664 0 0.023244599125645658 -0.005466802821419558 0 0.023137496694191639 -0.0052747454944741664 0 0.022966467340666402 -0.0052722964085226073 0 0.023062584608690911 -0.0051683017115523025 0 0.023216565405838264 -0.0050967517239306299 0 0.023137496694191639 -0.0052747454944741664 0 0.022966467340666402 -0.0052722964085226073 0 0.026962954411001567 -0.00019059619091059825 0 0.028019279933170247 0.00020057095123570152 0 0.025024515430527597 -1.4979077423420879e-07 0 0.025832867781859573 2.2237531465511523e-05 0 0.028184993284178349 6.3058208164633183e-07 0 0.025832867781859573 2.2237531465511523e-05 0 0.028184993284178349 6.3058208164633183e-07 0 0.028294314740302921 8.6263551210933096e-05 0 0.028398821518582036 -0.00034181323713127664 0 0.02805311136501858 -0.00058208437824743247 0 0.028294314740302921 8.6263551210933096e-05 0 0.02865556146253239 -0.00048961852648594483 0 0.028398821518582036 -0.00034181323713127664 0 0.028572897787574898 -0.00013097573568202761 0 0.02865556146253239 -0.00048961852648594483 0 0.028398821518582036 -0.00034181323713127664 0 0.028296683578566736 -0.00077459752298220737 0 0.028398821518582036 -0.00034181323713127664 0 0.028296683578566736 -0.00077459752298220737 0 0.02805311136501858 -0.00058208437824743247 0 0.02865556146253239 -0.00048961852648594483 0 0.028296683578566736 -0.00077459752298220737 0 0.02829034805690217 -0.0013513698416304609 0 0.025641801080074477 -0.0028268609612416523 0 0.026323813084053255 -0.003099333575589096 0 0.025024515430527597 -1.4979077423420879e-07 0 0.025832867781859573 2.2237531465511523e-05 0 0.023252148266363411 2.2846229943407747e-05 0 0.026962954411001567 -0.00019059619091059825 0 0.025678318180757262 -0.00038950025197802008 0 0.028296683578566736 -0.00077459752298220737 0 0.02805311136501858 -0.00058208437824743247 0 0.027894960567058737 -0.0013882642342124317 0 0.025024515430527597 -1.4979077423420879e-07 0 0.023252148266363411 2.2846229943407747e-05 0 0.021865281210157708 3.8574205882672503e-07 0 0.028296683578566736 -0.00077459752298220737 0 0.027894960567058737 -0.0013882642342124317 0 0.02829034805690217 -0.0013513698416304609 0 0.023435639335975124 -0.004435103542086676 0 0.023691679969767711 -0.0045278455306583592 0 0.023620128711724999 -0.0042950917210556527 0 0.021479122342121685 -0.0068807921312195259 0 0.020828172928481235 -0.0076637898825552206 0 0.021339766548033493 -0.0076408684245954928 0 0.022564924187319969 -0.0056461828728585619 0 0.021102950870607477 -0.0054471168272680927 0 0.023691679969767711 -0.0045278455306583592 0 0.023620128711724999 -0.0042950917210556527 0 0.023883419260983224 -0.0039764907367909642 0 0.026323813084053255 -0.003099333575589096 0 0.023545419688462438 -0.001854479289576199 0 0.023435639335975124 -0.004435103542086676 0 0.023620128711724999 -0.0042950917210556527 0 0.023681053836920336 -0.0040557293832972161 0 0.023620128711724999 -0.0042950917210556527 0 0.023681053836920336 -0.0040557293832972161 0 0.023883419260983224 -0.0039764907367909642 0 0.023252148266363411 2.2846229943407747e-05 0 0.021865281210157708 3.8574205882672503e-07 0 0.020981214553953832 -1.9975540237843675e-05 0 0.027894960567058737 -0.0013882642342124317 0 0.02829034805690217 -0.0013513698416304609 0 0.027767461465361902 -0.0023114354541766227 0 0.025678318180757262 -0.00038950025197802008 0 0.023545419688462438 -0.001854479289576199 0 0.021865281210157708 3.8574205882672503e-07 0 0.020981214553953832 -1.9975540237843675e-05 0 0.018708215354483599 -7.871703244322859e-07 0 0.020981214553953832 -1.9975540237843675e-05 0 0.018708215354483599 -7.871703244322859e-07 0 0.019135862280545979 -7.6133073184419067e-05 0 0.023545419688462438 -0.001854479289576199 0 0.020436409063180359 -0.0024469287894643248 0 0.023681053836920336 -0.0040557293832972161 0 0.023883419260983224 -0.0039764907367909642 0 0.023873710134796881 -0.0037484364447370926 0 0.021102950870607477 -0.0054471168272680927 0 0.020436409063180359 -0.0024469287894643248 0 0.018965894653774799 -0.0019892039500409619 0 0.017222791130192431 -0.0038961193029151365 0 0.019929345992002592 -0.0035749613752968559 0 0.019936082678488645 -0.0033927776848781967 0 0.019309049117177048 -0.0036035366581703603 0 0.020436409063180359 -0.0024469287894643248 0 0.019531064003175159 -0.0016061721301658645 0 0.020436409063180359 -0.0024469287894643248 0 0.018965894653774799 -0.0019892039500409619 0 0.020043516883169056 -0.0020467069206524286 0 0.020029539603130243 -0.0023530071552376828 0 0.019732417770200877 -0.002450143438326083 0 0.018965894653774799 -0.0019892039500409619 0 0.019531064003175159 -0.0016061721301658645 0 0.021210256548013909 -0.0013485248968314928 0 0.021175692765398036 -0.001825091477760912 0 0.020874698557003912 -0.0020341659467704712 0 0.023545419688462438 -0.001854479289576199 0 0.019254893092376379 -0.00071409162265843992 0 0.021175692765398036 -0.001825091477760912 0 0.0210517928860765 -0.0019791750341694222 0 0.020874698557003912 -0.0020341659467704712 0 0.017603567114081842 -0.00047418973855931291 0 0.017619163529816493 -0.00044175857232542072 0 0.017622246429716382 -0.00040950641856502256 0 0.015537133841378076 -0.0015856061807040097 0 0.015138056398269237 -0.0017232958497011715 0 0.015218975589830241 -0.00077165739430059437 0 0.018707036360624322 -2.1435729470319682e-06 0 0.019254893092376379 -0.00071409162265843992 0 0.018704777457049085 -3.6255139551250045e-09 0 0.018821887825912903 -9.8057798094377739e-07 0 0.01804052995448558 7.0436859097424593e-10 0 0.015537133841378076 -0.0015856061807040097 0 0.015525579940901117 -0.00060001214455288662 0 0.015218975589830241 -0.00077165739430059437 0 0.017603567114081842 -0.00047418973855931291 0 0.017601137271746389 -0.00023470176794656935 0 0.016600377123935774 0.00013888757792021556 0 0.018965894653774799 -0.0019892039500409619 0 0.015994413677227395 8.0919084147218601e-05 0 0.019254893092376379 -0.00071409162265843992 0 0.018040888113963958 -5.0656809202911774e-07 0 0.01768626705142138 -0.00047536518018513098 0 0.017601137271746389 -0.00023470176794656935 0 0.018036893052030552 -9.8640984580355943e-07 0 0.01768626705142138 -0.00047536518018513098 0 0.017601137271746389 -0.00023470176794656935 0 0.017622246429716382 -0.00040950641856502256 0 0.017603567114081842 -0.00047418973855931291 0 0.017601137271746389 -0.00023470176794656935 0 0.017622246429716382 -0.00040950641856502256 0 0.019531064003175159 -0.0016061721301658645 0 0.019254893092376379 -0.00071409162265843992 0 0.017597810036297186 -0.0004236149429589247 0 0.01768626705142138 -0.00047536518018513098 0 0.017622246429716382 -0.00040950641856502256 0 0.019531064003175159 -0.0016061721301658645 0 0.0194575079248509 -0.0015858953790782208 0 0.017601137271746389 -0.00023470176794656935 0 0.018036893052030552 -9.8640984580355943e-07 0 0.016600377123935774 0.00013888757792021556 0 0.011719732068176402 -0.0007447156228598831 0 0.012730010727760907 -0.0016000258025919698 0 0.012919168766633652 0.00033041643275309436 0 0.017222791130192431 -0.0038961193029151365 0 0.014090230959400636 0.00035480362479406696 0 0.011719732068176402 -0.0007447156228598831 0 0.011225200948213358 0.00049730481485783155 0 0.012919168766633652 0.00033041643275309436 0 0.017222791130192431 -0.0038961193029151365 0 0.015797950240399546 -0.0052751488960045348 0 0.021339766548033493 -0.0076408684245954928 0 0.020724164460495055 -0.00826654868208632 0 0.021695081837725214 -0.007999625873849921 0 0.011719732068176402 -0.0007447156228598831 0 0.012730010727760907 -0.0016000258025919698 0 0.010807130553205899 -0.0022403463601781996 0 0.01919747366226595 -0.0045517570943308305 0 0.019929345992002592 -0.0035749613752968559 0 0.019309049117177048 -0.0036035366581703603 0 0.020828172928481235 -0.0076637898825552206 0 0.021339766548033493 -0.0076408684245954928 0 0.020724164460495055 -0.00826654868208632 0 0.021102950870607477 -0.0054471168272680927 0 0.017222791130192431 -0.0038961193029151365 0 0.011719732068176402 -0.0007447156228598831 0 0.010807130553205899 -0.0022403463601781996 0 0.010608147227084157 -0.0010327640237260554 0 0.010807130553205899 -0.0022403463601781996 0 0.010042584267226911 -0.0015955458960334339 0 0.010608147227084157 -0.0010327640237260554 0 0.0088338888257117679 -0.0028821743721503964 0 0.0090752999003689428 -0.001228882043446981 0 0.008752290441348053 -0.0010357846334860805 0 0.0088338888257117679 -0.0028821743721503964 0 0.010807130553205899 -0.0022403463601781996 0 0.010042584267226911 -0.0015955458960334339 0 0.017617483714051925 -0.0054543028710841331 0 0.013669035410969376 -0.004015066247010199 0 0.017617483714051925 -0.0054543028710841331 0 0.015797950240399546 -0.0052751488960045348 0 0.0088338888257117679 -0.0028821743721503964 0 0.010042584267226911 -0.0015955458960334339 0 0.0090752999003689428 -0.001228882043446981 0 0.010042584267226911 -0.0015955458960334339 0 0.0090752999003689428 -0.001228882043446981 0 0.010608147227084157 -0.0010327640237260554 0 0.0089801530117088364 -0.0011578790176996895 0 0.0089394234163764803 -0.0009706768728070679 0 0.0088569718255559222 -0.00089754538130795963 0 0.013669035410969376 -0.004015066247010199 0 0.008681827905003112 -0.00057662102521747029 0 0.013669035410969376 -0.004015066247010199 0 0.011798712390409053 -0.0037668611739405332 0 0.0090752999003689428 -0.001228882043446981 0 0.008752290441348053 -0.0010357846334860805 0 0.0090250848891139518 -0.0011641832595235245 0 0.0089801530117088364 -0.0011578790176996895 0 0.0090250848891139518 -0.0011641832595235245 0 0.0089394234163764803 -0.0009706768728070679 0 0.0090752999003689428 -0.001228882043446981 0 0.0090250848891139518 -0.0011641832595235245 0 0.0089394234163764803 -0.0009706768728070679 0 0.0090752999003689428 -0.001228882043446981 0 0.0089394234163764803 -0.0009706768728070679 0 0.0088801307928567802 -0.00086594579892361771 0 0.0091187038978653451 -0.0011924396976316746 0 0.0099502403987369471 -0.00016783947480227132 0 0.0090752999003689428 -0.001228882043446981 0 0.010608147227084157 -0.0010327640237260554 0 0.011225200948213358 0.00049730481485783155 0 0.011719732068176402 -0.0007447156228598831 0 0.010608147227084157 -0.0010327640237260554 0 0.011225200948213358 0.00049730481485783155 0 0.0088801307928567802 -0.00086594579892361771 0 0.0088626028849381772 -0.00085778696381087966 0 0.0087706395115735979 -0.0008361980343875743 0 0.0089394234163764803 -0.0009706768728070679 0 0.0088801307928567802 -0.00086594579892361771 0 0.0088626028849381772 -0.00085778696381087966 0 0.0089394234163764803 -0.0009706768728070679 0 0.0088626028849381772 -0.00085778696381087966 0 0.0088569718255559222 -0.00089754538130795963 0 0.008681827905003112 -0.00057662102521747029 0 0.0090442514433773224 -0.0012490365958441776 0 0.0088626028849381772 -0.00085778696381087966 0 0.0088569718255559222 -0.00089754538130795963 0 0.008892713266036037 -0.00085063093209840801 0 0.0088626028849381772 -0.00085778696381087966 0 0.008892713266036037 -0.00085063093209840801 0 0.0088000347983997109 -0.0008454351662586844 0 0.0088626028849381772 -0.00085778696381087966 0 0.0088000347983997109 -0.0008454351662586844 0 0.0087706395115735979 -0.0008361980343875743 0 0.0086478011561941254 -0.00080252167345774904 0 0.0088000347983997109 -0.0008454351662586844 0 0.0087706395115735979 -0.0008361980343875743 0 0.0086478011561941254 -0.00080252167345774904 0 0.0087706395115735979 -0.0008361980343875743 0 0.0087402479901696698 -0.00079401731246532884 0 0.0087706395115735979 -0.0008361980343875743 0 0.0087402479901696698 -0.00079401731246532884 0 0.0087833732421831647 -0.0008364059747818372 0 0.013541858530831492 -9.6616660326029771e-07 0 0.014783342987616568 -4.1264471881285569e-05 0 0.01579025750911537 9.6751478352369273e-07 0 0.0089030059742585439 -0.00059651517600206128 0 0.01149761342192927 0.00024706142710109237 0 0.0088327120544332109 -0.00068563297479387597 0 0.0087402479901696698 -0.00079401731246532884 0 0.0087833732421831647 -0.0008364059747818372 0 0.015512378368769586 0.00033145418457255561 0 0.015292796680816033 0.00012550439089110572 0 0.015525579940901117 -0.00060001214455288662 0 0.0089130252532968624 -0.00019635667335768771 0 0.0089313086708299443 -9.7406017730904454e-05 0 0.0089969705915386861 -5.2084950898959628e-05 0 0.013216131131787677 -2.328469357956316e-05 0 0.01149761342192927 0.00024706142710109237 0 0.013540583998231364 3.2023192650562949e-07 0 0.013216131131787677 -2.328469357956316e-05 0 0.013216131131787677 -2.328469357956316e-05 0 0.015994413677227395 8.0919084147218601e-05 0 0.01149761342192927 0.00024706142710109237 0 0.014090230959400636 0.00035480362479406696 0 0.015292796680816033 0.00012550439089110572 0 0.015525579940901117 -0.00060001214455288662 0 0.015218975589830241 -0.00077165739430059437 0 0.018036893052030552 -9.8640984580355943e-07 0 0.01579025750911537 9.6751478352369273e-07 0 0.016600377123935774 0.00013888757792021556 0 0.014783342987616568 -4.1264471881285569e-05 0 0.01579025750911537 9.6751478352369273e-07 0 0.016600377123935774 0.00013888757792021556 0 0.0088801307928567802 -0.00086594579892361771 0 0.0087706395115735979 -0.0008361980343875743 0 0.0087833732421831647 -0.0008364059747818372 0 0.0099502403987369471 -0.00016783947480227132 0 0.01149761342192927 0.00024706142710109237 0 0.011225200948213358 0.00049730481485783155 0 0.013138729474123345 0.0021476225200851404 0 0.012919168766633652 0.00033041643275309436 0 0.037189839038981772 0.00020848381228101345 0 0.03787313268815419 1.6353635256194286e-06 0 0.038096282875155763 1.5729311841059371e-05 0 0.03787313268815419 1.6353635256194286e-06 0 0.041128348334747052 -2.7454748377734477e-06 0 0.038096282875155763 1.5729311841059371e-05 0 0.038096282875155763 1.5729311841059371e-05 0 0.036954942443795172 0.00011209295667391386 0 0.037264008582645863 -0.00045806336208480304 0 0.036954942443795172 0.00011209295667391386 0 0.036867844316479464 -0.00034297486534117167 0 0.037264008582645863 -0.00045806336208480304 0 0.036954942443795172 0.00011209295667391386 0 0.036760348945294792 -4.0409761433508888e-05 0 0.036867844316479464 -0.00034297486534117167 0 0.036954942443795172 0.00011209295667391386 0 0.036631159563629806 0.00032508561751005678 0 0.036692421876038592 0.00017389672514672805 0 0.036954942443795172 0.00011209295667391386 0 0.036692421876038592 0.00017389672514672805 0 0.036760348945294792 -4.0409761433508888e-05 0 0.037189839038981772 0.00020848381228101345 0 0.036954942443795172 0.00011209295667391386 0 0.036631159563629806 0.00032508561751005678 0 0.037189839038981772 0.00020848381228101345 0 0.038096282875155763 1.5729311841059371e-05 0 0.036954942443795172 0.00011209295667391386 0 0.037189839038981772 0.00020848381228101345 0 0.036631159563629806 0.00032508561751005678 0 0.036516633543645746 0.00040180387357775023 0 0.036631159563629806 0.00032508561751005678 0 0.036556097456811813 0.00017987489192191082 0 0.036692421876038592 0.00017389672514672805 0 0.036631159563629806 0.00032508561751005678 0 0.036556097456811813 0.00017987489192191082 0 0.035930361020132716 0.0001645584213399732 0 0.036631159563629806 0.00032508561751005678 0 0.036516633543645746 0.00040180387357775023 0 0.035930361020132716 0.0001645584213399732 0 0.035359976432404135 0.0001467944565007337 0 0.036516633543645746 0.00040180387357775023 0 0.035930361020132716 0.0001645584213399732 0 0.037189839038981772 0.00020848381228101345 0 0.03787313268815419 1.6353635256194286e-06 0 0.036516633543645746 0.00040180387357775023 0 0.03787313268815419 1.6353635256194286e-06 0 0.036516633543645746 0.00040180387357775023 0 0.034606761799016089 1.6011143779990368e-06 0 0.035359976432404135 0.0001467944565007337 0 0.036516633543645746 0.00040180387357775023 0 0.034606761799016089 1.6011143779990368e-06 0 0.035359976432404135 0.0001467944565007337 0 0.034606761799016089 1.6011143779990368e-06 0 0.034446798031312897 6.4004414936895572e-05 0 0.034606761799016089 1.6011143779990368e-06 0 0.034446798031312897 6.4004414936895572e-05 0 0.031349519281076349 -3.5861637943479906e-06 0 0.035359976432404135 0.0001467944565007337 0 0.034446798031312897 6.4004414936895572e-05 0 0.035930361020132716 0.0001645584213399732 0 0.034446798031312897 6.4004414936895572e-05 0 0.035257040245932444 -0.00077289834919159973 0 0.035930361020132716 0.0001645584213399732 0 0.034446798031312897 6.4004414936895572e-05 0 0.03436166572802387 -0.0015991903803424291 0 0.035257040245932444 -0.00077289834919159973 0 0.034446798031312897 6.4004414936895572e-05 0 0.031349519281076349 -3.5861637943479906e-06 0 0.03436166572802387 -0.0015991903803424291 0 0.031342934837300836 -2.1888585131563733e-07 0 0.031674957373722647 -0.00067901606552807196 0 0.031338891542178594 -1.1273246744960398e-06 0 0.028184993284178349 6.3058208164633183e-07 0 0.028294314740302921 8.6263551210933096e-05 0 0.031338891542178594 -1.1273246744960398e-06 0 0.028689538131006102 -0.00015286234621210239 0 0.028294314740302921 8.6263551210933096e-05 0 0.031674957373722647 -0.00067901606552807196 0 0.030886629794217978 -0.0022762422715834822 0 0.03436166572802387 -0.0015991903803424291 0 0.035589502434025352 -0.0019234110412466752 0 0.035257040245932444 -0.00077289834919159973 0 0.028689538131006102 -0.00015286234621210239 0 0.028573924351866883 -3.8975968972026489e-05 0 0.028653671269076784 -1.7707219390106744e-05 0 0.028689538131006102 -0.00015286234621210239 0 0.028573924351866883 -3.8975968972026489e-05 0 0.028294314740302921 8.6263551210933096e-05 0 0.028398821518582036 -0.00034181323713127664 0 0.028572897787574898 -0.00013097573568202761 0 0.028294314740302921 8.6263551210933096e-05 0 0.028573924351866883 -3.8975968972026489e-05 0 0.028572897787574898 -0.00013097573568202761 0 0.028294314740302921 8.6263551210933096e-05 0 0.035589502434025352 -0.0019234110412466752 0 0.035725141751393116 -0.0019705687765130602 0 0.036431801964539712 -0.0016101407569400477 0 0.023137496694191639 -0.0052747454944741664 0 0.023044132919197349 -0.0053303177274767024 0 0.023244599125645658 -0.005466802821419558 0 0.027957940862606865 -0.0044380721189373317 0 0.028530479944266121 -0.002896148522035701 0 0.036399037062642442 -0.0023038420887432727 0 0.035725141751393116 -0.0019705687765130602 0 0.036431801964539712 -0.0016101407569400477 0 0.022319224377998048 -0.0059458076669189038 0 0.027957940862606865 -0.0044380721189373317 0 0.02865556146253239 -0.00048961852648594483 0 0.028572897787574898 -0.00013097573568202761 0 0.028708085489157455 -3.4022844872694701e-05 0 0.028573924351866883 -3.8975968972026489e-05 0 0.028572897787574898 -0.00013097573568202761 0 0.028653671269076784 -1.7707219390106744e-05 0 0.028572897787574898 -0.00013097573568202761 0 0.028653671269076784 -1.7707219390106744e-05 0 0.028708085489157455 -3.4022844872694701e-05 0 0.030886629794217978 -0.0022762422715834822 0 0.028530479944266121 -0.002896148522035701 0 0.035589502434025352 -0.0019234110412466752 0 0.035942676088614962 -0.0010553656143286816 0 0.035257040245932444 -0.00077289834919159973 0 0.035942676088614962 -0.0010553656143286816 0 0.036229920797909425 -0.0012656382208037426 0 0.036357221210645392 -0.00085243538957591799 0 0.035589502434025352 -0.0019234110412466752 0 0.035942676088614962 -0.0010553656143286816 0 0.036229920797909425 -0.0012656382208037426 0 0.035589502434025352 -0.0019234110412466752 0 0.036431801964539712 -0.0016101407569400477 0 0.036229920797909425 -0.0012656382208037426 0 0.036431801964539712 -0.0016101407569400477 0 0.036229920797909425 -0.0012656382208037426 0 0.036615885886340141 -0.0010551667458953504 0 0.036229920797909425 -0.0012656382208037426 0 0.036357221210645392 -0.00085243538957591799 0 0.036615885886340141 -0.0010551667458953504 0 0.035942676088614962 -0.0010553656143286816 0 0.036357221210645392 -0.00085243538957591799 0 0.03633115142210782 -0.00034710746531918014 0 0.036357221210645392 -0.00085243538957591799 0 0.03633115142210782 -0.00034710746531918014 0 0.036636838128137283 -0.00059618740179762217 0 0.035942676088614962 -0.0010553656143286816 0 0.035257040245932444 -0.00077289834919159973 0 0.03633115142210782 -0.00034710746531918014 0 0.035257040245932444 -0.00077289834919159973 0 0.035930361020132716 0.0001645584213399732 0 0.03633115142210782 -0.00034710746531918014 0 0.036556097456811813 0.00017987489192191082 0 0.035930361020132716 0.0001645584213399732 0 0.03633115142210782 -0.00034710746531918014 0 0.036556097456811813 0.00017987489192191082 0 0.03633115142210782 -0.00034710746531918014 0 0.036871660142211229 -0.00022204983314200175 0 0.036931821102284497 0.00033532877522488041 0 0.036723037173192301 1.5272645794857439e-05 0 0.036722703430974141 0.00034590766648263276 0 0.036561611140562299 0.00027587301042811973 0 0.036727613402396914 0.00014985566901332568 0 0.036722703430974141 0.00034590766648263276 0 0.036561611140562299 0.00027587301042811973 0 0.036459977215558187 0.00051894273812070561 0 0.034118032765814696 -0.0014202070338441802 0 0.031270935243672492 -0.0011155608615020611 0 0.036722703430974141 0.00034590766648263276 0 0.036714181218149226 0.00052064922489486281 0 0.036459977215558187 0.00051894273812070561 0 0.036931821102284497 0.00033532877522488041 0 0.034118032765814696 -0.0014202070338441802 0 0.03633115142210782 -0.00034710746531918014 0 0.036871660142211229 -0.00022204983314200175 0 0.036636838128137283 -0.00059618740179762217 0 0.036871660142211229 -0.00022204983314200175 0 0.036636838128137283 -0.00059618740179762217 0 0.036900229317665137 -0.00095442260063755067 0 0.036357221210645392 -0.00085243538957591799 0 0.036636838128137283 -0.00059618740179762217 0 0.036615885886340141 -0.0010551667458953504 0 0.036636838128137283 -0.00059618740179762217 0 0.036900229317665137 -0.00095442260063755067 0 0.036615885886340141 -0.0010551667458953504 0 0.036431801964539712 -0.0016101407569400477 0 0.036957399361748855 -0.0010025388532084812 0 0.036737547887801335 -0.0021506964984009105 0 0.034118032765814696 -0.0014202070338441802 0 0.027911809988257576 -0.0028245318391702796 0 0.034118032765814696 -0.0014202070338441802 0 0.036561241786168305 -0.0010121818181588913 0 0.036431801964539712 -0.0016101407569400477 0 0.036957399361748855 -0.0010025388532084812 0 0.036615885886340141 -0.0010551667458953504 0 0.027747872554090326 -0.0027377684830298477 0 0.027011998687265511 -0.0023824779000697119 0 0.026895007718249386 -0.0028090573857941885 0 0.027747872554090326 -0.0027377684830298477 0 0.027864718225270944 -0.0019840255451266131 0 0.027011998687265511 -0.0023824779000697119 0 0.027911809988257576 -0.0028245318391702796 0 0.025320982615869264 -0.0031521340143004042 0 0.023949357322355751 -0.0046325492522431375 0 0.023208758296303353 -0.0043808585302050574 0 0.02468167099850746 -0.0036344692318070466 0 0.023949357322355751 -0.0046325492522431375 0 0.024962293858982038 -0.0047529511022207744 0 0.02468167099850746 -0.0036344692318070466 0 0.023147660803671973 -0.0047636048699473601 0 0.023949357322355751 -0.0046325492522431375 0 0.023208758296303353 -0.0043808585302050574 0 0.024788692811479583 -0.0044260750921294809 0 0.027911809988257576 -0.0028245318391702796 0 0.024788692811479583 -0.0044260750921294809 0 0.027957940862606865 -0.0044380721189373317 0 0.026686798784825116 -0.0041227284326560429 0 0.026705677193139606 -0.0041312809155328555 0 0.026688720889903185 -0.004133922966597715 0 0.027957940862606865 -0.0044380721189373317 0 0.027911809988257576 -0.0028245318391702796 0 0.036399037062642442 -0.0023038420887432727 0 0.036431801964539712 -0.0016101407569400477 0 0.036737547887801335 -0.0021506964984009105 0 0.025820469089452076 -0.003906388385089778 0 0.026222676577187777 -0.0047126579232085672 0 0.026626251830522221 -0.0036236323078438384 0 0.025820469089452076 -0.003906388385089778 0 0.026222676577187777 -0.0047126579232085672 0 0.024962293858982038 -0.0047529511022207744 0 0.025820469089452076 -0.003906388385089778 0 0.024962293858982038 -0.0047529511022207744 0 0.02468167099850746 -0.0036344692318070466 0 0.027011998687265511 -0.0023824779000697119 0 0.026566029438042399 -0.0027532345027654719 0 0.026895007718249386 -0.0028090573857941885 0 0.025320982615869264 -0.0031521340143004042 0 0.026767701641053524 -0.0026773195822192364 0 0.025820469089452076 -0.003906388385089778 0 0.02468167099850746 -0.0036344692318070466 0 0.026566029438042399 -0.0027532345027654719 0 0.025820469089452076 -0.003906388385089778 0 0.026566029438042399 -0.0027532345027654719 0 0.026626251830522221 -0.0036236323078438384 0 0.026566029438042399 -0.0027532345027654719 0 0.026895007718249386 -0.0028090573857941885 0 0.026683351278496976 -0.0024524314759830838 0 0.036459977215558187 0.00051894273812070561 0 0.03636465853666139 0.00031556776701867036 0 0.036049548238707534 0.00058645879521016008 0 0.031270935243672492 -0.0011155608615020611 0 0.031476502924625914 -0.00093817930694667471 0 0.036561611140562299 0.00027587301042811973 0 0.036459977215558187 0.00051894273812070561 0 0.03636465853666139 0.00031556776701867036 0 0.036561611140562299 0.00027587301042811973 0 0.03636465853666139 0.00031556776701867036 0 0.036489911970394667 0.00010542187937504992 0 0.03636465853666139 0.00031556776701867036 0 0.036139563331929608 0.00015530903214671529 0 0.036049548238707534 0.00058645879521016008 0 0.036391024895671864 -2.2410874066560569e-05 0 0.036489911970394667 0.00010542187937504992 0 0.036139563331929608 0.00015530903214671529 0 0.036291096459292405 -0.00028047209689635024 0 0.036155876356077303 0.00014255476245422818 0 0.03636465853666139 0.00031556776701867036 0 0.036489911970394667 0.00010542187937504992 0 0.036139563331929608 0.00015530903214671529 0 0.036391024895671864 -2.2410874066560569e-05 0 0.036530498651754055 -4.1834066267418185e-06 0 0.036489911970394667 0.00010542187937504992 0 0.036530498651754055 -4.1834066267418185e-06 0 0.036489911970394667 0.00010542187937504992 0 0.036633212527868594 6.5032112650358439e-05 0 0.036561611140562299 0.00027587301042811973 0 0.036489911970394667 0.00010542187937504992 0 0.036727613402396914 0.00014985566901332568 0 0.036489911970394667 0.00010542187937504992 0 0.036727613402396914 0.00014985566901332568 0 0.036633212527868594 6.5032112650358439e-05 0 0.036556097456811813 0.00017987489192191082 0 0.036727613402396914 0.00014985566901332568 0 0.036692421876038592 0.00017389672514672805 0 0.036556097456811813 0.00017987489192191082 0 0.036871660142211229 -0.00022204983314200175 0 0.036727613402396914 0.00014985566901332568 0 0.036727613402396914 0.00014985566901332568 0 0.036692421876038592 0.00017389672514672805 0 0.036633212527868594 6.5032112650358439e-05 0 0.036530498651754055 -4.1834066267418185e-06 0 0.036633212527868594 6.5032112650358439e-05 0 0.036632677019876908 -4.9345614766165698e-05 0 0.036692421876038592 0.00017389672514672805 0 0.036633212527868594 6.5032112650358439e-05 0 0.036632677019876908 -4.9345614766165698e-05 0 0.036692421876038592 0.00017389672514672805 0 0.036632677019876908 -4.9345614766165698e-05 0 0.036760348945294792 -4.0409761433508888e-05 0 0.036760348945294792 -4.0409761433508888e-05 0 0.036638011793439278 -0.00028064282846075665 0 0.036867844316479464 -0.00034297486534117167 0 0.036632677019876908 -4.9345614766165698e-05 0 0.036760348945294792 -4.0409761433508888e-05 0 0.036638011793439278 -0.00028064282846075665 0 0.036632677019876908 -4.9345614766165698e-05 0 0.036642004732936835 -0.00019778740855497953 0 0.036638011793439278 -0.00028064282846075665 0 0.036632677019876908 -4.9345614766165698e-05 0 0.036642004732936835 -0.00019778740855497953 0 0.036599350940949057 -9.6923602849074826e-05 0 0.036642004732936835 -0.00019778740855497953 0 0.036703058047370021 -0.0001705342441664511 0 0.036599350940949057 -9.6923602849074826e-05 0 0.036642004732936835 -0.00019778740855497953 0 0.036703058047370021 -0.0001705342441664511 0 0.036718105990213648 -0.00021278759200674653 0 0.036703058047370021 -0.0001705342441664511 0 0.036622214784403209 -9.8337653255133314e-05 0 0.036599350940949057 -9.6923602849074826e-05 0 0.036703058047370021 -0.0001705342441664511 0 0.036622214784403209 -9.8337653255133314e-05 0 0.036936775327835472 -0.00011860878574717335 0 0.036229612724628699 -0.0011987482152163219 0 0.036017870154271887 -0.001339132760801992 0 0.036304544926070492 -0.0018143576911503426 0 0.036391024895671864 -2.2410874066560569e-05 0 0.036530498651754055 -4.1834066267418185e-06 0 0.036599350940949057 -9.6923602849074826e-05 0 0.036291096459292405 -0.00028047209689635024 0 0.036316446863152024 -0.0006434722626070577 0 0.036391024895671864 -2.2410874066560569e-05 0 0.036622214784403209 -9.8337653255133314e-05 0 0.036599350940949057 -9.6923602849074826e-05 0 0.036530498651754055 -4.1834066267418185e-06 0 0.036632677019876908 -4.9345614766165698e-05 0 0.036599350940949057 -9.6923602849074826e-05 0 0.035503624636735114 -0.0009685111657442043 0 0.035515425574689459 -0.00067857694784749251 0 0.035790929820015159 -0.001055915889224944 0 0.035503624636735114 -0.0009685111657442043 0 0.035502085216393621 -0.0012627680829741042 0 0.035199514654745634 -0.00086902703345547155 0 0.036817082899037963 -0.00023055162551258049 0 0.035491173754246562 -0.00055073978530999418 0 0.035503624636735114 -0.0009685111657442043 0 0.035515425574689459 -0.00067857694784749251 0 0.035199514654745634 -0.00086902703345547155 0 0.035510908452768317 -0.00072718854130551975 0 0.035870803778490959 -0.0007669933376888118 0 0.035790929820015159 -0.001055915889224944 0 0.035529874903076505 -0.00072512988407398343 0 0.035751068984548474 -0.0010077246657045449 0 0.036229612724628699 -0.0011987482152163219 0 0.035870803778490959 -0.0007669933376888118 0 0.035790929820015159 -0.001055915889224944 0 0.036171286994927825 -0.00057966088208324842 0 0.036229612724628699 -0.0011987482152163219 0 0.035870803778490959 -0.0007669933376888118 0 0.035790929820015159 -0.001055915889224944 0 0.036017870154271887 -0.001339132760801992 0 0.03580723635437584 -0.0012959312442935732 0 0.036229612724628699 -0.0011987482152163219 0 0.035790929820015159 -0.001055915889224944 0 0.036017870154271887 -0.001339132760801992 0 0.036017870154271887 -0.001339132760801992 0 0.03580723635437584 -0.0012959312442935732 0 0.03591219625601464 -0.0015405325919463965 0 0.038104386437843772 -0.0003823634581611918 0 0.038625973042665386 -0.00079529544165557052 0 0.038530103601300707 -0.00080756740184017488 0 0.03580723635437584 -0.0012959312442935732 0 0.035502085216393621 -0.0012627680829741042 0 0.03591219625601464 -0.0015405325919463965 0 0.036817082899037963 -0.00023055162551258049 0 0.037318408823537846 -0.0012497673394498033 0 0.035790929820015159 -0.001055915889224944 0 0.03580723635437584 -0.0012959312442935732 0 0.035502085216393621 -0.0012627680829741042 0 0.035503624636735114 -0.0009685111657442043 0 0.035790929820015159 -0.001055915889224944 0 0.035502085216393621 -0.0012627680829741042 0 0.037667833139880091 0.0012324668441318122 0 0.037396902541447979 0.0012112126162932629 0 0.037390290194354581 0.00092172133606912394 0 0.037667833139880091 0.0012324668441318122 0 0.037396902541447979 0.0012112126162932629 0 0.037361985349980545 0.0014651078549190104 0 0.037396902541447979 0.0012112126162932629 0 0.037135931250931502 0.001254496612693721 0 0.037390290194354581 0.00092172133606912394 0 0.036817082899037963 -0.00023055162551258049 0 0.036443474760750272 0.00066446218771075427 0 0.037396902541447979 0.0012112126162932629 0 0.037135931250931502 0.001254496612693721 0 0.037361985349980545 0.0014651078549190104 0 0.037110312144290898 0.0016702990538549035 0 0.036805183808496442 0.0015356569742446919 0 0.036847911630424515 0.0012059877227623978 0 0.037110312144290898 0.0016702990538549035 0 0.036670765683320929 0.0017658104690665768 0 0.036805183808496442 0.0015356569742446919 0 0.037110312144290898 0.0016702990538549035 0 0.036763295160671478 0.0019479075000505264 0 0.036670765683320929 0.0017658104690665768 0 0.036443474760750272 0.00066446218771075427 0 0.034874176554291265 0.0004465080901774583 0 0.037301236811696274 0.0015151621362065888 0 0.034833684062215674 0.0011193114944325333 0 0.037104932981413645 0.0015031694219546704 0 0.037361985349980545 0.0014651078549190104 0 0.03701182851009046 0.0017121344493309446 0 0.037135931250931502 0.001254496612693721 0 0.037104932981413645 0.0015031694219546704 0 0.036862651824073854 0.0016394880800103275 0 0.037110312144290898 0.0016702990538549035 0 0.036752092431621461 0.0023265041012082775 0 0.036763295160671478 0.0019479075000505264 0 0.035373836095067425 -0.0002146210181794208 0 0.035166885569628839 0.00060261752474437952 0 0.034617237985313021 0.00033670898642318875 0 0.037135931250931502 0.001254496612693721 0 0.037104932981413645 0.0015031694219546704 0 0.037361985349980545 0.0014651078549190104 0 0.037104932981413645 0.0015031694219546704 0 0.03701182851009046 0.0017121344493309446 0 0.036862651824073854 0.0016394880800103275 0 0.034874176554291265 0.0004465080901774583 0 0.034833684062215674 0.0011193114944325333 0 0.036141472401729345 -0.00076288643665850281 0 0.035373836095067425 -0.0002146210181794208 0 0.035651909412518223 -8.033719494947296e-05 0 0.035373836095067425 -0.0002146210181794208 0 0.035651909412518223 -8.033719494947296e-05 0 0.035166885569628839 0.00060261752474437952 0 0.035491173754246562 -0.00055073978530999418 0 0.033283241795789037 -0.00051633267085652234 0 0.035515425574689459 -0.00067857694784749251 0 0.035199514654745634 -0.00086902703345547155 0 0.035236187717244467 -0.00058168177304040026 0 0.035236187717244467 -0.00058168177304040026 0 0.034886654953988593 -0.0004443256813941332 0 0.03521436955770732 -0.00028778814396884041 0 0.035199514654745634 -0.00086902703345547155 0 0.035236187717244467 -0.00058168177304040026 0 0.034886654953988593 -0.0004443256813941332 0 0.033283241795789037 -0.00051633267085652234 0 0.034483352939008505 -0.00074926971051193032 0 0.031588583345831638 -0.00034519110038611626 0 0.032188207176540778 -0.00068473782971066285 0 0.03227938260922994 -0.0013744036713758071 0 0.032429350203782431 -0.00017986835356968727 0 0.032272458731446581 -0.00030708604508376602 0 0.032536618370096887 -0.00030916732070980068 0 0.032429350203782431 -0.00017986835356968727 0 0.032302832169133919 2.5920298046471429e-06 0 0.032272458731446581 -0.00030708604508376602 0 0.032429350203782431 -0.00017986835356968727 0 0.032567482534487588 -0.00011605581683612334 0 0.032536618370096887 -0.00030916732070980068 0 0.032302832169133919 2.5920298046471429e-06 0 0.032567482534487588 -0.00011605581683612334 0 0.032704723229359939 0.00019783493435588366 0 0.032429350203782431 -0.00017986835356968727 0 0.032302832169133919 2.5920298046471429e-06 0 0.032567482534487588 -0.00011605581683612334 0 0.033283241795789037 -0.00051633267085652234 0 0.034874176554291265 0.0004465080901774583 0 0.031588583345831638 -0.00034519110038611626 0 0.032302832169133919 2.5920298046471429e-06 0 0.032272458731446581 -0.00030708604508376602 0 0.031588583345831638 -0.00034519110038611626 0 0.032272458731446581 -0.00030708604508376602 0 0.032188207176540778 -0.00068473782971066285 0 0.032272458731446581 -0.00030708604508376602 0 0.032188207176540778 -0.00068473782971066285 0 0.03251674001148476 -0.00067075376942317909 0 0.032272458731446581 -0.00030708604508376602 0 0.03251674001148476 -0.00067075376942317909 0 0.032536618370096887 -0.00030916732070980068 0 0.031855275642509201 -0.0012879345072299791 0 0.032142381758878111 -0.0017333040033936417 0 0.031824033778071636 -0.0018097677383220321 0 0.033283241795789037 -0.00051633267085652234 0 0.03206569876745867 -0.0014928942874699108 0 0.032188207176540778 -0.00068473782971066285 0 0.03251674001148476 -0.00067075376942317909 0 0.03227938260922994 -0.0013744036713758071 0 0.03251674001148476 -0.00067075376942317909 0 0.03227938260922994 -0.0013744036713758071 0 0.032691488088882462 -0.00098876996745485388 0 0.032142381758878111 -0.0017333040033936417 0 0.031824033778071636 -0.0018097677383220321 0 0.032157322272911189 -0.0020576344712972209 0 0.031855275642509201 -0.0012879345072299791 0 0.031577900489507413 -0.0014280908935014559 0 0.031824033778071636 -0.0018097677383220321 0 0.035066538680266192 -0.00050412985792046804 0 0.03469112535106985 -3.8199370244583755e-05 0 0.035289712037785928 5.2019835451263079e-05 0 0.034483352939008505 -0.00074926971051193032 0 0.033251365292330345 -0.00092493937959874171 0 0.035066538680266192 -0.00050412985792046804 0 0.035289712037785928 5.2019835451263079e-05 0 0.0357206467874564 -0.00014040200051140098 0 0.034483352939008505 -0.00074926971051193032 0 0.03593884731713546 -4.4272283386192671e-05 0 0.035289712037785928 5.2019835451263079e-05 0 0.0357206467874564 -0.00014040200051140098 0 0.03570534472898805 0.0002618777552665639 0 0.035510908452768317 -0.00072718854130551975 0 0.035240535231593893 -0.00038476702370248827 0 0.035698116307681736 -0.00051315864440022144 0 0.035240535231593893 -0.00038476702370248827 0 0.035698116307681736 -0.00051315864440022144 0 0.0357206467874564 -0.00014040200051140098 0 0.035510908452768317 -0.00072718854130551975 0 0.035870803778490959 -0.0007669933376888118 0 0.035698116307681736 -0.00051315864440022144 0 0.035515425574689459 -0.00067857694784749251 0 0.035236187717244467 -0.00058168177304040026 0 0.03521436955770732 -0.00028778814396884041 0 0.035529874903076505 -0.00072512988407398343 0 0.034483352939008505 -0.00074926971051193032 0 0.036171286994927825 -0.00057966088208324842 0 0.035870803778490959 -0.0007669933376888118 0 0.035698116307681736 -0.00051315864440022144 0 0.036171286994927825 -0.00057966088208324842 0 0.035698116307681736 -0.00051315864440022144 0 0.0357206467874564 -0.00014040200051140098 0 0.036171286994927825 -0.00057966088208324842 0 0.0357206467874564 -0.00014040200051140098 0 0.036139563331929608 0.00015530903214671529 0 0.0357206467874564 -0.00014040200051140098 0 0.036139563331929608 0.00015530903214671529 0 0.03570534472898805 0.0002618777552665639 0 0.036139563331929608 0.00015530903214671529 0 0.03570534472898805 0.0002618777552665639 0 0.036049548238707534 0.00058645879521016008 0 0.035289712037785928 5.2019835451263079e-05 0 0.03570534472898805 0.0002618777552665639 0 0.035241019011860268 0.00058756387864311826 0 0.03570534472898805 0.0002618777552665639 0 0.035241019011860268 0.00058756387864311826 0 0.036049548238707534 0.00058645879521016008 0 0.02840709279026489 -0.0018381390144234289 0 0.027268964883726713 -0.0030427485671498142 0 0.028388609406705699 -0.0035902696916637216 0 0.031850623102115179 -0.00055472897134515751 0 0.031476502924625914 -0.00093817930694667471 0 0.02840709279026489 -0.0018381390144234289 0 0.026683351278496976 -0.0024524314759830838 0 0.027268964883726713 -0.0030427485671498142 0 0.026566029438042399 -0.0027532345027654719 0 0.026683351278496976 -0.0024524314759830838 0 0.027268964883726713 -0.0030427485671498142 0 0.026566029438042399 -0.0027532345027654719 0 0.026626251830522221 -0.0036236323078438384 0 0.027268964883726713 -0.0030427485671498142 0 0.026626251830522221 -0.0036236323078438384 0 0.027268964883726713 -0.0030427485671498142 0 0.027320918692063188 -0.0040536479601100336 0 0.027268964883726713 -0.0030427485671498142 0 0.028388609406705699 -0.0035902696916637216 0 0.027320918692063188 -0.0040536479601100336 0 0.028388609406705699 -0.0035902696916637216 0 0.028295974683895716 -0.004909561420773356 0 0.027320918692063188 -0.0040536479601100336 0 0.027262857649714357 -0.0050090259277825516 0 0.028295974683895716 -0.004909561420773356 0 0.027320918692063188 -0.0040536479601100336 0 0.027262857649714357 -0.0050090259277825516 0 0.026222676577187777 -0.0047126579232085672 0 0.027320918692063188 -0.0040536479601100336 0 0.026222676577187777 -0.0047126579232085672 0 0.026626251830522221 -0.0036236323078438384 0 0.027320918692063188 -0.0040536479601100336 0 0.029571983786433532 -0.0056295142921219659 0 0.029504945774537841 -0.0042748274011367446 0 0.030914424982744857 -0.0050739403242117623 0 0.029504945774537841 -0.0042748274011367446 0 0.030718222442079387 -0.0035897703685858176 0 0.030914424982744857 -0.0050739403242117623 0 0.028388609406705699 -0.0035902696916637216 0 0.028295974683895716 -0.004909561420773356 0 0.029504945774537841 -0.0042748274011367446 0 0.029571983786433532 -0.0056295142921219659 0 0.028295974683895716 -0.004909561420773356 0 0.029504945774537841 -0.0042748274011367446 0 0.028388609406705699 -0.0035902696916637216 0 0.029504945774537841 -0.0042748274011367446 0 0.029583516707309299 -0.0028150264099235634 0 0.029504945774537841 -0.0042748274011367446 0 0.030718222442079387 -0.0035897703685858176 0 0.029583516707309299 -0.0028150264099235634 0 0.030718222442079387 -0.0035897703685858176 0 0.030467503985546863 -0.0023849764886844909 0 0.029583516707309299 -0.0028150264099235634 0 0.030467503985546863 -0.0023849764886844909 0 0.029583516707309299 -0.0028150264099235634 0 0.030347036230274443 -0.0013659714861768502 0 0.02840709279026489 -0.0018381390144234289 0 0.028388609406705699 -0.0035902696916637216 0 0.029583516707309299 -0.0028150264099235634 0 0.02840709279026489 -0.0018381390144234289 0 0.029583516707309299 -0.0028150264099235634 0 0.030347036230274443 -0.0013659714861768502 0 0.03469112535106985 -3.8199370244583755e-05 0 0.035289712037785928 5.2019835451263079e-05 0 0.035241019011860268 0.00058756387864311826 0 0.031850623102115179 -0.00055472897134515751 0 0.032179801708545133 -0.0010789690965184375 0 0.03469112535106985 -3.8199370244583755e-05 0 0.035241019011860268 0.00058756387864311826 0 0.034296036152156137 0.0004357082737705514 0 0.032142381758878111 -0.0017333040033936417 0 0.032157322272911189 -0.0020576344712972209 0 0.032541705905719663 -0.0023076140610785172 0 0.032102274695321231 -0.0022753244113571159 0 0.032157322272911189 -0.0020576344712972209 0 0.032279583156194259 -0.0022631274103482109 0 0.032179801708545133 -0.0010789690965184375 0 0.032106352656708623 -0.0014514087803951703 0 0.033251365292330345 -0.00092493937959874171 0 0.032179801708545133 -0.0010789690965184375 0 0.031824033778071636 -0.0018097677383220321 0 0.032102274695321231 -0.0022753244113571159 0 0.032157322272911189 -0.0020576344712972209 0 0.03206569876745867 -0.0014928942874699108 0 0.032704023762549994 -0.0023182022072593478 0 0.03227938260922994 -0.0013744036713758071 0 0.032833208910080632 -0.002217954116822139 0 0.032877703787730694 -0.0016789424073725585 0 0.033146004353907313 -0.0019675638442106717 0 0.032833208910080632 -0.002217954116822139 0 0.032877703787730694 -0.0016789424073725585 0 0.033146004353907313 -0.0019675638442106717 0 0.032877703787730694 -0.0016789424073725585 0 0.033192297358895957 -0.0016341220895746643 0 0.033146004353907313 -0.0019675638442106717 0 0.032833208910080632 -0.002217954116822139 0 0.033231562356991047 -0.0024509476611422349 0 0.032157322272911189 -0.0020576344712972209 0 0.032541705905719663 -0.0023076140610785172 0 0.032279583156194259 -0.0022631274103482109 0 0.033146004353907313 -0.0019675638442106717 0 0.033617676821367438 -0.0019124617291959027 0 0.033192297358895957 -0.0016341220895746643 0 0.033617676821367438 -0.0019124617291959027 0 0.033231562356991047 -0.0024509476611422349 0 0.033546559522200196 -0.0027225224441657231 0 0.033146004353907313 -0.0019675638442106717 0 0.033617676821367438 -0.0019124617291959027 0 0.033231562356991047 -0.0024509476611422349 0 0.033617676821367438 -0.0019124617291959027 0 0.033546559522200196 -0.0027225224441657231 0 0.034073571792928144 -0.0025701575961481274 0 0.033546559522200196 -0.0027225224441657231 0 0.033080183288246051 -0.003129992288494809 0 0.033914411779929543 -0.0035339243429090227 0 0.033231562356991047 -0.0024509476611422349 0 0.033546559522200196 -0.0027225224441657231 0 0.033080183288246051 -0.003129992288494809 0 0.032541705905719663 -0.0023076140610785172 0 0.033080183288246051 -0.003129992288494809 0 0.032594262207000145 -0.0032361095981346009 0 0.032704023762549994 -0.0023182022072593478 0 0.033076926663905333 -0.0030466798109971462 0 0.03201285352924766 -0.0023077525916878863 0 0.032279583156194259 -0.0022631274103482109 0 0.032594262207000145 -0.0032361095981346009 0 0.032541705905719663 -0.0023076140610785172 0 0.032279583156194259 -0.0022631274103482109 0 0.032594262207000145 -0.0032361095981346009 0 0.030467503985546863 -0.0023849764886844909 0 0.030347036230274443 -0.0013659714861768502 0 0.031517111183251734 -0.0027233174003588275 0 0.032833208910080632 -0.002217954116822139 0 0.033231562356991047 -0.0024509476611422349 0 0.033080183288246051 -0.003129992288494809 0 0.032179801708545133 -0.0010789690965184375 0 0.031967717361818478 -0.0031092261915983666 0 0.030718222442079387 -0.0035897703685858176 0 0.030467503985546863 -0.0023849764886844909 0 0.031517111183251734 -0.0027233174003588275 0 0.030718222442079387 -0.0035897703685858176 0 0.031517111183251734 -0.0027233174003588275 0 0.032946421046170744 -0.0044005620222990751 0 0.033080183288246051 -0.003129992288494809 0 0.032946421046170744 -0.0044005620222990751 0 0.033914411779929543 -0.0035339243429090227 0 0.033080183288246051 -0.003129992288494809 0 0.032594262207000145 -0.0032361095981346009 0 0.032946421046170744 -0.0044005620222990751 0 0.031967717361818478 -0.0031092261915983666 0 0.032946366644293859 -0.0043017985210718236 0 0.03274613240824116 -0.0059604909941952033 0 0.032946421046170744 -0.0044005620222990751 0 0.030914424982744857 -0.0050739403242117623 0 0.03274613240824116 -0.0059604909941952033 0 0.032946421046170744 -0.0044005620222990751 0 0.034367405171884913 -0.0049568090726379386 0 0.030718222442079387 -0.0035897703685858176 0 0.032946421046170744 -0.0044005620222990751 0 0.030914424982744857 -0.0050739403242117623 0 0.035530916769243505 -0.0047157222618390629 0 0.034367405171884913 -0.0049568090726379386 0 0.034934185620534269 -0.0040496103011816512 0 0.035307747142686405 -0.005566105666120179 0 0.035530916769243505 -0.0047157222618390629 0 0.036207462008187592 -0.0053963218777868362 0 0.035307747142686405 -0.005566105666120179 0 0.035530916769243505 -0.0047157222618390629 0 0.034367405171884913 -0.0049568090726379386 0 0.032946421046170744 -0.0044005620222990751 0 0.034367405171884913 -0.0049568090726379386 0 0.033914411779929543 -0.0035339243429090227 0 0.034367405171884913 -0.0049568090726379386 0 0.033914411779929543 -0.0035339243429090227 0 0.034934185620534269 -0.0040496103011816512 0 0.033914411779929543 -0.0035339243429090227 0 0.034934185620534269 -0.0040496103011816512 0 0.03479390408004214 -0.0031578607703062448 0 0.034934185620534269 -0.0040496103011816512 0 0.03479390408004214 -0.0031578607703062448 0 0.036000322536634335 -0.003734142766673965 0 0.035530916769243505 -0.0047157222618390629 0 0.034934185620534269 -0.0040496103011816512 0 0.036000322536634335 -0.003734142766673965 0 0.03479390408004214 -0.0031578607703062448 0 0.035661961508538169 -0.0027979066175812233 0 0.036000322536634335 -0.003734142766673965 0 0.03479390408004214 -0.0031578607703062448 0 0.035661961508538169 -0.0027979066175812233 0 0.034924933094381432 -0.0023859129425435627 0 0.033914411779929543 -0.0035339243429090227 0 0.03479390408004214 -0.0031578607703062448 0 0.034073571792928144 -0.0025701575961481274 0 0.033546559522200196 -0.0027225224441657231 0 0.033914411779929543 -0.0035339243429090227 0 0.034073571792928144 -0.0025701575961481274 0 0.03479390408004214 -0.0031578607703062448 0 0.034073571792928144 -0.0025701575961481274 0 0.034924933094381432 -0.0023859129425435627 0 0.033617676821367438 -0.0019124617291959027 0 0.034073571792928144 -0.0025701575961481274 0 0.034414669973897818 -0.0015794827755435756 0 0.034073571792928144 -0.0025701575961481274 0 0.034924933094381432 -0.0023859129425435627 0 0.034414669973897818 -0.0015794827755435756 0 0.035959589654419442 -0.0021293574976377267 0 0.038380101761373395 -0.0028833893991358204 0 0.037909079006000733 -0.0016268141750574062 0 0.035661961508538169 -0.0027979066175812233 0 0.034924933094381432 -0.0023859129425435627 0 0.036311453957082407 -0.0019044895716465349 0 0.034924933094381432 -0.0023859129425435627 0 0.034414669973897818 -0.0015794827755435756 0 0.036311453957082407 -0.0019044895716465349 0 0.035181490151220865 -0.0018347184581965126 0 0.037355266116521908 -0.0024512987592511049 0 0.036293011883270963 -0.00031570310195976027 0 0.035959589654419442 -0.0021293574976377267 0 0.037909079006000733 -0.0016268141750574062 0 0.037820171591387189 0.00046573014112365966 0 0.037785526726173642 -0.0014641309208737873 0 0.036293011883270963 -0.00031570310195976027 0 0.037400864123315329 0.00058571972716241162 0 0.037909079006000733 -0.0016268141750574062 0 0.036293011883270963 -0.00031570310195976027 0 0.037400864123315329 0.00058571972716241162 0 0.036051882359139198 0.0009931819269604666 0 0.035313410299757084 0.00055081789410032762 0 0.036293011883270963 -0.00031570310195976027 0 0.035024561492272878 -0.00029375164021164647 0 0.035313410299757084 0.00055081789410032762 0 0.036293011883270963 -0.00031570310195976027 0 0.036051882359139198 0.0009931819269604666 0 0.035024561492272878 -0.00029375164021164647 0 0.035959589654419442 -0.0021293574976377267 0 0.034179549035564728 -0.00072842749822059469 0 0.036293011883270963 -0.00031570310195976027 0 0.035024561492272878 -0.00029375164021164647 0 0.035959589654419442 -0.0021293574976377267 0 0.033617676821367438 -0.0019124617291959027 0 0.034414669973897818 -0.0015794827755435756 0 0.033311577972146081 -0.0012686637683254726 0 0.035181490151220865 -0.0018347184581965126 0 0.033395577596535803 -0.0012962338347588718 0 0.035959589654419442 -0.0021293574976377267 0 0.033311577972146081 -0.0012686637683254726 0 0.034179549035564728 -0.00072842749822059469 0 0.033617676821367438 -0.0019124617291959027 0 0.033192297358895957 -0.0016341220895746643 0 0.033311577972146081 -0.0012686637683254726 0 0.033311577972146081 -0.0012686637683254726 0 0.033247845109119295 -0.00066340156159187184 0 0.034179549035564728 -0.00072842749822059469 0 0.03227938260922994 -0.0013744036713758071 0 0.032877703787730694 -0.0016789424073725585 0 0.032911349810934958 -0.001300490272963895 0 0.033192297358895957 -0.0016341220895746643 0 0.033311577972146081 -0.0012686637683254726 0 0.032911349810934958 -0.001300490272963895 0 0.032877703787730694 -0.0016789424073725585 0 0.033192297358895957 -0.0016341220895746643 0 0.032911349810934958 -0.001300490272963895 0 0.033311577972146081 -0.0012686637683254726 0 0.032911349810934958 -0.001300490272963895 0 0.033247845109119295 -0.00066340156159187184 0 0.032911349810934958 -0.001300490272963895 0 0.032892145683496528 -0.00067150370899963813 0 0.033247845109119295 -0.00066340156159187184 0 0.03227938260922994 -0.0013744036713758071 0 0.032911349810934958 -0.001300490272963895 0 0.032691488088882462 -0.00098876996745485388 0 0.032911349810934958 -0.001300490272963895 0 0.032691488088882462 -0.00098876996745485388 0 0.032892145683496528 -0.00067150370899963813 0 0.032755565386978401 -0.0003629348711950327 0 0.032892145683496528 -0.00067150370899963813 0 0.033247845109119295 -0.00066340156159187184 0 0.03251674001148476 -0.00067075376942317909 0 0.032755565386978401 -0.0003629348711950327 0 0.032892145683496528 -0.00067150370899963813 0 0.03251674001148476 -0.00067075376942317909 0 0.032755565386978401 -0.0003629348711950327 0 0.032536618370096887 -0.00030916732070980068 0 0.03251674001148476 -0.00067075376942317909 0 0.032691488088882462 -0.00098876996745485388 0 0.032892145683496528 -0.00067150370899963813 0 0.033247845109119295 -0.00066340156159187184 0 0.033577258208091022 -3.064973332157373e-05 0 0.032486929655491381 0.00077093195850051646 0 0.033577258208091022 -3.064973332157373e-05 0 0.033732537504438546 0.00055599314044626179 0 0.032486929655491381 0.00077093195850051646 0 0.032755565386978401 -0.0003629348711950327 0 0.032567482534487588 -0.00011605581683612334 0 0.032704723229359939 0.00019783493435588366 0 0.032755565386978401 -0.0003629348711950327 0 0.033247845109119295 -0.00066340156159187184 0 0.032704723229359939 0.00019783493435588366 0 0.033034015871271555 -0.00040487412599294004 0 0.034833684062215674 0.0011193114944325333 0 0.032755565386978401 -0.0003629348711950327 0 0.032567482534487588 -0.00011605581683612334 0 0.032536618370096887 -0.00030916732070980068 0 0.035024561492272878 -0.00029375164021164647 0 0.034179549035564728 -0.00072842749822059469 0 0.034163101935690381 -1.0128386570021316e-05 0 0.033577258208091022 -3.064973332157373e-05 0 0.034179549035564728 -0.00072842749822059469 0 0.034163101935690381 -1.0128386570021316e-05 0 0.033247845109119295 -0.00066340156159187184 0 0.033577258208091022 -3.064973332157373e-05 0 0.034179549035564728 -0.00072842749822059469 0 0.034163101935690381 -1.0128386570021316e-05 0 0.033732537504438546 0.00055599314044626179 0 0.034521155887868533 0.00062903105564685513 0 0.033577258208091022 -3.064973332157373e-05 0 0.034163101935690381 -1.0128386570021316e-05 0 0.033732537504438546 0.00055599314044626179 0 0.035313410299757084 0.00055081789410032762 0 0.035024561492272878 -0.00029375164021164647 0 0.034521155887868533 0.00062903105564685513 0 0.035024561492272878 -0.00029375164021164647 0 0.034163101935690381 -1.0128386570021316e-05 0 0.034521155887868533 0.00062903105564685513 0 0.035121759942653798 0.0017555723554022668 0 0.035425208127722263 0.0017861288858243938 0 0.034055897144984457 0.0014680115235556684 0 0.034845630136976231 0.0013802833976657659 0 0.035504704574966184 0.0017572521149246045 0 0.034521155887868533 0.00062903105564685513 0 0.034055897144984457 0.0014680115235556684 0 0.034845630136976231 0.0013802833976657659 0 0.035313410299757084 0.00055081789410032762 0 0.034521155887868533 0.00062903105564685513 0 0.034845630136976231 0.0013802833976657659 0 0.033732537504438546 0.00055599314044626179 0 0.034521155887868533 0.00062903105564685513 0 0.034055897144984457 0.0014680115235556684 0 0.035121759942653798 0.0017555723554022668 0 0.034833684062215674 0.0011193114944325333 0 0.036212577833499009 0.0021077380687751319 0 0.036752092431621461 0.0023265041012082775 0 0.036507612561313303 0.0020323983362208332 0 0.033732537504438546 0.00055599314044626179 0 0.034055897144984457 0.0014680115235556684 0 0.032486929655491381 0.00077093195850051646 0 0.036212577833499009 0.0021077380687751319 0 0.036507612561313303 0.0020323983362208332 0 0.036375367934803907 0.0018068015988188652 0 0.036752092431621461 0.0023265041012082775 0 0.036507612561313303 0.0020323983362208332 0 0.036763295160671478 0.0019479075000505264 0 0.036507612561313303 0.0020323983362208332 0 0.036763295160671478 0.0019479075000505264 0 0.036670765683320929 0.0017658104690665768 0 0.036670765683320929 0.0017658104690665768 0 0.036375367934803907 0.0018068015988188652 0 0.036523359607819446 0.0014355755062451744 0 0.036507612561313303 0.0020323983362208332 0 0.036670765683320929 0.0017658104690665768 0 0.036375367934803907 0.0018068015988188652 0 0.036670765683320929 0.0017658104690665768 0 0.036523359607819446 0.0014355755062451744 0 0.036805183808496442 0.0015356569742446919 0 0.036212577833499009 0.0021077380687751319 0 0.036074886850714895 0.0016297946296271405 0 0.035504704574966184 0.0017572521149246045 0 0.036212577833499009 0.0021077380687751319 0 0.036375367934803907 0.0018068015988188652 0 0.036074886850714895 0.0016297946296271405 0 0.036375367934803907 0.0018068015988188652 0 0.036523359607819446 0.0014355755062451744 0 0.036074886850714895 0.0016297946296271405 0 0.036523359607819446 0.0014355755062451744 0 0.036074886850714895 0.0016297946296271405 0 0.036146159583340637 0.0013238772520876689 0 0.036074886850714895 0.0016297946296271405 0 0.035504704574966184 0.0017572521149246045 0 0.035743400627082693 0.0014042314252091777 0 0.036074886850714895 0.0016297946296271405 0 0.035743400627082693 0.0014042314252091777 0 0.036146159583340637 0.0013238772520876689 0 0.035504704574966184 0.0017572521149246045 0 0.035555791700519333 0.0015390532137447514 0 0.035743400627082693 0.0014042314252091777 0 0.035504704574966184 0.0017572521149246045 0 0.035555791700519333 0.0015390532137447514 0 0.035567184314233419 0.0016163170696318165 0 0.035555791700519333 0.0015390532137447514 0 0.035567184314233419 0.0016163170696318165 0 0.035436903379858171 0.0012480174648504207 0 0.03752701356950109 0.0019201278030505915 0 0.037820171591387189 0.00046573014112365966 0 0.039805128322106031 0.0018623048391434817 0 0.040105005861735203 0.00048526963487917606 0 0.041081474572689035 0.0014280249042598668 0 0.035567184314233419 0.0016163170696318165 0 0.035701735726902072 0.0014093115085676638 0 0.035592433731041956 0.0014413103460147645 0 0.037820171591387189 0.00046573014112365966 0 0.035556927496889129 0.0012734047490890643 0 0.035504704574966184 0.0017572521149246045 0 0.035567184314233419 0.0016163170696318165 0 0.035592433731041956 0.0014413103460147645 0 0.035029070296145916 0.0013730648787522236 0 0.035556927496889129 0.0012734047490890643 0 0.035313410299757084 0.00055081789410032762 0 0.034845630136976231 0.0013802833976657659 0 0.036051882359139198 0.0009931819269604666 0 0.034845630136976231 0.0013802833976657659 0 0.035504704574966184 0.0017572521149246045 0 0.035592433731041956 0.0014413103460147645 0 0.037205394796994987 0.00071889261259921067 0 0.037377769269161101 0.00086736081281353747 0 0.037489304389400013 0.00044999176823382097 0 0.037205394796994987 0.00071889261259921067 0 0.037489304389400013 0.00044999176823382097 0 0.037076081919068186 0.00054545542575493611 0 0.037205394796994987 0.00071889261259921067 0 0.037076081919068186 0.00054545542575493611 0 0.036964659534094821 0.00079159733453907483 0 0.037205394796994987 0.00071889261259921067 0 0.037377769269161101 0.00086736081281353747 0 0.037126141278944307 0.00090204512678058318 0 0.037205394796994987 0.00071889261259921067 0 0.036964659534094821 0.00079159733453907483 0 0.037126141278944307 0.00090204512678058318 0 0.044725079240574513 0.0035762276467263482 0 0.044493342112365941 0.0031953162681622664 0 0.045003174037665336 0.0033674799138268528 0 0.040810494284021961 0.0022794398110624961 0 0.039447717540907208 0.0019005096381380529 0 0.044362586786195507 0.0037264676599818047 0 0.044725079240574513 0.0035762276467263482 0 0.044493342112365941 0.0031953162681622664 0 0.044725079240574513 0.0035762276467263482 0 0.044669248620404368 0.0039783083968518759 0 0.045137102037347755 0.0036656280370560073 0 0.03752701356950109 0.0019201278030505915 0 0.039447717540907208 0.0019005096381380529 0 0.039805128322106031 0.0018623048391434817 0 0.039502575225011896 0.0032286764327620768 0 0.041290248657272578 0.0027571147312549105 0 0.039447717540907208 0.0019005096381380529 0 0.03600817385678147 0.00087078793884088159 0 0.035555791700519333 0.0015390532137447514 0 0.035436903379858171 0.0012480174648504207 0 0.035743400627082693 0.0014042314252091777 0 0.035436903379858171 0.0012480174648504207 0 0.035851655801103999 0.00097980619115958117 0 0.035743400627082693 0.0014042314252091777 0 0.035851655801103999 0.00097980619115958117 0 0.036146159583340637 0.0013238772520876689 0 0.036508146075522545 0.001132102428247672 0 0.035851655801103999 0.00097980619115958117 0 0.035743400627082693 0.0014042314252091777 0 0.036146159583340637 0.0013238772520876689 0 0.035851655801103999 0.00097980619115958117 0 0.036508146075522545 0.001132102428247672 0 0.036621864041322214 0.00077673292170460742 0 0.036523359607819446 0.0014355755062451744 0 0.036146159583340637 0.0013238772520876689 0 0.036508146075522545 0.001132102428247672 0 0.036523359607819446 0.0014355755062451744 0 0.036805183808496442 0.0015356569742446919 0 0.036847911630424515 0.0012059877227623978 0 0.036523359607819446 0.0014355755062451744 0 0.036847911630424515 0.0012059877227623978 0 0.036508146075522545 0.001132102428247672 0 0.036847911630424515 0.0012059877227623978 0 0.036508146075522545 0.001132102428247672 0 0.036621864041322214 0.00077673292170460742 0 0.036847911630424515 0.0012059877227623978 0 0.036621864041322214 0.00077673292170460742 0 0.036946580088404395 0.00088656018809629505 0 0.036621864041322214 0.00077673292170460742 0 0.036764699280602338 0.00075834151333642442 0 0.036946580088404395 0.00088656018809629505 0 0.036621864041322214 0.00077673292170460742 0 0.036830332960866172 0.00084245234586423183 0 0.036778714471964118 0.00081941447254614487 0 0.036621864041322214 0.00077673292170460742 0 0.036764699280602338 0.00075834151333642442 0 0.036778714471964118 0.00081941447254614487 0 0.037076081919068186 0.00054545542575493611 0 0.036621864041322214 0.00077673292170460742 0 0.036964659534094821 0.00079159733453907483 0 0.03600817385678147 0.00087078793884088159 0 0.03677045186111521 0.0007193014363096221 0 0.036621864041322214 0.00077673292170460742 0 0.036830332960866172 0.00084245234586423183 0 0.036964659534094821 0.00079159733453907483 0 0.036830332960866172 0.00084245234586423183 0 0.036964659534094821 0.00079159733453907483 0 0.036954814825417237 0.00090676837081481968 0 0.036954814825417237 0.00090676837081481968 0 0.036943037112760126 0.0010247581053712321 0 0.037126141278944307 0.00090204512678058318 0 0.036964659534094821 0.00079159733453907483 0 0.036954814825417237 0.00090676837081481968 0 0.037126141278944307 0.00090204512678058318 0 0.036830332960866172 0.00084245234586423183 0 0.036954814825417237 0.00090676837081481968 0 0.036867918152737662 0.00090750212519654294 0 0.036830332960866172 0.00084245234586423183 0 0.036867918152737662 0.00090750212519654294 0 0.036778714471964118 0.00081941447254614487 0 0.036954814825417237 0.00090676837081481968 0 0.036867918152737662 0.00090750212519654294 0 0.036922395085256569 0.00095996452741308152 0 0.036867918152737662 0.00090750212519654294 0 0.036943037112760126 0.0010247581053712321 0 0.03682087410143025 0.00088266181756893689 0 0.036867918152737662 0.00090750212519654294 0 0.036922395085256569 0.00095996452741308152 0 0.036943037112760126 0.0010247581053712321 0 0.036954814825417237 0.00090676837081481968 0 0.036922395085256569 0.00095996452741308152 0 0.036943037112760126 0.0010247581053712321 0 0.036764699280602338 0.00075834151333642442 0 0.036784726877958342 0.00088961686649661716 0 0.03682087410143025 0.00088266181756893689 0 0.036943037112760126 0.0010247581053712321 0 0.036784726877958342 0.00088961686649661716 0 0.03682087410143025 0.00088266181756893689 0 0.039903275595448089 0.0014140247094283191 0 0.041463793058753216 0.0013807248147041456 0 0.036764699280602338 0.00075834151333642442 0 0.036778714471964118 0.00081941447254614487 0 0.03682087410143025 0.00088266181756893689 0 0.036867918152737662 0.00090750212519654294 0 0.036778714471964118 0.00081941447254614487 0 0.03682087410143025 0.00088266181756893689 0 0.044656104244191502 0.0019429350136514253 0 0.045353547298893626 0.0018553727097521933 0 0.045067001054126823 0.001559355854432063 0 0.045353547298893626 0.0018553727097521933 0 0.045067001054126823 0.001559355854432063 0 0.045611889190639437 0.0013233917457196036 0 0.045067001054126823 0.001559355854432063 0 0.045065048268380106 0.0010893976606057285 0 0.045611889190639437 0.0013233917457196036 0 0.044765985000934094 0.0015464314015233647 0 0.044274444389200099 0.0015999810894907777 0 0.045065048268380106 0.0010893976606057285 0 0.044306324604958314 0.0010637407513028239 0 0.046879643979323406 0.00019886634725225824 0 0.039903275595448089 0.0014140247094283191 0 0.044306324604958314 0.0010637407513028239 0 0.044656104244191502 0.0019429350136514253 0 0.044765985000934094 0.0015464314015233647 0 0.044274444389200099 0.0015999810894907777 0 0.044656104244191502 0.0019429350136514253 0 0.045067001054126823 0.001559355854432063 0 0.044765985000934094 0.0015464314015233647 0 0.045067001054126823 0.001559355854432063 0 0.044765985000934094 0.0015464314015233647 0 0.045065048268380106 0.0010893976606057285 0 0.048508563955064761 -0.00062804633502780969 0 0.048429445692118413 -0.00069457054168577256 0 0.048281262907560303 -0.00033000706648986846 0 0.045281499800848328 0.0036540473050077345 0 0.045280175464174281 0.0036644001231847189 0 0.04527340072150228 0.0036625435930864076 0 0.046419239945689743 0.0010061532712607537 0 0.043681456469312596 0.0029646960323108187 0 0.037356711095927357 0.0011756045042226756 0 0.037323656140746578 0.0011974171732314616 0 0.03732556773784073 0.0010579486624136822 0 0.043681456469312596 0.0029646960323108187 0 0.044306324604958314 0.0010637407513028239 0 0.045086917931666901 0.0010092560698264964 0 0.044854687229598456 0.0020203639596136614 0 0.045613909958684598 0.0014722029362694033 0 0.046419239945689743 0.0010061532712607537 0 0.044306324604958314 0.0010637407513028239 0 0.036943037112760126 0.0010247581053712321 0 0.03732556773784073 0.0010579486624136822 0 0.037126141278944307 0.00090204512678058318 0 0.040810494284021961 0.0022794398110624961 0 0.043681456469312596 0.0029646960323108187 0 0.039903275595448089 0.0014140247094283191 0 0.036498176905115219 0.0011919937049758634 0 0.037377769269161101 0.00086736081281353747 0 0.037356711095927357 0.0011756045042226756 0 0.03732556773784073 0.0010579486624136822 0 0.037249581821824952 0.0010989322013466817 0 0.037323656140746578 0.0011974171732314616 0 0.03732556773784073 0.0010579486624136822 0 0.037377769269161101 0.00086736081281353747 0 0.03732556773784073 0.0010579486624136822 0 0.037126141278944307 0.00090204512678058318 0 0.044362586786195507 0.0037264676599818047 0 0.044233640115360517 0.0042651223930617104 0 0.044669248620404368 0.0039783083968518759 0 0.044362586786195507 0.0037264676599818047 0 0.044725079240574513 0.0035762276467263482 0 0.044669248620404368 0.0039783083968518759 0 0.043681456469312596 0.0029646960323108187 0 0.045027608348258787 0.0038209467106007327 0 0.045281499800848328 0.0036540473050077345 0 0.04527340072150228 0.0036625435930864076 0 0.045283710893125641 0.0036629131336357755 0 0.045250266783790717 0.0036921929990903616 0 0.04527340072150228 0.0036625435930864076 0 0.045244485019800711 0.0036840712971057074 0 0.045280175464174281 0.0036644001231847189 0 0.045250266783790717 0.0036921929990903616 0 0.04527340072150228 0.0036625435930864076 0 0.04527340072150228 0.0036625435930864076 0 0.045244485019800711 0.0036840712971057074 0 0.045295187532004143 0.0036577146048647141 0 0.046419239945689743 0.0010061532712607537 0 0.047249598700585378 0.0017716234025130296 0 0.04527340072150228 0.0036625435930864076 0 0.045283710893125641 0.0036629131336357755 0 0.045295187532004143 0.0036577146048647141 0 0.049345702772547718 -0.00039820160273426776 0 0.048868357533997875 -0.00029973682422925504 0 0.04899329058843932 8.0006002784470482e-05 0 0.046419239945689743 0.0010061532712607537 0 0.049060703134711642 -0.00080205703389736908 0 0.048681415180352905 -0.00094350135366851984 0 0.049345702772547718 -0.00039820160273426776 0 0.048868357533997875 -0.00029973682422925504 0 0.048681415180352905 -0.00094350135366851984 0 0.048868357533997875 -0.00029973682422925504 0 0.04845585185058221 6.7414385823752425e-05 0 0.048508563955064761 -0.00062804633502780969 0 0.04845585185058221 6.7414385823752425e-05 0 0.048281262907560303 -0.00033000706648986846 0 0.04899329058843932 8.0006002784470482e-05 0 0.049269891710625 0.000538737414127408 0 0.048383107398142548 0.00075329499174390255 0 0.04845585185058221 6.7414385823752425e-05 0 0.04899329058843932 8.0006002784470482e-05 0 0.048383107398142548 0.00075329499174390255 0 0.048868357533997875 -0.00029973682422925504 0 0.04845585185058221 6.7414385823752425e-05 0 0.04899329058843932 8.0006002784470482e-05 0 0.049345702772547718 -0.00039820160273426776 0 0.049474532032131882 0.00014883453986686565 0 0.050035089366078075 0.00016916154436292862 0 0.049345702772547718 -0.00039820160273426776 0 0.04899329058843932 8.0006002784470482e-05 0 0.049474532032131882 0.00014883453986686565 0 0.04899329058843932 8.0006002784470482e-05 0 0.049474532032131882 0.00014883453986686565 0 0.049269891710625 0.000538737414127408 0 0.049474532032131882 0.00014883453986686565 0 0.049269891710625 0.000538737414127408 0 0.049726825282539723 0.00035908763627827943 0 0.054964226997301413 1.2881619829463538e-05 0 0.054981930196913206 9.5031813820166369e-06 0 0.054983541579807123 1.4239482242094301e-05 0 0.054964226997301413 1.2881619829463538e-05 0 0.054981930196913206 9.5031813820166369e-06 0 0.054954192893783491 1.1192007984019611e-05 0 0.051976513722278926 0.00026345391107541989 0 0.051842142937339013 0.00034312954620691147 0 0.054999946561337131 1.7035292173786402e-08 0 0.054981930196913206 9.5031813820166369e-06 0 0.054954192893783491 1.1192007984019611e-05 0 0.055001769409149186 3.7868798985138439e-07 0 0.051842142937339013 0.00034312954620691147 0 0.054999946561337131 1.7035292173786402e-08 0 0.054999982183222752 1.0912212302762719e-08 0 0.054981930196913206 9.5031813820166369e-06 0 0.054999982183222752 1.0912212302762719e-08 0 0.054981930196913206 9.5031813820166369e-06 0 0.054983541579807123 1.4239482242094301e-05 0 0.054999964030811095 6.5789611467380328e-09 0 0.054982196480226543 5.4575923225768209e-06 0 0.054970763802608472 1.0696256516475767e-05 0 0.054999964030811095 6.5789611467380328e-09 0 0.054970763802608472 1.0696256516475767e-05 0 0.054977212890942699 7.6957202321203629e-06 0 0.054999956170014359 2.634977566612104e-09 0 0.054999964030811095 6.5789611467380328e-09 0 0.054982196480226543 5.4575923225768209e-06 0 0.054999956170014359 2.634977566612104e-09 0 0.054982196480226543 5.4575923225768209e-06 0 0.054959022869071832 1.2342880662620654e-05 0 0.048358711190166347 0.00053624586016826395 0 0.047778788213534831 0.00067964139022893048 0 0.048033349805794198 0.00034847193406942575 0 0.051842142937339013 0.00034312954620691147 0 0.051336223911299363 0.00034651737354772955 0 0.054982196480226543 5.4575923225768209e-06 0 0.054959022869071832 1.2342880662620654e-05 0 0.054970763802608472 1.0696256516475767e-05 0 0.051336223911299363 0.00034651737354772955 0 0.051111571098159149 0.00039880368675945988 0 0.047778788213534831 0.00067964139022893048 0 0.047796876137206484 0.00011885904853964093 0 0.048033349805794198 0.00034847193406942575 0 0.047796876137206484 0.00011885904853964093 0 0.047877821082694255 -0.00030881317163965823 0 0.04723439417169531 9.0550379882392137e-05 0 0.047778788213534831 0.00067964139022893048 0 0.047796876137206484 0.00011885904853964093 0 0.04723439417169531 9.0550379882392137e-05 0 0.051842142937339013 0.00034312954620691147 0 0.048076355304740935 -6.4792415775823437e-05 0 0.04845585185058221 6.7414385823752425e-05 0 0.048383107398142548 0.00075329499174390255 0 0.048193643986072399 6.7116498416833887e-05 0 0.048358711190166347 0.00053624586016826395 0 0.048033349805794198 0.00034847193406942575 0 0.048193643986072399 6.7116498416833887e-05 0 0.047796876137206484 0.00011885904853964093 0 0.048033349805794198 0.00034847193406942575 0 0.048193643986072399 6.7116498416833887e-05 0 0.047796876137206484 0.00011885904853964093 0 0.048193643986072399 6.7116498416833887e-05 0 0.04805746529233778 -0.00013047156178171878 0 0.04845585185058221 6.7414385823752425e-05 0 0.048193643986072399 6.7116498416833887e-05 0 0.048242147377831397 -8.6105898474024662e-05 0 0.047796876137206484 0.00011885904853964093 0 0.04805746529233778 -0.00013047156178171878 0 0.047877821082694255 -0.00030881317163965823 0 0.048429445692118413 -0.00069457054168577256 0 0.048281262907560303 -0.00033000706648986846 0 0.047877821082694255 -0.00030881317163965823 0 0.048242147377831397 -8.6105898474024662e-05 0 0.04805746529233778 -0.00013047156178171878 0 0.048281262907560303 -0.00033000706648986846 0 0.04845585185058221 6.7414385823752425e-05 0 0.048242147377831397 -8.6105898474024662e-05 0 0.048281262907560303 -0.00033000706648986846 0 0.048193643986072399 6.7116498416833887e-05 0 0.048242147377831397 -8.6105898474024662e-05 0 0.04805746529233778 -0.00013047156178171878 0 0.04805746529233778 -0.00013047156178171878 0 0.048281262907560303 -0.00033000706648986846 0 0.047877821082694255 -0.00030881317163965823 0 0.045065048268380106 0.0010893976606057285 0 0.045854237232805614 0.00067467176957232498 0 0.045611889190639437 0.0013233917457196036 0 0.046879643979323406 0.00019886634725225824 0 0.046448417910561583 0.00045635675180077115 0 0.046066250196753158 0.0011845473449618197 0 0.045854237232805614 0.00067467176957232498 0 0.045611889190639437 0.0013233917457196036 0 0.046066250196753158 0.0011845473449618197 0 0.046320539752523288 0.00085433663868502829 0 0.045854237232805614 0.00067467176957232498 0 0.046320539752523288 0.00085433663868502829 0 0.046663228974941941 0.0011124184609643596 0 0.046356677795318608 0.0014228638829791762 0 0.046066250196753158 0.0011845473449618197 0 0.046320539752523288 0.00085433663868502829 0 0.046356677795318608 0.0014228638829791762 0 0.046448417910561583 0.00045635675180077115 0 0.046592572111451763 0.00050179710331952623 0 0.046320539752523288 0.00085433663868502829 0 0.045854237232805614 0.00067467176957232498 0 0.0465828926038728 0.00054323001770083159 0 0.046320539752523288 0.00085433663868502829 0 0.0465828926038728 0.00054323001770083159 0 0.046546669585468749 0.00054641046741829439 0 0.04723439417169531 9.0550379882392137e-05 0 0.0465828926038728 0.00054323001770083159 0 0.047151867275669647 0.00080279657391378806 0 0.047778788213534831 0.00067964139022893048 0 0.04723439417169531 9.0550379882392137e-05 0 0.047151867275669647 0.00080279657391378806 0 0.0465828926038728 0.00054323001770083159 0 0.046622243177843581 0.00075681264644655714 0 0.046546669585468749 0.00054641046741829439 0 0.050587982050645242 0.00015604037099004782 0 0.047183428412490097 0.00076443978022162603 0 0.0465828926038728 0.00054323001770083159 0 0.046622243177843581 0.00075681264644655714 0 0.047151867275669647 0.00080279657391378806 0 0.050587982050645242 0.00015604037099004782 0 0.051111571098159149 0.00039880368675945988 0 0.054991404464026145 1.8704279567737675e-06 0 0.05499995761435756 8.3708574158682641e-09 0 0.054999947591310001 4.6107895876656037e-09 0 0.054980733998708127 4.6654263973853544e-06 0 0.054977212890942699 7.6957202321203629e-06 0 0.05499995761435756 8.3708574158682641e-09 0 0.054980733998708127 4.6654263973853544e-06 0 0.054991404464026145 1.8704279567737675e-06 0 0.05499995761435756 8.3708574158682641e-09 0 0.050587982050645242 0.00015604037099004782 0 0.051858923492640603 0.00039610521987735407 0 0.054999964030811095 6.5789611467380328e-09 0 0.054977212890942699 7.6957202321203629e-06 0 0.05499995761435756 8.3708574158682641e-09 0 0.054997865366503938 1.1929324483826512e-07 0 0.054999947591310001 4.6107895876656037e-09 0 0.054999996021089688 -4.7727824613964504e-09 0 0.04780972949080791 0.00031316030841881972 0 0.048077863468391824 0.0002439360144214217 0 0.048051197156807994 0.0004145952770187554 0 0.052324258241280806 2.1615765073978911e-05 0 0.054999864348548963 -5.5928439074874547e-07 0 0.054982212239126679 4.3658725103766607e-06 0 0.054997865366503938 1.1929324483826512e-07 0 0.054999947591310001 4.6107895876656037e-09 0 0.050587982050645242 0.00015604037099004782 0 0.052324258241280806 2.1615765073978911e-05 0 0.054982212239126679 4.3658725103766607e-06 0 0.054991404464026145 1.8704279567737675e-06 0 0.054999947591310001 4.6107895876656037e-09 0 0.04780972949080791 0.00031316030841881972 0 0.048051197156807994 0.0004145952770187554 0 0.047807916608885899 0.00053078500130232867 0 0.048051197156807994 0.0004145952770187554 0 0.048014154606181809 0.00059003143953862336 0 0.047807916608885899 0.00053078500130232867 0 0.048014154606181809 0.00059003143953862336 0 0.047807916608885899 0.00053078500130232867 0 0.047802129389958189 0.00075021425709803212 0 0.047183428412490097 0.00076443978022162603 0 0.04406716292363657 0.00023062323797491558 0 0.046320539752523288 0.00085433663868502829 0 0.046546669585468749 0.00054641046741829439 0 0.046663228974941941 0.0011124184609643596 0 0.038775743397824719 -0.0013260126694108168 0 0.038977502072155563 -0.0013768857913268788 0 0.038883267097288496 -0.0012441064430280294 0 0.04406716292363657 0.00023062323797491558 0 0.044005701588893227 0.00037541918730824833 0 0.042922928621466572 -0.00048074293209125551 0 0.04406716292363657 0.00023062323797491558 0 0.039046176470215861 -0.0016151366017739567 0 0.038775743397824719 -0.0013260126694108168 0 0.038977502072155563 -0.0013768857913268788 0 0.039046176470215861 -0.0016151366017739567 0 0.038977502072155563 -0.0013768857913268788 0 0.039275138583550202 -0.001477954072726276 0 0.038977502072155563 -0.0013768857913268788 0 0.039002055670921847 -0.0012820929038942872 0 0.039275138583550202 -0.001477954072726276 0 0.038977502072155563 -0.0013768857913268788 0 0.039002055670921847 -0.0012820929038942872 0 0.038883267097288496 -0.0012441064430280294 0 0.038910215621876729 -0.0011684251792177833 0 0.038771300028021899 -0.0010587916409314764 0 0.038634240520071798 -0.001149883919817266 0 0.039002055670921847 -0.0012820929038942872 0 0.038910215621876729 -0.0011684251792177833 0 0.039007437144025374 -0.0011690809381674756 0 0.03879812306318977 -0.0011410569992093278 0 0.039055302104164823 -0.00083332927981892763 0 0.038883267097288496 -0.0012441064430280294 0 0.038910215621876729 -0.0011684251792177833 0 0.03882218533085844 -0.0011587035409237221 0 0.039002055670921847 -0.0012820929038942872 0 0.038883267097288496 -0.0012441064430280294 0 0.038910215621876729 -0.0011684251792177833 0 0.038910215621876729 -0.0011684251792177833 0 0.038771300028021899 -0.0010587916409314764 0 0.039007437144025374 -0.0011690809381674756 0 0.038680560472843933 -0.00093418979335850463 0 0.038627623752115189 -0.00097500265572966836 0 0.038537969522412258 -0.0010800524006769519 0 0.038671733178096704 -0.00095936329710032294 0 0.038884180411701136 -0.0011418597020298618 0 0.038771300028021899 -0.0010587916409314764 0 0.038680560472843933 -0.00093418979335850463 0 0.039007437144025374 -0.0011690809381674756 0 0.038771300028021899 -0.0010587916409314764 0 0.038680560472843933 -0.00093418979335850463 0 0.038647539450625455 -0.00093008192054850247 0 0.039055302104164823 -0.00083332927981892763 0 0.038184000142043047 -7.3296249599748297e-05 0 0.038771300028021899 -0.0010587916409314764 0 0.038634240520071798 -0.001149883919817266 0 0.038647539450625455 -0.00093008192054850247 0 0.037793416278602741 0.00021767287734553113 0 0.037828779741942625 0.00062776888243846487 0 0.037610009944278364 0.00063561299249961887 0 0.037793416278602741 0.00021767287734553113 0 0.037470444194563676 0.00044660733416707949 0 0.037610009944278364 0.00063561299249961887 0 0.04406716292363657 0.00023062323797491558 0 0.039055302104164823 -0.00083332927981892763 0 0.038775743397824719 -0.0013260126694108168 0 0.038883267097288496 -0.0012441064430280294 0 0.03882218533085844 -0.0011587035409237221 0 0.041682972644058514 -0.00036317693851487388 0 0.041765378268631588 0.00017020552389131899 0 0.041323950085789082 -4.997442744825767e-05 0 0.046066250196753158 0.0011845473449618197 0 0.046356677795318608 0.0014228638829791762 0 0.045998572455211405 0.0017584130727814552 0 0.039055302104164823 -0.00083332927981892763 0 0.040108460557935259 0.00073273242973291466 0 0.041765378268631588 0.00017020552389131899 0 0.041323950085789082 -4.997442744825767e-05 0 0.040966716490624284 0.00026931550275807238 0 0.044005701588893227 0.00037541918730824833 0 0.040108460557935259 0.00073273242973291466 0 0.045353547298893626 0.0018553727097521933 0 0.045611889190639437 0.0013233917457196036 0 0.045998572455211405 0.0017584130727814552 0 0.046066250196753158 0.0011845473449618197 0 0.045611889190639437 0.0013233917457196036 0 0.045998572455211405 0.0017584130727814552 0 0.035698692636643936 0.00096638977521982682 0 0.040108460557935259 0.00073273242973291466 0 0.041463793058753216 0.0013807248147041456 0 0.040108460557935259 0.00073273242973291466 0 0.036764699280602338 0.00075834151333642442 0 0.037253230308468679 0.0002649525793782215 0 0.037200914316250139 0.00068980401080115394 0 0.036764699280602338 0.00075834151333642442 0 0.036784726877958342 0.00088961686649661716 0 0.036737489401365599 0.00089653725209520938 0 0.037793416278602741 0.00021767287734553113 0 0.037253230308468679 0.0002649525793782215 0 0.037470444194563676 0.00044660733416707949 0 0.037253230308468679 0.0002649525793782215 0 0.037470444194563676 0.00044660733416707949 0 0.037200914316250139 0.00068980401080115394 0 0.037470444194563676 0.00044660733416707949 0 0.037200914316250139 0.00068980401080115394 0 0.037610009944278364 0.00063561299249961887 0 0.037363057369346024 0.0010234069492835365 0 0.037596232615196408 0.00066397320635668661 0 0.037200914316250139 0.00068980401080115394 0 0.037374319930351119 0.0011196227755221235 0 0.037610009944278364 0.00063561299249961887 0 0.037390290194354581 0.00092172133606912394 0 0.037671234655197269 0.00086867271685139467 0 0.037610009944278364 0.00063561299249961887 0 0.036946580088404395 0.00088656018809629505 0 0.037200914316250139 0.00068980401080115394 0 0.037374319930351119 0.0011196227755221235 0 0.036764699280602338 0.00075834151333642442 0 0.036946580088404395 0.00088656018809629505 0 0.037200914316250139 0.00068980401080115394 0 0.037301236811696274 0.0015151621362065888 0 0.037363057369346024 0.0010234069492835365 0 0.037110312144290898 0.0016702990538549035 0 0.036847911630424515 0.0012059877227623978 0 0.037374319930351119 0.0011196227755221235 0 0.036847911630424515 0.0012059877227623978 0 0.036946580088404395 0.00088656018809629505 0 0.037374319930351119 0.0011196227755221235 0 0.037667833139880091 0.0012324668441318122 0 0.037390290194354581 0.00092172133606912394 0 0.037671234655197269 0.00086867271685139467 0 0.036817082899037963 -0.00023055162551258049 0 0.038350013977859032 -0.00015008061372709313 0 0.037667833139880091 0.0012324668441318122 0 0.037671234655197269 0.00086867271685139467 0 0.037868212583580085 0.00095010135690214181 0 0.038104386437843772 -0.0003823634581611918 0 0.038530103601300707 -0.00080756740184017488 0 0.038500319258726066 -0.00096216320583063588 0 0.038625973042665386 -0.00079529544165557052 0 0.038660383865614822 -0.00090766135709058435 0 0.038685943299921255 -0.00091755260361237924 0 0.036017870154271887 -0.001339132760801992 0 0.03591219625601464 -0.0015405325919463965 0 0.036304544926070492 -0.0018143576911503426 0 0.037318408823537846 -0.0012497673394498033 0 0.037488925657995852 -0.00098345076984548171 0 0.038625973042665386 -0.00079529544165557052 0 0.038530103601300707 -0.00080756740184017488 0 0.038615482794524772 -0.00085163697053961885 0 0.038530103601300707 -0.00080756740184017488 0 0.038555640399190606 -0.0008555078968643839 0 0.038615482794524772 -0.00085163697053961885 0 0.038342136784132043 -0.00050692619126954197 0 0.038350013977859032 -0.00015008061372709313 0 0.038625973042665386 -0.00079529544165557052 0 0.038641175948199186 -0.00088954590716746056 0 0.038660383865614822 -0.00090766135709058435 0 0.038641175948199186 -0.00088954590716746056 0 0.038615482794524772 -0.00085163697053961885 0 0.03862584160295774 -0.00088555441532289889 0 0.038641175948199186 -0.00088954590716746056 0 0.03862584160295774 -0.00088555441532289889 0 0.038635096549013467 -0.00090642382521707279 0 0.03860221723010307 -0.00088052510786167397 0 0.038612388289287251 -0.00089005409787547556 0 0.038640472233637861 -0.00091351090656401177 0 0.038625973042665386 -0.00079529544165557052 0 0.038641175948199186 -0.00088954590716746056 0 0.038615482794524772 -0.00085163697053961885 0 0.038350013977859032 -0.00015008061372709313 0 0.038529375462772408 -0.00047193450377523244 0 0.038615482794524772 -0.00085163697053961885 0 0.03862584160295774 -0.00088555441532289889 0 0.038612388289287251 -0.00089005409787547556 0 0.038555640399190606 -0.0008555078968643839 0 0.038615482794524772 -0.00085163697053961885 0 0.038612388289287251 -0.00089005409787547556 0 0.03862584160295774 -0.00088555441532289889 0 0.038612388289287251 -0.00089005409787547556 0 0.038635096549013467 -0.00090642382521707279 0 0.03860221723010307 -0.00088052510786167397 0 0.038640472233637861 -0.00091351090656401177 0 0.038647539450625455 -0.00093008192054850247 0 0.038612388289287251 -0.00089005409787547556 0 0.038635096549013467 -0.00090642382521707279 0 0.038640472233637861 -0.00091351090656401177 0 0.038635096549013467 -0.00090642382521707279 0 0.038640472233637861 -0.00091351090656401177 0 0.038652110258604294 -0.0009246096883232832 0 0.038660383865614822 -0.00090766135709058435 0 0.038652110258604294 -0.0009246096883232832 0 0.038654832895873868 -0.00094528023232743035 0 0.038641175948199186 -0.00088954590716746056 0 0.038660383865614822 -0.00090766135709058435 0 0.038652110258604294 -0.0009246096883232832 0 0.038641175948199186 -0.00088954590716746056 0 0.038635096549013467 -0.00090642382521707279 0 0.038652110258604294 -0.0009246096883232832 0 0.038680560472843933 -0.00093418979335850463 0 0.038654832895873868 -0.00094528023232743035 0 0.038627623752115189 -0.00097500265572966836 0 0.038640472233637861 -0.00091351090656401177 0 0.038652110258604294 -0.0009246096883232832 0 0.038680560472843933 -0.00093418979335850463 0 0.038652110258604294 -0.0009246096883232832 0 0.038680560472843933 -0.00093418979335850463 0 0.038654832895873868 -0.00094528023232743035 0 0.038640472233637861 -0.00091351090656401177 0 0.038680560472843933 -0.00093418979335850463 0 0.038647539450625455 -0.00093008192054850247 0 0.037671234655197269 0.00086867271685139467 0 0.037828779741942625 0.00062776888243846487 0 0.037610009944278364 0.00063561299249961887 0 0.037671234655197269 0.00086867271685139467 0 0.037868212583580085 0.00095010135690214181 0 0.037828779741942625 0.00062776888243846487 0 0.038350013977859032 -0.00015008061372709313 0 0.038184000142043047 -7.3296249599748297e-05 0 0.038447798184551359 -0.00090741200332552239 0 0.036936775327835472 -0.00011860878574717335 0 0.038878676435258372 -0.00026042336644511527 0 0.038424636184341755 -0.00083935388491933793 0 0.037488925657995852 -0.00098345076984548171 0 0.038447798184551359 -0.00090741200332552239 0 0.036936775327835472 -0.00011860878574717335 0 0.036814261737148926 -0.00025880914747739058 0 0.038447798184551359 -0.00090741200332552239 0 0.038640217734473403 -0.00096635631795629815 0 0.038646604410128467 -0.0011083346028329685 0 0.038654832895873868 -0.00094528023232743035 0 0.038640217734473403 -0.00096635631795629815 0 0.038627623752115189 -0.00097500265572966836 0 0.038475131708513181 -0.001020204226068962 0 0.037488925657995852 -0.00098345076984548171 0 0.038660383865614822 -0.00090766135709058435 0 0.038654832895873868 -0.00094528023232743035 0 0.038685943299921255 -0.00091755260361237924 0 0.038654832895873868 -0.00094528023232743035 0 0.038640217734473403 -0.00096635631795629815 0 0.038685943299921255 -0.00091755260361237924 0 0.036316446863152024 -0.0006434722626070577 0 0.037488925657995852 -0.00098345076984548171 0 0.036622214784403209 -9.8337653255133314e-05 0 0.036936775327835472 -0.00011860878574717335 0 0.036814261737148926 -0.00025880914747739058 0 0.036928960230320156 -0.00011985751139289804 0 0.037920853797443282 -0.00037580121353290028 0 0.036936775327835472 -0.00011860878574717335 0 0.036718105990213648 -0.00021278759200674653 0 0.03664638413857161 -0.0002834605679090783 0 0.036703058047370021 -0.0001705342441664511 0 0.036936775327835472 -0.00011860878574717335 0 0.036718105990213648 -0.00021278759200674653 0 0.036936775327835472 -0.00011860878574717335 0 0.03664638413857161 -0.0002834605679090783 0 0.036569465693927154 -0.000395803083657668 0 0.036642004732936835 -0.00019778740855497953 0 0.036718105990213648 -0.00021278759200674653 0 0.03664638413857161 -0.0002834605679090783 0 0.03664638413857161 -0.0002834605679090783 0 0.036638011793439278 -0.00028064282846075665 0 0.036569465693927154 -0.000395803083657668 0 0.036642004732936835 -0.00019778740855497953 0 0.03664638413857161 -0.0002834605679090783 0 0.036638011793439278 -0.00028064282846075665 0 0.036638011793439278 -0.00028064282846075665 0 0.036569465693927154 -0.000395803083657668 0 0.036860380579010345 -0.00098684970720839724 0 0.036638011793439278 -0.00028064282846075665 0 0.036860380579010345 -0.00098684970720839724 0 0.036867844316479464 -0.00034297486534117167 0 0.039203606193674856 -0.00066055648271455558 0 0.038878676435258372 -0.00026042336644511527 0 0.039629085871069329 -0.0004751340608803234 0 0.037920853797443282 -0.00037580121353290028 0 0.037447431653735895 -0.00069287756860016549 0 0.038447798184551359 -0.00090741200332552239 0 0.039203606193674856 -0.00066055648271455558 0 0.038878676435258372 -0.00026042336644511527 0 0.038447798184551359 -0.00090741200332552239 0 0.039203606193674856 -0.00066055648271455558 0 0.039052027712202328 -0.0010633977461799141 0 0.038447798184551359 -0.00090741200332552239 0 0.039052027712202328 -0.0010633977461799141 0 0.038733958864935476 -0.0010449327610716106 0 0.039203606193674856 -0.00066055648271455558 0 0.039052027712202328 -0.0010633977461799141 0 0.039824959364795402 -0.0010869512968666706 0 0.039052027712202328 -0.0010633977461799141 0 0.039306635096786134 -0.0013799116820374512 0 0.039824959364795402 -0.0010869512968666706 0 0.039052027712202328 -0.0010633977461799141 0 0.038811624984192432 -0.0012198440794805227 0 0.039306635096786134 -0.0013799116820374512 0 0.039052027712202328 -0.0010633977461799141 0 0.038811624984192432 -0.0012198440794805227 0 0.038733958864935476 -0.0010449327610716106 0 0.038811624984192432 -0.0012198440794805227 0 0.038649437666392394 -0.0010212003729944165 0 0.038635869141116504 -0.0011019069349326156 0 0.038811624984192432 -0.0012198440794805227 0 0.038635869141116504 -0.0011019069349326156 0 0.038692045451800758 -0.0012395452787698502 0 0.038811624984192432 -0.0012198440794805227 0 0.038733958864935476 -0.0010449327610716106 0 0.038649437666392394 -0.0010212003729944165 0 0.038447798184551359 -0.00090741200332552239 0 0.038640217734473403 -0.00096635631795629815 0 0.038607914910370675 -0.00096218090410728652 0 0.038447798184551359 -0.00090741200332552239 0 0.038733958864935476 -0.0010449327610716106 0 0.038649437666392394 -0.0010212003729944165 0 0.038447798184551359 -0.00090741200332552239 0 0.038649437666392394 -0.0010212003729944165 0 0.038607914910370675 -0.00096218090410728652 0 0.038627623752115189 -0.00097500265572966836 0 0.038609538114776625 -0.0010208022467033361 0 0.038537969522412258 -0.0010800524006769519 0 0.038640217734473403 -0.00096635631795629815 0 0.038627623752115189 -0.00097500265572966836 0 0.038607914910370675 -0.00096218090410728652 0 0.038649437666392394 -0.0010212003729944165 0 0.038607914910370675 -0.00096218090410728652 0 0.038609538114776625 -0.0010208022467033361 0 0.038627623752115189 -0.00097500265572966836 0 0.038607914910370675 -0.00096218090410728652 0 0.038609538114776625 -0.0010208022467033361 0 0.038609538114776625 -0.0010208022467033361 0 0.038537969522412258 -0.0010800524006769519 0 0.038635869141116504 -0.0011019069349326156 0 0.038649437666392394 -0.0010212003729944165 0 0.038609538114776625 -0.0010208022467033361 0 0.038635869141116504 -0.0011019069349326156 0 0.038537969522412258 -0.0010800524006769519 0 0.038635869141116504 -0.0011019069349326156 0 0.038692045451800758 -0.0012395452787698502 0 0.038537969522412258 -0.0010800524006769519 0 0.038692045451800758 -0.0012395452787698502 0 0.038648569465704684 -0.0014241563568314893 0 0.039002055670921847 -0.0012820929038942872 0 0.039007437144025374 -0.0011690809381674756 0 0.039275138583550202 -0.001477954072726276 0 0.038884180411701136 -0.0011418597020298618 0 0.038080127370954342 -0.0015650338547145896 0 0.038692045451800758 -0.0012395452787698502 0 0.038800546391599203 -0.0013887005251097104 0 0.038648569465704684 -0.0014241563568314893 0 0.038811624984192432 -0.0012198440794805227 0 0.038800546391599203 -0.0013887005251097104 0 0.039019597372610709 -0.0015272200262016319 0 0.038811624984192432 -0.0012198440794805227 0 0.038692045451800758 -0.0012395452787698502 0 0.038800546391599203 -0.0013887005251097104 0 0.038829490264898105 -0.0015480065204668552 0 0.03883151525065108 -0.0016883889620857664 0 0.039019597372610709 -0.0015272200262016319 0 0.038800546391599203 -0.0013887005251097104 0 0.038829490264898105 -0.0015480065204668552 0 0.039019597372610709 -0.0015272200262016319 0 0.038829490264898105 -0.0015480065204668552 0 0.038648569465704684 -0.0014241563568314893 0 0.03883151525065108 -0.0016883889620857664 0 0.039046176470215861 -0.0016151366017739567 0 0.039275138583550202 -0.001477954072726276 0 0.039551172771235571 -0.0019782620638140016 0 0.038080127370954342 -0.0015650338547145896 0 0.047065402563602511 -0.00027212669096598899 0 0.038800546391599203 -0.0013887005251097104 0 0.038829490264898105 -0.0015480065204668552 0 0.038648569465704684 -0.0014241563568314893 0 0.042922928621466572 -0.00048074293209125551 0 0.047065402563602511 -0.00027212669096598899 0 0.048051197156807994 0.0004145952770187554 0 0.048229102582215168 0.00041032533061355721 0 0.048223159064765493 0.0004256555700735077 0 0.048051197156807994 0.0004145952770187554 0 0.048014154606181809 0.00059003143953862336 0 0.048223159064765493 0.0004256555700735077 0 0.050073782638018642 -0.00046408244530092368 0 0.047065402563602511 -0.00027212669096598899 0 0.054695051543594421 0.00011918899092347106 0 0.054865381132301647 7.7016924983100635e-05 0 0.054667446936639899 0.00019319060114915326 0 0.047065402563602511 -0.00027212669096598899 0 0.04678117340583153 -0.00084401715336157839 0 0.054761387784962166 0.00010889603889094175 0 0.054753675928257993 0.00011567524157372269 0 0.054865381132301647 7.7016924983100635e-05 0 0.047065402563602511 -0.00027212669096598899 0 0.056243913519301712 -0.0011140974314847874 0 0.050073782638018642 -0.00046408244530092368 0 0.055001296417006428 -5.4501482106589011e-07 0 0.054761387784962166 0.00010889603889094175 0 0.05499944801474782 1.1731608326907979e-07 0 0.054865381132301647 7.7016924983100635e-05 0 0.05499944801474782 1.1731608326907979e-07 0 0.054865381132301647 7.7016924983100635e-05 0 0.054999712405006472 1.6635316646457783e-07 0 0.048077863468391824 0.0002439360144214217 0 0.048051197156807994 0.0004145952770187554 0 0.048229102582215168 0.00041032533061355721 0 0.052324258241280806 2.1615765073978911e-05 0 0.050073782638018642 -0.00046408244530092368 0 0.054957722110414796 -1.6213477566115961e-05 0 0.054999980747195629 1.197810081670941e-09 0 0.054999922914963341 -1.4367444865936456e-08 0 0.054992655717564135 -1.6253917503124407e-06 0 0.054957722110414796 -1.6213477566115961e-05 0 0.054999922914963341 -1.4367444865936456e-08 0 0.054999712405006472 1.6635316646457783e-07 0 0.054762908313811753 0.0001671416083424722 0 0.054495265083613117 0.00028239322167732724 0 0.054999712405006472 1.6635316646457783e-07 0 0.054495265083613117 0.00028239322167732724 0 0.05499918633938667 1.9103505815022483e-07 0 0.054865381132301647 7.7016924983100635e-05 0 0.054999712405006472 1.6635316646457783e-07 0 0.054762908313811753 0.0001671416083424722 0 0.054762908313811753 0.0001671416083424722 0 0.054495265083613117 0.00028239322167732724 0 0.054667446936639899 0.00019319060114915326 0 0.054865381132301647 7.7016924983100635e-05 0 0.054762908313811753 0.0001671416083424722 0 0.054667446936639899 0.00019319060114915326 0 0.054495265083613117 0.00028239322167732724 0 0.054149460572779314 0.00031891439760524566 0 0.054667446936639899 0.00019319060114915326 0 0.054149460572779314 0.00031891439760524566 0 0.054667446936639899 0.00019319060114915326 0 0.054199859957573156 -0.00023105127437451635 0 0.038811624984192432 -0.0012198440794805227 0 0.039019597372610709 -0.0015272200262016319 0 0.039306635096786134 -0.0013799116820374512 0 0.04678117340583153 -0.00084401715336157839 0 0.04670206071588124 -0.00078450770334936024 0 0.054149460572779314 0.00031891439760524566 0 0.054199859957573156 -0.00023105127437451635 0 0.053101877187726541 -7.2358447620044303e-05 0 0.055001919561532525 -4.3530512882780769e-07 0 0.050677213796933879 0.00047520634467799989 0 0.047866690980201736 2.905925955571282e-06 0 0.053101877187726541 -7.2358447620044303e-05 0 0.051575555408246876 0.00044411288210011266 0 0.053423149733706224 0.00059752563642504711 0 0.053101877187726541 -7.2358447620044303e-05 0 0.051575555408246876 0.00044411288210011266 0 0.050706713681524622 -0.00010560339370221713 0 0.051575555408246876 0.00044411288210011266 0 0.053423149733706224 0.00059752563642504711 0 0.051927316528082142 0.0014474339866097372 0 0.053423149733706224 0.00059752563642504711 0 0.054244356180590744 0.00034288313025389447 0 0.054577731751038805 0.00042515356059748358 0 0.053511782469000076 0.00058101945524989985 0 0.053195748894571682 0.00095858853315699969 0 0.054149460572779314 0.00031891439760524566 0 0.053423149733706224 0.00059752563642504711 0 0.054244356180590744 0.00034288313025389447 0 0.054149460572779314 0.00031891439760524566 0 0.053101877187726541 -7.2358447620044303e-05 0 0.053423149733706224 0.00059752563642504711 0 0.054495265083613117 0.00028239322167732724 0 0.054149460572779314 0.00031891439760524566 0 0.054244356180590744 0.00034288313025389447 0 0.054495265083613117 0.00028239322167732724 0 0.054244356180590744 0.00034288313025389447 0 0.05499918633938667 1.9103505815022483e-07 0 0.054244356180590744 0.00034288313025389447 0 0.054577731751038805 0.00042515356059748358 0 0.054745517894365929 0.00013344567692641883 0 0.054577731751038805 0.00042515356059748358 0 0.054745517894365929 0.00013344567692641883 0 0.054951600392124843 0.00021100658498758468 0 0.054745517894365929 0.00013344567692641883 0 0.05499918633938667 1.9103505815022483e-07 0 0.054999857290284844 -4.5640196290839026e-08 0 0.054244356180590744 0.00034288313025389447 0 0.054745517894365929 0.00013344567692641883 0 0.05499918633938667 1.9103505815022483e-07 0 0.055001919561532525 -4.3530512882780769e-07 0 0.052039329223572066 8.5052633001786931e-05 0 0.050677213796933879 0.00047520634467799989 0 0.054993717512209439 2.2121013694317079e-07 0 0.055001919561532525 -4.3530512882780769e-07 0 0.052039329223572066 8.5052633001786931e-05 0 0.054999750774502441 -3.881159347404576e-07 0 0.053287354465671753 0.00050011292696060749 0 0.054745517894365929 0.00013344567692641883 0 0.054999857290284844 -4.5640196290839026e-08 0 0.054951600392124843 0.00021100658498758468 0 0.055000005166587485 1.3007436844088109e-09 0 0.054999969979705896 6.3718526690698112e-09 0 0.054989000696525028 7.4959087829427193e-06 0 0.055000249854905849 1.3224567166102375e-07 0 0.053287354465671753 0.00050011292696060749 0 0.051927316528082142 0.0014474339866097372 0 0.051122897662960333 0.0021187440831367823 0 0.050677213796933879 0.00047520634467799989 0 0.053287354465671753 0.00050011292696060749 0 0.050601186271300676 0.00068935109441659026 0 0.053195748894571682 0.00095858853315699969 0 0.053287354465671753 0.00050011292696060749 0 0.051575555408246876 0.00044411288210011266 0 0.051927316528082142 0.0014474339866097372 0 0.050677213796933879 0.00047520634467799989 0 0.051575555408246876 0.00044411288210011266 0 0.050677213796933879 0.00047520634467799989 0 0.050706713681524622 -0.00010560339370221713 0 0.050677213796933879 0.00047520634467799989 0 0.050706713681524622 -0.00010560339370221713 0 0.047866690980201736 2.905925955571282e-06 0 0.047866690980201736 2.905925955571282e-06 0 0.04858740620132871 -0.00044802985165356474 0 0.045365032792099268 -6.0917191932968538e-06 0 0.050706713681524622 -0.00010560339370221713 0 0.047866690980201736 2.905925955571282e-06 0 0.04858740620132871 -0.00044802985165356474 0 0.04858740620132871 -0.00044802985165356474 0 0.045365032792099268 -6.0917191932968538e-06 0 0.048732880772938268 -0.002222210804988153 0 0.045360083003380014 -4.7945750638629577e-07 0 0.047095133198838651 -0.0011237602560408276 0 0.048732880772938268 -0.002222210804988153 0 0.050365420989461444 -0.0011627071979503267 0 0.050735624246645773 -0.002824268551795022 0 0.047095133198838651 -0.0011237602560408276 0 0.042931275282351834 -0.00085578782661117393 0 0.04858740620132871 -0.00044802985165356474 0 0.048732880772938268 -0.002222210804988153 0 0.050365420989461444 -0.0011627071979503267 0 0.050706713681524622 -0.00010560339370221713 0 0.04858740620132871 -0.00044802985165356474 0 0.050365420989461444 -0.0011627071979503267 0 0.053101877187726541 -7.2358447620044303e-05 0 0.050706713681524622 -0.00010560339370221713 0 0.052847997487927095 -0.0012620249366829559 0 0.050706713681524622 -0.00010560339370221713 0 0.050365420989461444 -0.0011627071979503267 0 0.052847997487927095 -0.0012620249366829559 0 0.04670206071588124 -0.00078450770334936024 0 0.046751075675655555 -0.0011811393689299073 0 0.054199859957573156 -0.00023105127437451635 0 0.053101877187726541 -7.2358447620044303e-05 0 0.052847997487927095 -0.0012620249366829559 0 0.039203606193674856 -0.00066055648271455558 0 0.039824959364795402 -0.0010869512968666706 0 0.039629085871069329 -0.0004751340608803234 0 0.039824959364795402 -0.0010869512968666706 0 0.040375034702949064 -0.00062348644232676682 0 0.039629085871069329 -0.0004751340608803234 0 0.050365420989461444 -0.0011627071979503267 0 0.052847997487927095 -0.0012620249366829559 0 0.050735624246645773 -0.002824268551795022 0 0.046751075675655555 -0.0011811393689299073 0 0.042931275282351834 -0.00085578782661117393 0 0.042931275282351834 -0.00085578782661117393 0 0.037447431653735895 -0.00069287756860016549 0 0.037906466135047383 -0.0017086866385471798 0 0.036860380579010345 -0.00098684970720839724 0 0.037823651734994794 -0.0010122407472342814 0 0.036860380579010345 -0.00098684970720839724 0 0.036867844316479464 -0.00034297486534117167 0 0.037264008582645863 -0.00045806336208480304 0 0.036860380579010345 -0.00098684970720839724 0 0.037823651734994794 -0.0010122407472342814 0 0.037264008582645863 -0.00045806336208480304 0 0.038096282875155763 1.5729311841059371e-05 0 0.037823651734994794 -0.0010122407472342814 0 0.037264008582645863 -0.00045806336208480304 0 0.038096282875155763 1.5729311841059371e-05 0 0.037823651734994794 -0.0010122407472342814 0 0.038953011660214386 -0.0013452658951517325 0 0.041138346670082655 -1.1804076264311274e-06 0 0.043567895090178603 -7.6292536348154035e-05 0 0.043248580970234936 1.1797684508846796e-06 0 0.041136564638043847 2.2832497535978578e-07 0 0.041010213772474123 -0.00068583850685055689 0 0.041128348334747052 -2.7454748377734477e-06 0 0.038096282875155763 1.5729311841059371e-05 0 0.038953011660214386 -0.0013452658951517325 0 0.04392069989462697 9.3961188753328076e-05 0 0.043567895090178603 -7.6292536348154035e-05 0 0.043248580970234936 1.1797684508846796e-06 0 0.04535651618003711 -1.2172046067752799e-06 0 0.04392069989462697 9.3961188753328076e-05 0 0.043248580970234936 1.1797684508846796e-06 0 0.042931275282351834 -0.00085578782661117393 0 0.041010213772474123 -0.00068583850685055689 0 0.037906466135047383 -0.0017086866385471798 0 0.037823651734994794 -0.0010122407472342814 0 0.038953011660214386 -0.0013452658951517325 0 0.04392069989462697 9.3961188753328076e-05 0 0.043976940350637247 5.3215710926367578e-05 0 0.043567895090178603 -7.6292536348154035e-05 0 0.038239473419248313 -0.0022089763238759357 0 0.038801999152535148 -0.0016127246166271023 0 0.038535117533460873 -0.00090379961330717962 0 0.038926865775664912 -0.0021096234501236251 0 0.039529565729681249 -0.0022250573312855072 0 0.03919507831736839 -0.0028883272910596356 0 0.038926865775664912 -0.0021096234501236251 0 0.038239473419248313 -0.0022089763238759357 0 0.03919507831736839 -0.0028883272910596356 0 0.038926865775664912 -0.0021096234501236251 0 0.038239473419248313 -0.0022089763238759357 0 0.038801999152535148 -0.0016127246166271023 0 0.038926865775664912 -0.0021096234501236251 0 0.039414354809556337 -0.0016194754192882745 0 0.039529565729681249 -0.0022250573312855072 0 0.038926865775664912 -0.0021096234501236251 0 0.038801999152535148 -0.0016127246166271023 0 0.039414354809556337 -0.0016194754192882745 0 0.039414354809556337 -0.0016194754192882745 0 0.039957737814017423 -0.0018178435026856741 0 0.039529565729681249 -0.0022250573312855072 0 0.039529565729681249 -0.0022250573312855072 0 0.03919507831736839 -0.0028883272910596356 0 0.040611617139018778 -0.0025455058363881137 0 0.039414354809556337 -0.0016194754192882745 0 0.039957737814017423 -0.0018178435026856741 0 0.040049205094405994 -0.0011799397082097988 0 0.039957737814017423 -0.0018178435026856741 0 0.040557551232668701 -0.0015212642166023481 0 0.040049205094405994 -0.0011799397082097988 0 0.039957737814017423 -0.0018178435026856741 0 0.040557551232668701 -0.0015212642166023481 0 0.040611617139018778 -0.0025455058363881137 0 0.039957737814017423 -0.0018178435026856741 0 0.039529565729681249 -0.0022250573312855072 0 0.040611617139018778 -0.0025455058363881137 0 0.031260624139795246 -0.0020521911547046407 0 0.031291359077987295 -0.0021986978601926921 0 0.031108831343888699 -0.0021665043683223185 0 0.038135048128691382 -0.0030666734834054734 0 0.038602331915382246 -0.0029486166759338677 0 0.038122862987770928 -0.0035058481397099894 0 0.036110425937865662 -0.0025310926872306049 0 0.035159573738025161 -0.0027559858135544268 0 0.039291834373164095 -0.00286353084970446 0 0.036110425937865662 -0.0025310926872306049 0 0.038239473419248313 -0.0022089763238759357 0 0.03919507831736839 -0.0028883272910596356 0 0.037602232534109034 -0.0031070886536715319 0 0.039291834373164095 -0.00286353084970446 0 0.037477332702585728 -0.0031577159099608985 0 0.038135048128691382 -0.0030666734834054734 0 0.037602232534109034 -0.0031070886536715319 0 0.038122862987770928 -0.0035058481397099894 0 0.037602232534109034 -0.0031070886536715319 0 0.038122862987770928 -0.0035058481397099894 0 0.037527169323106672 -0.0036614723020686251 0 0.037602232534109034 -0.0031070886536715319 0 0.037003315484731618 -0.0030640150176595169 0 0.036919447022387135 -0.0037492405222425674 0 0.037602232534109034 -0.0031070886536715319 0 0.037003315484731618 -0.0030640150176595169 0 0.037205646134958109 -0.0021433973034938715 0 0.037003315484731618 -0.0030640150176595169 0 0.037205646134958109 -0.0021433973034938715 0 0.036295606256258717 -0.0030901087017173533 0 0.039880052196577455 -0.00065894883959679445 0 0.038559638819845178 -0.0015550388246792985 0 0.038646309301044741 -0.0016691327139278624 0 0.038775845960288123 -0.0012523044306394862 0 0.036240775764939927 -0.0028307231325138443 0 0.035318983108535713 -0.0045990936374582106 0 0.036240775764939927 -0.0028307231325138443 0 0.037003315484731618 -0.0030640150176595169 0 0.036919447022387135 -0.0037492405222425674 0 0.036295606256258717 -0.0030901087017173533 0 0.038795081967266859 -0.00089606509596207719 0 0.039880052196577455 -0.00065894883959679445 0 0.038559638819845178 -0.0015550388246792985 0 0.038749990736329759 -0.00040074426766663687 0 0.039880052196577455 -0.00065894883959679445 0 0.039310628265953884 0.00011683624777423501 0 0.038795081967266859 -0.00089606509596207719 0 0.038749990736329759 -0.00040074426766663687 0 0.039880052196577455 -0.00065894883959679445 0 0.038239473419248313 -0.0022089763238759357 0 0.037205646134958109 -0.0021433973034938715 0 0.038535117533460873 -0.00090379961330717962 0 0.038775845960288123 -0.0012523044306394862 0 0.039715427927932589 -0.00032072955638201881 0 0.038239473419248313 -0.0022089763238759357 0 0.037602232534109034 -0.0031070886536715319 0 0.037205646134958109 -0.0021433973034938715 0 0.039880052196577455 -0.00065894883959679445 0 0.04008218278968833 0.00025883883375938803 0 0.040982451875225187 0.00034373538032691744 0 0.04008218278968833 0.00025883883375938803 0 0.039594961218450235 0.00090291303808359908 0 0.040300333672907203 0.00096451424017932432 0 0.04008218278968833 0.00025883883375938803 0 0.040545916177596009 0.00061875410728788941 0 0.040982451875225187 0.00034373538032691744 0 0.04008218278968833 0.00025883883375938803 0 0.040545916177596009 0.00061875410728788941 0 0.040300333672907203 0.00096451424017932432 0 0.039310628265953884 0.00011683624777423501 0 0.039594961218450235 0.00090291303808359908 0 0.038244502664763549 0.00045033743129495492 0 0.038749990736329759 -0.00040074426766663687 0 0.039310628265953884 0.00011683624777423501 0 0.038244502664763549 0.00045033743129495492 0 0.039880052196577455 -0.00065894883959679445 0 0.04008218278968833 0.00025883883375938803 0 0.039310628265953884 0.00011683624777423501 0 0.04008218278968833 0.00025883883375938803 0 0.039310628265953884 0.00011683624777423501 0 0.039594961218450235 0.00090291303808359908 0 0.043488893005816029 0.00090667217686030068 0 0.043949149587062308 0.0023629729280199049 0 0.039594961218450235 0.00090291303808359908 0 0.04017655327763963 0.0016375833738840838 0 0.039434710662648267 0.0018710183203836494 0 0.039594961218450235 0.00090291303808359908 0 0.038244502664763549 0.00045033743129495492 0 0.039434710662648267 0.0018710183203836494 0 0.040545916177596009 0.00061875410728788941 0 0.040300333672907203 0.00096451424017932432 0 0.040810236321351973 0.00089963613955513502 0 0.040300333672907203 0.00096451424017932432 0 0.040725821914006685 0.0013799526118927847 0 0.040810236321351973 0.00089963613955513502 0 0.039594961218450235 0.00090291303808359908 0 0.040300333672907203 0.00096451424017932432 0 0.04017655327763963 0.0016375833738840838 0 0.040300333672907203 0.00096451424017932432 0 0.04017655327763963 0.0016375833738840838 0 0.040725821914006685 0.0013799526118927847 0 0.04017655327763963 0.0016375833738840838 0 0.040725821914006685 0.0013799526118927847 0 0.040813540429152168 0.0019259087411104213 0 0.040725821914006685 0.0013799526118927847 0 0.0411823052203108 0.0015630221392434612 0 0.040813540429152168 0.0019259087411104213 0 0.041235737365376855 0.00099062075719949017 0 0.040982451875225187 0.00034373538032691744 0 0.041804677932643787 0.0012315761004896624 0 0.040725821914006685 0.0013799526118927847 0 0.0411823052203108 0.0015630221392434612 0 0.041072622883461501 0.0012257254654863109 0 0.0411823052203108 0.0015630221392434612 0 0.041458195354484154 0.0013262801247858754 0 0.041072622883461501 0.0012257254654863109 0 0.0411823052203108 0.0015630221392434612 0 0.041458195354484154 0.0013262801247858754 0 0.04168828898239664 0.0016246102213596757 0 0.041458195354484154 0.0013262801247858754 0 0.041235737365376855 0.00099062075719949017 0 0.041072622883461501 0.0012257254654863109 0 0.041458195354484154 0.0013262801247858754 0 0.041235737365376855 0.00099062075719949017 0 0.041804677932643787 0.0012315761004896624 0 0.041235737365376855 0.00099062075719949017 0 0.040810236321351973 0.00089963613955513502 0 0.041072622883461501 0.0012257254654863109 0 0.040725821914006685 0.0013799526118927847 0 0.040810236321351973 0.00089963613955513502 0 0.041072622883461501 0.0012257254654863109 0 0.041235737365376855 0.00099062075719949017 0 0.040810236321351973 0.00089963613955513502 0 0.040982451875225187 0.00034373538032691744 0 0.039715427927932589 -0.00032072955638201881 0 0.041183718648708997 0.00089586716810120468 0 0.040545916177596009 0.00061875410728788941 0 0.040810236321351973 0.00089963613955513502 0 0.040982451875225187 0.00034373538032691744 0 0.039236060670475879 -0.00099661813991729379 0 0.038535117533460873 -0.00090379961330717962 0 0.040536193191251901 0.00059417993832396238 0 0.038801999152535148 -0.0016127246166271023 0 0.039414354809556337 -0.0016194754192882745 0 0.039236060670475879 -0.00099661813991729379 0 0.038801999152535148 -0.0016127246166271023 0 0.039236060670475879 -0.00099661813991729379 0 0.038535117533460873 -0.00090379961330717962 0 0.039236060670475879 -0.00099661813991729379 0 0.040372700556602636 -0.00066056667868162741 0 0.040806503037099484 0.0002690468850213122 0 0.039236060670475879 -0.00099661813991729379 0 0.040049205094405994 -0.0011799397082097988 0 0.040372700556602636 -0.00066056667868162741 0 0.040557551232668701 -0.0015212642166023481 0 0.040049205094405994 -0.0011799397082097988 0 0.040633071446301322 -0.00090761674290052775 0 0.039414354809556337 -0.0016194754192882745 0 0.039236060670475879 -0.00099661813991729379 0 0.040049205094405994 -0.0011799397082097988 0 0.040049205094405994 -0.0011799397082097988 0 0.040372700556602636 -0.00066056667868162741 0 0.040633071446301322 -0.00090761674290052775 0 0.039236060670475879 -0.00099661813991729379 0 0.040536193191251901 0.00059417993832396238 0 0.041872989240399866 0.00077362405701980673 0 0.041804677932643787 0.0012315761004896624 0 0.04168828898239664 0.0016246102213596757 0 0.042396282932727035 0.0017243847565127596 0 0.041183718648708997 0.00089586716810120468 0 0.042277819055554056 0.0016804303318369818 0 0.03951869948242856 -0.0009327232148716953 0 0.040860259420194493 0.00061546894202523634 0 0.041458195354484154 0.0013262801247858754 0 0.041804677932643787 0.0012315761004896624 0 0.04168828898239664 0.0016246102213596757 0 0.040806503037099484 0.0002690468850213122 0 0.041937223264271267 -0.00013056642872893653 0 0.041159808428321051 -0.00049276721660863377 0 0.040536193191251901 0.00059417993832396238 0 0.041872989240399866 0.00077362405701980673 0 0.042396282932727035 0.0017243847565127596 0 0.040372700556602636 -0.00066056667868162741 0 0.040806503037099484 0.0002690468850213122 0 0.041159808428321051 -0.00049276721660863377 0 0.041709886264551001 -0.00061199227186223217 0 0.042630942815142542 -0.00049992623785593084 0 0.042125146752920742 0.0004433793322913852 0 0.041578312810003466 -0.00043014743545265237 0 0.044623383952331029 0.00068535345607317834 0 0.040806503037099484 0.0002690468850213122 0 0.041937223264271267 -0.00013056642872893653 0 0.042573319634383461 0.0014446818610491998 0 0.03733190861597184 -0.0011128693864450436 0 0.03825256986927042 -0.00022798601060101964 0 0.038054765420474437 -0.0010997682019541679 0 0.041709886264551001 -0.00061199227186223217 0 0.041730848334114584 -0.0013739703591180658 0 0.042630942815142542 -0.00049992623785593084 0 0.039373223186439363 -0.0012173805828820067 0 0.040921443012217923 -0.00028190625069504286 0 0.041709886264551001 -0.00061199227186223217 0 0.041730848334114584 -0.0013739703591180658 0 0.04131107553287245 -0.0016777610539020465 0 0.041578312810003466 -0.00043014743545265237 0 0.041402932124059558 -0.0015541212180562192 0 0.040916057714253017 -0.0011495319451946156 0 0.041159808428321051 -0.00049276721660863377 0 0.04131107553287245 -0.0016777610539020465 0 0.041937223264271267 -0.00013056642872893653 0 0.041159808428321051 -0.00049276721660863377 0 0.04131107553287245 -0.0016777610539020465 0 0.040557551232668701 -0.0015212642166023481 0 0.040916057714253017 -0.0011495319451946156 0 0.040633071446301322 -0.00090761674290052775 0 0.040557551232668701 -0.0015212642166023481 0 0.040916057714253017 -0.0011495319451946156 0 0.04131107553287245 -0.0016777610539020465 0 0.040916057714253017 -0.0011495319451946156 0 0.040633071446301322 -0.00090761674290052775 0 0.041159808428321051 -0.00049276721660863377 0 0.040372700556602636 -0.00066056667868162741 0 0.040633071446301322 -0.00090761674290052775 0 0.041159808428321051 -0.00049276721660863377 0 0.04330384981979226 -0.00047912157568933691 0 0.042855707910288865 -0.0014738426684128365 0 0.042694952587637405 0.00014647533596071196 0 0.038528266412969289 -0.00073026093235697065 0 0.039022109996381234 -0.00078587000810641597 0 0.038892453536174119 0.00037264365638389432 0 0.04119351391039671 -0.0012298072109520849 0 0.041451858094000024 0.00061790287247384809 0 0.04330384981979226 -0.00047912157568933691 0 0.042855707910288865 -0.0014738426684128365 0 0.044084937368804367 -0.00075925441034881407 0 0.04330384981979226 -0.00047912157568933691 0 0.043207519429948861 2.0713458012177053e-05 0 0.043866464493479571 -1.8369128277936362e-05 0 0.04330384981979226 -0.00047912157568933691 0 0.043207519429948861 2.0713458012177053e-05 0 0.042694952587637405 0.00014647533596071196 0 0.038263750467714366 -0.00021663353139677431 0 0.038528266412969289 -0.00073026093235697065 0 0.038892453536174119 0.00037264365638389432 0 0.040921443012217923 -0.00028190625069504286 0 0.038887015568161161 -0.00010261523217315474 0 0.040921443012217923 -0.00028190625069504286 0 0.041451858094000024 0.00061790287247384809 0 0.03825256986927042 -0.00022798601060101964 0 0.038054765420474437 -0.0010997682019541679 0 0.038528266412969289 -0.00073026093235697065 0 0.038054765420474437 -0.0010997682019541679 0 0.038416290845126447 -0.0011734963941693796 0 0.038528266412969289 -0.00073026093235697065 0 0.038416290845126447 -0.0011734963941693796 0 0.038528266412969289 -0.00073026093235697065 0 0.039022109996381234 -0.00078587000810641597 0 0.042855707910288865 -0.0014738426684128365 0 0.043029285636942569 -0.0031116697711409077 0 0.044268286713654577 -0.0017895042734893348 0 0.038416290845126447 -0.0011734963941693796 0 0.039022109996381234 -0.00078587000810641597 0 0.038731126551711757 -0.0015426285731102367 0 0.04119351391039671 -0.0012298072109520849 0 0.037826136161829456 -0.0026032268553746007 0 0.039022109996381234 -0.00078587000810641597 0 0.039153495076028423 -0.0019353273535134884 0 0.038731126551711757 -0.0015426285731102367 0 0.039153495076028423 -0.0019353273535134884 0 0.038731126551711757 -0.0015426285731102367 0 0.038907814715050101 -0.0022075354538306537 0 0.03818725433073001 -0.0016097335535210236 0 0.038907814715050101 -0.0022075354538306537 0 0.037599070210302683 -0.0017326131565364004 0 0.034697320741095543 -0.0024569408717576503 0 0.034853619379194775 -0.001866351207678293 0 0.038731126551711757 -0.0015426285731102367 0 0.03818725433073001 -0.0016097335535210236 0 0.038907814715050101 -0.0022075354538306537 0 0.038416290845126447 -0.0011734963941693796 0 0.038731126551711757 -0.0015426285731102367 0 0.03818725433073001 -0.0016097335535210236 0 0.038054765420474437 -0.0010997682019541679 0 0.038416290845126447 -0.0011734963941693796 0 0.03818725433073001 -0.0016097335535210236 0 0.038054765420474437 -0.0010997682019541679 0 0.03818725433073001 -0.0016097335535210236 0 0.037657780084542188 -0.0017143165500535936 0 0.038524533899409796 -0.0014160360619625866 0 0.034853619379194775 -0.001866351207678293 0 0.031615777531326529 -0.0020855439617637095 0 0.031426331778096589 -0.0020201900565278777 0 0.031477293397382096 -0.0021901155720597289 0 0.034697320741095543 -0.0024569408717576503 0 0.030901520150386177 -0.002544821948328902 0 0.031569397302209048 -0.0021179680929069846 0 0.031548867096258329 -0.0021968301932245855 0 0.031477293397382096 -0.0021901155720597289 0 0.031569397302209048 -0.0021179680929069846 0 0.031604091858711429 -0.0021309116761731978 0 0.031548867096258329 -0.0021968301932245855 0 0.031974899122917767 -0.0024748993311363553 0 0.032095496614480898 -0.0032930595233513489 0 0.03334977112744645 -0.0026912815005851985 0 0.034697320741095543 -0.0024569408717576503 0 0.034680293459316766 -0.002883533238881002 0 0.037826136161829456 -0.0026032268553746007 0 0.034697320741095543 -0.0024569408717576503 0 0.03595871476999149 -0.0026410540748558831 0 0.03585438740911176 -0.002751747149763741 0 0.035975827207949548 -0.0027960865835980255 0 0.037826136161829456 -0.0026032268553746007 0 0.034680293459316766 -0.002883533238881002 0 0.036110425937865662 -0.0025310926872306049 0 0.034853619379194775 -0.001866351207678293 0 0.036733138425434401 -0.0018575318921408043 0 0.036374516497766816 -0.0021957266168811558 0 0.035911375457659142 -0.0020147822567744898 0 0.036110425937865662 -0.0025310926872306049 0 0.038441753050564076 -0.0015032148314342484 0 0.040611617139018778 -0.0025455058363881137 0 0.04131107553287245 -0.0016777610539020465 0 0.041395764859993481 -0.0017301888907561469 0 0.040557551232668701 -0.0015212642166023481 0 0.040611617139018778 -0.0025455058363881137 0 0.04131107553287245 -0.0016777610539020465 0 0.041730848334114584 -0.0013739703591180658 0 0.04131107553287245 -0.0016777610539020465 0 0.041395764859993481 -0.0017301888907561469 0 0.039373223186439363 -0.0012173805828820067 0 0.038441753050564076 -0.0015032148314342484 0 0.03733190861597184 -0.0011128693864450436 0 0.036988550465625672 -0.0014471481270601156 0 0.037657780084542188 -0.0017143165500535936 0 0.038441753050564076 -0.0015032148314342484 0 0.034853619379194775 -0.001866351207678293 0 0.03733190861597184 -0.0011128693864450436 0 0.038054765420474437 -0.0010997682019541679 0 0.037657780084542188 -0.0017143165500535936 0 0.031426331778096589 -0.0020201900565278777 0 0.031291359077987295 -0.0021986978601926921 0 0.031477293397382096 -0.0021901155720597289 0 0.031260624139795246 -0.0020521911547046407 0 0.031426331778096589 -0.0020201900565278777 0 0.031291359077987295 -0.0021986978601926921 0 0.031291359077987295 -0.0021986978601926921 0 0.031477293397382096 -0.0021901155720597289 0 0.031381366634766615 -0.0023037901698155531 0 0.031291359077987295 -0.0021986978601926921 0 0.031259291450356608 -0.0023409481052115507 0 0.031381366634766615 -0.0023037901698155531 0 0.031259291450356608 -0.0023409481052115507 0 0.031381366634766615 -0.0023037901698155531 0 0.031313771985530807 -0.0024426195592082297 0 0.031291359077987295 -0.0021986978601926921 0 0.031259291450356608 -0.0023409481052115507 0 0.031137693071127574 -0.0022947416537915039 0 0.031604091858711429 -0.0021309116761731978 0 0.031548867096258329 -0.0021968301932245855 0 0.031597119765620525 -0.0022876207229677353 0 0.034680293459316766 -0.002883533238881002 0 0.03420677441014916 -0.0034980554604469912 0 0.031548867096258329 -0.0021968301932245855 0 0.03148827924306586 -0.0022699521244761837 0 0.031597119765620525 -0.0022876207229677353 0 0.03148827924306586 -0.0022699521244761837 0 0.031477293397382096 -0.0021901155720597289 0 0.031381366634766615 -0.0023037901698155531 0 0.031548867096258329 -0.0021968301932245855 0 0.03148827924306586 -0.0022699521244761837 0 0.031477293397382096 -0.0021901155720597289 0 0.03148827924306586 -0.0022699521244761837 0 0.031381366634766615 -0.0023037901698155531 0 0.03144537275778117 -0.0023815314822506336 0 0.03148827924306586 -0.0022699521244761837 0 0.03144537275778117 -0.0023815314822506336 0 0.031597119765620525 -0.0022876207229677353 0 0.03144537275778117 -0.0023815314822506336 0 0.031607148952010646 -0.0024950192475863002 0 0.031597119765620525 -0.0022876207229677353 0 0.03144537275778117 -0.0023815314822506336 0 0.031329762301709689 -0.0025635224449195985 0 0.031607148952010646 -0.0024950192475863002 0 0.031381366634766615 -0.0023037901698155531 0 0.03144537275778117 -0.0023815314822506336 0 0.031313771985530807 -0.0024426195592082297 0 0.03144537275778117 -0.0023815314822506336 0 0.031329762301709689 -0.0025635224449195985 0 0.031313771985530807 -0.0024426195592082297 0 0.031286364750883491 -0.0025070328028445324 0 0.031329762301709689 -0.0025635224449195985 0 0.031313771985530807 -0.0024426195592082297 0 0.031329762301709689 -0.0025635224449195985 0 0.031214050521359112 -0.0026750549003307267 0 0.031166045494444596 -0.0028545722493319692 0 0.030629092186325903 -0.0026301835647766256 0 0.033327645328274355 -0.0031232077701645929 0 0.031236041696368049 -0.0025625027005273708 0 0.031329762301709689 -0.0025635224449195985 0 0.031214050521359112 -0.0026750549003307267 0 0.031259291450356608 -0.0023409481052115507 0 0.03123282434445819 -0.002450376799607629 0 0.031160385719619807 -0.0023886946762755666 0 0.031259291450356608 -0.0023409481052115507 0 0.031313771985530807 -0.0024426195592082297 0 0.03123282434445819 -0.002450376799607629 0 0.031286364750883491 -0.0025070328028445324 0 0.031313771985530807 -0.0024426195592082297 0 0.03123282434445819 -0.002450376799607629 0 0.031130826121353979 -0.0024555232109428724 0 0.031028931868254037 -0.0023823508398533879 0 0.031160385719619807 -0.0023886946762755666 0 0.03123282434445819 -0.002450376799607629 0 0.031130826121353979 -0.0024555232109428724 0 0.031160385719619807 -0.0023886946762755666 0 0.024984345721940956 -0.0020439111158938521 0 0.024397150035140491 -0.0019826282530185789 0 0.019078477249906221 -0.0014352998517444858 0 0.018559977599771002 -0.0014402133064513791 0 0.019108475775455224 -0.0021897295166582818 0 0.019078477249906221 -0.0014352998517444858 0 0.019108475775455224 -0.0021897295166582818 0 0.019586019852563353 -0.0017193447965895921 0 0.031028931868254037 -0.0023823508398533879 0 0.031160385719619807 -0.0023886946762755666 0 0.031137693071127574 -0.0022947416537915039 0 0.031259291450356608 -0.0023409481052115507 0 0.031160385719619807 -0.0023886946762755666 0 0.031137693071127574 -0.0022947416537915039 0 0.031137693071127574 -0.0022947416537915039 0 0.031108831343888699 -0.0021665043683223185 0 0.030949254728606115 -0.0022804235704195043 0 0.031028931868254037 -0.0023823508398533879 0 0.031137693071127574 -0.0022947416537915039 0 0.030949254728606115 -0.0022804235704195043 0 0.035159573738025161 -0.0027559858135544268 0 0.029713456418975649 -0.0029072302581214611 0 0.031291359077987295 -0.0021986978601926921 0 0.031137693071127574 -0.0022947416537915039 0 0.031108831343888699 -0.0021665043683223185 0 0.032794664736024812 -0.0043714911854126001 0 0.033223424829180309 -0.0035145957513030603 0 0.033740053488314693 -0.0041850988103027415 0 0.032794664736024812 -0.0043714911854126001 0 0.033740053488314693 -0.0041850988103027415 0 0.03350477574132231 -0.0052326608408671095 0 0.038122862987770928 -0.0035058481397099894 0 0.037527169323106672 -0.0036614723020686251 0 0.037388038168992541 -0.0042793161390793774 0 0.036919447022387135 -0.0037492405222425674 0 0.037527169323106672 -0.0036614723020686251 0 0.037388038168992541 -0.0042793161390793774 0 0.037602232534109034 -0.0031070886536715319 0 0.036919447022387135 -0.0037492405222425674 0 0.037527169323106672 -0.0036614723020686251 0 0.035318983108535713 -0.0045990936374582106 0 0.029713456418975649 -0.0029072302581214611 0 0.032794664736024812 -0.0043714911854126001 0 0.032069513514173226 -0.0034918669064761608 0 0.033223424829180309 -0.0035145957513030603 0 0.029713456418975649 -0.0029072302581214611 0 0.026280560174597144 -0.0026015434998108255 0 0.032069513514173226 -0.0034918669064761608 0 0.033223424829180309 -0.0035145957513030603 0 0.033034085143426664 -0.0025622292598221148 0 0.020194773566664298 -0.0023289419703063957 0 0.019687014243461337 -0.0022486885490186266 0 0.019953206160043188 -0.001885472173618757 0 0.024397150035140491 -0.0019826282530185789 0 0.029713456418975649 -0.0029072302581214611 0 0.019108475775455224 -0.0021897295166582818 0 0.019687014243461337 -0.0022486885490186266 0 0.019586019852563353 -0.0017193447965895921 0 0.019714274985095183 -0.0028592676193806683 0 0.020194773566664298 -0.0023289419703063957 0 0.019687014243461337 -0.0022486885490186266 0 0.019108475775455224 -0.0021897295166582818 0 0.019714274985095183 -0.0028592676193806683 0 0.019687014243461337 -0.0022486885490186266 0 0.019687014243461337 -0.0022486885490186266 0 0.019586019852563353 -0.0017193447965895921 0 0.019953206160043188 -0.001885472173618757 0 0.01988502049278551 -0.0013317195881591166 0 0.019586019852563353 -0.0017193447965895921 0 0.019953206160043188 -0.001885472173618757 0 0.01988502049278551 -0.0013317195881591166 0 0.019953206160043188 -0.001885472173618757 0 0.020322663871418914 -0.0016663165926721559 0 0.020194773566664298 -0.0023289419703063957 0 0.019953206160043188 -0.001885472173618757 0 0.020322663871418914 -0.0016663165926721559 0 0.020627712481906025 -0.0013569530448687974 0 0.020322663871418914 -0.0016663165926721559 0 0.020664048880459307 -0.0018058141157777589 0 0.020194773566664298 -0.0023289419703063957 0 0.020322663871418914 -0.0016663165926721559 0 0.020731332709022426 -0.0018162571553539011 0 0.019797562519087288 -0.00087821429944759562 0 0.025859730741358097 -0.0018820577157031059 0 0.021093194135032755 -0.0013948044243691702 0 0.020627712481906025 -0.0013569530448687974 0 0.020664048880459307 -0.0018058141157777589 0 0.033034085143426664 -0.0025622292598221148 0 0.033994223262811811 -0.0016343523876582338 0 0.034352984901709002 -0.003027346743968744 0 0.026280560174597144 -0.0026015434998108255 0 0.025859730741358097 -0.0018820577157031059 0 0.035586976680664364 -0.0023485303131419648 0 0.035916171879888395 -0.0030370810681418108 0 0.034352984901709002 -0.003027346743968744 0 0.033994223262811811 -0.0016343523876582338 0 0.035586976680664364 -0.0023485303131419648 0 0.034352984901709002 -0.003027346743968744 0 0.025859730741358097 -0.0018820577157031059 0 0.028278650333992399 -0.0019708264572718629 0 0.022488970010599962 -0.0025151635367836869 0 0.022841573267576659 -0.0022207216337827712 0 0.022256785101490574 -0.0020309158598982063 0 0.021331512262056335 -0.0022651956900561665 0 0.025859730741358097 -0.0018820577157031059 0 0.022091494994489837 -0.0023763558469822319 0 0.021897430382337681 -0.0021964347277890275 0 0.022256785101490574 -0.0020309158598982063 0 0.022488970010599962 -0.0025151635367836869 0 0.022091494994489837 -0.0023763558469822319 0 0.022256785101490574 -0.0020309158598982063 0 0.021692499331226155 -0.0024482085444329608 0 0.021897430382337681 -0.0021964347277890275 0 0.021659549121815745 -0.0023176710094175343 0 0.021692499331226155 -0.0024482085444329608 0 0.022091494994489837 -0.0023763558469822319 0 0.021897430382337681 -0.0021964347277890275 0 0.021897430382337681 -0.0021964347277890275 0 0.021879493870841527 -0.0019648459790118171 0 0.021659549121815745 -0.0023176710094175343 0 0.034445487078646392 -0.0035431985859022863 0 0.028278650333992399 -0.0019708264572718629 0 0.021897430382337681 -0.0021964347277890275 0 0.021879493870841527 -0.0019648459790118171 0 0.022256785101490574 -0.0020309158598982063 0 0.03605717437476879 -0.0030387650056568766 0 0.035586976680664364 -0.0023485303131419648 0 0.035916171879888395 -0.0030370810681418108 0 0.034445487078646392 -0.0035431985859022863 0 0.041854182744710255 -0.0024746213840512459 0 0.03605717437476879 -0.0030387650056568766 0 0.035916171879888395 -0.0030370810681418108 0 0.035970796863075354 -0.0025960575065792223 0 0.043816493069766801 -0.0055205030185590488 0 0.04586105124940635 -0.0025171086715575705 0 0.043373994504468175 -0.0033426149521852489 0 0.04586105124940635 -0.0025171086715575705 0 0.043373994504468175 -0.0033426149521852489 0 0.043549636712938711 -0.0017522302617192839 0 0.04586105124940635 -0.0025171086715575705 0 0.043549636712938711 -0.0017522302617192839 0 0.044630071456286058 -0.00086348856331862009 0 0.035916171879888395 -0.0030370810681418108 0 0.035970796863075354 -0.0025960575065792223 0 0.037168687488772258 -0.0026598360925981848 0 0.035970796863075354 -0.0025960575065792223 0 0.037168687488772258 -0.0026598360925981848 0 0.037565106236789714 -0.0018309211828071315 0 0.03470108251130137 -0.0041902604022712869 0 0.033740053488314693 -0.0041850988103027415 0 0.03350477574132231 -0.0052326608408671095 0 0.03587607123678993 -0.003502913591106735 0 0.036240775764939927 -0.0028307231325138443 0 0.03470108251130137 -0.0041902604022712869 0 0.033740053488314693 -0.0041850988103027415 0 0.034352984901709002 -0.003027346743968744 0 0.033223424829180309 -0.0035145957513030603 0 0.033740053488314693 -0.0041850988103027415 0 0.034352984901709002 -0.003027346743968744 0 0.033223424829180309 -0.0035145957513030603 0 0.033034085143426664 -0.0025622292598221148 0 0.034352984901709002 -0.003027346743968744 0 0.035992528701347802 -0.003034721010669806 0 0.03587607123678993 -0.003502913591106735 0 0.035916171879888395 -0.0030370810681418108 0 0.03470108251130137 -0.0041902604022712869 0 0.034352984901709002 -0.003027346743968744 0 0.035530916769243505 -0.0047157222618390629 0 0.036000322536634335 -0.003734142766673965 0 0.03634380294144407 -0.0045736818315277169 0 0.036000322536634335 -0.003734142766673965 0 0.037063267742391555 -0.0041933948945803816 0 0.037120759792711587 -0.0034717367209112972 0 0.036000322536634335 -0.003734142766673965 0 0.037063267742391555 -0.0041933948945803816 0 0.03634380294144407 -0.0045736818315277169 0 0.037063267742391555 -0.0041933948945803816 0 0.03634380294144407 -0.0045736818315277169 0 0.037118849657575961 -0.0049408759759330392 0 0.035530916769243505 -0.0047157222618390629 0 0.03634380294144407 -0.0045736818315277169 0 0.036207462008187592 -0.0053963218777868362 0 0.037024246128154796 -0.0057330303154201892 0 0.036207462008187592 -0.0053963218777868362 0 0.037118849657575961 -0.0049408759759330392 0 0.03634380294144407 -0.0045736818315277169 0 0.036207462008187592 -0.0053963218777868362 0 0.037118849657575961 -0.0049408759759330392 0 0.037913566693380765 -0.0056314962657748107 0 0.037118849657575961 -0.0049408759759330392 0 0.038101190087067326 -0.0045207207406503559 0 0.037913566693380765 -0.0056314962657748107 0 0.037024246128154796 -0.0057330303154201892 0 0.037118849657575961 -0.0049408759759330392 0 0.037063267742391555 -0.0041933948945803816 0 0.037118849657575961 -0.0049408759759330392 0 0.038101190087067326 -0.0045207207406503559 0 0.037063267742391555 -0.0041933948945803816 0 0.037971329715081027 -0.0037877227054701362 0 0.037120759792711587 -0.0034717367209112972 0 0.037063267742391555 -0.0041933948945803816 0 0.038101190087067326 -0.0045207207406503559 0 0.037971329715081027 -0.0037877227054701362 0 0.038101190087067326 -0.0045207207406503559 0 0.038645953041321436 -0.0039116894669133078 0 0.037971329715081027 -0.0037877227054701362 0 0.038101190087067326 -0.0045207207406503559 0 0.038645953041321436 -0.0039116894669133078 0 0.039018118112106481 -0.0041932738220682277 0 0.038101190087067326 -0.0045207207406503559 0 0.039018118112106481 -0.0041932738220682277 0 0.039157157345063337 -0.0051276911589117928 0 0.038645953041321436 -0.0039116894669133078 0 0.039018118112106481 -0.0041932738220682277 0 0.03913713424426387 -0.0036179253526323965 0 0.037913566693380765 -0.0056314962657748107 0 0.038101190087067326 -0.0045207207406503559 0 0.039157157345063337 -0.0051276911589117928 0 0.039915042523300241 -0.0039208743500518456 0 0.039018118112106481 -0.0041932738220682277 0 0.03913713424426387 -0.0036179253526323965 0 0.034445487078646392 -0.0035431985859022863 0 0.029910539154984268 -0.0037549225987638536 0 0.039915042523300241 -0.0039208743500518456 0 0.039018118112106481 -0.0041932738220682277 0 0.039157157345063337 -0.0051276911589117928 0 0.041571309417314184 -0.0047228054014054142 0 0.043373994504468175 -0.0033426149521852489 0 0.041993050328284813 -0.0025894756118058099 0 0.034445487078646392 -0.0035431985859022863 0 0.041577358771354198 -0.0045958483681380474 0 0.043816493069766801 -0.0055205030185590488 0 0.041571309417314184 -0.0047228054014054142 0 0.043373994504468175 -0.0033426149521852489 0 0.043373994504468175 -0.0033426149521852489 0 0.043549636712938711 -0.0017522302617192839 0 0.041993050328284813 -0.0025894756118058099 0 0.043549636712938711 -0.0017522302617192839 0 0.041993050328284813 -0.0025894756118058099 0 0.041976714623199608 -0.00095642454664913946 0 0.040163809322172665 -0.0032042856306860393 0 0.041833255295504218 -0.0014859635387623892 0 0.040577274963522036 -0.0032375760492677672 0 0.04082681604612589 -0.003601215719415352 0 0.040876476338719075 -0.0020827620907408967 0 0.04082681604612589 -0.003601215719415352 0 0.040876476338719075 -0.0020827620907408967 0 0.041701299862533368 -0.0016822103639650961 0 0.041993050328284813 -0.0025894756118058099 0 0.0394684623100586 -0.0032113607291905386 0 0.041976714623199608 -0.00095642454664913946 0 0.040577274963522036 -0.0032375760492677672 0 0.040164209747538496 -0.0025351312255552328 0 0.040876476338719075 -0.0020827620907408967 0 0.041571309417314184 -0.0047228054014054142 0 0.0394684623100586 -0.0032113607291905386 0 0.038835138449863679 -0.0032861520402486092 0 0.03913713424426387 -0.0036179253526323965 0 0.038835138449863679 -0.0032861520402486092 0 0.038647139586642502 -0.0035974148705630051 0 0.041571309417314184 -0.0047228054014054142 0 0.041993050328284813 -0.0025894756118058099 0 0.0394684623100586 -0.0032113607291905386 0 0.041577358771354198 -0.0045958483681380474 0 0.038570707851210653 -0.0032628908487773072 0 0.038645953041321436 -0.0039116894669133078 0 0.03913713424426387 -0.0036179253526323965 0 0.038647139586642502 -0.0035974148705630051 0 0.038645953041321436 -0.0039116894669133078 0 0.038647139586642502 -0.0035974148705630051 0 0.037971329715081027 -0.0037877227054701362 0 0.0394684623100586 -0.0032113607291905386 0 0.038835138449863679 -0.0032861520402486092 0 0.03764026454577464 -0.0029475633313801415 0 0.038647139586642502 -0.0035974148705630051 0 0.038058958461521956 -0.003395806034921092 0 0.037971329715081027 -0.0037877227054701362 0 0.038058958461521956 -0.003395806034921092 0 0.037971329715081027 -0.0037877227054701362 0 0.037120759792711587 -0.0034717367209112972 0 0.038058958461521956 -0.003395806034921092 0 0.03764026454577464 -0.0029475633313801415 0 0.037120759792711587 -0.0034717367209112972 0 0.038835138449863679 -0.0032861520402486092 0 0.038058958461521956 -0.003395806034921092 0 0.03764026454577464 -0.0029475633313801415 0 0.038835138449863679 -0.0032861520402486092 0 0.038647139586642502 -0.0035974148705630051 0 0.038058958461521956 -0.003395806034921092 0 0.0394684623100586 -0.0032113607291905386 0 0.03764026454577464 -0.0029475633313801415 0 0.036311453957082407 -0.0019044895716465349 0 0.040577274963522036 -0.0032375760492677672 0 0.040164209747538496 -0.0025351312255552328 0 0.039354806810149384 -0.0028343606154032923 0 0.04082681604612589 -0.003601215719415352 0 0.039354806810149384 -0.0028343606154032923 0 0.038380101761373395 -0.0028833893991358204 0 0.040577274963522036 -0.0032375760492677672 0 0.04082681604612589 -0.003601215719415352 0 0.039354806810149384 -0.0028343606154032923 0 0.040163809322172665 -0.0032042856306860393 0 0.037355266116521908 -0.0024512987592511049 0 0.040164209747538496 -0.0025351312255552328 0 0.039847232477659783 -0.0019856125775593383 0 0.040876476338719075 -0.0020827620907408967 0 0.040164209747538496 -0.0025351312255552328 0 0.039354806810149384 -0.0028343606154032923 0 0.039847232477659783 -0.0019856125775593383 0 0.039354806810149384 -0.0028343606154032923 0 0.038945719080572511 -0.0019502653793789361 0 0.039847232477659783 -0.0019856125775593383 0 0.038380101761373395 -0.0028833893991358204 0 0.037909079006000733 -0.0016268141750574062 0 0.038945719080572511 -0.0019502653793789361 0 0.039354806810149384 -0.0028343606154032923 0 0.038380101761373395 -0.0028833893991358204 0 0.038945719080572511 -0.0019502653793789361 0 0.035661961508538169 -0.0027979066175812233 0 0.036311453957082407 -0.0019044895716465349 0 0.036526445218734813 -0.0030040452547744879 0 0.03764026454577464 -0.0029475633313801415 0 0.036311453957082407 -0.0019044895716465349 0 0.036526445218734813 -0.0030040452547744879 0 0.03764026454577464 -0.0029475633313801415 0 0.036526445218734813 -0.0030040452547744879 0 0.037120759792711587 -0.0034717367209112972 0 0.036000322536634335 -0.003734142766673965 0 0.036526445218734813 -0.0030040452547744879 0 0.037120759792711587 -0.0034717367209112972 0 0.035661961508538169 -0.0027979066175812233 0 0.036000322536634335 -0.003734142766673965 0 0.036526445218734813 -0.0030040452547744879 0 0.037820171591387189 0.00046573014112365966 0 0.041025450169274578 -0.00019267315383574986 0 0.037439277480423097 0.00050847196070267445 0 0.037909079006000733 -0.0016268141750574062 0 0.039720163244316757 -0.00019794870670914407 0 0.037909079006000733 -0.0016268141750574062 0 0.038945719080572511 -0.0019502653793789361 0 0.039720163244316757 -0.00019794870670914407 0 0.039847232477659783 -0.0019856125775593383 0 0.039720163244316757 -0.00019794870670914407 0 0.040876476338719075 -0.0020827620907408967 0 0.038945719080572511 -0.0019502653793789361 0 0.039847232477659783 -0.0019856125775593383 0 0.039720163244316757 -0.00019794870670914407 0 0.041025450169274578 -0.00019267315383574986 0 0.042865493593691587 -0.00051676943469310273 0 0.04191176562168334 -7.2515743492204183e-05 0 0.043119522557548272 0.00041110913489747193 0 0.043749809946832682 -0.00064617502628395171 0 0.039720163244316757 -0.00019794870670914407 0 0.040876476338719075 -0.0020827620907408967 0 0.042046322109796558 -0.00092376547129445822 0 0.040876476338719075 -0.0020827620907408967 0 0.042046322109796558 -0.00092376547129445822 0 0.041701299862533368 -0.0016822103639650961 0 0.042722616699190717 -0.00026418713823844899 0 0.041976714623199608 -0.00095642454664913946 0 0.043758597251003728 -0.00046900713201408355 0 0.042865493593691587 -0.00051676943469310273 0 0.041833255295504218 -0.0014859635387623892 0 0.043549636712938711 -0.0017522302617192839 0 0.041976714623199608 -0.00095642454664913946 0 0.043758597251003728 -0.00046900713201408355 0 0.042722616699190717 -0.00026418713823844899 0 0.043758597251003728 -0.00046900713201408355 0 0.043780929242086597 0.00075320509418009966 0 0.043119522557548272 0.00041110913489747193 0 0.043749809946832682 -0.00064617502628395171 0 0.044170375741462362 0.00027382107277980529 0 0.042865493593691587 -0.00051676943469310273 0 0.043853589302516177 0.00041069277722284174 0 0.043853589302516177 0.00041069277722284174 0 0.045641090275419252 0.0021558398570035763 0 0.043119522557548272 0.00041110913489747193 0 0.044170375741462362 0.00027382107277980529 0 0.043488258409186777 0.0011859566571333462 0 0.044170375741462362 0.00027382107277980529 0 0.043488258409186777 0.0011859566571333462 0 0.044865802802402051 0.0017957733101379957 0 0.044359469912169894 0.0025873140201062949 0 0.045641090275419252 0.0021558398570035763 0 0.045833372902228664 0.0028876399955206941 0 0.046520813967018092 0.0026762249960708404 0 0.046257430060588307 0.0030640059405649877 0 0.043488258409186777 0.0011859566571333462 0 0.043077560329530896 0.0022785456415437295 0 0.044865802802402051 0.0017957733101379957 0 0.043488258409186777 0.0011859566571333462 0 0.043077560329530896 0.0022785456415437295 0 0.042314164354797242 0.0012979795950173489 0 0.04191176562168334 -7.2515743492204183e-05 0 0.043119522557548272 0.00041110913489747193 0 0.042314164354797242 0.0012979795950173489 0 0.043119522557548272 0.00041110913489747193 0 0.043488258409186777 0.0011859566571333462 0 0.042314164354797242 0.0012979795950173489 0 0.04191176562168334 -7.2515743492204183e-05 0 0.042314164354797242 0.0012979795950173489 0 0.041081474572689035 0.0014280249042598668 0 0.042314164354797242 0.0012979795950173489 0 0.041081474572689035 0.0014280249042598668 0 0.041290248657272578 0.0027571147312549105 0 0.043077560329530896 0.0022785456415437295 0 0.042314164354797242 0.0012979795950173489 0 0.041290248657272578 0.0027571147312549105 0 0.044359469912169894 0.0025873140201062949 0 0.043770195411424691 0.0030256190009338058 0 0.039805128322106031 0.0018623048391434817 0 0.041081474572689035 0.0014280249042598668 0 0.041290248657272578 0.0027571147312549105 0 0.040105005861735203 0.00048526963487917606 0 0.04191176562168334 -7.2515743492204183e-05 0 0.041081474572689035 0.0014280249042598668 0 0.042011151307970687 -0.00078262933182880311 0 0.043488893005816029 0.00090667217686030068 0 0.04735858076804781 -0.00031966084576872712 0 0.047075516645754399 0.0010923055975684568 0 0.048544996702328487 0.0013617530772551346 0 0.038749990736329759 -0.00040074426766663687 0 0.037988285632524127 -0.00096800771654207459 0 0.038244502664763549 0.00045033743129495492 0 0.037015936503633211 -0.0011173624149382817 0 0.037988285632524127 -0.00096800771654207459 0 0.038244502664763549 0.00045033743129495492 0 0.038795081967266859 -0.00089606509596207719 0 0.038749990736329759 -0.00040074426766663687 0 0.037988285632524127 -0.00096800771654207459 0 0.037168687488772258 -0.0026598360925981848 0 0.038640886267090953 -0.0016714013146638151 0 0.037565106236789714 -0.0018309211828071315 0 0.037988285632524127 -0.00096800771654207459 0 0.038559638819845178 -0.0015550388246792985 0 0.037565106236789714 -0.0018309211828071315 0 0.038795081967266859 -0.00089606509596207719 0 0.037988285632524127 -0.00096800771654207459 0 0.038559638819845178 -0.0015550388246792985 0 0.036376582151423059 -0.0028195664006164223 0 0.036240775764939927 -0.0028307231325138443 0 0.038559638819845178 -0.0015550388246792985 0 0.038640886267090953 -0.0016714013146638151 0 0.037565106236789714 -0.0018309211828071315 0 0.035970796863075354 -0.0025960575065792223 0 0.037015936503633211 -0.0011173624149382817 0 0.037565106236789714 -0.0018309211828071315 0 0.037015936503633211 -0.0011173624149382817 0 0.037988285632524127 -0.00096800771654207459 0 0.037565106236789714 -0.0018309211828071315 0 0.041854182744710255 -0.0024746213840512459 0 0.042011151307970687 -0.00078262933182880311 0 0.04586105124940635 -0.0025171086715575705 0 0.04735858076804781 -0.00031966084576872712 0 0.045838195728609837 -0.00030508683887106239 0 0.04586105124940635 -0.0025171086715575705 0 0.044630071456286058 -0.00086348856331862009 0 0.045838195728609837 -0.00030508683887106239 0 0.043549636712938711 -0.0017522302617192839 0 0.043758597251003728 -0.00046900713201408355 0 0.044630071456286058 -0.00086348856331862009 0 0.044630071456286058 -0.00086348856331862009 0 0.044773888257918268 0.00020637130759872102 0 0.045838195728609837 -0.00030508683887106239 0 0.043758597251003728 -0.00046900713201408355 0 0.044630071456286058 -0.00086348856331862009 0 0.044773888257918268 0.00020637130759872102 0 0.043758597251003728 -0.00046900713201408355 0 0.043780929242086597 0.00075320509418009966 0 0.044773888257918268 0.00020637130759872102 0 0.044773888257918268 0.00020637130759872102 0 0.045838195728609837 -0.00030508683887106239 0 0.045986612698617632 0.00065932569877791215 0 0.044773888257918268 0.00020637130759872102 0 0.045986612698617632 0.00065932569877791215 0 0.044977705465345796 0.0012340100146979438 0 0.043780929242086597 0.00075320509418009966 0 0.044773888257918268 0.00020637130759872102 0 0.044977705465345796 0.0012340100146979438 0 0.04735858076804781 -0.00031966084576872712 0 0.045838195728609837 -0.00030508683887106239 0 0.045986612698617632 0.00065932569877791215 0 0.04735858076804781 -0.00031966084576872712 0 0.045986612698617632 0.00065932569877791215 0 0.047075516645754399 0.0010923055975684568 0 0.046063311815387746 0.0016005118299815117 0 0.047304340780264326 0.0019935744204510834 0 0.047075516645754399 0.0010923055975684568 0 0.045986612698617632 0.00065932569877791215 0 0.046063311815387746 0.0016005118299815117 0 0.047075516645754399 0.0010923055975684568 0 0.043780929242086597 0.00075320509418009966 0 0.044977705465345796 0.0012340100146979438 0 0.045274058719105927 0.0021105365806794469 0 0.045986612698617632 0.00065932569877791215 0 0.046063311815387746 0.0016005118299815117 0 0.044977705465345796 0.0012340100146979438 0 0.046063311815387746 0.0016005118299815117 0 0.045484323166115316 0.0017562207209068743 0 0.045868161413182312 0.0019668365025835772 0 0.046063311815387746 0.0016005118299815117 0 0.044977705465345796 0.0012340100146979438 0 0.045484323166115316 0.0017562207209068743 0 0.044977705465345796 0.0012340100146979438 0 0.045484323166115316 0.0017562207209068743 0 0.045274058719105927 0.0021105365806794469 0 0.045274058719105927 0.0021105365806794469 0 0.046322945088153614 0.0022940577603710369 0 0.04619660880348557 0.0028739140960516254 0 0.045641090275419252 0.0021558398570035763 0 0.046476302287399934 0.0030181032631658531 0 0.046520813967018092 0.0026762249960708404 0 0.04650481269823635 0.0029461415956615437 0 0.046732141570824351 0.0031023500823574007 0 0.045274058719105927 0.0021105365806794469 0 0.045868161413182312 0.0019668365025835772 0 0.046322945088153614 0.0022940577603710369 0 0.045484323166115316 0.0017562207209068743 0 0.045274058719105927 0.0021105365806794469 0 0.045868161413182312 0.0019668365025835772 0 0.046520813967018092 0.0026762249960708404 0 0.04650481269823635 0.0029461415956615437 0 0.046257430060588307 0.0030640059405649877 0 0.046063311815387746 0.0016005118299815117 0 0.046322945088153614 0.0022940577603710369 0 0.047304340780264326 0.0019935744204510834 0 0.046322945088153614 0.0022940577603710369 0 0.047304340780264326 0.0019935744204510834 0 0.047309079211209061 0.0028124624856389001 0 0.046063311815387746 0.0016005118299815117 0 0.045868161413182312 0.0019668365025835772 0 0.046322945088153614 0.0022940577603710369 0 0.047304340780264326 0.0019935744204510834 0 0.048544996702328487 0.0013617530772551346 0 0.048431918631739915 0.0026619746340399435 0 0.047304340780264326 0.0019935744204510834 0 0.048431918631739915 0.0026619746340399435 0 0.047309079211209061 0.0028124624856389001 0 0.047304340780264326 0.0019935744204510834 0 0.047075516645754399 0.0010923055975684568 0 0.048544996702328487 0.0013617530772551346 0 0.048544996702328487 0.0013617530772551346 0 0.048431918631739915 0.0026619746340399435 0 0.049374080151905482 0.0026298583903909133 0 0.048431918631739915 0.0026619746340399435 0 0.049374080151905482 0.0026298583903909133 0 0.049215045469335909 0.003466999155972479 0 0.048431918631739915 0.0026619746340399435 0 0.048520182290036226 0.003547515105877089 0 0.049215045469335909 0.003466999155972479 0 0.048520182290036226 0.003547515105877089 0 0.049014150889775364 0.0035931976661912487 0 0.049215045469335909 0.003466999155972479 0 0.048520182290036226 0.003547515105877089 0 0.047309079211209061 0.0028124624856389001 0 0.046974683896896449 0.0035401067541320388 0 0.048431918631739915 0.0026619746340399435 0 0.048520182290036226 0.003547515105877089 0 0.047309079211209061 0.0028124624856389001 0 0.047309079211209061 0.0028124624856389001 0 0.04619660880348557 0.0028739140960516254 0 0.046974683896896449 0.0035401067541320388 0 0.046322945088153614 0.0022940577603710369 0 0.047309079211209061 0.0028124624856389001 0 0.04619660880348557 0.0028739140960516254 0 0.046476302287399934 0.0030181032631658531 0 0.046858504987864674 0.0034616298466996548 0 0.046732141570824351 0.0031023500823574007 0 0.046494537147522406 0.0034108502646467286 0 0.046974683896896449 0.0035401067541320388 0 0.04650481269823635 0.0029461415956615437 0 0.046732141570824351 0.0031023500823574007 0 0.046494537147522406 0.0034108502646467286 0 0.04650481269823635 0.0029461415956615437 0 0.046494537147522406 0.0034108502646467286 0 0.046257430060588307 0.0030640059405649877 0 0.046494537147522406 0.0034108502646467286 0 0.046953063692848157 0.0042207015669962775 0 0.046301525570367083 0.0038384699228686718 0 0.046494537147522406 0.0034108502646467286 0 0.046974683896896449 0.0035401067541320388 0 0.046953063692848157 0.0042207015669962775 0 0.048520182290036226 0.003547515105877089 0 0.046974683896896449 0.0035401067541320388 0 0.046953063692848157 0.0042207015669962775 0 0.048871761180115728 0.0035562502346247792 0 0.048948114799873932 0.0036558039332953833 0 0.048886274476068067 0.0035670138482984562 0 0.046953063692848157 0.0042207015669962775 0 0.046301525570367083 0.0038384699228686718 0 0.046268211022814539 0.0044826127847802421 0 0.047700795943370865 0.0039946813222140514 0 0.049520956576310039 0.0040671085320381963 0 0.048871761180115728 0.0035562502346247792 0 0.048590200223698893 0.0036981999818798167 0 0.048811538670094128 0.0038030934389837287 0 0.047867959739225703 0.0039011943304386337 0 0.047700795943370865 0.0039946813222140514 0 0.048871761180115728 0.0035562502346247792 0 0.048948114799873932 0.0036558039332953833 0 0.048811538670094128 0.0038030934389837287 0 0.048948114799873932 0.0036558039332953833 0 0.049208129749829035 0.003794806102904745 0 0.048811538670094128 0.0038030934389837287 0 0.048948114799873932 0.0036558039332953833 0 0.049230456674923102 0.0036056971703943494 0 0.048886274476068067 0.0035670138482984562 0 0.048948114799873932 0.0036558039332953833 0 0.049230456674923102 0.0036056971703943494 0 0.049208129749829035 0.003794806102904745 0 0.049230456674923102 0.0036056971703943494 0 0.049550809662815158 0.0036486083622715207 0 0.049208129749829035 0.003794806102904745 0 0.049814296489339084 0.0034935969821541322 0 0.049230456674923102 0.0036056971703943494 0 0.049550809662815158 0.0036486083622715207 0 0.049814296489339084 0.0034935969821541322 0 0.049230456674923102 0.0036056971703943494 0 0.049467358467195244 0.00365855053950641 0 0.049230456674923102 0.0036056971703943494 0 0.049467358467195244 0.00365855053950641 0 0.049014150889775364 0.0035931976661912487 0 0.049467358467195244 0.00365855053950641 0 0.049014150889775364 0.0035931976661912487 0 0.049215045469335909 0.003466999155972479 0 0.048533640818313434 0.0035392927103922649 0 0.047867959739225703 0.0039011943304386337 0 0.048520182290036226 0.003547515105877089 0 0.049014150889775364 0.0035931976661912487 0 0.048886274476068067 0.0035670138482984562 0 0.048520182290036226 0.003547515105877089 0 0.048871761180115728 0.0035562502346247792 0 0.048886274476068067 0.0035670138482984562 0 0.049230456674923102 0.0036056971703943494 0 0.049014150889775364 0.0035931976661912487 0 0.048886274476068067 0.0035670138482984562 0 0.045137102037347755 0.0036656280370560073 0 0.045003174037665336 0.0033674799138268528 0 0.045394359798128871 0.0033500437969649658 0 0.045137102037347755 0.0036656280370560073 0 0.045152541799875899 0.0036761022970010293 0 0.045401511900835703 0.0036581009756228725 0 0.044725079240574513 0.0035762276467263482 0 0.045137102037347755 0.0036656280370560073 0 0.045003174037665336 0.0033674799138268528 0 0.045003174037665336 0.0033674799138268528 0 0.045204351717798928 0.0030635623863051768 0 0.045394359798128871 0.0033500437969649658 0 0.044493342112365941 0.0031953162681622664 0 0.045003174037665336 0.0033674799138268528 0 0.045204351717798928 0.0030635623863051768 0 0.039447717540907208 0.0019005096381380529 0 0.043770195411424691 0.0030256190009338058 0 0.045833372902228664 0.0028876399955206941 0 0.045204351717798928 0.0030635623863051768 0 0.045394359798128871 0.0033500437969649658 0 0.045394359798128871 0.0033500437969649658 0 0.045401511900835703 0.0036581009756228725 0 0.045858078700950336 0.0034361942744878539 0 0.045137102037347755 0.0036656280370560073 0 0.045394359798128871 0.0033500437969649658 0 0.045401511900835703 0.0036581009756228725 0 0.045401511900835703 0.0036581009756228725 0 0.045858078700950336 0.0034361942744878539 0 0.045634913030541457 0.0040790259649296943 0 0.045833372902228664 0.0028876399955206941 0 0.045394359798128871 0.0033500437969649658 0 0.045858078700950336 0.0034361942744878539 0 0.045833372902228664 0.0028876399955206941 0 0.045858078700950336 0.0034361942744878539 0 0.046257430060588307 0.0030640059405649877 0 0.046494537147522406 0.0034108502646467286 0 0.045858078700950336 0.0034361942744878539 0 0.046257430060588307 0.0030640059405649877 0 0.046494537147522406 0.0034108502646467286 0 0.045858078700950336 0.0034361942744878539 0 0.046301525570367083 0.0038384699228686718 0 0.045858078700950336 0.0034361942744878539 0 0.046301525570367083 0.0038384699228686718 0 0.04602658907071102 0.0040254569630746887 0 0.046301525570367083 0.0038384699228686718 0 0.04602658907071102 0.0040254569630746887 0 0.046268211022814539 0.0044826127847802421 0 0.047700795943370865 0.0039946813222140514 0 0.047683295524345713 0.0041836199669489701 0 0.045508500358716161 0.0036335315767014476 0 0.045458767803500284 0.0038178980768110199 0 0.045703374268152651 0.003917873802253535 0 0.045926535876677943 0.0037946968902837271 0 0.045508500358716161 0.0036335315767014476 0 0.045703374268152651 0.003917873802253535 0 0.047700795943370865 0.0039946813222140514 0 0.045242301307663983 0.0038168039806347619 0 0.045858078700950336 0.0034361942744878539 0 0.04602658907071102 0.0040254569630746887 0 0.045634913030541457 0.0040790259649296943 0 0.04602658907071102 0.0040254569630746887 0 0.046268211022814539 0.0044826127847802421 0 0.045634913030541457 0.0040790259649296943 0 0.045325997082574711 0.0037269559392851038 0 0.045242301307663983 0.0038168039806347619 0 0.045152541799875899 0.0036761022970010293 0 0.045508500358716161 0.0036335315767014476 0 0.045296472058185731 0.003702903205662837 0 0.045152541799875899 0.0036761022970010293 0 0.045401511900835703 0.0036581009756228725 0 0.045634913030541457 0.0040790259649296943 0 0.045508500358716161 0.0036335315767014476 0 0.045296472058185731 0.003702903205662837 0 0.045458767803500284 0.0038178980768110199 0 0.045296472058185731 0.003702903205662837 0 0.045458767803500284 0.0038178980768110199 0 0.045317076123152292 0.003847514604732013 0 0.045296472058185731 0.003702903205662837 0 0.045317076123152292 0.003847514604732013 0 0.045244485019800711 0.0036840712971057074 0 0.045000484577005777 0.0034590636130196611 0 0.045383492011872605 0.0037907573133199824 0 0.045354159487311488 0.0036415320001834664 0 0.045244485019800711 0.0036840712971057074 0 0.045295187532004143 0.0036577146048647141 0 0.045250266783790717 0.0036921929990903616 0 0.045244485019800711 0.0036840712971057074 0 0.045217920640508662 0.0036839473803218338 0 0.045296472058185731 0.003702903205662837 0 0.045244485019800711 0.0036840712971057074 0 0.045217920640508662 0.0036839473803218338 0 0.045152541799875899 0.0036761022970010293 0 0.045296472058185731 0.003702903205662837 0 0.045217920640508662 0.0036839473803218338 0 0.045250266783790717 0.0036921929990903616 0 0.045137102037347755 0.0036656280370560073 0 0.045152541799875899 0.0036761022970010293 0 0.045250266783790717 0.0036921929990903616 0 0.045152541799875899 0.0036761022970010293 0 0.045217920640508662 0.0036839473803218338 0 0.045027608348258787 0.0038209467106007327 0 0.045112764668359423 0.0036940901313896306 0 0.051976513722278926 0.00026345391107541989 0 0.053221198846024761 0.0005950413785414775 0 0.049269891710625 0.000538737414127408 0 0.049726825282539723 0.00035908763627827943 0 0.050215953326083959 0.00031431918940046083 0 0.049726825282539723 0.00035908763627827943 0 0.050215953326083959 0.00031431918940046083 0 0.050055450580792561 0.00017277735469826825 0 0.049833328489064979 0.0002916148377200802 0 0.049632970066928087 0.00040759352500392828 0 0.053221198846024761 0.0005950413785414775 0 0.054087924315206717 0.00028563497535516409 0 0.054488660195109596 -7.9326868189606259e-05 0 0.054435848075919245 -0.00012325853766623841 0 0.054562460782862657 -9.9543406296888717e-05 0 0.053221198846024761 0.0005950413785414775 0 0.049632970066928087 0.00040759352500392828 0 0.049474532032131882 0.00014883453986686565 0 0.049726825282539723 0.00035908763627827943 0 0.050035089366078075 0.00016916154436292862 0 0.047249598700585378 0.0017716234025130296 0 0.049632970066928087 0.00040759352500392828 0 0.045283710893125641 0.0036629131336357755 0 0.045355414246896562 0.0037058370273809326 0 0.045295187532004143 0.0036577146048647141 0 0.045354159487311488 0.0036415320001834664 0 0.045355414246896562 0.0037058370273809326 0 0.045295187532004143 0.0036577146048647141 0 0.049632970066928087 0.00040759352500392828 0 0.049364585071050154 0.0031312449510165368 0 0.045354159487311488 0.0036415320001834664 0 0.045355414246896562 0.0037058370273809326 0 0.045450894302563646 0.0036705681833619523 0 0.045000484577005777 0.0034590636130196611 0 0.049364585071050154 0.0031312449510165368 0 0.045458767803500284 0.0038178980768110199 0 0.045317076123152292 0.003847514604732013 0 0.04551033018531396 0.0040185491728137682 0 0.054435848075919245 -0.00012325853766623841 0 0.05469791339371502 -0.0002551971711284483 0 0.054562460782862657 -9.9543406296888717e-05 0 0.05469791339371502 -0.0002551971711284483 0 0.054562460782862657 -9.9543406296888717e-05 0 0.054751468211210616 -0.0001003633704673398 0 0.054495463593600392 -7.8401621670371713e-05 0 0.054562460782862657 -9.9543406296888717e-05 0 0.054727895621005995 1.7913867047602887e-05 0 0.053221198846024761 0.0005950413785414775 0 0.054977598235967394 7.3294472560646803e-05 0 0.054562460782862657 -9.9543406296888717e-05 0 0.054751468211210616 -0.0001003633704673398 0 0.054727895621005995 1.7913867047602887e-05 0 0.05469791339371502 -0.0002551971711284483 0 0.054751468211210616 -0.0001003633704673398 0 0.054898671415040824 -0.00011152201320652736 0 0.054751468211210616 -0.0001003633704673398 0 0.054898671415040824 -0.00011152201320652736 0 0.054921619120246824 -1.6080140122122542e-05 0 0.049364585071050154 0.0031312449510165368 0 0.052851062233387418 0.0019837122972536474 0 0.045458767803500284 0.0038178980768110199 0 0.04551033018531396 0.0040185491728137682 0 0.045703374268152651 0.003917873802253535 0 0.050266703074842191 0.004092087617321636 0 0.050067934998487426 0.0039196994035796259 0 0.050083687973784777 0.0042114411874927754 0 0.049364585071050154 0.0031312449510165368 0 0.047683295524345713 0.0041836199669489701 0 0.050067934998487426 0.0039196994035796259 0 0.050083687973784777 0.0042114411874927754 0 0.049864548565503305 0.0040633137429632298 0 0.049895231542167365 0.0043280092761975005 0 0.050083687973784777 0.0042114411874927754 0 0.049864548565503305 0.0040633137429632298 0 0.050067934998487426 0.0039196994035796259 0 0.049864548565503305 0.0040633137429632298 0 0.049865250698982448 0.0037333626040738982 0 0.054898671415040824 -0.00011152201320652736 0 0.05498489195582789 -1.4432492063382838e-05 0 0.054921619120246824 -1.6080140122122542e-05 0 0.052851062233387418 0.0019837122972536474 0 0.052285834615070109 0.0018488445373144465 0 0.05498489195582789 -1.4432492063382838e-05 0 0.054972528598052475 1.1879522907470966e-05 0 0.054921619120246824 -1.6080140122122542e-05 0 0.05498489195582789 -1.4432492063382838e-05 0 0.054972528598052475 1.1879522907470966e-05 0 0.054988992758923938 4.0513171441934386e-06 0 0.054990222399189055 6.2012394783209385e-06 0 0.054972528598052475 1.1879522907470966e-05 0 0.054988992758923938 4.0513171441934386e-06 0 0.054990222399189055 6.2012394783209385e-06 0 0.054999905062190789 3.6729013404209018e-08 0 0.054999994099221419 2.5324643341133117e-09 0 0.054990222399189055 6.2012394783209385e-06 0 0.054999905062190789 3.6729013404209018e-08 0 0.054972528598052475 1.1879522907470966e-05 0 0.054999905062190789 3.6729013404209018e-08 0 0.054972528598052475 1.1879522907470966e-05 0 0.054950080680618858 2.5348943612497271e-05 0 0.054999905062190789 3.6729013404209018e-08 0 0.054950080680618858 2.5348943612497271e-05 0 0.054999978747683559 -2.6502471919163638e-09 0 0.054950080680618858 2.5348943612497271e-05 0 0.054921619120246824 -1.6080140122122542e-05 0 0.054727895621005995 1.7913867047602887e-05 0 0.054751468211210616 -0.0001003633704673398 0 0.054921619120246824 -1.6080140122122542e-05 0 0.054727895621005995 1.7913867047602887e-05 0 0.054886071417808199 -3.9645650697927436e-06 0 0.054977598235967394 7.3294472560646803e-05 0 0.054972528598052475 1.1879522907470966e-05 0 0.054950080680618858 2.5348943612497271e-05 0 0.054921619120246824 -1.6080140122122542e-05 0 0.054977626401359204 1.8905756578892268e-05 0 0.054982720682495892 1.7356266146729385e-05 0 0.054983541579807123 1.4239482242094301e-05 0 0.054968254119066598 1.8601000973106206e-05 0 0.054979186593317818 2.3032645572059117e-05 0 0.054977626401359204 1.8905756578892268e-05 0 0.054979186593317818 2.3032645572059117e-05 0 0.054977626401359204 1.8905756578892268e-05 0 0.054982720682495892 1.7356266146729385e-05 0 0.054950080680618858 2.5348943612497271e-05 0 0.054979186593317818 2.3032645572059117e-05 0 0.054982720682495892 1.7356266146729385e-05 0 0.054950080680618858 2.5348943612497271e-05 0 0.054982720682495892 1.7356266146729385e-05 0 0.054999978747683559 -2.6502471919163638e-09 0 0.054982720682495892 1.7356266146729385e-05 0 0.054999978747683559 -2.6502471919163638e-09 0 0.054983541579807123 1.4239482242094301e-05 0 0.054999982183222752 1.0912212302762719e-08 0 0.054999978747683559 -2.6502471919163638e-09 0 0.054983541579807123 1.4239482242094301e-05 0 0.054964226997301413 1.2881619829463538e-05 0 0.054968254119066598 1.8601000973106206e-05 0 0.054983541579807123 1.4239482242094301e-05 0 0.054968254119066598 1.8601000973106206e-05 0 0.054977626401359204 1.8905756578892268e-05 0 0.054983541579807123 1.4239482242094301e-05 0 0.04925679084972031 0.0040258004766290751 0 0.04944425038809501 0.0039797280265746965 0 0.049323664134708588 0.0038164725112042625 0 0.051700391627143898 0.0028829058951630811 0 0.052071379413032776 0.0023570828308305935 0 0.04925679084972031 0.0040258004766290751 0 0.049354123969394009 0.004121929525192543 0 0.049323664134708588 0.0038164725112042625 0 0.054146290395315912 0.00032636298334022616 0 0.054098831482898568 0.0019148813252175107 0 0.055184397904291339 0.0004483052124184167 0 0.054146290395315912 0.00032636298334022616 0 0.054098831482898568 0.0019148813252175107 0 0.05103458141933688 0.0027377221051169778 0 0.049354123969394009 0.004121929525192543 0 0.049550809662815158 0.0036486083622715207 0 0.050383712278212922 0.003333477414442702 0 0.051700391627143898 0.0028829058951630811 0 0.050603351929873586 0.0033482998610801741 0 0.049354123969394009 0.004121929525192543 0 0.049550809662815158 0.0036486083622715207 0 0.049208129749829035 0.003794806102904745 0 0.04925679084972031 0.0040258004766290751 0 0.049208129749829035 0.003794806102904745 0 0.048811538670094128 0.0038030934389837287 0 0.04925679084972031 0.0040258004766290751 0 0.049354123969394009 0.004121929525192543 0 0.049208129749829035 0.003794806102904745 0 0.049123712225461635 0.003978101190140788 0 0.049520956576310039 0.0040671085320381963 0 0.04925679084972031 0.0040258004766290751 0 0.04958191357930241 0.0041805783290166766 0 0.04944425038809501 0.0039797280265746965 0 0.049864548565503305 0.0040633137429632298 0 0.04958191357930241 0.0041805783290166766 0 0.049620237469639665 0.0038899676232023012 0 0.049895231542167365 0.0043280092761975005 0 0.049864548565503305 0.0040633137429632298 0 0.04958191357930241 0.0041805783290166766 0 0.049864548565503305 0.0040633137429632298 0 0.049865250698982448 0.0037333626040738982 0 0.049620237469639665 0.0038899676232023012 0 0.04958191357930241 0.0041805783290166766 0 0.049620237469639665 0.0038899676232023012 0 0.04944425038809501 0.0039797280265746965 0 0.049620237469639665 0.0038899676232023012 0 0.04944425038809501 0.0039797280265746965 0 0.049323664134708588 0.0038164725112042625 0 0.055292447055195905 0.00013481770410060887 0 0.055086777021062613 0.00014006488632024977 0 0.055184397904291339 0.0004483052124184167 0 0.053269373216192961 0.00094468516692111887 0 0.052071379413032776 0.0023570828308305935 0 0.049620237469639665 0.0038899676232023012 0 0.049640544860551632 0.0035153491443871083 0 0.049323664134708588 0.0038164725112042625 0 0.049865250698982448 0.0037333626040738982 0 0.049620237469639665 0.0038899676232023012 0 0.049640544860551632 0.0035153491443871083 0 0.052285834615070109 0.0018488445373144465 0 0.053269373216192961 0.00094468516692111887 0 0.05498489195582789 -1.4432492063382838e-05 0 0.054988992758923938 4.0513171441934386e-06 0 0.054989234374594374 9.0672635016829432e-06 0 0.054990222399189055 6.2012394783209385e-06 0 0.054988992758923938 4.0513171441934386e-06 0 0.054992607470088314 4.3962345530470034e-06 0 0.054992607470088314 4.3962345530470034e-06 0 0.054999994099221419 2.5324643341133117e-09 0 0.054990299753720377 5.7241266747575693e-06 0 0.054988992758923938 4.0513171441934386e-06 0 0.054992607470088314 4.3962345530470034e-06 0 0.054989234374594374 9.0672635016829432e-06 0 0.054640228842038945 -4.4128702293850131e-05 0 0.053269373216192961 0.00094468516692111887 0 0.054990222399189055 6.2012394783209385e-06 0 0.054992607470088314 4.3962345530470034e-06 0 0.054999994099221419 2.5324643341133117e-09 0 0.053269373216192961 0.00094468516692111887 0 0.055001448290160522 2.7379989988003042e-07 0 0.055292447055195905 0.00013481770410060887 0 0.055000329079639955 -1.9014974339680086e-07 0 0.055086777021062613 0.00014006488632024977 0 0.054999994099221419 2.5324643341133117e-09 0 0.054990299753720377 5.7241266747575693e-06 0 0.054999986750184957 2.4272275181182061e-09 0 0.055000329079639955 -1.9014974339680086e-07 0 0.054825156320171937 6.6831906344163211e-05 0 0.055086777021062613 0.00014006488632024977 0 0.054825156320171937 6.6831906344163211e-05 0 0.055086777021062613 0.00014006488632024977 0 0.055184397904291339 0.0004483052124184167 0 0.054146290395315912 0.00032636298334022616 0 0.054825156320171937 6.6831906344163211e-05 0 0.055184397904291339 0.0004483052124184167 0 0.054146290395315912 0.00032636298334022616 0 0.054825156320171937 6.6831906344163211e-05 0 0.054631458181588446 0.00015446717377814504 0 0.055000329079639955 -1.9014974339680086e-07 0 0.054825156320171937 6.6831906344163211e-05 0 0.054999262459816622 1.8991080660727759e-07 0 0.054825156320171937 6.6831906344163211e-05 0 0.054631458181588446 0.00015446717377814504 0 0.054999262459816622 1.8991080660727759e-07 0 0.054999262459816622 1.8991080660727759e-07 0 0.054999928460885902 1.0485167889055836e-07 0 0.054677882292769389 0.00020316617333539547 0 0.054631458181588446 0.00015446717377814504 0 0.054999262459816622 1.8991080660727759e-07 0 0.054677882292769389 0.00020316617333539547 0 0.054999928460885902 1.0485167889055836e-07 0 0.054677882292769389 0.00020316617333539547 0 0.054894910080987423 8.5407639547549702e-05 0 0.054677882292769389 0.00020316617333539547 0 0.054894910080987423 8.5407639547549702e-05 0 0.05477733412820255 0.00011203911699149097 0 0.054677882292769389 0.00020316617333539547 0 0.054669406545626562 0.00012534200628578612 0 0.05477733412820255 0.00011203911699149097 0 0.054146290395315912 0.00032636298334022616 0 0.054631458181588446 0.00015446717377814504 0 0.054677882292769389 0.00020316617333539547 0 0.05499959887011812 5.1054693616828451e-08 0 0.054889312369667709 8.2056509906834274e-05 0 0.054885003067520553 7.7083666601854804e-05 0 0.05499959887011812 5.1054693616828451e-08 0 0.054894910080987423 8.5407639547549702e-05 0 0.054889312369667709 8.2056509906834274e-05 0 0.054999928460885902 1.0485167889055836e-07 0 0.05499959887011812 5.1054693616828451e-08 0 0.054894910080987423 8.5407639547549702e-05 0 0.054894910080987423 8.5407639547549702e-05 0 0.054842532802761267 9.1021759344472712e-05 0 0.054889312369667709 8.2056509906834274e-05 0 0.054894910080987423 8.5407639547549702e-05 0 0.054842532802761267 9.1021759344472712e-05 0 0.05477733412820255 0.00011203911699149097 0 0.054842532802761267 9.1021759344472712e-05 0 0.054889312369667709 8.2056509906834274e-05 0 0.054835500099867922 7.3729104726073975e-05 0 0.054889312369667709 8.2056509906834274e-05 0 0.054852351220232833 8.0922674584747121e-05 0 0.054885003067520553 7.7083666601854804e-05 0 0.054852351220232833 8.0922674584747121e-05 0 0.054823388552915811 3.9915614608727315e-05 0 0.054862050787895592 9.5871592102755109e-05 0 0.054889312369667709 8.2056509906834274e-05 0 0.054852351220232833 8.0922674584747121e-05 0 0.054835500099867922 7.3729104726073975e-05 0 0.054852351220232833 8.0922674584747121e-05 0 0.054835500099867922 7.3729104726073975e-05 0 0.054823317388503906 5.1340558792871261e-05 0 0.054835500099867922 7.3729104726073975e-05 0 0.054789218002571541 3.6426015841969812e-05 0 0.054823317388503906 5.1340558792871261e-05 0 0.054835500099867922 7.3729104726073975e-05 0 0.054793726721487378 6.1458986906932147e-05 0 0.054789218002571541 3.6426015841969812e-05 0 0.054842532802761267 9.1021759344472712e-05 0 0.054835500099867922 7.3729104726073975e-05 0 0.054793726721487378 6.1458986906932147e-05 0 0.054842532802761267 9.1021759344472712e-05 0 0.054793726721487378 6.1458986906932147e-05 0 0.05477733412820255 0.00011203911699149097 0 0.054793726721487378 6.1458986906932147e-05 0 0.054736907518937825 5.0535457424932462e-05 0 0.054714504685991434 -2.6793317940228621e-06 0 0.054750611106283271 -8.6409791252280699e-06 0 0.054714504685991434 -2.6793317940228621e-06 0 0.054662079425235342 -5.9121686033260648e-05 0 0.054793726721487378 6.1458986906932147e-05 0 0.054789218002571541 3.6426015841969812e-05 0 0.054714504685991434 -2.6793317940228621e-06 0 0.054750611106283271 -8.6409791252280699e-06 0 0.054789218002571541 3.6426015841969812e-05 0 0.054714504685991434 -2.6793317940228621e-06 0 0.054750611106283271 -8.6409791252280699e-06 0 0.054789218002571541 3.6426015841969812e-05 0 0.054823317388503906 5.1340558792871261e-05 0 0.049383149629476389 0.0016163844453850888 0 0.049552204213278446 0.001304935227730866 0 0.050274719786934735 0.0028295726770139408 0 0.054852351220232833 8.0922674584747121e-05 0 0.054823317388503906 5.1340558792871261e-05 0 0.054823388552915811 3.9915614608727315e-05 0 0.054750611106283271 -8.6409791252280699e-06 0 0.054823317388503906 5.1340558792871261e-05 0 0.054823639371352345 1.169078186801699e-05 0 0.053535242969978754 -0.00061122553800715984 0 0.051163156137037057 0.00091639822949811215 0 0.051163156137037057 0.00091639822949811215 0 0.047088424258604905 0.0026984480882885457 0 0.054146290395315912 0.00032636298334022616 0 0.054529551451685268 0.00011226103897375538 0 0.054545365767357565 -7.0958534426831111e-05 0 0.054677882292769389 0.00020316617333539547 0 0.054529551451685268 0.00011226103897375538 0 0.054669406545626562 0.00012534200628578612 0 0.053924660171701153 0.0004113545582513237 0 0.052739021416906354 0.0014802029094535295 0 0.054146290395315912 0.00032636298334022616 0 0.054677882292769389 0.00020316617333539547 0 0.054529551451685268 0.00011226103897375538 0 0.054529551451685268 0.00011226103897375538 0 0.054672761708512457 5.4105908729640179e-05 0 0.054627602145963274 -2.5337508196081684e-05 0 0.054529551451685268 0.00011226103897375538 0 0.054669406545626562 0.00012534200628578612 0 0.054672761708512457 5.4105908729640179e-05 0 0.054669406545626562 0.00012534200628578612 0 0.05477733412820255 0.00011203911699149097 0 0.054672761708512457 5.4105908729640179e-05 0 0.054793726721487378 6.1458986906932147e-05 0 0.05477733412820255 0.00011203911699149097 0 0.054736907518937825 5.0535457424932462e-05 0 0.05477733412820255 0.00011203911699149097 0 0.054736907518937825 5.0535457424932462e-05 0 0.054672761708512457 5.4105908729640179e-05 0 0.054714504685991434 -2.6793317940228621e-06 0 0.05463578892007584 -5.0493615546693436e-05 0 0.054662079425235342 -5.9121686033260648e-05 0 0.054672761708512457 5.4105908729640179e-05 0 0.054714504685991434 -2.6793317940228621e-06 0 0.054627602145963274 -2.5337508196081684e-05 0 0.054736907518937825 5.0535457424932462e-05 0 0.054672761708512457 5.4105908729640179e-05 0 0.054714504685991434 -2.6793317940228621e-06 0 0.054714504685991434 -2.6793317940228621e-06 0 0.05463578892007584 -5.0493615546693436e-05 0 0.054627602145963274 -2.5337508196081684e-05 0 0.05463578892007584 -5.0493615546693436e-05 0 0.054627602145963274 -2.5337508196081684e-05 0 0.054545365767357565 -7.0958534426831111e-05 0 0.054098831482898568 0.0019148813252175107 0 0.05103458141933688 0.0027377221051169778 0 0.050383712278212922 0.003333477414442702 0 0.054529551451685268 0.00011226103897375538 0 0.054627602145963274 -2.5337508196081684e-05 0 0.054545365767357565 -7.0958534426831111e-05 0 0.052739021416906354 0.0014802029094535295 0 0.052616078627812708 0.0016645309245809621 0 0.049814296489339084 0.0034935969821541322 0 0.049550809662815158 0.0036486083622715207 0 0.050383712278212922 0.003333477414442702 0 0.049814296489339084 0.0034935969821541322 0 0.049467358467195244 0.00365855053950641 0 0.049469422228230503 0.003926324147031977 0 0.05103458141933688 0.0027377221051169778 0 0.050383712278212922 0.003333477414442702 0 0.049469422228230503 0.003926324147031977 0 0.05463578892007584 -5.0493615546693436e-05 0 0.054545365767357565 -7.0958534426831111e-05 0 0.054622691835542421 -6.1470910830721981e-05 0 0.049814296489339084 0.0034935969821541322 0 0.050383712278212922 0.003333477414442702 0 0.049469422228230503 0.003926324147031977 0 0.049467358467195244 0.00365855053950641 0 0.049469422228230503 0.003926324147031977 0 0.049215045469335909 0.003466999155972479 0 0.049469422228230503 0.003926324147031977 0 0.049215045469335909 0.003466999155972479 0 0.049807779884448324 0.0034224287708666101 0 0.052616078627812708 0.0016645309245809621 0 0.047983917049792955 0.0021295889161253778 0 0.054662079425235342 -5.9121686033260648e-05 0 0.054622691835542421 -6.1470910830721981e-05 0 0.054583332782973157 -7.6015937638614534e-05 0 0.05463578892007584 -5.0493615546693436e-05 0 0.054662079425235342 -5.9121686033260648e-05 0 0.054622691835542421 -6.1470910830721981e-05 0 0.054750611106283271 -8.6409791252280699e-06 0 0.054662079425235342 -5.9121686033260648e-05 0 0.054691312997837242 -7.1699766020861115e-05 0 0.054750611106283271 -8.6409791252280699e-06 0 0.054823639371352345 1.169078186801699e-05 0 0.054691312997837242 -7.1699766020861115e-05 0 0.051163156137037057 0.00091639822949811215 0 0.051316674368777355 0.0010679113783145459 0 0.047088424258604905 0.0026984480882885457 0 0.044394935010047501 0.0028054325648145203 0 0.047489153644050944 0.002497798172118702 0 0.047186035556661572 0.0022555774034455924 0 0.047323972529748119 0.0022284416963309016 0 0.042135857581486587 0.0041176453970735482 0 0.041766576394587723 0.0034200521444565841 0 0.042659367857435466 0.003163351970746524 0 0.047458439287872328 0.0025667488654617121 0 0.047489153644050944 0.002497798172118702 0 0.047186035556661572 0.0022555774034455924 0 0.041766576394587723 0.0034200521444565841 0 0.041378894608133106 0.002646524780834718 0 0.042228428751058734 0.0025290044666238113 0 0.047186035556661572 0.0022555774034455924 0 0.047164162973879376 0.0019687254976047037 0 0.046933127987675752 0.0019565396488043598 0 0.044394935010047501 0.0028054325648145203 0 0.044350804212237457 0.0023110355969331248 0 0.051316674368777355 0.0010679113783145459 0 0.047983917049792955 0.0021295889161253778 0 0.047186035556661572 0.0022555774034455924 0 0.047323972529748119 0.0022284416963309016 0 0.047164162973879376 0.0019687254976047037 0 0.054662079425235342 -5.9121686033260648e-05 0 0.054691312997837242 -7.1699766020861115e-05 0 0.054583332782973157 -7.6015937638614534e-05 0 0.044350804212237457 0.0023110355969331248 0 0.042960855945505708 0.0021812313147776658 0 0.041378894608133106 0.002646524780834718 0 0.041806498930256279 0.0020520814066753257 0 0.041418813305827203 0.0019496779642363595 0 0.047164162973879376 0.0019687254976047037 0 0.047012646344038456 0.0017161931313333688 0 0.046933127987675752 0.0019565396488043598 0 0.041378894608133106 0.002646524780834718 0 0.041806498930256279 0.0020520814066753257 0 0.042228428751058734 0.0025290044666238113 0 0.041806498930256279 0.0020520814066753257 0 0.04168828898239664 0.0016246102213596757 0 0.042396282932727035 0.0017243847565127596 0 0.041806498930256279 0.0020520814066753257 0 0.04168828898239664 0.0016246102213596757 0 0.041418813305827203 0.0019496779642363595 0 0.041378894608133106 0.002646524780834718 0 0.041043732176853386 0.0019039780402679216 0 0.041418813305827203 0.0019496779642363595 0 0.0411823052203108 0.0015630221392434612 0 0.04168828898239664 0.0016246102213596757 0 0.041418813305827203 0.0019496779642363595 0 0.041674593563947426 0.0020426870247173246 0 0.042960855945505708 0.0021812313147776658 0 0.0411823052203108 0.0015630221392434612 0 0.041043732176853386 0.0019039780402679216 0 0.041418813305827203 0.0019496779642363595 0 0.0411823052203108 0.0015630221392434612 0 0.040949901664748378 0.0022167187502217128 0 0.040813540429152168 0.0019259087411104213 0 0.042960855945505708 0.0021812313147776658 0 0.04234372830055607 0.0017909752752062128 0 0.040381202410293339 0.0021819875831151215 0 0.039434710662648267 0.0018710183203836494 0 0.04053017962858161 0.0032544152368716214 0 0.040950917402365922 0.0022129298913461568 0 0.040381202410293339 0.0021819875831151215 0 0.04053017962858161 0.0032544152368716214 0 0.040950917402365922 0.0022129298913461568 0 0.040813540429152168 0.0019259087411104213 0 0.040381202410293339 0.0021819875831151215 0 0.043949149587062308 0.0023629729280199049 0 0.047983917049792955 0.0021295889161253778 0 0.04017655327763963 0.0016375833738840838 0 0.040813540429152168 0.0019259087411104213 0 0.040381202410293339 0.0021819875831151215 0 0.04017655327763963 0.0016375833738840838 0 0.040381202410293339 0.0021819875831151215 0 0.039434710662648267 0.0018710183203836494 0 0.049374080151905482 0.0026298583903909133 0 0.049215045469335909 0.003466999155972479 0 0.049807779884448324 0.0034224287708666101 0 0.042960855945505708 0.0021812313147776658 0 0.047983917049792955 0.0021295889161253778 0 0.051273423373880599 0.00061988656091396452 0 0.050601483213821088 0.00010812820565402834 0 0.051001902788639926 0.00093069566255334416 0 0.046686022331099336 0.0012711474775439027 0 0.047286694147560315 0.00075626738915975642 0 0.044264661663530727 0.0012327636113488359 0 0.044051103107648953 0.00076691436947114156 0 0.043847117772969832 0.0008976718523902562 0 0.047286694147560315 0.00075626738915975642 0 0.051734036263098443 0.00082485059221431331 0 0.046686022331099336 0.0012711474775439027 0 0.046989206310786812 0.0010448263057757944 0 0.042495143415282571 0.0020033681454433828 0 0.043183348795803281 0.0010075686791614199 0 0.042694952587637405 0.00014647533596071196 0 0.042495143415282571 0.0020033681454433828 0 0.04332215000323484 0.0018169199105692862 0 0.043183348795803281 0.0010075686791614199 0 0.046686022331099336 0.0012711474775439027 0 0.041451858094000024 0.00061790287247384809 0 0.04332215000323484 0.0018169199105692862 0 0.043183348795803281 0.0010075686791614199 0 0.043788279782235907 0.0013380871437746243 0 0.043183348795803281 0.0010075686791614199 0 0.043192675867023841 0.00042730848194042566 0 0.042694952587637405 0.00014647533596071196 0 0.043183348795803281 0.0010075686791614199 0 0.043192675867023841 0.00042730848194042566 0 0.043579737318623156 0.00056993113904434914 0 0.043183348795803281 0.0010075686791614199 0 0.043788279782235907 0.0013380871437746243 0 0.043579737318623156 0.00056993113904434914 0 0.043192675867023841 0.00042730848194042566 0 0.043207519429948861 2.0713458012177053e-05 0 0.043579737318623156 0.00056993113904434914 0 0.043192675867023841 0.00042730848194042566 0 0.043207519429948861 2.0713458012177053e-05 0 0.042694952587637405 0.00014647533596071196 0 0.044024175493052854 0.00032332650272746098 0 0.044051103107648953 0.00076691436947114156 0 0.043800247144172785 0.00078290897597767673 0 0.040921443012217923 -0.00028190625069504286 0 0.044623383952331029 0.00068535345607317834 0 0.044264661663530727 0.0012327636113488359 0 0.044320218466643059 0.00059916756043674178 0 0.044051103107648953 0.00076691436947114156 0 0.044024175493052854 0.00032332650272746098 0 0.044320218466643059 0.00059916756043674178 0 0.044051103107648953 0.00076691436947114156 0 0.044051103107648953 0.00076691436947114156 0 0.043847117772969832 0.0008976718523902562 0 0.043800247144172785 0.00078290897597767673 0 0.040806503037099484 0.0002690468850213122 0 0.042481186343403178 0.0016131239810412532 0 0.042573319634383461 0.0014446818610491998 0 0.04566936969746839 0.00055692619863069275 0 0.045969531590310364 0.00080046263787639954 0 0.045789674566799832 0.00033918294431587842 0 0.045464312274968964 0.00067539479711290265 0 0.047286694147560315 0.00075626738915975642 0 0.047286694147560315 0.00075626738915975642 0 0.044623383952331029 0.00068535345607317834 0 0.045464312274968964 0.00067539479711290265 0 0.044623383952331029 0.00068535345607317834 0 0.043528387717023068 0.0020879154298613189 0 0.042396282932727035 0.0017243847565127596 0 0.042701020912076983 0.0023962663605564625 0 0.041872989240399866 0.00077362405701980673 0 0.043528387717023068 0.0020879154298613189 0 0.042396282932727035 0.0017243847565127596 0 0.040860259420194493 0.00061546894202523634 0 0.045464312274968964 0.00067539479711290265 0 0.041806498930256279 0.0020520814066753257 0 0.042396282932727035 0.0017243847565127596 0 0.042228428751058734 0.0025290044666238113 0 0.042396282932727035 0.0017243847565127596 0 0.042701020912076983 0.0023962663605564625 0 0.042228428751058734 0.0025290044666238113 0 0.042701020912076983 0.0023962663605564625 0 0.042228428751058734 0.0025290044666238113 0 0.042659367857435466 0.003163351970746524 0 0.050586446132327476 -4.4702657895190843e-06 0 0.050503136255620078 0.00055043867443310235 0 0.051001902788639926 0.00093069566255334416 0 0.045464312274968964 0.00067539479711290265 0 0.046297928417042139 0.0021633024829281438 0 0.043528387717023068 0.0020879154298613189 0 0.042701020912076983 0.0023962663605564625 0 0.042659367857435466 0.003163351970746524 0 0.050456679852811936 -0.00010519792730273134 0 0.050586446132327476 -4.4702657895190843e-06 0 0.050503136255620078 0.00055043867443310235 0 0.050456679852811936 -0.00010519792730273134 0 0.050503136255620078 0.00055043867443310235 0 0.04990689702888948 0.00090885946722825341 0 0.050503136255620078 0.00055043867443310235 0 0.050564285396788797 0.0010176658488553743 0 0.051001902788639926 0.00093069566255334416 0 0.050503136255620078 0.00055043867443310235 0 0.050564285396788797 0.0010176658488553743 0 0.04990689702888948 0.00090885946722825341 0 0.050564285396788797 0.0010176658488553743 0 0.04990689702888948 0.00090885946722825341 0 0.050510200285223981 0.0014396894767682768 0 0.041766576394587723 0.0034200521444565841 0 0.042228428751058734 0.0025290044666238113 0 0.042659367857435466 0.003163351970746524 0 0.047088424258604905 0.0026984480882885457 0 0.046297928417042139 0.0021633024829281438 0 0.049301435122315204 0.0020026198430232903 0 0.04990689702888948 0.00090885946722825341 0 0.050199566826719097 0.0020197285950833469 0 0.04990689702888948 0.00090885946722825341 0 0.050510200285223981 0.0014396894767682768 0 0.050199566826719097 0.0020197285950833469 0 0.050510200285223981 0.0014396894767682768 0 0.051017817750050577 0.00184541240023163 0 0.050199566826719097 0.0020197285950833469 0 0.050564285396788797 0.0010176658488553743 0 0.050510200285223981 0.0014396894767682768 0 0.050881398556254613 0.0012646876822432662 0 0.051017817750050577 0.00184541240023163 0 0.051277206617832756 0.0013483467843182037 0 0.051683500122088021 0.0017379444670821153 0 0.051017817750050577 0.00184541240023163 0 0.051277206617832756 0.0013483467843182037 0 0.050881398556254613 0.0012646876822432662 0 0.050510200285223981 0.0014396894767682768 0 0.051017817750050577 0.00184541240023163 0 0.050881398556254613 0.0012646876822432662 0 0.050564285396788797 0.0010176658488553743 0 0.050881398556254613 0.0012646876822432662 0 0.051001902788639926 0.00093069566255334416 0 0.051277206617832756 0.0013483467843182037 0 0.051001902788639926 0.00093069566255334416 0 0.051267120655963665 0.00070838001346007495 0 0.051277206617832756 0.0013483467843182037 0 0.050881398556254613 0.0012646876822432662 0 0.051001902788639926 0.00093069566255334416 0 0.051273423373880599 0.00061988656091396452 0 0.051001902788639926 0.00093069566255334416 0 0.051267120655963665 0.00070838001346007495 0 0.051277206617832756 0.0013483467843182037 0 0.051267120655963665 0.00070838001346007495 0 0.051639638523828767 0.00096355413505161761 0 0.04332215000323484 0.0018169199105692862 0 0.043299219796382404 0.0026584804293267026 0 0.0438485509268089 0.0022226777715647103 0 0.042495143415282571 0.0020033681454433828 0 0.04332215000323484 0.0018169199105692862 0 0.043299219796382404 0.0026584804293267026 0 0.051275045349119711 0.00062846174653863037 0 0.051267120655963665 0.00070838001346007495 0 0.051639638523828767 0.00096355413505161761 0 0.046686022331099336 0.0012711474775439027 0 0.047403108071135819 0.0016403239862773024 0 0.051277206617832756 0.0013483467843182037 0 0.051639638523828767 0.00096355413505161761 0 0.051931359953358756 0.0012143199253855754 0 0.051277206617832756 0.0013483467843182037 0 0.052180577288690591 0.0015624156472934271 0 0.052857080400671448 0.0011042411641633825 0 0.052243778607760132 0.0012084039249336211 0 0.050256166838631475 0.0014945560856191092 0 0.051277206617832756 0.0013483467843182037 0 0.051683500122088021 0.0017379444670821153 0 0.052180577288690591 0.0015624156472934271 0 0.052180577288690591 0.0015624156472934271 0 0.052077512735460831 0.0020964140684823261 0 0.052669578536797809 0.0016942253339960012 0 0.051683500122088021 0.0017379444670821153 0 0.052180577288690591 0.0015624156472934271 0 0.052077512735460831 0.0020964140684823261 0 0.052077512735460831 0.0020964140684823261 0 0.051862848360196494 0.0028676801416887233 0 0.052736134036623944 0.0021572003084554519 0 0.052077512735460831 0.0020964140684823261 0 0.051707311985118291 0.0024861221345559622 0 0.051862848360196494 0.0028676801416887233 0 0.052987952324419989 0.0019742812610237014 0 0.053463049383046517 0.0015769411962616665 0 0.051707311985118291 0.0024861221345559622 0 0.051718669253317376 0.0020920508570432587 0 0.051306864946642432 0.0024974137468145152 0 0.052077512735460831 0.0020964140684823261 0 0.051707311985118291 0.0024861221345559622 0 0.051718669253317376 0.0020920508570432587 0 0.051683500122088021 0.0017379444670821153 0 0.052077512735460831 0.0020964140684823261 0 0.051718669253317376 0.0020920508570432587 0 0.051017817750050577 0.00184541240023163 0 0.051718669253317376 0.0020920508570432587 0 0.051306864946642432 0.0024974137468145152 0 0.051017817750050577 0.00184541240023163 0 0.051683500122088021 0.0017379444670821153 0 0.051718669253317376 0.0020920508570432587 0 0.051017817750050577 0.00184541240023163 0 0.051306864946642432 0.0024974137468145152 0 0.050752276895219203 0.002537486115441081 0 0.051306864946642432 0.0024974137468145152 0 0.051425029908480302 0.0028526920780163716 0 0.051066523678566116 0.0028992933342918887 0 0.051707311985118291 0.0024861221345559622 0 0.051306864946642432 0.0024974137468145152 0 0.051425029908480302 0.0028526920780163716 0 0.051306864946642432 0.0024974137468145152 0 0.051066523678566116 0.0028992933342918887 0 0.050752276895219203 0.002537486115441081 0 0.051066523678566116 0.0028992933342918887 0 0.05061521364512981 0.0030777428859342158 0 0.051192206338484626 0.0034586382947406173 0 0.051425029908480302 0.0028526920780163716 0 0.051066523678566116 0.0028992933342918887 0 0.051192206338484626 0.0034586382947406173 0 0.051425029908480302 0.0028526920780163716 0 0.051862848360196494 0.0028676801416887233 0 0.051192206338484626 0.0034586382947406173 0 0.052987952324419989 0.0019742812610237014 0 0.053156887169586532 0.0016471308933955727 0 0.054272476969871059 0.00086101678262060313 0 0.054282714625722407 0.00087258068486532046 0 0.05421940095461926 0.00088707840389943714 0 0.054272476969871059 0.00086101678262060313 0 0.054282714625722407 0.00087258068486532046 0 0.05413753785880137 0.00087383493337256661 0 0.054790916942506852 0.00050833511005069138 0 0.054824379250069361 0.00028751465279035492 0 0.054538854775191846 0.0003974143532394472 0 0.051707311985118291 0.0024861221345559622 0 0.051425029908480302 0.0028526920780163716 0 0.051862848360196494 0.0028676801416887233 0 0.049301435122315204 0.0020026198430232903 0 0.050153915120763351 0.0025612360570194705 0 0.050199566826719097 0.0020197285950833469 0 0.047088424258604905 0.0026984480882885457 0 0.051340935680226178 0.0022929365130068182 0 0.049301435122315204 0.0020026198430232903 0 0.050153915120763351 0.0025612360570194705 0 0.049790291702582083 0.0030079148703007477 0 0.051017817750050577 0.00184541240023163 0 0.050199566826719097 0.0020197285950833469 0 0.050752276895219203 0.002537486115441081 0 0.050153915120763351 0.0025612360570194705 0 0.050199566826719097 0.0020197285950833469 0 0.050752276895219203 0.002537486115441081 0 0.050153915120763351 0.0025612360570194705 0 0.05061521364512981 0.0030777428859342158 0 0.049790291702582083 0.0030079148703007477 0 0.051066523678566116 0.0028992933342918887 0 0.050752276895219203 0.002537486115441081 0 0.05061521364512981 0.0030777428859342158 0 0.050153915120763351 0.0025612360570194705 0 0.050752276895219203 0.002537486115441081 0 0.05061521364512981 0.0030777428859342158 0 0.051163156137037057 0.00091639822949811215 0 0.051340935680226178 0.0022929365130068182 0 0.054852351220232833 8.0922674584747121e-05 0 0.054862050787895592 9.5871592102755109e-05 0 0.054885003067520553 7.7083666601854804e-05 0 0.054862050787895592 9.5871592102755109e-05 0 0.054885003067520553 7.7083666601854804e-05 0 0.054823190157186452 5.8663609668567615e-05 0 0.049922602351250518 0.0030338144017157558 0 0.050302271956040596 0.0036367101338727024 0 0.050283504525615218 0.0039312581960532318 0 0.051340935680226178 0.0022929365130068182 0 0.053409493814007704 0.0010548025887008477 0 0.051340935680226178 0.0022929365130068182 0 0.05012549734401972 0.0035495464209976259 0 0.054706468008701714 4.5225927150311896e-05 0 0.053156887169586532 0.0016471308933955727 0 0.053409493814007704 0.0010548025887008477 0 0.053156887169586532 0.0016471308933955727 0 0.05061521364512981 0.0030777428859342158 0 0.049790291702582083 0.0030079148703007477 0 0.050302271956040596 0.0036367101338727024 0 0.05061521364512981 0.0030777428859342158 0 0.050302271956040596 0.0036367101338727024 0 0.051192206338484626 0.0034586382947406173 0 0.050302271956040596 0.0036367101338727024 0 0.050283504525615218 0.0039312581960532318 0 0.051192206338484626 0.0034586382947406173 0 0.054061885446455425 0.00053023718614053324 0 0.054223823349454733 0.00089898625592255176 0 0.053146688047709195 0.0015258829227440397 0 0.055019775163028022 5.0031208285799848e-06 0 0.055000220870743681 3.7141025131350034e-08 0 0.055000770725149563 2.9630904642691882e-05 0 0.054999275963049127 1.1541772309493378e-07 0 0.054999998803792312 1.6604793453244473e-10 0 0.054999999590074802 -1.1117964856955423e-10 0 0.054991979820943476 4.5013071194506585e-06 0 0.05499215241494379 9.856535504328645e-06 0 0.054999958558496945 1.6040104529026908e-08 0 0.054706468008701714 4.5225927150311896e-05 0 0.054999635917962225 1.3842013896764053e-07 0 0.054706468008701714 4.5225927150311896e-05 0 0.05499984425924135 -1.0549580288199082e-07 0 0.054706468008701714 4.5225927150311896e-05 0 0.053409493814007704 0.0010548025887008477 0 0.05499959887011812 5.1054693616828451e-08 0 0.054885003067520553 7.7083666601854804e-05 0 0.054823190157186452 5.8663609668567615e-05 0 0.055002415699592182 -1.4817059476777666e-06 0 0.053409493814007704 0.0010548025887008477 0 0.05500001983137421 -6.285983545148626e-09 0 0.05499215241494379 9.856535504328645e-06 0 0.054999958558496945 1.6040104529026908e-08 0 0.054802156264892835 0.00049785987742037563 0 0.053156887169586532 0.0016471308933955727 0 0.054790916942506852 0.00050833511005069138 0 0.054824379250069361 0.00028751465279035492 0 0.055034722392332029 0.00016534450505090932 0 0.054904777395675126 0.00013749277500517399 0 0.054972080093204076 5.7812306672686453e-05 0 0.054896136612182268 1.7458407639884589e-06 0 0.054904777395675126 0.00013749277500517399 0 0.054727397516930787 0.00019394768980499538 0 0.054896136612182268 1.7458407639884589e-06 0 0.054727397516930787 0.00019394768980499538 0 0.054896136612182268 1.7458407639884589e-06 0 0.054501952937995701 0.00017858979916312879 0 0.054727397516930787 0.00019394768980499538 0 0.054824379250069361 0.00028751465279035492 0 0.054538854775191846 0.0003974143532394472 0 0.054904777395675126 0.00013749277500517399 0 0.054824379250069361 0.00028751465279035492 0 0.055034722392332029 0.00016534450505090932 0 0.054904777395675126 0.00013749277500517399 0 0.054727397516930787 0.00019394768980499538 0 0.054824379250069361 0.00028751465279035492 0 0.055034722392332029 0.00016534450505090932 0 0.054972080093204076 5.7812306672686453e-05 0 0.055000770725149563 2.9630904642691882e-05 0 0.054904777395675126 0.00013749277500517399 0 0.055034722392332029 0.00016534450505090932 0 0.054972080093204076 5.7812306672686453e-05 0 0.055000220870743681 3.7141025131350034e-08 0 0.055000770725149563 2.9630904642691882e-05 0 0.054999722262373006 -2.8211722932775233e-08 0 0.055019775163028022 5.0031208285799848e-06 0 0.055034722392332029 0.00016534450505090932 0 0.055000770725149563 2.9630904642691882e-05 0 0.054972080093204076 5.7812306672686453e-05 0 0.055000770725149563 2.9630904642691882e-05 0 0.054999722262373006 -2.8211722932775233e-08 0 0.054972080093204076 5.7812306672686453e-05 0 0.054999722262373006 -2.8211722932775233e-08 0 0.054896136612182268 1.7458407639884589e-06 0 0.054999722262373006 -2.8211722932775233e-08 0 0.054896136612182268 1.7458407639884589e-06 0 0.054972284693106721 4.1839347505648921e-06 0 0.054896136612182268 1.7458407639884589e-06 0 0.054381885725169117 -2.6416442439094326e-05 0 0.054356070754594435 -7.4567639158098131e-05 0 0.054999722262373006 -2.8211722932775233e-08 0 0.054972284693106721 4.1839347505648921e-06 0 0.055000051421277812 1.1835334905663956e-08 0 0.054896136612182268 1.7458407639884589e-06 0 0.054972284693106721 4.1839347505648921e-06 0 0.055008079031775278 -6.2792779889757595e-06 0 0.054885526014837586 1.8591094543856447e-06 0 0.054696824878969812 -4.0924860436655109e-05 0 0.054972284693106721 4.1839347505648921e-06 0 0.055000051421277812 1.1835334905663956e-08 0 0.055008079031775278 -6.2792779889757595e-06 0 0.054896136612182268 1.7458407639884589e-06 0 0.054501952937995701 0.00017858979916312879 0 0.054381885725169117 -2.6416442439094326e-05 0 0.054501952937995701 0.00017858979916312879 0 0.054381885725169117 -2.6416442439094326e-05 0 0.054115826169344926 0.00027008200059062753 0 0.054501952937995701 0.00017858979916312879 0 0.054115826169344926 0.00027008200059062753 0 0.054226151708296678 0.00044451686511765085 0 0.054727397516930787 0.00019394768980499538 0 0.054501952937995701 0.00017858979916312879 0 0.054538854775191846 0.0003974143532394472 0 0.054501952937995701 0.00017858979916312879 0 0.054538854775191846 0.0003974143532394472 0 0.054226151708296678 0.00044451686511765085 0 0.054115826169344926 0.00027008200059062753 0 0.053567685300784484 0.00020044433348594351 0 0.053867525621843056 0.0005571330458383441 0 0.054381885725169117 -2.6416442439094326e-05 0 0.054115826169344926 0.00027008200059062753 0 0.053567685300784484 0.00020044433348594351 0 0.054372784030459587 -4.6393924287231815e-05 0 0.054098484497222821 -9.9704290354894146e-05 0 0.054115826169344926 0.00027008200059062753 0 0.054226151708296678 0.00044451686511765085 0 0.053867525621843056 0.0005571330458383441 0 0.054381885725169117 -2.6416442439094326e-05 0 0.054356070754594435 -7.4567639158098131e-05 0 0.054665768322843686 -0.00032866419437781234 0 0.055000051421277812 1.1835334905663956e-08 0 0.055008079031775278 -6.2792779889757595e-06 0 0.054999978424270013 -6.2648240805999283e-09 0 0.054356070754594435 -7.4567639158098131e-05 0 0.05472865396250793 -0.00013413858728973755 0 0.054665768322843686 -0.00032866419437781234 0 0.054696824878969812 -4.0924860436655109e-05 0 0.054999895805842629 -9.6760844877196937e-09 0 0.054356070754594435 -7.4567639158098131e-05 0 0.054999437706923802 8.2947147460991605e-08 0 0.05472865396250793 -0.00013413858728973755 0 0.054999437706923802 8.2947147460991605e-08 0 0.054887955995713167 -0.00012814690346620613 0 0.05472865396250793 -0.00013413858728973755 0 0.054999437706923802 8.2947147460991605e-08 0 0.054887955995713167 -0.00012814690346620613 0 0.05500039681436663 6.5413524376219586e-10 0 0.054887955995713167 -0.00012814690346620613 0 0.05472865396250793 -0.00013413858728973755 0 0.054665768322843686 -0.00032866419437781234 0 0.055000063013921442 2.7241020536224777e-08 0 0.055019024216301435 3.1618562127001083e-05 0 0.055000010708990174 1.7768567036064803e-08 0 0.054999987794768009 7.5884813141342605e-08 0 0.055016434439203649 -0.00022859396057539312 0 0.054887955995713167 -0.00012814690346620613 0 0.05500039681436663 6.5413524376219586e-10 0 0.055017009809317709 -0.00020376076040477131 0 0.055019024216301435 3.1618562127001083e-05 0 0.05502203431606538 6.4570683713925198e-05 0 0.055007741032340983 5.6172996697793401e-05 0 0.055016434439203649 -0.00022859396057539312 0 0.054382473716400238 0.00068630069994533274 0 0.054887955995713167 -0.00012814690346620613 0 0.055017009809317709 -0.00020376076040477131 0 0.054665768322843686 -0.00032866419437781234 0 0.054382473716400238 0.00068630069994533274 0 0.054098484497222821 -9.9704290354894146e-05 0 0.053034499977867307 0.0004357912797555109 0 0.053567685300784484 0.00020044433348594351 0 0.053401570108101599 0.00065676944547847851 0 0.055017009809317709 -0.00020376076040477131 0 0.055049618387872527 -0.00045909808949028217 0 0.054665768322843686 -0.00032866419437781234 0 0.053401570108101599 0.00065676944547847851 0 0.05347062975752416 0.001043517683550024 0 0.053727254192555626 0.00086366528031717378 0 0.053034499977867307 0.0004357912797555109 0 0.053401570108101599 0.00065676944547847851 0 0.052966873865101405 0.0010562323412482554 0 0.054382473716400238 0.00068630069994533274 0 0.053717765164267899 0.0017620701261212527 0 0.052966873865101405 0.0010562323412482554 0 0.05347062975752416 0.001043517683550024 0 0.053224807674219256 0.0013165821290484 0 0.053401570108101599 0.00065676944547847851 0 0.052966873865101405 0.0010562323412482554 0 0.05347062975752416 0.001043517683550024 0 0.05347062975752416 0.001043517683550024 0 0.053776473050491186 0.0011239847947239689 0 0.053529785904991918 0.0013021099697790137 0 0.05347062975752416 0.001043517683550024 0 0.053776473050491186 0.0011239847947239689 0 0.053727254192555626 0.00086366528031717378 0 0.053776473050491186 0.0011239847947239689 0 0.05413753785880137 0.00087383493337256661 0 0.053727254192555626 0.00086366528031717378 0 0.054282714625722407 0.00087258068486532046 0 0.054170869901249613 0.0010781309733874516 0 0.05413753785880137 0.00087383493337256661 0 0.053776473050491186 0.0011239847947239689 0 0.054170869901249613 0.0010781309733874516 0 0.053585149360503806 0.0014102486270734251 0 0.052077512735460831 0.0020964140684823261 0 0.052736134036623944 0.0021572003084554519 0 0.052669578536797809 0.0016942253339960012 0 0.053776473050491186 0.0011239847947239689 0 0.054170869901249613 0.0010781309733874516 0 0.05413753785880137 0.00087383493337256661 0 0.054802156264892835 0.00049785987742037563 0 0.054070396835311271 0.00092577859164547766 0 0.054790916942506852 0.00050833511005069138 0 0.05413753785880137 0.00087383493337256661 0 0.054538854775191846 0.0003974143532394472 0 0.05413753785880137 0.00087383493337256661 0 0.054538854775191846 0.0003974143532394472 0 0.054226151708296678 0.00044451686511765085 0 0.05413753785880137 0.00087383493337256661 0 0.054226151708296678 0.00044451686511765085 0 0.053867525621843056 0.0005571330458383441 0 0.053567685300784484 0.00020044433348594351 0 0.053401570108101599 0.00065676944547847851 0 0.053867525621843056 0.0005571330458383441 0 0.053401570108101599 0.00065676944547847851 0 0.053867525621843056 0.0005571330458383441 0 0.053727254192555626 0.00086366528031717378 0 0.05413753785880137 0.00087383493337256661 0 0.053867525621843056 0.0005571330458383441 0 0.053727254192555626 0.00086366528031717378 0 0.054944352302764073 0.00014624048368690448 0 0.054988329756815696 7.119256535588581e-05 0 0.054763899034954891 0.00019015119021260587 0 0.054944352302764073 0.00014624048368690448 0 0.054988329756815696 7.119256535588581e-05 0 0.05499640352421712 7.6649324248293597e-05 0 0.054988329756815696 7.119256535588581e-05 0 0.054999982205761321 6.6195151206692791e-08 0 0.055000039198278616 6.3092120126495614e-08 0 0.054988329756815696 7.119256535588581e-05 0 0.054999982205761321 6.6195151206692791e-08 0 0.05499640352421712 7.6649324248293597e-05 0 0.05499640352421712 7.6649324248293597e-05 0 0.055007741032340983 5.6172996697793401e-05 0 0.055004798756738423 9.8424466168684646e-05 0 0.05499640352421712 7.6649324248293597e-05 0 0.055000010708990174 1.7768567036064803e-08 0 0.055007741032340983 5.6172996697793401e-05 0 0.054999982205761321 6.6195151206692791e-08 0 0.05499640352421712 7.6649324248293597e-05 0 0.055000010708990174 1.7768567036064803e-08 0 0.055019024216301435 3.1618562127001083e-05 0 0.055000010708990174 1.7768567036064803e-08 0 0.055007741032340983 5.6172996697793401e-05 0 0.05502203431606538 6.4570683713925198e-05 0 0.055007741032340983 5.6172996697793401e-05 0 0.055004798756738423 9.8424466168684646e-05 0 0.054382473716400238 0.00068630069994533274 0 0.054386626890232867 0.0010390431853081203 0 0.054273327291678886 0.0019788892769510959 0 0.054196057430610872 0.0024171610715502637 0 0.053853194002981108 0.0021397519155510174 0 0.054196057430610872 0.0024171610715502637 0 0.053921579395666219 0.0025105013011221615 0 0.053853194002981108 0.0021397519155510174 0 0.053921579395666219 0.0025105013011221615 0 0.053671704651422118 0.0025319431961494409 0 0.053853194002981108 0.0021397519155510174 0 0.053671704651422118 0.0025319431961494409 0 0.053853194002981108 0.0021397519155510174 0 0.053470325499282809 0.0022862210916677846 0 0.054386626890232867 0.0010390431853081203 0 0.054783051388641993 0.0022343227323969972 0 0.05499640352421712 7.6649324248293597e-05 0 0.055004798756738423 9.8424466168684646e-05 0 0.054973085830821285 0.00015277749211456762 0 0.054944352302764073 0.00014624048368690448 0 0.05499640352421712 7.6649324248293597e-05 0 0.054973085830821285 0.00015277749211456762 0 0.055702943958323155 0.0041077787114139584 0 0.055111527438394356 0.0032813236382362942 0 0.054878833460406701 0.0041315109977593618 0 0.054544419003848432 0.0032507853277748654 0 0.054783051388641993 0.0022343227323969972 0 0.055111527438394356 0.0032813236382362942 0 0.054556342867334871 0.0033448064741839712 0 0.054878833460406701 0.0041315109977593618 0 0.054783051388641993 0.0022343227323969972 0 0.05479399685296199 0.0032879927025584676 0 0.054556342867334871 0.0033448064741839712 0 0.054125223051939328 0.0041653781254374486 0 0.054878833460406701 0.0041315109977593618 0 0.055008072451018124 0.00072215782528233582 0 0.054783051388641993 0.0022343227323969972 0 0.054961430992732846 0.0015265133777412605 0 0.055926931470655521 0.0029100838412083651 0 0.054556342867334871 0.0033448064741839712 0 0.054159699322779205 0.0049857053173627671 0 0.055299367391265286 0.0053821587759310691 0 0.054316679624011606 0.0065314292304734034 0 0.054159699322779205 0.0049857053173627671 0 0.054316679624011606 0.0065314292304734034 0 0.053341785108618381 0.0055838935237944812 0 0.054159699322779205 0.0049857053173627671 0 0.054125223051939328 0.0041653781254374486 0 0.054878833460406701 0.0041315109977593618 0 0.055702943958323155 0.0041077787114139584 0 0.054878833460406701 0.0041315109977593618 0 0.055299367391265286 0.0053821587759310691 0 0.054159699322779205 0.0049857053173627671 0 0.054878833460406701 0.0041315109977593618 0 0.055299367391265286 0.0053821587759310691 0 0.055299367391265286 0.0053821587759310691 0 0.056257844602485327 0.0050038255258308927 0 0.055906533598133773 0.0059311255623825014 0 0.053921579395666219 0.0025105013011221615 0 0.053671704651422118 0.0025319431961494409 0 0.053870426540126255 0.0027880850624180096 0 0.055702943958323155 0.0041077787114139584 0 0.055299367391265286 0.0053821587759310691 0 0.056257844602485327 0.0050038255258308927 0 0.054544419003848432 0.0032507853277748654 0 0.055803492709513305 0.0043115035083489796 0 0.054196057430610872 0.0024171610715502637 0 0.053921579395666219 0.0025105013011221615 0 0.054028256470287958 0.002682959613539065 0 0.053921579395666219 0.0025105013011221615 0 0.053870426540126255 0.0027880850624180096 0 0.054028256470287958 0.002682959613539065 0 0.054028256470287958 0.002682959613539065 0 0.05406372588090623 0.0028483468763970863 0 0.054094611110107445 0.0028447009709074299 0 0.053870426540126255 0.0027880850624180096 0 0.054028256470287958 0.002682959613539065 0 0.05406372588090623 0.0028483468763970863 0 0.056257844602485327 0.0050038255258308927 0 0.056334658039780189 0.0059755454356721811 0 0.055906533598133773 0.0059311255623825014 0 0.05406372588090623 0.0028483468763970863 0 0.054038277704454865 0.0030369564176084443 0 0.054089007048680957 0.0028456816279456261 0 0.056257844602485327 0.0050038255258308927 0 0.056737948882559619 0.0057499329754105372 0 0.056334658039780189 0.0059755454356721811 0 0.053870426540126255 0.0027880850624180096 0 0.05406372588090623 0.0028483468763970863 0 0.054038277704454865 0.0030369564176084443 0 0.051820075617586343 0.0025256734924779425 0 0.051523701599431156 0.0025382588688312867 0 0.055803492709513305 0.0043115035083489796 0 0.048943548253034458 0.0045655836054045214 0 0.048943548253034458 0.0045655836054045214 0 0.051523701599431156 0.0025382588688312867 0 0.056737948882559619 0.0057499329754105372 0 0.056334658039780189 0.0059755454356721811 0 0.056576068578361186 0.0064394294747276591 0 0.040114726614919993 0.0066796748921728244 0 0.040085729514117943 0.0055073237987660313 0 0.040407431624252893 0.004697427232033923 0 0.048943548253034458 0.0045655836054045214 0 0.048335042141784315 0.0059020124940835066 0 0.056334658039780189 0.0059755454356721811 0 0.05612859053693367 0.0064715908853629602 0 0.055906533598133773 0.0059311255623825014 0 0.056334658039780189 0.0059755454356721811 0 0.05612859053693367 0.0064715908853629602 0 0.056576068578361186 0.0064394294747276591 0 0.040085729514117943 0.0055073237987660313 0 0.040407431624252893 0.004697427232033923 0 0.039617258707639574 0.0022899289062700179 0 0.048335042141784315 0.0059020124940835066 0 0.045500752278410432 0.0036976401076156879 0 0.040407431624252893 0.004697427232033923 0 0.040752697760801988 0.0027682603050066465 0 0.039617258707639574 0.0022899289062700179 0 0.05612859053693367 0.0064715908853629602 0 0.056576068578361186 0.0064394294747276591 0 0.056415186321123682 0.0070371476168032002 0 0.05612859053693367 0.0064715908853629602 0 0.056415186321123682 0.0070371476168032002 0 0.055487949166422156 0.006761662791969561 0 0.045500752278410432 0.0036976401076156879 0 0.050794250918437978 0.0062626399627646063 0 0.041235865598720001 0.0037985640929780601 0 0.044629854044240282 0.0050846662237828254 0 0.043080087039179364 0.0021026920520728766 0 0.055299367391265286 0.0053821587759310691 0 0.055487949166422156 0.006761662791969561 0 0.055906533598133773 0.0059311255623825014 0 0.05612859053693367 0.0064715908853629602 0 0.055487949166422156 0.006761662791969561 0 0.055906533598133773 0.0059311255623825014 0 0.050794250918437978 0.0062626399627646063 0 0.051095819026607411 0.0061862121946120226 0 0.055299367391265286 0.0053821587759310691 0 0.055487949166422156 0.006761662791969561 0 0.054316679624011606 0.0065314292304734034 0 0.044629854044240282 0.0050846662237828254 0 0.047476378998020131 0.003570863508134685 0 0.048332239834605648 0.0061284692703256205 0 0.047476378998020131 0.003570863508134685 0 0.048332239834605648 0.0061284692703256205 0 0.050721945771807643 0.0049954012313700499 0 0.045943362028125816 0.0031376692621010566 0 0.045857213809779515 0.0018480153933970712 0 0.044715050429417161 0.0019858882170806277 0 0.044117829716960474 0.0033123646379014586 0 0.045943362028125816 0.0031376692621010566 0 0.044715050429417161 0.0019858882170806277 0 0.043299219796382404 0.0026584804293267026 0 0.0438485509268089 0.0022226777715647103 0 0.044117829716960474 0.0033123646379014586 0 0.0438485509268089 0.0022226777715647103 0 0.044117829716960474 0.0033123646379014586 0 0.044715050429417161 0.0019858882170806277 0 0.047403108071135819 0.0016403239862773024 0 0.050256166838631475 0.0014945560856191092 0 0.052857080400671448 0.0011042411641633825 0 0.052669578536797809 0.0016942253339960012 0 0.053360219361432974 0.0015441826891319443 0 0.053501053861192839 0.0013686748919433923 0 0.053360219361432974 0.0015441826891319443 0 0.053585149360503806 0.0014102486270734251 0 0.050256166838631475 0.0014945560856191092 0 0.052965802842493657 0.0022047809494298511 0 0.052180577288690591 0.0015624156472934271 0 0.052857080400671448 0.0011042411641633825 0 0.052669578536797809 0.0016942253339960012 0 0.052736134036623944 0.0021572003084554519 0 0.053360219361432974 0.0015441826891319443 0 0.053585149360503806 0.0014102486270734251 0 0.052736134036623944 0.0021572003084554519 0 0.052669578536797809 0.0016942253339960012 0 0.053360219361432974 0.0015441826891319443 0 0.053463049383046517 0.0015769411962616665 0 0.053590831906072056 0.001424185179515551 0 0.053501053861192839 0.0013686748919433923 0 0.053585149360503806 0.0014102486270734251 0 0.053512012296246393 0.0014990429242965335 0 0.050256166838631475 0.0014945560856191092 0 0.049149177768464385 0.0024177489947936151 0 0.053585149360503806 0.0014102486270734251 0 0.053529785904991918 0.0013021099697790137 0 0.053512012296246393 0.0014990429242965335 0 0.053776473050491186 0.0011239847947239689 0 0.053585149360503806 0.0014102486270734251 0 0.053529785904991918 0.0013021099697790137 0 0.05347062975752416 0.001043517683550024 0 0.053529785904991918 0.0013021099697790137 0 0.053224807674219256 0.0013165821290484 0 0.053529785904991918 0.0013021099697790137 0 0.053224807674219256 0.0013165821290484 0 0.053512012296246393 0.0014990429242965335 0 0.053717765164267899 0.0017620701261212527 0 0.051523701599431156 0.0025382588688312867 0 0.052966873865101405 0.0010562323412482554 0 0.053224807674219256 0.0013165821290484 0 0.052868236805962171 0.001638926729476224 0 0.054196057430610872 0.0024171610715502637 0 0.054028256470287958 0.002682959613539065 0 0.054094611110107445 0.0028447009709074299 0 0.053224807674219256 0.0013165821290484 0 0.052868236805962171 0.001638926729476224 0 0.053512012296246393 0.0014990429242965335 0 0.04792722863510631 0.0021523061994790662 0 0.046817018973444161 0.0022548278492102035 0 0.047811040593118963 0.0029668290592676522 0 0.046817018973444161 0.0022548278492102035 0 0.047811040593118963 0.0029668290592676522 0 0.045943362028125816 0.0031376692621010566 0 0.051523701599431156 0.0025382588688312867 0 0.049149177768464385 0.0024177489947936151 0 0.046817018973444161 0.0022548278492102035 0 0.045943362028125816 0.0031376692621010566 0 0.045857213809779515 0.0018480153933970712 0 0.045857213809779515 0.0018480153933970712 0 0.046697682946478122 0.00083136412834409362 0 0.045305229790786404 0.00088578329228226026 0 0.046817018973444161 0.0022548278492102035 0 0.045857213809779515 0.0018480153933970712 0 0.046697682946478122 0.00083136412834409362 0 0.040114726614919993 0.0066796748921728244 0 0.040085729514117943 0.0055073237987660313 0 0.037748854660619217 0.0042004846103507873 0 0.048943548253034458 0.0045655836054045214 0 0.041432675510318512 0.0022211178940914119 0 0.04792722863510631 0.0021523061994790662 0 0.046817018973444161 0.0022548278492102035 0 0.046697682946478122 0.00083136412834409362 0 0.040085729514117943 0.0055073237987660313 0 0.038076075597194899 0.0027500451332708293 0 0.037748854660619217 0.0042004846103507873 0 0.040085729514117943 0.0055073237987660313 0 0.038076075597194899 0.0027500451332708293 0 0.039321133241835407 0.0022461581714842966 0 0.040018916522127509 0.0052431143623191054 0 0.03955337794664026 0.0025352683790900643 0 0.041432675510318512 0.0022211178940914119 0 0.040732053427656463 0.0007696680109027964 0 0.046697682946478122 0.00083136412834409362 0 0.045305229790786404 0.00088578329228226026 0 0.045484077452035442 -0.00047545298302268513 0 0.038076075597194899 0.0027500451332708293 0 0.037748854660619217 0.0042004846103507873 0 0.035661462630684683 0.0017951350443761434 0 0.044620147766224659 9.1566227173977963e-05 0 0.045305229790786404 0.00088578329228226026 0 0.045484077452035442 -0.00047545298302268513 0 0.044620147766224659 9.1566227173977963e-05 0 0.045305229790786404 0.00088578329228226026 0 0.044360603173630213 0.00082149981186594009 0 0.045857213809779515 0.0018480153933970712 0 0.045305229790786404 0.00088578329228226026 0 0.044715050429417161 0.0019858882170806277 0 0.045305229790786404 0.00088578329228226026 0 0.044715050429417161 0.0019858882170806277 0 0.044360603173630213 0.00082149981186594009 0 0.044715050429417161 0.0019858882170806277 0 0.043788279782235907 0.0013380871437746243 0 0.044360603173630213 0.00082149981186594009 0 0.04332215000323484 0.0018169199105692862 0 0.0438485509268089 0.0022226777715647103 0 0.043788279782235907 0.0013380871437746243 0 0.0438485509268089 0.0022226777715647103 0 0.044715050429417161 0.0019858882170806277 0 0.043788279782235907 0.0013380871437746243 0 0.043788279782235907 0.0013380871437746243 0 0.043579737318623156 0.00056993113904434914 0 0.044360603173630213 0.00082149981186594009 0 0.044620147766224659 9.1566227173977963e-05 0 0.044360603173630213 0.00082149981186594009 0 0.043866464493479571 -1.8369128277936362e-05 0 0.043207519429948861 2.0713458012177053e-05 0 0.043579737318623156 0.00056993113904434914 0 0.043866464493479571 -1.8369128277936362e-05 0 0.043579737318623156 0.00056993113904434914 0 0.044360603173630213 0.00082149981186594009 0 0.043866464493479571 -1.8369128277936362e-05 0 0.04330384981979226 -0.00047912157568933691 0 0.043866464493479571 -1.8369128277936362e-05 0 0.044084937368804367 -0.00075925441034881407 0 0.044620147766224659 9.1566227173977963e-05 0 0.043866464493479571 -1.8369128277936362e-05 0 0.044084937368804367 -0.00075925441034881407 0 0.044620147766224659 9.1566227173977963e-05 0 0.044084937368804367 -0.00075925441034881407 0 0.045484077452035442 -0.00047545298302268513 0 0.044084937368804367 -0.00075925441034881407 0 0.045484077452035442 -0.00047545298302268513 0 0.044268286713654577 -0.0017895042734893348 0 0.035661462630684683 0.0017951350443761434 0 0.03376203235543674 -0.00039554189280464826 0 0.036735017150875411 -0.00092798836804687372 0 0.040732053427656463 0.0007696680109027964 0 0.038930801096499823 -0.0011599976650660145 0 0.042855707910288865 -0.0014738426684128365 0 0.044084937368804367 -0.00075925441034881407 0 0.044268286713654577 -0.0017895042734893348 0 0.031974899122917767 -0.0024748993311363553 0 0.03376203235543674 -0.00039554189280464826 0 0.03334977112744645 -0.0026912815005851985 0 0.03376203235543674 -0.00039554189280464826 0 0.03334977112744645 -0.0026912815005851985 0 0.035038092119761513 -0.0027097291202274549 0 0.037826136161829456 -0.0026032268553746007 0 0.038930801096499823 -0.0011599976650660145 0 0.03376203235543674 -0.00039554189280464826 0 0.035038092119761513 -0.0027097291202274549 0 0.036735017150875411 -0.00092798836804687372 0 0.03508767720262676 -0.0046287974826826565 0 0.035622158408400433 -0.0047553875178965926 0 0.035038092119761513 -0.0027097291202274549 0 0.033920174637693298 -0.0039989185296655698 0 0.035683527377425833 -0.0047610669338440026 0 0.032095496614480898 -0.0032930595233513489 0 0.03334977112744645 -0.0026912815005851985 0 0.033920174637693298 -0.0039989185296655698 0 0.034680293459316766 -0.002883533238881002 0 0.03508767720262676 -0.0046287974826826565 0 0.03334977112744645 -0.0026912815005851985 0 0.035038092119761513 -0.0027097291202274549 0 0.033920174637693298 -0.0039989185296655698 0 0.036644924817545249 -0.0034042629610230497 0 0.038128516459668346 -0.0022954951613981082 0 0.037633121548987652 -0.0043436265861383277 0 0.03848351195884276 -0.0019060537598564469 0 0.039891061781395655 -0.003306618763857897 0 0.037633121548987652 -0.0043436265861383277 0 0.038275235374762392 -0.002152142463061031 0 0.037744030256621444 -0.0041690886575442556 0 0.039891061781395655 -0.003306618763857897 0 0.037633121548987652 -0.0043436265861383277 0 0.039156297933559292 -0.0046603591101098147 0 0.036644924817545249 -0.0034042629610230497 0 0.036571022039521416 -0.0048436617601268547 0 0.037633121548987652 -0.0043436265861383277 0 0.035038092119761513 -0.0027097291202274549 0 0.036644924817545249 -0.0034042629610230497 0 0.035683527377425833 -0.0047610669338440026 0 0.036644924817545249 -0.0034042629610230497 0 0.035683527377425833 -0.0047610669338440026 0 0.036571022039521416 -0.0048436617601268547 0 0.035038092119761513 -0.0027097291202274549 0 0.036644924817545249 -0.0034042629610230497 0 0.036735017150875411 -0.00092798836804687372 0 0.036644924817545249 -0.0034042629610230497 0 0.038128516459668346 -0.0022954951613981082 0 0.036735017150875411 -0.00092798836804687372 0 0.03848351195884276 -0.0019060537598564469 0 0.039056274267963084 0.000761982920376293 0 0.04026530681178199 -0.0013959050606106775 0 0.038128516459668346 -0.0022954951613981082 0 0.0386844729039574 -7.7402156699458072e-05 0 0.036735017150875411 -0.00092798836804687372 0 0.038275235374762392 -0.002152142463061031 0 0.03886993212602901 0.00043899408363647498 0 0.03848351195884276 -0.0019060537598564469 0 0.04026530681178199 -0.0013959050606106775 0 0.039891061781395655 -0.003306618763857897 0 0.0386844729039574 -7.7402156699458072e-05 0 0.036735017150875411 -0.00092798836804687372 0 0.03762664919181808 0.0010883631774096338 0 0.035661462630684683 0.0017951350443761434 0 0.036735017150875411 -0.00092798836804687372 0 0.03762664919181808 0.0010883631774096338 0 0.038076075597194899 0.0027500451332708293 0 0.035661462630684683 0.0017951350443761434 0 0.03762664919181808 0.0010883631774096338 0 0.0386844729039574 -7.7402156699458072e-05 0 0.038739331379050931 0.0020332254114639476 0 0.039244918601005319 0.0022394842642982373 0 0.0386844729039574 -7.7402156699458072e-05 0 0.03762664919181808 0.0010883631774096338 0 0.038739331379050931 0.0020332254114639476 0 0.03886993212602901 0.00043899408363647498 0 0.03955337794664026 0.0025352683790900643 0 0.038076075597194899 0.0027500451332708293 0 0.03762664919181808 0.0010883631774096338 0 0.038739331379050931 0.0020332254114639476 0 0.038076075597194899 0.0027500451332708293 0 0.038739331379050931 0.0020332254114639476 0 0.039321133241835407 0.0022461581714842966 0 0.039190531379502937 0.002352655307961807 0 0.03955337794664026 0.0025352683790900643 0 0.045500752278410432 0.0036976401076156879 0 0.040263508695490696 0.00037389975718069392 0 0.040893678305977343 0.0041854057571012607 0 0.039570392832577926 0.0036410808881691577 0 0.041522814097182198 -1.3581456172518943e-05 0 0.045500752278410432 0.0036976401076156879 0 0.03955337794664026 0.0025352683790900643 0 0.041235865598720001 0.0037985640929780601 0 0.043080087039179364 0.0021026920520728766 0 0.041522814097182198 -1.3581456172518943e-05 0 0.044629854044240282 0.0050846662237828254 0 0.043080087039179364 0.0021026920520728766 0 0.045636294158243253 0.0012331869833258162 0 0.043080087039179364 0.0021026920520728766 0 0.043517799607908407 1.8754488136026521e-05 0 0.041522814097182198 -1.3581456172518943e-05 0 0.043080087039179364 0.0021026920520728766 0 0.043517799607908407 1.8754488136026521e-05 0 0.045636294158243253 0.0012331869833258162 0 0.039056274267963084 0.000761982920376293 0 0.039570392832577926 0.0036410808881691577 0 0.041522814097182198 -1.3581456172518943e-05 0 0.039056274267963084 0.000761982920376293 0 0.041522814097182198 -1.3581456172518943e-05 0 0.04026530681178199 -0.0013959050606106775 0 0.047476378998020131 0.003570863508134685 0 0.048004171329238364 0.00058604277192383751 0 0.04991521680254301 0.0029826480436964454 0 0.047476378998020131 0.003570863508134685 0 0.045636294158243253 0.0012331869833258162 0 0.048004171329238364 0.00058604277192383751 0 0.044629854044240282 0.0050846662237828254 0 0.047476378998020131 0.003570863508134685 0 0.045636294158243253 0.0012331869833258162 0 0.043517799607908407 1.8754488136026521e-05 0 0.045636294158243253 0.0012331869833258162 0 0.044968718391666905 -0.0014830565300663577 0 0.045636294158243253 0.0012331869833258162 0 0.048004171329238364 0.00058604277192383751 0 0.044968718391666905 -0.0014830565300663577 0 0.048004171329238364 0.00058604277192383751 0 0.047667139924595335 -0.002140538578981064 0 0.050268262391577258 -0.00071964698586113914 0 0.048004171329238364 0.00058604277192383751 0 0.047667139924595335 -0.002140538578981064 0 0.044968718391666905 -0.0014830565300663577 0 0.047667139924595335 -0.002140538578981064 0 0.044968718391666905 -0.0014830565300663577 0 0.046054529717861732 -0.0030832873883109182 0 0.044968718391666905 -0.0014830565300663577 0 0.046054529717861732 -0.0030832873883109182 0 0.044068306780860107 -0.0034809128533026591 0 0.046054529717861732 -0.0030832873883109182 0 0.044068306780860107 -0.0034809128533026591 0 0.045643089590097947 -0.0049120557489717876 0 0.037627728736392599 -0.0027937466217485677 0 0.040363486469261675 -0.0023727640460231444 0 0.047667139924595335 -0.002140538578981064 0 0.046054529717861732 -0.0030832873883109182 0 0.048409866873500983 -0.0039160029446887925 0 0.046054529717861732 -0.0030832873883109182 0 0.045643089590097947 -0.0049120557489717876 0 0.048409866873500983 -0.0039160029446887925 0 0.041522814097182198 -1.3581456172518943e-05 0 0.041969945678043998 -0.0021137701828265842 0 0.04026530681178199 -0.0013959050606106775 0 0.041969945678043998 -0.0021137701828265842 0 0.04026530681178199 -0.0013959050606106775 0 0.039891061781395655 -0.003306618763857897 0 0.043517799607908407 1.8754488136026521e-05 0 0.041522814097182198 -1.3581456172518943e-05 0 0.041969945678043998 -0.0021137701828265842 0 0.043517799607908407 1.8754488136026521e-05 0 0.044968718391666905 -0.0014830565300663577 0 0.041969945678043998 -0.0021137701828265842 0 0.044968718391666905 -0.0014830565300663577 0 0.041969945678043998 -0.0021137701828265842 0 0.044068306780860107 -0.0034809128533026591 0 0.043393127243312256 -0.0029512980684285139 0 0.035949574577015003 -0.0041944931366609747 0 0.041969945678043998 -0.0021137701828265842 0 0.044068306780860107 -0.0034809128533026591 0 0.042305848456422671 -0.0057855225004798871 0 0.041969945678043998 -0.0021137701828265842 0 0.039891061781395655 -0.003306618763857897 0 0.041845875322783402 -0.0054265237035460703 0 0.039891061781395655 -0.003306618763857897 0 0.041845875322783402 -0.0054265237035460703 0 0.039156297933559292 -0.0046603591101098147 0 0.035949574577015003 -0.0041944931366609747 0 0.034928211652183461 -0.0057197128286738353 0 0.02959598699409521 -0.0054025160886325254 0 0.030455952409688049 -0.0042241241735946396 0 0.031202441353096421 -0.005412758041357023 0 0.041845875322783402 -0.0054265237035460703 0 0.039156297933559292 -0.0046603591101098147 0 0.038592614912768691 -0.0059539927322863955 0 0.029443146545316941 -0.0010805306536611731 0 0.02996566287652765 -0.00085768265455053142 0 0.029754136265274417 -0.0013548004246257048 0 0.035949574577015003 -0.0041944931366609747 0 0.037627728736392599 -0.0027937466217485677 0 0.044068306780860107 -0.0034809128533026591 0 0.042305848456422671 -0.0057855225004798871 0 0.045643089590097947 -0.0049120557489717876 0 0.029443146545316941 -0.0010805306536611731 0 0.029754136265274417 -0.0013548004246257048 0 0.029488925837654389 -0.0017707978754407504 0 0.035949574577015003 -0.0041944931366609747 0 0.028665896199243777 -0.0023476330139770652 0 0.029754136265274417 -0.0013548004246257048 0 0.029905896567348936 -0.0016706492711432907 0 0.029488925837654389 -0.0017707978754407504 0 0.02959598699409521 -0.0054025160886325254 0 0.030455952409688049 -0.0042241241735946396 0 0.02966945114080306 -0.0034524263207789557 0 0.02996566287652765 -0.00085768265455053142 0 0.03017350001747458 -0.0012713546716468908 0 0.03064653588178648 -0.00048347389129391969 0 0.03017350001747458 -0.0012713546716468908 0 0.030572441469142168 -0.0011780448194597343 0 0.03064653588178648 -0.00048347389129391969 0 0.02996566287652765 -0.00085768265455053142 0 0.029754136265274417 -0.0013548004246257048 0 0.03017350001747458 -0.0012713546716468908 0 0.029754136265274417 -0.0013548004246257048 0 0.03017350001747458 -0.0012713546716468908 0 0.029905896567348936 -0.0016706492711432907 0 0.03017350001747458 -0.0012713546716468908 0 0.030170655505990206 -0.0016356403057739201 0 0.029905896567348936 -0.0016706492711432907 0 0.03017350001747458 -0.0012713546716468908 0 0.030170655505990206 -0.0016356403057739201 0 0.030380869563501157 -0.0015359157844670405 0 0.03017350001747458 -0.0012713546716468908 0 0.030380869563501157 -0.0015359157844670405 0 0.030572441469142168 -0.0011780448194597343 0 0.030305776785420704 -0.0018380783435694207 0 0.030046520119516817 -0.0019018504823053314 0 0.030154924163468193 -0.0020730674995901224 0 0.030170655505990206 -0.0016356403057739201 0 0.030380869563501157 -0.0015359157844670405 0 0.030305776785420704 -0.0018380783435694207 0 0.030170655505990206 -0.0016356403057739201 0 0.030046520119516817 -0.0019018504823053314 0 0.029905896567348936 -0.0016706492711432907 0 0.030170655505990206 -0.0016356403057739201 0 0.030305776785420704 -0.0018380783435694207 0 0.030046520119516817 -0.0019018504823053314 0 0.030046520119516817 -0.0019018504823053314 0 0.029905896567348936 -0.0016706492711432907 0 0.029818154954357561 -0.0019884325519264729 0 0.030046520119516817 -0.0019018504823053314 0 0.029818154954357561 -0.0019884325519264729 0 0.029880132347599567 -0.0021709872613116131 0 0.029818154954357561 -0.0019884325519264729 0 0.029880132347599567 -0.0021709872613116131 0 0.029733245658637684 -0.0023874648522167032 0 0.030046520119516817 -0.0019018504823053314 0 0.029880132347599567 -0.0021709872613116131 0 0.030154924163468193 -0.0020730674995901224 0 0.029880132347599567 -0.0021709872613116131 0 0.030154924163468193 -0.0020730674995901224 0 0.029918429687467621 -0.0021418414294478443 0 0.02966945114080306 -0.0034524263207789557 0 0.030303847400428366 -0.0026344145915557235 0 0.030635265041453575 -0.0033225950992169123 0 0.030455952409688049 -0.0042241241735946396 0 0.02966945114080306 -0.0034524263207789557 0 0.030635265041453575 -0.0033225950992169123 0 0.029905896567348936 -0.0016706492711432907 0 0.029818154954357561 -0.0019884325519264729 0 0.029488925837654389 -0.0017707978754407504 0 0.028665896199243777 -0.0023476330139770652 0 0.029961519523016813 -0.002521501222704853 0 0.029818154954357561 -0.0019884325519264729 0 0.029488925837654389 -0.0017707978754407504 0 0.029733245658637684 -0.0023874648522167032 0 0.02966945114080306 -0.0034524263207789557 0 0.030303847400428366 -0.0026344145915557235 0 0.029733245658637684 -0.0023874648522167032 0 0.030303847400428366 -0.0026344145915557235 0 0.030795612548305588 -0.0029632905919364247 0 0.030635265041453575 -0.0033225950992169123 0 0.030303847400428366 -0.0026344145915557235 0 0.030594337003080164 -0.0026885270197000866 0 0.030795612548305588 -0.0029632905919364247 0 0.030594337003080164 -0.0026885270197000866 0 0.030795612548305588 -0.0029632905919364247 0 0.03081588595232149 -0.0027453555483474626 0 0.030635265041453575 -0.0033225950992169123 0 0.031135421572378828 -0.0033223677391780409 0 0.031530796603432172 -0.0040164768549796146 0 0.030795612548305588 -0.0029632905919364247 0 0.030635265041453575 -0.0033225950992169123 0 0.031135421572378828 -0.0033223677391780409 0 0.031135421572378828 -0.0033223677391780409 0 0.031035941786995695 -0.0030392842899735575 0 0.031136704709620565 -0.0031583558020598992 0 0.031135421572378828 -0.0033223677391780409 0 0.031136704709620565 -0.0031583558020598992 0 0.031530796603432172 -0.0040164768549796146 0 0.030795612548305588 -0.0029632905919364247 0 0.031135421572378828 -0.0033223677391780409 0 0.031035941786995695 -0.0030392842899735575 0 0.030795612548305588 -0.0029632905919364247 0 0.031035941786995695 -0.0030392842899735575 0 0.03081588595232149 -0.0027453555483474626 0 0.031035941786995695 -0.0030392842899735575 0 0.03081588595232149 -0.0027453555483474626 0 0.03101131947599186 -0.0028227353884784879 0 0.03081588595232149 -0.0027453555483474626 0 0.03101131947599186 -0.0028227353884784879 0 0.0309217059951955 -0.0027077908544960619 0 0.03101131947599186 -0.0028227353884784879 0 0.031043889843730084 -0.0027440586581866399 0 0.030981417117840367 -0.0026767265507948493 0 0.03101131947599186 -0.0028227353884784879 0 0.031043889843730084 -0.0027440586581866399 0 0.031074723123213514 -0.0028227468130932881 0 0.031043889843730084 -0.0027440586581866399 0 0.031074723123213514 -0.0028227468130932881 0 0.031096682470211537 -0.0027414125439062837 0 0.031074723123213514 -0.0028227468130932881 0 0.031116162052050058 -0.002934211513291804 0 0.031075739544588494 -0.0029892965283296867 0 0.031074723123213514 -0.0028227468130932881 0 0.031116162052050058 -0.002934211513291804 0 0.031123236555163167 -0.002846310134019306 0 0.03101131947599186 -0.0028227353884784879 0 0.031074723123213514 -0.0028227468130932881 0 0.031075739544588494 -0.0029892965283296867 0 0.031035941786995695 -0.0030392842899735575 0 0.03101131947599186 -0.0028227353884784879 0 0.031075739544588494 -0.0029892965283296867 0 0.031159659431845687 -0.0026117218048101287 0 0.031214050521359112 -0.0026750549003307267 0 0.031132710013061851 -0.0026805129965466776 0 0.031214050521359112 -0.0026750549003307267 0 0.031132710013061851 -0.0026805129965466776 0 0.03114584991801457 -0.0027636682366556898 0 0.031132710013061851 -0.0026805129965466776 0 0.031096682470211537 -0.0027414125439062837 0 0.03114584991801457 -0.0027636682366556898 0 0.031074723123213514 -0.0028227468130932881 0 0.031096682470211537 -0.0027414125439062837 0 0.031123236555163167 -0.002846310134019306 0 0.031096682470211537 -0.0027414125439062837 0 0.031123236555163167 -0.002846310134019306 0 0.03114584991801457 -0.0027636682366556898 0 0.031132710013061851 -0.0026805129965466776 0 0.031096682470211537 -0.0027414125439062837 0 0.031057556006274446 -0.0026521604686607302 0 0.031043889843730084 -0.0027440586581866399 0 0.031096682470211537 -0.0027414125439062837 0 0.031057556006274446 -0.0026521604686607302 0 0.031116162052050058 -0.002934211513291804 0 0.031123236555163167 -0.002846310134019306 0 0.031166045494444596 -0.0028545722493319692 0 0.031123236555163167 -0.002846310134019306 0 0.03114959449300609 -0.0028266198770147571 0 0.031166045494444596 -0.0028545722493319692 0 0.031123236555163167 -0.002846310134019306 0 0.03114584991801457 -0.0027636682366556898 0 0.03114959449300609 -0.0028266198770147571 0 0.03114584991801457 -0.0027636682366556898 0 0.03114959449300609 -0.0028266198770147571 0 0.031166045494444596 -0.0028545722493319692 0 0.031214050521359112 -0.0026750549003307267 0 0.03114584991801457 -0.0027636682366556898 0 0.031166045494444596 -0.0028545722493319692 0 0.033327645328274355 -0.0031232077701645929 0 0.03420677441014916 -0.0034980554604469912 0 0.033327645328274355 -0.0031232077701645929 0 0.033392180363670212 -0.0032486823126730365 0 0.03668537581674676 -0.0031947233361153404 0 0.035610575209896529 -0.0033199305647294303 0 0.036271503427749895 -0.0039981883985410749 0 0.031116162052050058 -0.002934211513291804 0 0.031166045494444596 -0.0028545722493319692 0 0.031136704709620565 -0.0031583558020598992 0 0.031116162052050058 -0.002934211513291804 0 0.031075739544588494 -0.0029892965283296867 0 0.031136704709620565 -0.0031583558020598992 0 0.031035941786995695 -0.0030392842899735575 0 0.031075739544588494 -0.0029892965283296867 0 0.031136704709620565 -0.0031583558020598992 0 0.035610575209896529 -0.0033199305647294303 0 0.035844584030386061 -0.0043575754116471806 0 0.035258260093078364 -0.0052329026512485961 0 0.035610575209896529 -0.0033199305647294303 0 0.035844584030386061 -0.0043575754116471806 0 0.036271503427749895 -0.0039981883985410749 0 0.035844584030386061 -0.0043575754116471806 0 0.036271503427749895 -0.0039981883985410749 0 0.035948781496076936 -0.0047408659564323373 0 0.035844584030386061 -0.0043575754116471806 0 0.035948781496076936 -0.0047408659564323373 0 0.035258260093078364 -0.0052329026512485961 0 0.036722307057078983 -0.0044782380235999057 0 0.036271503427749895 -0.0039981883985410749 0 0.035948781496076936 -0.0047408659564323373 0 0.03668537581674676 -0.0031947233361153404 0 0.036722307057078983 -0.0044782380235999057 0 0.036271503427749895 -0.0039981883985410749 0 0.03672465702942658 -0.0053613164306904508 0 0.036140445325895068 -0.0051664667611377195 0 0.036722307057078983 -0.0044782380235999057 0 0.036140445325895068 -0.0051664667611377195 0 0.036722307057078983 -0.0044782380235999057 0 0.035948781496076936 -0.0047408659564323373 0 0.036140445325895068 -0.0051664667611377195 0 0.035948781496076936 -0.0047408659564323373 0 0.035683527377425833 -0.0047610669338440026 0 0.035948781496076936 -0.0047408659564323373 0 0.035683527377425833 -0.0047610669338440026 0 0.035258260093078364 -0.0052329026512485961 0 0.034928211652183461 -0.0057197128286738353 0 0.035393878175910262 -0.0052769526978969361 0 0.036571022039521416 -0.0048436617601268547 0 0.038592614912768691 -0.0059539927322863955 0 0.035258260093078364 -0.0052329026512485961 0 0.035683527377425833 -0.0047610669338440026 0 0.036571022039521416 -0.0048436617601268547 0 0.035258260093078364 -0.0052329026512485961 0 0.036571022039521416 -0.0048436617601268547 0 0.037633121548987652 -0.0043436265861383277 0 0.038592614912768691 -0.0059539927322863955 0 0.037633121548987652 -0.0043436265861383277 0 0.039156297933559292 -0.0046603591101098147 0 0.038592614912768691 -0.0059539927322863955 0 0.031202441353096421 -0.005412758041357023 0 0.031530796603432172 -0.0040164768549796146 0 0.035258260093078364 -0.0052329026512485961 0 0.030455952409688049 -0.0042241241735946396 0 0.030635265041453575 -0.0033225950992169123 0 0.031530796603432172 -0.0040164768549796146 0 0.030455952409688049 -0.0042241241735946396 0 0.031202441353096421 -0.005412758041357023 0 0.031530796603432172 -0.0040164768549796146 0 0.035610575209896529 -0.0033199305647294303 0 0.031530796603432172 -0.0040164768549796146 0 0.035258260093078364 -0.0052329026512485961 0 0.033392180363670212 -0.0032486823126730365 0 0.031496504320910577 -0.0040396633079104937 0 0.032474645743396369 -0.0015523235316209146 0 0.03191208880446534 -0.0014345000488098819 0 0.032117843292789626 -0.0010794610402974575 0 0.032474645743396369 -0.0015523235316209146 0 0.03191208880446534 -0.0014345000488098819 0 0.03171389061432249 -0.001794779406072074 0 0.03191208880446534 -0.0014345000488098819 0 0.031661277646909999 -0.0011459282234459395 0 0.031375726899538353 -0.0014779270335495134 0 0.03191208880446534 -0.0014345000488098819 0 0.03171389061432249 -0.001794779406072074 0 0.031375726899538353 -0.0014779270335495134 0 0.03191208880446534 -0.0014345000488098819 0 0.032117843292789626 -0.0010794610402974575 0 0.031661277646909999 -0.0011459282234459395 0 0.032117843292789626 -0.0010794610402974575 0 0.031661277646909999 -0.0011459282234459395 0 0.031767310660296998 -0.00077564622061255931 0 0.032474645743396369 -0.0015523235316209146 0 0.032117843292789626 -0.0010794610402974575 0 0.032825857844873831 -0.00086241875345216079 0 0.032474645743396369 -0.0015523235316209146 0 0.032825857844873831 -0.00086241875345216079 0 0.033387306450928814 -0.0010941672966130955 0 0.033548616338699482 -0.00117027033918546 0 0.033425092274784185 -0.0017966757625925256 0 0.033671487761564534 -0.0012955205398573427 0 0.033746532204510737 -0.0018749616586761473 0 0.034040956530704346 -0.0016797424780629411 0 0.032474645743396369 -0.0015523235316209146 0 0.033387306450928814 -0.0010941672966130955 0 0.0330629979688115 -0.001789285187435112 0 0.032474645743396369 -0.0015523235316209146 0 0.0330629979688115 -0.001789285187435112 0 0.032290797025146832 -0.0020322442898605534 0 0.033425092274784185 -0.0017966757625925256 0 0.033312206230300324 -0.0023106207108048241 0 0.033746532204510737 -0.0018749616586761473 0 0.033961172107201239 -0.0020131293363737689 0 0.033936288526226634 -0.0020397158632980686 0 0.0330629979688115 -0.001789285187435112 0 0.032290797025146832 -0.0020322442898605534 0 0.032871315816296695 -0.0024608114732133555 0 0.032290797025146832 -0.0020322442898605534 0 0.03212773503790331 -0.0024432895809377393 0 0.032871315816296695 -0.0024608114732133555 0 0.032290797025146832 -0.0020322442898605534 0 0.031481861789377022 -0.0021989828259512244 0 0.03212773503790331 -0.0024432895809377393 0 0.032474645743396369 -0.0015523235316209146 0 0.032290797025146832 -0.0020322442898605534 0 0.03171389061432249 -0.001794779406072074 0 0.03171389061432249 -0.001794779406072074 0 0.031481861789377022 -0.0021989828259512244 0 0.031318160742980175 -0.0018416267415358499 0 0.032290797025146832 -0.0020322442898605534 0 0.03171389061432249 -0.001794779406072074 0 0.031481861789377022 -0.0021989828259512244 0 0.031481861789377022 -0.0021989828259512244 0 0.031023401437576738 -0.0020573991342937377 0 0.031001653895342918 -0.0024679535792689776 0 0.031481861789377022 -0.0021989828259512244 0 0.031023401437576738 -0.0020573991342937377 0 0.031318160742980175 -0.0018416267415358499 0 0.031023401437576738 -0.0020573991342937377 0 0.030775106643907667 -0.0021741824559732498 0 0.031001653895342918 -0.0024679535792689776 0 0.031023401437576738 -0.0020573991342937377 0 0.030775106643907667 -0.0021741824559732498 0 0.030787010898196767 -0.0018970964515531627 0 0.031041279531490041 -0.0017078428820062918 0 0.030787010898196767 -0.0018970964515531627 0 0.030733273944042402 -0.0015095191704175266 0 0.031023401437576738 -0.0020573991342937377 0 0.031041279531490041 -0.0017078428820062918 0 0.031318160742980175 -0.0018416267415358499 0 0.031023401437576738 -0.0020573991342937377 0 0.031041279531490041 -0.0017078428820062918 0 0.030787010898196767 -0.0018970964515531627 0 0.031041279531490041 -0.0017078428820062918 0 0.031318160742980175 -0.0018416267415358499 0 0.031375726899538353 -0.0014779270335495134 0 0.03171389061432249 -0.001794779406072074 0 0.031318160742980175 -0.0018416267415358499 0 0.031375726899538353 -0.0014779270335495134 0 0.030154924163468193 -0.0020730674995901224 0 0.030164997861798812 -0.0020927311330790799 0 0.029918429687467621 -0.0021418414294478443 0 0.030154924163468193 -0.0020730674995901224 0 0.030292033027903141 -0.0020494602884642832 0 0.030164997861798812 -0.0020927311330790799 0 0.030154924163468193 -0.0020730674995901224 0 0.030292033027903141 -0.0020494602884642832 0 0.030366523275545402 -0.0019685770046607679 0 0.030164997861798812 -0.0020927311330790799 0 0.030474526337891644 -0.0020115412601671516 0 0.03043796317639396 -0.0020469745607262875 0 0.030292033027903141 -0.0020494602884642832 0 0.030164997861798812 -0.0020927311330790799 0 0.03043796317639396 -0.0020469745607262875 0 0.030775106643907667 -0.0021741824559732498 0 0.030474526337891644 -0.0020115412601671516 0 0.030685874966190265 -0.002409652407785675 0 0.030164997861798812 -0.0020927311330790799 0 0.030474526337891644 -0.0020115412601671516 0 0.03002193308593493 -0.0020870524897759184 0 0.030426928474262215 -0.0020122588041484573 0 0.0303647578630886 -0.0022183384808211809 0 0.030474526337891644 -0.0020115412601671516 0 0.03043796317639396 -0.0020469745607262875 0 0.030733273944042402 -0.0015095191704175266 0 0.030775106643907667 -0.0021741824559732498 0 0.030787010898196767 -0.0018970964515531627 0 0.030474526337891644 -0.0020115412601671516 0 0.030787010898196767 -0.0018970964515531627 0 0.030474526337891644 -0.0020115412601671516 0 0.030733273944042402 -0.0015095191704175266 0 0.030544320048330399 -0.0020230886885657974 0 0.031288564670539677 -0.0015470482906410703 0 0.030956403400810448 -0.0017513453197561782 0 0.03043796317639396 -0.0020469745607262875 0 0.031819293561628458 -0.0016836717690929231 0 0.030534861931035998 -0.0019233172266045317 0 0.030581340872881453 -0.0018085747250206328 0 0.030366523275545402 -0.0019685770046607679 0 0.03043796317639396 -0.0020469745607262875 0 0.030405087119208377 -0.0020056583447711331 0 0.030534861931035998 -0.0019233172266045317 0 0.030292033027903141 -0.0020494602884642832 0 0.03043796317639396 -0.0020469745607262875 0 0.030405087119208377 -0.0020056583447711331 0 0.030405087119208377 -0.0020056583447711331 0 0.030534861931035998 -0.0019233172266045317 0 0.030366523275545402 -0.0019685770046607679 0 0.030956403400810448 -0.0017513453197561782 0 0.03043796317639396 -0.0020469745607262875 0 0.030534861931035998 -0.0019233172266045317 0 0.030956403400810448 -0.0017513453197561782 0 0.030534861931035998 -0.0019233172266045317 0 0.030581340872881453 -0.0018085747250206328 0 0.030956403400810448 -0.0017513453197561782 0 0.030581340872881453 -0.0018085747250206328 0 0.030748140436937518 -0.0016302241311366814 0 0.030581340872881453 -0.0018085747250206328 0 0.030494327672109779 -0.0016692044614747151 0 0.030748140436937518 -0.0016302241311366814 0 0.030305776785420704 -0.0018380783435694207 0 0.030581340872881453 -0.0018085747250206328 0 0.030494327672109779 -0.0016692044614747151 0 0.030305776785420704 -0.0018380783435694207 0 0.030581340872881453 -0.0018085747250206328 0 0.030366523275545402 -0.0019685770046607679 0 0.030380869563501157 -0.0015359157844670405 0 0.030305776785420704 -0.0018380783435694207 0 0.030494327672109779 -0.0016692044614747151 0 0.030305776785420704 -0.0018380783435694207 0 0.030154924163468193 -0.0020730674995901224 0 0.030366523275545402 -0.0019685770046607679 0 0.030292033027903141 -0.0020494602884642832 0 0.030405087119208377 -0.0020056583447711331 0 0.030366523275545402 -0.0019685770046607679 0 0.030380869563501157 -0.0015359157844670405 0 0.030572441469142168 -0.0011780448194597343 0 0.030666141245424897 -0.0014728683382703991 0 0.030380869563501157 -0.0015359157844670405 0 0.030494327672109779 -0.0016692044614747151 0 0.030666141245424897 -0.0014728683382703991 0 0.030494327672109779 -0.0016692044614747151 0 0.030666141245424897 -0.0014728683382703991 0 0.030748140436937518 -0.0016302241311366814 0 0.030956403400810448 -0.0017513453197561782 0 0.030748140436937518 -0.0016302241311366814 0 0.030975864359710989 -0.0013503952983576972 0 0.030666141245424897 -0.0014728683382703991 0 0.030748140436937518 -0.0016302241311366814 0 0.030975864359710989 -0.0013503952983576972 0 0.030572441469142168 -0.0011780448194597343 0 0.030975864359710989 -0.0013503952983576972 0 0.030928419830822482 -0.00086736392038487455 0 0.030572441469142168 -0.0011780448194597343 0 0.030666141245424897 -0.0014728683382703991 0 0.030975864359710989 -0.0013503952983576972 0 0.030956403400810448 -0.0017513453197561782 0 0.030975864359710989 -0.0013503952983576972 0 0.031819293561628458 -0.0016836717690929231 0 0.030975864359710989 -0.0013503952983576972 0 0.031819293561628458 -0.0016836717690929231 0 0.031581219043688352 -0.00082323451410548534 0 0.031581219043688352 -0.00082323451410548534 0 0.031202982453033299 -0.00056112777366484001 0 0.031538805183144392 -0.0001633008737439976 0 0.031070516961652108 -0.00081463914929525468 0 0.036517188683390017 0.00072324155974648095 0 0.031581219043688352 -0.00082323451410548534 0 0.032472404389005539 0.00014950132205860541 0 0.031692542768955126 0.0011553760886863704 0 0.031819293561628458 -0.0016836717690929231 0 0.031581219043688352 -0.00082323451410548534 0 0.032472404389005539 0.00014950132205860541 0 0.030975864359710989 -0.0013503952983576972 0 0.031581219043688352 -0.00082323451410548534 0 0.030928419830822482 -0.00086736392038487455 0 0.031581219043688352 -0.00082323451410548534 0 0.031202982453033299 -0.00056112777366484001 0 0.030928419830822482 -0.00086736392038487455 0 0.030572441469142168 -0.0011780448194597343 0 0.030928419830822482 -0.00086736392038487455 0 0.03064653588178648 -0.00048347389129391969 0 0.031202982453033299 -0.00056112777366484001 0 0.030928419830822482 -0.00086736392038487455 0 0.03064653588178648 -0.00048347389129391969 0 0.031375726899538353 -0.0014779270335495134 0 0.031084081576546501 -0.0013977519564605987 0 0.031189461732016494 -0.00087882106175416776 0 0.030733273944042402 -0.0015095191704175266 0 0.031084081576546501 -0.0013977519564605987 0 0.031189461732016494 -0.00087882106175416776 0 0.031041279531490041 -0.0017078428820062918 0 0.031375726899538353 -0.0014779270335495134 0 0.031084081576546501 -0.0013977519564605987 0 0.031041279531490041 -0.0017078428820062918 0 0.030733273944042402 -0.0015095191704175266 0 0.031084081576546501 -0.0013977519564605987 0 0.031288564670539677 -0.0015470482906410703 0 0.0324953856087144 -0.00037108712447738086 0 0.031819293561628458 -0.0016836717690929231 0 0.032472404389005539 0.00014950132205860541 0 0.033805912865616669 0.00010177087787367131 0 0.031661277646909999 -0.0011459282234459395 0 0.031189461732016494 -0.00087882106175416776 0 0.031767310660296998 -0.00077564622061255931 0 0.031661277646909999 -0.0011459282234459395 0 0.031375726899538353 -0.0014779270335495134 0 0.031189461732016494 -0.00087882106175416776 0 0.0324953856087144 -0.00037108712447738086 0 0.033501145516129732 0.00085411383446243902 0 0.033805912865616669 0.00010177087787367131 0 0.034690072951830929 0.001649330194446117 0 0.035308110675036017 0.0019447692989325825 0 0.031189461732016494 -0.00087882106175416776 0 0.031740947572237277 -0.00019111428745441944 0 0.031767310660296998 -0.00077564622061255931 0 0.032472404389005539 0.00014950132205860541 0 0.034690072951830929 0.001649330194446117 0 0.031692542768955126 0.0011553760886863704 0 0.034690072951830929 0.001649330194446117 0 0.034747525742830569 0.0018250337354648641 0 0.034754839819675948 0.0018735110428798499 0 0.033227117397387165 0.0017911936750375803 0 0.036517188683390017 0.00072324155974648095 0 0.032472404389005539 0.00014950132205860541 0 0.033805912865616669 0.00010177087787367131 0 0.034690072951830929 0.001649330194446117 0 0.034747525742830569 0.0018250337354648641 0 0.034701043798403663 0.0019048984593560191 0 0.034862643848300921 0.0020458537964354656 0 0.034747525742830569 0.0018250337354648641 0 0.034809409412445827 0.0018854070308077621 0 0.034862643848300921 0.0020458537964354656 0 0.034977638917702079 0.0020196406052513287 0 0.034809409412445827 0.0018854070308077621 0 0.034862643848300921 0.0020458537964354656 0 0.034977638917702079 0.0020196406052513287 0 0.035167193807222379 0.002179707763362188 0 0.035308110675036017 0.0019447692989325825 0 0.034690072951830929 0.001649330194446117 0 0.034977638917702079 0.0020196406052513287 0 0.035308110675036017 0.0019447692989325825 0 0.034690072951830929 0.001649330194446117 0 0.034977638917702079 0.0020196406052513287 0 0.034809409412445827 0.0018854070308077621 0 0.034690072951830929 0.001649330194446117 0 0.034747525742830569 0.0018250337354648641 0 0.034809409412445827 0.0018854070308077621 0 0.040363486469261675 -0.0023727640460231444 0 0.036517188683390017 0.00072324155974648095 0 0.048409866873500983 -0.0039160029446887925 0 0.050244084205604292 -0.0032442700967392833 0 0.049189208652309246 -0.0025426754258759615 0 0.031202982453033299 -0.00056112777366484001 0 0.03064653588178648 -0.00048347389129391969 0 0.031538805183144392 -0.0001633008737439976 0 0.047667139924595335 -0.002140538578981064 0 0.048409866873500983 -0.0039160029446887925 0 0.049189208652309246 -0.0025426754258759615 0 0.036517188683390017 0.00072324155974648095 0 0.042468879142925811 -0.00055133320822451845 0 0.050244084205604292 -0.0032442700967392833 0 0.050255269848284129 -0.0019148025981248432 0 0.049189208652309246 -0.0025426754258759615 0 0.034747525742830569 0.0018250337354648641 0 0.034754839819675948 0.0018735110428798499 0 0.034701043798403663 0.0019048984593560191 0 0.047667139924595335 -0.002140538578981064 0 0.048981090863479911 -0.0014218162688154831 0 0.049189208652309246 -0.0025426754258759615 0 0.050255269848284129 -0.0019148025981248432 0 0.048981090863479911 -0.0014218162688154831 0 0.049189208652309246 -0.0025426754258759615 0 0.047775575864562707 -0.0021097241525276497 0 0.049932163702819186 -0.0010303514936298162 0 0.048004171329238364 0.00058604277192383751 0 0.050268262391577258 -0.00071964698586113914 0 0.05071012036069851 0.0015170955018601697 0 0.050268262391577258 -0.00071964698586113914 0 0.052512389062291671 0.00074264304774489275 0 0.05071012036069851 0.0015170955018601697 0 0.042468879142925811 -0.00055133320822451845 0 0.047639310054894753 0.0028705815848005531 0 0.050255269848284129 -0.0019148025981248432 0 0.048981090863479911 -0.0014218162688154831 0 0.050243404597489869 -0.00058069585382418323 0 0.049932163702819186 -0.0010303514936298162 0 0.047639310054894753 0.0028705815848005531 0 0.052512389062291671 0.00074264304774489275 0 0.05071012036069851 0.0015170955018601697 0 0.052477543922515461 0.0045885550105538592 0 0.047639310054894753 0.0028705815848005531 0 0.053326883096919415 0.0070460796552945107 0 0.048004171329238364 0.00058604277192383751 0 0.05071012036069851 0.0015170955018601697 0 0.04991521680254301 0.0029826480436964454 0 0.05071012036069851 0.0015170955018601697 0 0.04991521680254301 0.0029826480436964454 0 0.052477543922515461 0.0045885550105538592 0 0.035167193807222379 0.002179707763362188 0 0.034862643848300921 0.0020458537964354656 0 0.035074916266450332 0.0024268023659760078 0 0.034977638917702079 0.0020196406052513287 0 0.035167193807222379 0.002179707763362188 0 0.034862643848300921 0.0020458537964354656 0 0.034701043798403663 0.0019048984593560191 0 0.034727630693671512 0.0021604033565335271 0 0.034862643848300921 0.0020458537964354656 0 0.034727630693671512 0.0021604033565335271 0 0.034862643848300921 0.0020458537964354656 0 0.035074916266450332 0.0024268023659760078 0 0.047639310054894753 0.0028705815848005531 0 0.04221307435051562 0.0063548639500425703 0 0.052661255957895961 0.010539936366725853 0 0.050714606901347686 0.0094536798133211981 0 0.052810687285203807 0.0083075259198348763 0 0.035167193807222379 0.002179707763362188 0 0.035074916266450332 0.0024268023659760078 0 0.035242184597952378 0.0023731534253570979 0 0.035074916266450332 0.0024268023659760078 0 0.035242184597952378 0.0023731534253570979 0 0.035301913440596223 0.002490501800788008 0 0.035242184597952378 0.0023731534253570979 0 0.035361785433615067 0.0022170750951183427 0 0.035517131834114021 0.0024856934849425312 0 0.033891640946772099 0.0013933416616965645 0 0.034395171015455764 0.0019657063131690686 0 0.035167193807222379 0.002179707763362188 0 0.035242184597952378 0.0023731534253570979 0 0.035361785433615067 0.0022170750951183427 0 0.035167193807222379 0.002179707763362188 0 0.035361785433615067 0.0022170750951183427 0 0.035308110675036017 0.0019447692989325825 0 0.032406370698682893 0.00056927133487379318 0 0.031740947572237277 -0.00019111428745441944 0 0.032303334470480623 -0.0004804403221127372 0 0.033891640946772099 0.0013933416616965645 0 0.033501145516129732 0.00085411383446243902 0 0.032406370698682893 0.00056927133487379318 0 0.032303334470480623 -0.0004804403221127372 0 0.032959157214677917 -0.00018684794251541079 0 0.032117843292789626 -0.0010794610402974575 0 0.032825857844873831 -0.00086241875345216079 0 0.032303334470480623 -0.0004804403221127372 0 0.032825857844873831 -0.00086241875345216079 0 0.032303334470480623 -0.0004804403221127372 0 0.032959157214677917 -0.00018684794251541079 0 0.032117843292789626 -0.0010794610402974575 0 0.032303334470480623 -0.0004804403221127372 0 0.031767310660296998 -0.00077564622061255931 0 0.031740947572237277 -0.00019111428745441944 0 0.032303334470480623 -0.0004804403221127372 0 0.031767310660296998 -0.00077564622061255931 0 0.033548616338699482 -0.00117027033918546 0 0.033803510161187197 -0.00035174894318419642 0 0.032825857844873831 -0.00086241875345216079 0 0.033387306450928814 -0.0010941672966130955 0 0.033849622704898975 -0.00032338491399238456 0 0.032825857844873831 -0.00086241875345216079 0 0.032959157214677917 -0.00018684794251541079 0 0.033849622704898975 -0.00032338491399238456 0 0.032959157214677917 -0.00018684794251541079 0 0.033849622704898975 -0.00032338491399238456 0 0.033562051737546464 0.00049672257157839985 0 0.033849622704898975 -0.00032338491399238456 0 0.033562051737546464 0.00049672257157839985 0 0.034524967981872039 8.902511447575385e-05 0 0.033562051737546464 0.00049672257157839985 0 0.034524967981872039 8.902511447575385e-05 0 0.034528964698745931 0.00094631923273468508 0 0.032406370698682893 0.00056927133487379318 0 0.032959157214677917 -0.00018684794251541079 0 0.033562051737546464 0.00049672257157839985 0 0.033290685305260442 0.0014953060039569475 0 0.033940082613536468 0.0011256384308415122 0 0.034477952974206423 0.0016332160708128582 0 0.032406370698682893 0.00056927133487379318 0 0.033562051737546464 0.00049672257157839985 0 0.033290685305260442 0.0014953060039569475 0 0.033562051737546464 0.00049672257157839985 0 0.033290685305260442 0.0014953060039569475 0 0.033940082613536468 0.0011256384308415122 0 0.033562051737546464 0.00049672257157839985 0 0.033940082613536468 0.0011256384308415122 0 0.034528964698745931 0.00094631923273468508 0 0.033940082613536468 0.0011256384308415122 0 0.034477952974206423 0.0016332160708128582 0 0.034528964698745931 0.00094631923273468508 0 0.034477952974206423 0.0016332160708128582 0 0.034839618351756335 0.0021250477099784095 0 0.034931280358925766 0.002472184845001329 0 0.033290685305260442 0.0014953060039569475 0 0.034477952974206423 0.0016332160708128582 0 0.034931280358925766 0.002472184845001329 0 0.034931280358925766 0.002472184845001329 0 0.035495874157207181 0.0024036465615974462 0 0.034692946138226918 0.0025386490948239937 0 0.034839618351756335 0.0021250477099784095 0 0.034931280358925766 0.002472184845001329 0 0.034883019835836609 0.0023364284457794942 0 0.03614660653463999 0.0025252998944958059 0 0.036322092930522916 0.0033836693588065966 0 0.034931280358925766 0.002472184845001329 0 0.034883019835836609 0.0023364284457794942 0 0.034692946138226918 0.0025386490948239937 0 0.035495874157207181 0.0024036465615974462 0 0.035499991599513114 0.0030681128594350002 0 0.040303289000263628 0.0040382777289867944 0 0.035517131834114021 0.0024856934849425312 0 0.034931280358925766 0.002472184845001329 0 0.035495874157207181 0.0024036465615974462 0 0.034395171015455764 0.0019657063131690686 0 0.034854081594015769 0.0024090059914004076 0 0.035242184597952378 0.0023731534253570979 0 0.035517131834114021 0.0024856934849425312 0 0.035301913440596223 0.002490501800788008 0 0.035517131834114021 0.0024856934849425312 0 0.035495874157207181 0.0024036465615974462 0 0.035301913440596223 0.002490501800788008 0 0.04221307435051562 0.0063548639500425703 0 0.041903753965309383 0.0054564240542539742 0 0.047876771004463643 0.006803854592995472 0 0.050411852762518458 0.0069726975854088515 0 0.050189370032339711 0.0056661554200295849 0 0.048370284721302718 0.0084667063559497394 0 0.047876771004463643 0.006803854592995472 0 0.050411852762518458 0.0069726975854088515 0 0.040191658902470152 0.0049991009034605115 0 0.041903753965309383 0.0054564240542539742 0 0.044811985284789808 0.0071303518109818529 0 0.048370284721302718 0.0084667063559497394 0 0.047876771004463643 0.006803854592995472 0 0.044811985284789808 0.0071303518109818529 0 0.047876771004463643 0.006803854592995472 0 0.045967877411466344 0.0060820898603389916 0 0.035495874157207181 0.0024036465615974462 0 0.035499991599513114 0.0030681128594350002 0 0.035301913440596223 0.002490501800788008 0 0.047876771004463643 0.006803854592995472 0 0.046275057220842311 0.0050693274304597028 0 0.048779826064856924 0.0050548452409736409 0 0.047876771004463643 0.006803854592995472 0 0.045967877411466344 0.0060820898603389916 0 0.046275057220842311 0.0050693274304597028 0 0.046275057220842311 0.0050693274304597028 0 0.048779826064856924 0.0050548452409736409 0 0.046405104523130618 0.003271230643825051 0 0.045967877411466344 0.0060820898603389916 0 0.046275057220842311 0.0050693274304597028 0 0.044784910983237496 0.0052540900217428457 0 0.047876771004463643 0.006803854592995472 0 0.048779826064856924 0.0050548452409736409 0 0.050189370032339711 0.0056661554200295849 0 0.048779826064856924 0.0050548452409736409 0 0.048644537219698518 0.0036322631366943517 0 0.049987775405570263 0.0034709763367708878 0 0.048872331307644463 0.0050017723631498512 0 0.047676485481383396 0.0023438138365828205 0 0.048779826064856924 0.0050548452409736409 0 0.046405104523130618 0.003271230643825051 0 0.047534681986766733 0.0014576450434484751 0 0.046275057220842311 0.0050693274304597028 0 0.046405104523130618 0.003271230643825051 0 0.044381275660705828 0.0035901027559933178 0 0.046405104523130618 0.003271230643825051 0 0.045071540987134361 0.0012092512958075167 0 0.047534681986766733 0.0014576450434484751 0 0.044381275660705828 0.0035901027559933178 0 0.041902119810712589 0.0027323569720815121 0 0.045071540987134361 0.0012092512958075167 0 0.046405104523130618 0.003271230643825051 0 0.044381275660705828 0.0035901027559933178 0 0.045071540987134361 0.0012092512958075167 0 0.041902119810712589 0.0027323569720815121 0 0.040061277490872814 0.0019115579335992942 0 0.040565802081789205 0.0031850802415488407 0 0.041902119810712589 0.0027323569720815121 0 0.04034384017991316 0.0044154033636624093 0 0.040565802081789205 0.0031850802415488407 0 0.044381275660705828 0.0035901027559933178 0 0.041902119810712589 0.0027323569720815121 0 0.04286529237667281 0.0044600445270023313 0 0.035499991599513114 0.0030681128594350002 0 0.04034384017991316 0.0044154033636624093 0 0.040303289000263628 0.0040382777289867944 0 0.040191658902470152 0.0049991009034605115 0 0.04020990370487617 0.0044836398456881759 0 0.044811985284789808 0.0071303518109818529 0 0.04286529237667281 0.0044600445270023313 0 0.04034384017991316 0.0044154033636624093 0 0.041902119810712589 0.0027323569720815121 0 0.04286529237667281 0.0044600445270023313 0 0.04034384017991316 0.0044154033636624093 0 0.044811985284789808 0.0071303518109818529 0 0.04286529237667281 0.0044600445270023313 0 0.044784910983237496 0.0052540900217428457 0 0.044811985284789808 0.0071303518109818529 0 0.045967877411466344 0.0060820898603389916 0 0.044784910983237496 0.0052540900217428457 0 0.046275057220842311 0.0050693274304597028 0 0.044381275660705828 0.0035901027559933178 0 0.044784910983237496 0.0052540900217428457 0 0.044381275660705828 0.0035901027559933178 0 0.04286529237667281 0.0044600445270023313 0 0.044784910983237496 0.0052540900217428457 0 0.054316679624011606 0.0065314292304734034 0 0.052102843269097907 0.0061667766853726247 0 0.053341785108618381 0.0055838935237944812 0 0.051095819026607411 0.0061862121946120226 0 0.052017023053603555 0.0062308874795912435 0 0.048332239834605648 0.0061284692703256205 0 0.052102843269097907 0.0061667766853726247 0 0.050721945771807643 0.0049954012313700499 0 0.04991521680254301 0.0029826480436964454 0 0.050721945771807643 0.0049954012313700499 0 0.052477543922515461 0.0045885550105538592 0 0.047476378998020131 0.003570863508134685 0 0.04991521680254301 0.0029826480436964454 0 0.050721945771807643 0.0049954012313700499 0 0.053326883096919415 0.0070460796552945107 0 0.052483790443075294 0.0057351579954898358 0 0.052810687285203807 0.0083075259198348763 0 0.051843206684667818 0.0070223534895720481 0 0.052961623398368032 0.0057726922060641981 0 0.052102843269097907 0.0061667766853726247 0 0.052477543922515461 0.0045885550105538592 0 0.052167403604733285 0.0060710590114196631 0 0.052102843269097907 0.0061667766853726247 0 0.050721945771807643 0.0049954012313700499 0 0.052477543922515461 0.0045885550105538592 0 0.051843206684667818 0.0070223534895720481 0 0.051146067911219027 0.0081397654790240758 0 0.050411852762518458 0.0069726975854088515 0 0.051843206684667818 0.0070223534895720481 0 0.050411852762518458 0.0069726975854088515 0 0.051680222665895871 0.0058334212374793713 0 0.052810687285203807 0.0083075259198348763 0 0.051843206684667818 0.0070223534895720481 0 0.051146067911219027 0.0081397654790240758 0 0.050714606901347686 0.0094536798133211981 0 0.052810687285203807 0.0083075259198348763 0 0.051146067911219027 0.0081397654790240758 0 0.050714606901347686 0.0094536798133211981 0 0.048370284721302718 0.0084667063559497394 0 0.051146067911219027 0.0081397654790240758 0 0.048370284721302718 0.0084667063559497394 0 0.051146067911219027 0.0081397654790240758 0 0.050411852762518458 0.0069726975854088515 0 0.050189370032339711 0.0056661554200295849 0 0.051180691868215673 0.0042954664125250128 0 0.051680222665895871 0.0058334212374793713 0 0.048779826064856924 0.0050548452409736409 0 0.050189370032339711 0.0056661554200295849 0 0.051180691868215673 0.0042954664125250128 0 0.050411852762518458 0.0069726975854088515 0 0.050189370032339711 0.0056661554200295849 0 0.051680222665895871 0.0058334212374793713 0 0.048779826064856924 0.0050548452409736409 0 0.051180691868215673 0.0042954664125250128 0 0.049987775405570263 0.0034709763367708878 0 0.051180691868215673 0.0042954664125250128 0 0.052226402481622906 0.0048370590040083478 0 0.053063588924169867 0.0034713042706334836 0 0.052226402481622906 0.0048370590040083478 0 0.051680222665895871 0.0058334212374793713 0 0.052961623398368032 0.0057726922060641981 0 0.051180691868215673 0.0042954664125250128 0 0.052226402481622906 0.0048370590040083478 0 0.051680222665895871 0.0058334212374793713 0 0.051843206684667818 0.0070223534895720481 0 0.051680222665895871 0.0058334212374793713 0 0.052961623398368032 0.0057726922060641981 0 0.052102843269097907 0.0061667766853726247 0 0.052167403604733285 0.0060710590114196631 0 0.053115323962489559 0.004999842964389452 0 0.052226402481622906 0.0048370590040083478 0 0.052961623398368032 0.0057726922060641981 0 0.053063588924169867 0.0034713042706334836 0 0.052167403604733285 0.0060710590114196631 0 0.053115323962489559 0.004999842964389452 0 0.052479367455379074 0.0036841346772807379 0 0.052483790443075294 0.0057351579954898358 0 0.052830262168241791 0.003623421882041537 0 0.054159699322779205 0.0049857053173627671 0 0.054125223051939328 0.0041653781254374486 0 0.053115323962489559 0.004999842964389452 0 0.054125223051939328 0.0041653781254374486 0 0.053115323962489559 0.004999842964389452 0 0.053675264708721568 0.0035491700964411128 0 0.053115323962489559 0.004999842964389452 0 0.053675264708721568 0.0035491700964411128 0 0.052479367455379074 0.0036841346772807379 0 0.052102843269097907 0.0061667766853726247 0 0.053115323962489559 0.004999842964389452 0 0.053341785108618381 0.0055838935237944812 0 0.054159699322779205 0.0049857053173627671 0 0.053115323962489559 0.004999842964389452 0 0.053341785108618381 0.0055838935237944812 0 0.054961430992732846 0.0015265133777412605 0 0.054556342867334871 0.0033448064741839712 0 0.053964190658724501 0.0023076775659630925 0 0.054961430992732846 0.0015265133777412605 0 0.053964190658724501 0.0023076775659630925 0 0.054298716322664912 0.001323557687215313 0 0.054556342867334871 0.0033448064741839712 0 0.053964190658724501 0.0023076775659630925 0 0.053675264708721568 0.0035491700964411128 0 0.053964190658724501 0.0023076775659630925 0 0.053675264708721568 0.0035491700964411128 0 0.052479367455379074 0.0036841346772807379 0 0.054556342867334871 0.0033448064741839712 0 0.054125223051939328 0.0041653781254374486 0 0.053675264708721568 0.0035491700964411128 0 0.052830262168241791 0.003623421882041537 0 0.053297773975536082 0.0015243693325513819 0 0.053964190658724501 0.0023076775659630925 0 0.052479367455379074 0.0036841346772807379 0 0.053409544405452217 0.0014173427526119589 0 0.053964190658724501 0.0023076775659630925 0 0.053409544405452217 0.0014173427526119589 0 0.054298716322664912 0.001323557687215313 0 0.051560315203414364 0.0022008701923008811 0 0.0523386166166869 0.001354562383280238 0 0.053409544405452217 0.0014173427526119589 0 0.053063588924169867 0.0034713042706334836 0 0.051560315203414364 0.0022008701923008811 0 0.053409544405452217 0.0014173427526119589 0 0.051180691868215673 0.0042954664125250128 0 0.053063588924169867 0.0034713042706334836 0 0.051560315203414364 0.0022008701923008811 0 0.051560315203414364 0.0022008701923008811 0 0.049987775405570263 0.0034709763367708878 0 0.049357417165387441 0.0024073616062816523 0 0.051180691868215673 0.0042954664125250128 0 0.051560315203414364 0.0022008701923008811 0 0.049987775405570263 0.0034709763367708878 0 0.051560315203414364 0.0022008701923008811 0 0.05178999895110422 0.00030189573181757453 0 0.049827759761317592 0.0011389345434523772 0 0.053390629929176481 0.00018341104237360947 0 0.05247976876461511 0.00062056018419317138 0 0.055000307657618562 -2.6417680016480098e-05 0 0.054975365003839864 1.717124861385134e-05 0 0.054992424383977334 -4.1163674015996145e-06 0 0.055000497630669137 4.5567178458320082e-09 0 0.055000307657618562 -2.6417680016480098e-05 0 0.054992424383977334 -4.1163674015996145e-06 0 0.05178999895110422 0.00030189573181757453 0 0.053550630873316962 0.00062972351555994543 0 0.054732373888901821 -8.600772728579755e-05 0 0.055000497630669137 4.5567178458320082e-09 0 0.055000307657618562 -2.6417680016480098e-05 0 0.054998165871338739 -9.8917352836150511e-08 0 0.055000307657618562 -2.6417680016480098e-05 0 0.054732373888901821 -8.600772728579755e-05 0 0.054998165871338739 -9.8917352836150511e-08 0 0.053390629929176481 0.00018341104237360947 0 0.054549156658635529 -9.6419571855107348e-05 0 0.05178999895110422 0.00030189573181757453 0 0.0523386166166869 0.001354562383280238 0 0.053550630873316962 0.00062972351555994543 0 0.051560315203414364 0.0022008701923008811 0 0.05178999895110422 0.00030189573181757453 0 0.0523386166166869 0.001354562383280238 0 0.0523386166166869 0.001354562383280238 0 0.053409544405452217 0.0014173427526119589 0 0.053550630873316962 0.00062972351555994543 0 0.053409544405452217 0.0014173427526119589 0 0.054763899034954891 0.00019015119021260587 0 0.054298716322664912 0.001323557687215313 0 0.053409544405452217 0.0014173427526119589 0 0.053550630873316962 0.00062972351555994543 0 0.054763899034954891 0.00019015119021260587 0 0.053550630873316962 0.00062972351555994543 0 0.054732373888901821 -8.600772728579755e-05 0 0.054763899034954891 0.00019015119021260587 0 0.054732373888901821 -8.600772728579755e-05 0 0.054998165871338739 -9.8917352836150511e-08 0 0.055000039198278616 6.3092120126495614e-08 0 0.054988329756815696 7.119256535588581e-05 0 0.054763899034954891 0.00019015119021260587 0 0.055000039198278616 6.3092120126495614e-08 0 0.054732373888901821 -8.600772728579755e-05 0 0.054763899034954891 0.00019015119021260587 0 0.055000039198278616 6.3092120126495614e-08 0 0.054961430992732846 0.0015265133777412605 0 0.054763899034954891 0.00019015119021260587 0 0.054298716322664912 0.001323557687215313 0 0.055008072451018124 0.00072215782528233582 0 0.054695743785430739 0.00023811027605534464 0 0.054808732449982897 0.0010147632494305462 0 0.055784448575527758 0.0013154121758808584 0 0.055342048928299831 0.00035779378185350411 0 0.054808732449982897 0.0010147632494305462 0 0.054748537470929011 0.0020509900433930109 0 0.055784448575527758 0.0013154121758808584 0 0.048888768250585378 0.00089945309209137287 0 0.050966601564070291 0.00051914816825129407 0 0.054808732449982897 0.0010147632494305462 0 0.054194686624386902 0.00053872127981983097 0 0.053258576100271418 0.0016271058216569055 0 0.054808732449982897 0.0010147632494305462 0 0.054748537470929011 0.0020509900433930109 0 0.053258576100271418 0.0016271058216569055 0 0.048888768250585378 0.00089945309209137287 0 0.04706097733462368 0.0024311510072923285 0 0.054748537470929011 0.0020509900433930109 0 0.053258576100271418 0.0016271058216569055 0 0.053300021832396891 0.0028340384922252147 0 0.041902119810712589 0.0027323569720815121 0 0.04304186412158667 -9.9686937643984842e-05 0 0.040061277490872814 0.0019115579335992942 0 0.04304186412158667 -9.9686937643984842e-05 0 0.045071540987134361 0.0012092512958075167 0 0.046277391687244693 -0.0018856136425280624 0 0.041902119810712589 0.0027323569720815121 0 0.04304186412158667 -9.9686937643984842e-05 0 0.045071540987134361 0.0012092512958075167 0 0.048644537219698518 0.0036322631366943517 0 0.049357417165387441 0.0024073616062816523 0 0.048109045753547866 0.002037684940272344 0 0.047676485481383396 0.0023438138365828205 0 0.050966601564070291 0.00051914816825129407 0 0.045071540987134361 0.0012092512958075167 0 0.047534681986766733 0.0014576450434484751 0 0.046277391687244693 -0.0018856136425280624 0 0.048644537219698518 0.0036322631366943517 0 0.049987775405570263 0.0034709763367708878 0 0.049357417165387441 0.0024073616062816523 0 0.051560315203414364 0.0022008701923008811 0 0.049357417165387441 0.0024073616062816523 0 0.049827759761317592 0.0011389345434523772 0 0.049357417165387441 0.0024073616062816523 0 0.048109045753547866 0.002037684940272344 0 0.049827759761317592 0.0011389345434523772 0 0.050966601564070291 0.00051914816825129407 0 0.05247976876461511 0.00062056018419317138 0 0.054940704552284059 3.055634639475485e-05 0 0.054978338461953491 6.1983942337232954e-06 0 0.054974040619063649 9.3796205058162773e-06 0 0.054940704552284059 3.055634639475485e-05 0 0.054978338461953491 6.1983942337232954e-06 0 0.054975365003839864 1.717124861385134e-05 0 0.050966601564070291 0.00051914816825129407 0 0.055521893534764548 0.00042247453722799147 0 0.054978338461953491 6.1983942337232954e-06 0 0.054975365003839864 1.717124861385134e-05 0 0.054992424383977334 -4.1163674015996145e-06 0 0.054978338461953491 6.1983942337232954e-06 0 0.054992424383977334 -4.1163674015996145e-06 0 0.054999828937025395 -6.8646707109839724e-09 0 0.055000497630669137 4.5567178458320082e-09 0 0.054992424383977334 -4.1163674015996145e-06 0 0.054999828937025395 -6.8646707109839724e-09 0 0.054978338461953491 6.1983942337232954e-06 0 0.054999828937025395 -6.8646707109839724e-09 0 0.054974040619063649 9.3796205058162773e-06 0 0.054999828937025395 -6.8646707109839724e-09 0 0.055000045388716272 1.1660655282182244e-08 0 0.054974040619063649 9.3796205058162773e-06 0 0.055000152184423265 -4.0239534797025783e-07 0 0.055342048928299831 0.00035779378185350411 0 0.05485795270982053 0.0002654503553368741 0 0.054999868384175546 -2.8220688826973761e-07 0 0.055521893534764548 0.00042247453722799147 0 0.054808732449982897 0.0010147632494305462 0 0.055342048928299831 0.00035779378185350411 0 0.05485795270982053 0.0002654503553368741 0 0.05485795270982053 0.0002654503553368741 0 0.054194686624386902 0.00053872127981983097 0 0.054781950053004978 -1.6319732349135431e-05 0 0.054808732449982897 0.0010147632494305462 0 0.05485795270982053 0.0002654503553368741 0 0.054194686624386902 0.00053872127981983097 0 0.055000152184423265 -4.0239534797025783e-07 0 0.054781950053004978 -1.6319732349135431e-05 0 0.054999274610164038 2.249672200943337e-07 0 0.055000152184423265 -4.0239534797025783e-07 0 0.05485795270982053 0.0002654503553368741 0 0.054781950053004978 -1.6319732349135431e-05 0 0.054781950053004978 -1.6319732349135431e-05 0 0.054999274610164038 2.249672200943337e-07 0 0.055005183177582191 -3.7818548696025711e-05 0 0.054798068292609185 -3.7160700165674208e-05 0 0.054164774447471288 0.00020854471514797731 0 0.055000209868197016 -8.4793876688376673e-08 0 0.055005183177582191 -3.7818548696025711e-05 0 0.055002718566395943 -2.2542554165597302e-06 0 0.054999274610164038 2.249672200943337e-07 0 0.055000209868197016 -8.4793876688376673e-08 0 0.055005183177582191 -3.7818548696025711e-05 0 0.052362851499942353 -0.0001143636342992784 0 0.052419495770176891 0.00097118997166149596 0 0.050936308341706864 0.0008924777797386915 0 0.054164774447471288 0.00020854471514797731 0 0.053043308154408587 0.00070412726811657986 0 0.054194686624386902 0.00053872127981983097 0 0.052362851499942353 -0.0001143636342992784 0 0.052419495770176891 0.00097118997166149596 0 0.053680783891991594 0.00039170815229851971 0 0.054164774447471288 0.00020854471514797731 0 0.054194686624386902 0.00053872127981983097 0 0.054781950053004978 -1.6319732349135431e-05 0 0.053635634095258733 0.00031339670511268115 0 0.054194686624386902 0.00053872127981983097 0 0.053258576100271418 0.0016271058216569055 0 0.052419495770176891 0.00097118997166149596 0 0.052419495770176891 0.00097118997166149596 0 0.051668886280380535 0.0015511259939715459 0 0.050936308341706864 0.0008924777797386915 0 0.053258576100271418 0.0016271058216569055 0 0.052419495770176891 0.00097118997166149596 0 0.051668886280380535 0.0015511259939715459 0 0.053258576100271418 0.0016271058216569055 0 0.051668886280380535 0.0015511259939715459 0 0.051868799439168591 0.0024091785347954415 0 0.051668886280380535 0.0015511259939715459 0 0.051868799439168591 0.0024091785347954415 0 0.051286362536465846 0.0019187310350845129 0 0.051868799439168591 0.0024091785347954415 0 0.051032748702490867 0.0022834205288953897 0 0.051434522529915649 0.0028877481571841354 0 0.051868799439168591 0.0024091785347954415 0 0.051032748702490867 0.0022834205288953897 0 0.051286362536465846 0.0019187310350845129 0 0.053258576100271418 0.0016271058216569055 0 0.051868799439168591 0.0024091785347954415 0 0.053300021832396891 0.0028340384922252147 0 0.050388670419702533 0.0018850695561082394 0 0.052143348205629131 0.0012912160575761951 0 0.052222711596128832 0.00045195713712933248 0 0.050388670419702533 0.0018850695561082394 0 0.049936700304725246 0.0010020881190004685 0 0.052119956043822621 -0.0020425435480058577 0 0.050388670419702533 0.0018850695561082394 0 0.050772049070902291 0.0022446591114386456 0 0.052143348205629131 0.0012912160575761951 0 0.05135634043588503 0.0011139198841471033 0 0.048161494748896014 -3.1649994320450522e-05 0 0.050388670419702533 0.0018850695561082394 0 0.049936700304725246 0.0010020881190004685 0 0.05031021985127946 0.0016533928464000822 0 0.050388670419702533 0.0018850695561082394 0 0.05031021985127946 0.0016533928464000822 0 0.050510046583636774 0.0017909631215064354 0 0.049364378212645298 0.00097170437358453429 0 0.048898036250592317 0.0011944387730563573 0 0.049936700304725246 0.0010020881190004685 0 0.050521080964567491 0.0018800884477281881 0 0.05031021985127946 0.0016533928464000822 0 0.049936700304725246 0.0010020881190004685 0 0.050521080964567491 0.0018800884477281881 0 0.050764884069252399 0.0028437570230848931 0 0.050521080964567491 0.0018800884477281881 0 0.051032748702490867 0.0022834205288953897 0 0.050680626169300587 0.0018154732969273366 0 0.050521080964567491 0.0018800884477281881 0 0.051032748702490867 0.0022834205288953897 0 0.050764884069252399 0.0028437570230848931 0 0.051286362536465846 0.0019187310350845129 0 0.050680626169300587 0.0018154732969273366 0 0.05069167758667651 0.0016599066852893674 0 0.051032748702490867 0.0022834205288953897 0 0.051286362536465846 0.0019187310350845129 0 0.050680626169300587 0.0018154732969273366 0 0.050521080964567491 0.0018800884477281881 0 0.05031021985127946 0.0016533928464000822 0 0.050680626169300587 0.0018154732969273366 0 0.05031021985127946 0.0016533928464000822 0 0.050680626169300587 0.0018154732969273366 0 0.050510046583636774 0.0017909631215064354 0 0.052859996595790583 0.001393127228928019 0 0.053043308154408587 0.00070412726811657986 0 0.051668886280380535 0.0015511259939715459 0 0.051286362536465846 0.0019187310350845129 0 0.05069167758667651 0.0016599066852893674 0 0.05069167758667651 0.0016599066852893674 0 0.050772049070902291 0.0022446591114386456 0 0.050936308341706864 0.0008924777797386915 0 0.050680626169300587 0.0018154732969273366 0 0.05069167758667651 0.0016599066852893674 0 0.050510046583636774 0.0017909631215064354 0 0.051668886280380535 0.0015511259939715459 0 0.05069167758667651 0.0016599066852893674 0 0.050936308341706864 0.0008924777797386915 0 0.05069167758667651 0.0016599066852893674 0 0.050510046583636774 0.0017909631215064354 0 0.050772049070902291 0.0022446591114386456 0 0.050388670419702533 0.0018850695561082394 0 0.050510046583636774 0.0017909631215064354 0 0.050772049070902291 0.0022446591114386456 0 0.054794661677999096 0.00073800630817386428 0 0.054857225228526083 0.00033327656384651502 0 0.055080459973653489 0.00042546869712130266 0 0.054857225228526083 0.00033327656384651502 0 0.054890651234917903 9.837454536472734e-05 0 0.054617147889595437 0.00014580196675397289 0 0.054794661677999096 0.00073800630817386428 0 0.054857225228526083 0.00033327656384651502 0 0.054617147889595437 0.00014580196675397289 0 0.055380287245464004 0.0002664406482119398 0 0.055080459973653489 0.00042546869712130266 0 0.054890651234917903 9.837454536472734e-05 0 0.054857225228526083 0.00033327656384651502 0 0.055080459973653489 0.00042546869712130266 0 0.054890651234917903 9.837454536472734e-05 0 0.055000209868197016 -8.4793876688376673e-08 0 0.055002718566395943 -2.2542554165597302e-06 0 0.054999951365799001 1.9140397334693051e-08 0 0.054164774447471288 0.00020854471514797731 0 0.055162202731999739 5.5121645176512566e-05 0 0.054890651234917903 9.837454536472734e-05 0 0.054998667735521381 1.5852581972448878e-07 0 0.054617147889595437 0.00014580196675397289 0 0.055162202731999739 5.5121645176512566e-05 0 0.054999600214653693 -7.4309601641250571e-08 0 0.055002718566395943 -2.2542554165597302e-06 0 0.054999951365799001 1.9140397334693051e-08 0 0.055000025354708743 -8.7989308460836176e-09 0 0.054998667735521381 1.5852581972448878e-07 0 0.054491527348982986 -5.4113830839226616e-05 0 0.054617147889595437 0.00014580196675397289 0 0.054998667735521381 1.5852581972448878e-07 0 0.054491527348982986 -5.4113830839226616e-05 0 0.054997390130128568 -8.4788199569142948e-07 0 0.054491527348982986 -5.4113830839226616e-05 0 0.053988693149255036 0.00020658668563093135 0 0.054617147889595437 0.00014580196675397289 0 0.053988693149255036 0.00020658668563093135 0 0.053252197214141206 0.00013633454577790404 0 0.053412651800111059 0.0008259601502958767 0 0.054491527348982986 -5.4113830839226616e-05 0 0.053988693149255036 0.00020658668563093135 0 0.054010125520792408 -0.00019079695419681308 0 0.053988693149255036 0.00020658668563093135 0 0.054617147889595437 0.00014580196675397289 0 0.054073467297214128 0.00060573562008855259 0 0.054794661677999096 0.00073800630817386428 0 0.054617147889595437 0.00014580196675397289 0 0.054073467297214128 0.00060573562008855259 0 0.053938628015825253 -0.00058886714580454972 0 0.054997390130128568 -8.4788199569142948e-07 0 0.054999986243682901 1.3061991953783533e-07 0 0.053707019271957625 -0.0006788716678666557 0 0.052502747705086505 -0.00087888368771170259 0 0.053938628015825253 -0.00058886714580454972 0 0.054997390130128568 -8.4788199569142948e-07 0 0.054010125520792408 -0.00019079695419681308 0 0.054491527348982986 -5.4113830839226616e-05 0 0.054997390130128568 -8.4788199569142948e-07 0 0.054010125520792408 -0.00019079695419681308 0 0.053988693149255036 0.00020658668563093135 0 0.054010125520792408 -0.00019079695419681308 0 0.053252197214141206 0.00013633454577790404 0 0.053938628015825253 -0.00058886714580454972 0 0.054010125520792408 -0.00019079695419681308 0 0.053252197214141206 0.00013633454577790404 0 0.053938628015825253 -0.00058886714580454972 0 0.051716207715739738 8.6845950324834369e-05 0 0.049838800457511094 -0.0016467852180350874 0 0.053938628015825253 -0.00058886714580454972 0 0.053252197214141206 0.00013633454577790404 0 0.051716207715739738 8.6845950324834369e-05 0 0.053252197214141206 0.00013633454577790404 0 0.051716207715739738 8.6845950324834369e-05 0 0.052407713697254443 0.00079915919702738987 0 0.051716207715739738 8.6845950324834369e-05 0 0.052407713697254443 0.00079915919702738987 0 0.04998743948785267 0.0010874217283285816 0 0.053252197214141206 0.00013633454577790404 0 0.052407713697254443 0.00079915919702738987 0 0.053412651800111059 0.0008259601502958767 0 0.052407713697254443 0.00079915919702738987 0 0.053412651800111059 0.0008259601502958767 0 0.053057565526201333 0.0012765728108882601 0 0.052407713697254443 0.00079915919702738987 0 0.052124404612715482 0.0015783394052894251 0 0.053057565526201333 0.0012765728108882601 0 0.052407713697254443 0.00079915919702738987 0 0.052124404612715482 0.0015783394052894251 0 0.04998743948785267 0.0010874217283285816 0 0.054794661677999096 0.00073800630817386428 0 0.054073467297214128 0.00060573562008855259 0 0.053373732283530415 0.0014602894482638321 0 0.050772049070902291 0.0022446591114386456 0 0.053373732283530415 0.0014602894482638321 0 0.052143348205629131 0.0012912160575761951 0 0.052859996595790583 0.001393127228928019 0 0.053304005230324997 0.0014328164186643878 0 0.054073467297214128 0.00060573562008855259 0 0.053373732283530415 0.0014602894482638321 0 0.053412651800111059 0.0008259601502958767 0 0.053988693149255036 0.00020658668563093135 0 0.054073467297214128 0.00060573562008855259 0 0.053412651800111059 0.0008259601502958767 0 0.053373732283530415 0.0014602894482638321 0 0.053412651800111059 0.0008259601502958767 0 0.053057565526201333 0.0012765728108882601 0 0.053373732283530415 0.0014602894482638321 0 0.053057565526201333 0.0012765728108882601 0 0.052983390054997151 0.0012360939820642214 0 0.053057565526201333 0.0012765728108882601 0 0.052983390054997151 0.0012360939820642214 0 0.053136453286182245 0.0016712349837854381 0 0.053373732283530415 0.0014602894482638321 0 0.052983390054997151 0.0012360939820642214 0 0.052143348205629131 0.0012912160575761951 0 0.052983390054997151 0.0012360939820642214 0 0.052143348205629131 0.0012912160575761951 0 0.052222711596128832 0.00045195713712933248 0 0.052983390054997151 0.0012360939820642214 0 0.053136453286182245 0.0016712349837854381 0 0.052222711596128832 0.00045195713712933248 0 0.048907888004101084 0.0020942492536357646 0 0.048161494748896014 -3.1649994320450522e-05 0 0.044838288973094928 0.0021980047222672165 0 0.044538257889597185 0.0019517583324018992 0 0.04445032465951429 0.0021750821976810855 0 0.044128525074332667 0.00047677361159574925 0 0.048161494748896014 -3.1649994320450522e-05 0 0.043613818495930955 -0.00073607422388277546 0 0.044045876789068211 -0.0018298446827262587 0 0.044592366042439387 -0.0011427455535283901 0 0.044838288973094928 0.0021980047222672165 0 0.044755838227641682 0.001902366508437117 0 0.045015345418545252 0.0017738752708872003 0 0.044838288973094928 0.0021980047222672165 0 0.044755838227641682 0.001902366508437117 0 0.044538257889597185 0.0019517583324018992 0 0.044755838227641682 0.001902366508437117 0 0.045015345418545252 0.0017738752708872003 0 0.044635538691144228 0.0016666771953146758 0 0.044128525074332667 0.00047677361159574925 0 0.040080941354911803 0.0024172108535647848 0 0.044755838227641682 0.001902366508437117 0 0.044538257889597185 0.0019517583324018992 0 0.044635538691144228 0.0016666771953146758 0 0.043613818495930955 -0.00073607422388277546 0 0.042864077253042907 0.00061119913897389954 0 0.044403250227477452 -0.00053155086584544015 0 0.052124404612715482 0.0015783394052894251 0 0.051157049584363248 0.002741861412658753 0 0.04998743948785267 0.0010874217283285816 0 0.048907888004101084 0.0020942492536357646 0 0.048268817083578157 0.0024155384138560125 0 0.052124404612715482 0.0015783394052894251 0 0.053057565526201333 0.0012765728108882601 0 0.053136453286182245 0.0016712349837854381 0 0.052124404612715482 0.0015783394052894251 0 0.053136453286182245 0.0016712349837854381 0 0.051157049584363248 0.002741861412658753 0 0.044838288973094928 0.0021980047222672165 0 0.04540655323336399 0.0022808711480923256 0 0.045015345418545252 0.0017738752708872003 0 0.04540655323336399 0.0022808711480923256 0 0.045015345418545252 0.0017738752708872003 0 0.045339504584073785 0.0014372923052478198 0 0.04540655323336399 0.0022808711480923256 0 0.045339504584073785 0.0014372923052478198 0 0.045697508110421482 0.0013646990271591352 0 0.045015345418545252 0.0017738752708872003 0 0.045339504584073785 0.0014372923052478198 0 0.04515118080249584 0.0013232618139016269 0 0.04140794380055169 0.0028375455108661592 0 0.042436118231631882 0.0021087355028914958 0 0.045339504584073785 0.0014372923052478198 0 0.045697508110421482 0.0013646990271591352 0 0.045167904435102824 0.001269022910016292 0 0.045339504584073785 0.0014372923052478198 0 0.04515118080249584 0.0013232618139016269 0 0.045167904435102824 0.001269022910016292 0 0.040080941354911803 0.0024172108535647848 0 0.040899162696469059 0.00062001883672243565 0 0.037373604249429662 0.0021212022574915567 0 0.037279788864767606 0.0022184800465110299 0 0.036803498500450518 0.0020536174365548801 0 0.037261878201286597 0.0019804725363187317 0 0.037373604249429662 0.0021212022574915567 0 0.037252628071050467 0.0016733539787779929 0 0.037261878201286597 0.0019804725363187317 0 0.037373604249429662 0.0021212022574915567 0 0.037279788864767606 0.0022184800465110299 0 0.037261878201286597 0.0019804725363187317 0 0.037072208828934604 0.0018587052994697706 0 0.037279788864767606 0.0022184800465110299 0 0.04140794380055169 0.0028375455108661592 0 0.040080941354911803 0.0024172108535647848 0 0.045015345418545252 0.0017738752708872003 0 0.04515118080249584 0.0013232618139016269 0 0.044635538691144228 0.0016666771953146758 0 0.040080941354911803 0.0024172108535647848 0 0.036607384901915466 0.0027964117493625498 0 0.037572270679903978 0.0040624067410657992 0 0.036205587163205606 0.0049151260813674524 0 0.036881551750443504 0.0034457611363249655 0 0.037373604249429662 0.0021212022574915567 0 0.037252628071050467 0.0016733539787779929 0 0.037521665949228081 0.0014500606215611144 0 0.037252628071050467 0.0016733539787779929 0 0.037072208828934604 0.0018587052994697706 0 0.036942450428114018 0.0013905247257651574 0 0.037261878201286597 0.0019804725363187317 0 0.037252628071050467 0.0016733539787779929 0 0.037072208828934604 0.0018587052994697706 0 0.037072208828934604 0.0018587052994697706 0 0.036423947475588081 0.001236897224216812 0 0.036942450428114018 0.0013905247257651574 0 0.037072208828934604 0.0018587052994697706 0 0.036747051306588036 0.0018348965346044696 0 0.036423947475588081 0.001236897224216812 0 0.037072208828934604 0.0018587052994697706 0 0.037593645373396177 0.0021894207106689452 0 0.037279788864767606 0.0022184800465110299 0 0.037072208828934604 0.0018587052994697706 0 0.037593645373396177 0.0021894207106689452 0 0.036747051306588036 0.0018348965346044696 0 0.037801291024591933 0.0024013753927658627 0 0.037279788864767606 0.0022184800465110299 0 0.036803498500450518 0.0020536174365548801 0 0.037593645373396177 0.0021894207106689452 0 0.037801291024591933 0.0024013753927658627 0 0.037279788864767606 0.0022184800465110299 0 0.036859737325578845 0.0022894857833427097 0 0.036150300547060671 0.0020257293203817021 0 0.036283635169470516 0.0023686412132486265 0 0.036859737325578845 0.0022894857833427097 0 0.036283635169470516 0.0023686412132486265 0 0.036333530188824216 0.0027390831447657673 0 0.037593645373396177 0.0021894207106689452 0 0.036859737325578845 0.0022894857833427097 0 0.037536417643559701 0.0024724893826659432 0 0.037593645373396177 0.0021894207106689452 0 0.036859737325578845 0.0022894857833427097 0 0.036747051306588036 0.0018348965346044696 0 0.036859737325578845 0.0022894857833427097 0 0.036747051306588036 0.0018348965346044696 0 0.036150300547060671 0.0020257293203817021 0 0.036747051306588036 0.0018348965346044696 0 0.035883506997401879 0.001623953793438293 0 0.036423947475588081 0.001236897224216812 0 0.036747051306588036 0.0018348965346044696 0 0.035883506997401879 0.001623953793438293 0 0.036150300547060671 0.0020257293203817021 0 0.035883506997401879 0.001623953793438293 0 0.035461845650192558 0.0018381728768103553 0 0.035109281948670613 0.0014942021991773168 0 0.035883506997401879 0.001623953793438293 0 0.035461845650192558 0.0018381728768103553 0 0.036150300547060671 0.0020257293203817021 0 0.034477952974206423 0.0016332160708128582 0 0.034839618351756335 0.0021250477099784095 0 0.035109281948670613 0.0014942021991773168 0 0.035461845650192558 0.0018381728768103553 0 0.035109281948670613 0.0014942021991773168 0 0.035128933662026691 0.0020849889282337532 0 0.034839618351756335 0.0021250477099784095 0 0.035109281948670613 0.0014942021991773168 0 0.035128933662026691 0.0020849889282337532 0 0.034839618351756335 0.0021250477099784095 0 0.034883019835836609 0.0023364284457794942 0 0.035128933662026691 0.0020849889282337532 0 0.034883019835836609 0.0023364284457794942 0 0.035128933662026691 0.0020849889282337532 0 0.035211140888277551 0.0023916836224279316 0 0.035128933662026691 0.0020849889282337532 0 0.035211140888277551 0.0023916836224279316 0 0.03550236737583428 0.0021569221999562663 0 0.035461845650192558 0.0018381728768103553 0 0.035128933662026691 0.0020849889282337532 0 0.03550236737583428 0.0021569221999562663 0 0.034883019835836609 0.0023364284457794942 0 0.035211140888277551 0.0023916836224279316 0 0.034692946138226918 0.0025386490948239937 0 0.035461845650192558 0.0018381728768103553 0 0.036150300547060671 0.0020257293203817021 0 0.03550236737583428 0.0021569221999562663 0 0.036150300547060671 0.0020257293203817021 0 0.03550236737583428 0.0021569221999562663 0 0.035816339735882552 0.0024837997423865694 0 0.035211140888277551 0.0023916836224279316 0 0.03550236737583428 0.0021569221999562663 0 0.035816339735882552 0.0024837997423865694 0 0.035211140888277551 0.0023916836224279316 0 0.035816339735882552 0.0024837997423865694 0 0.035364742749530137 0.0026426737104774459 0 0.035816339735882552 0.0024837997423865694 0 0.036283635169470516 0.0023686412132486265 0 0.036333530188824216 0.0027390831447657673 0 0.036150300547060671 0.0020257293203817021 0 0.035816339735882552 0.0024837997423865694 0 0.036283635169470516 0.0023686412132486265 0 0.035789231643207804 0.0031428744227239239 0 0.034692946138226918 0.0025386490948239937 0 0.036027341400108159 0.0038566994951321019 0 0.035816339735882552 0.0024837997423865694 0 0.036333530188824216 0.0027390831447657673 0 0.035789231643207804 0.0031428744227239239 0 0.036333530188824216 0.0027390831447657673 0 0.035789231643207804 0.0031428744227239239 0 0.036364562961408171 0.0032368931895422424 0 0.035816339735882552 0.0024837997423865694 0 0.035789231643207804 0.0031428744227239239 0 0.035364742749530137 0.0026426737104774459 0 0.035789231643207804 0.0031428744227239239 0 0.036364562961408171 0.0032368931895422424 0 0.036027341400108159 0.0038566994951321019 0 0.036322092930522916 0.0033836693588065966 0 0.042893789039358414 0.0019092769552805317 0 0.040303289000263628 0.0040382777289867944 0 0.039942479454480442 0.003604184690596444 0 0.038603097599684347 0.0034703356836958917 0 0.035789231643207804 0.0031428744227239239 0 0.034692946138226918 0.0025386490948239937 0 0.035364742749530137 0.0026426737104774459 0 0.035211140888277551 0.0023916836224279316 0 0.034692946138226918 0.0025386490948239937 0 0.035364742749530137 0.0026426737104774459 0 0.04034384017991316 0.0044154033636624093 0 0.040303289000263628 0.0040382777289867944 0 0.039942479454480442 0.003604184690596444 0 0.040061277490872814 0.0019115579335992942 0 0.039942479454480442 0.003604184690596444 0 0.038603097599684347 0.0034703356836958917 0 0.04706097733462368 0.0024311510072923285 0 0.042893789039358414 0.0019092769552805317 0 0.040061277490872814 0.0019115579335992942 0 0.039942479454480442 0.003604184690596444 0 0.040565802081789205 0.0031850802415488407 0 0.04034384017991316 0.0044154033636624093 0 0.039942479454480442 0.003604184690596444 0 0.040565802081789205 0.0031850802415488407 0 0.051868799439168591 0.0024091785347954415 0 0.051717847060251169 0.0035517144653108451 0 0.051434522529915649 0.0028877481571841354 0 0.051868799439168591 0.0024091785347954415 0 0.053300021832396891 0.0028340384922252147 0 0.051717847060251169 0.0035517144653108451 0 0.051717847060251169 0.0035517144653108451 0 0.051434522529915649 0.0028877481571841354 0 0.050764884069252399 0.0028437570230848931 0 0.042893789039358414 0.0019092769552805317 0 0.048898036250592317 0.0011944387730563573 0 0.051032748702490867 0.0022834205288953897 0 0.051434522529915649 0.0028877481571841354 0 0.050764884069252399 0.0028437570230848931 0 0.046676261771917874 -0.0014832425349604579 0 0.045501343872336814 -0.0016158898516260667 0 0.045615125417261537 -9.8682719677036431e-05 0 0.042893789039358414 0.0019092769552805317 0 0.040970622238084238 0.0017773474135551364 0 0.046676261771917874 -0.0014832425349604579 0 0.045266028128212739 -0.0015873299758449922 0 0.045501343872336814 -0.0016158898516260667 0 0.045501343872336814 -0.0016158898516260667 0 0.044916488339195738 -0.0014494646992814118 0 0.045615125417261537 -9.8682719677036431e-05 0 0.045501343872336814 -0.0016158898516260667 0 0.044916488339195738 -0.0014494646992814118 0 0.045544551912511631 -0.0016171525159066496 0 0.045544551912511631 -0.0016171525159066496 0 0.046291807125098942 -0.0018932300651808012 0 0.045195751625694613 -0.0014580698238683661 0 0.044916488339195738 -0.0014494646992814118 0 0.045544551912511631 -0.0016171525159066496 0 0.045195751625694613 -0.0014580698238683661 0 0.049936700304725246 0.0010020881190004685 0 0.045266028128212739 -0.0015873299758449922 0 0.046291807125098942 -0.0018932300651808012 0 0.045266028128212739 -0.0015873299758449922 0 0.045501343872336814 -0.0016158898516260667 0 0.046291807125098942 -0.0018932300651808012 0 0.045501343872336814 -0.0016158898516260667 0 0.045544551912511631 -0.0016171525159066496 0 0.046291807125098942 -0.0018932300651808012 0 0.049936700304725246 0.0010020881190004685 0 0.046291807125098942 -0.0018932300651808012 0 0.052119956043822621 -0.0020425435480058577 0 0.046291807125098942 -0.0018932300651808012 0 0.044045876789068211 -0.0018298446827262587 0 0.045195751625694613 -0.0014580698238683661 0 0.046446618748657041 -0.0019359154851493277 0 0.048161494748896014 -3.1649994320450522e-05 0 0.044045876789068211 -0.0018298446827262587 0 0.044592366042439387 -0.0011427455535283901 0 0.045195751625694613 -0.0014580698238683661 0 0.044916488339195738 -0.0014494646992814118 0 0.044592366042439387 -0.0011427455535283901 0 0.045195751625694613 -0.0014580698238683661 0 0.044298485101965546 -0.0012077337315815244 0 0.040899162696469059 0.00062001883672243565 0 0.044916488339195738 -0.0014494646992814118 0 0.044592366042439387 -0.0011427455535283901 0 0.044403250227477452 -0.00053155086584544015 0 0.044916488339195738 -0.0014494646992814118 0 0.036803498500450518 0.0020536174365548801 0 0.039176775260974774 0.0023252245611248769 0 0.043613818495930955 -0.00073607422388277546 0 0.044592366042439387 -0.0011427455535283901 0 0.044403250227477452 -0.00053155086584544015 0 0.037801291024591933 0.0024013753927658627 0 0.036803498500450518 0.0020536174365548801 0 0.039176775260974774 0.0023252245611248769 0 0.037593645373396177 0.0021894207106689452 0 0.037801291024591933 0.0024013753927658627 0 0.039176775260974774 0.0023252245611248769 0 0.037593645373396177 0.0021894207106689452 0 0.039176775260974774 0.0023252245611248769 0 0.037536417643559701 0.0024724893826659432 0 0.039176775260974774 0.0023252245611248769 0 0.037536417643559701 0.0024724893826659432 0 0.037014924781269047 0.0035588899216108584 0 0.037536417643559701 0.0024724893826659432 0 0.036817177924442272 0.0028252213726638231 0 0.037014924781269047 0.0035588899216108584 0 0.036859737325578845 0.0022894857833427097 0 0.037536417643559701 0.0024724893826659432 0 0.036817177924442272 0.0028252213726638231 0 0.036859737325578845 0.0022894857833427097 0 0.036333530188824216 0.0027390831447657673 0 0.036817177924442272 0.0028252213726638231 0 0.036333530188824216 0.0027390831447657673 0 0.036364562961408171 0.0032368931895422424 0 0.036817177924442272 0.0028252213726638231 0 0.036364562961408171 0.0032368931895422424 0 0.036027341400108159 0.0038566994951321019 0 0.037014924781269047 0.0035588899216108584 0 0.036364562961408171 0.0032368931895422424 0 0.036817177924442272 0.0028252213726638231 0 0.037014924781269047 0.0035588899216108584 0 0.044916488339195738 -0.0014494646992814118 0 0.039176775260974774 0.0023252245611248769 0 0.045615125417261537 -9.8682719677036431e-05 0 0.039693945645213724 0.0022536269434619153 0 0.040970622238084238 0.0017773474135551364 0 0.0549953613227036 -2.0514265567559953e-06 0 0.053390439146532159 -0.0001619990780192704 0 0.045816694965961149 3.7111524076660089e-06 0 0.051543965010343251 0.00013145839518018891 0 0.053390439146532159 -0.0001619990780192704 0 0.045816694965961149 3.7111524076660089e-06 0 0.051543965010343251 0.00013145839518018891 0 0.053329271961814008 0.00013752261773877965 0 0.050731953234182343 0.00057327358687825456 0 0.050390806627287683 0.00042379847860129799 0 0.051543965010343251 0.00013145839518018891 0 0.050731953234182343 0.00057327358687825456 0 0.051543965010343251 0.00013145839518018891 0 0.053390439146532159 -0.0001619990780192704 0 0.053329271961814008 0.00013752261773877965 0 0.0549953613227036 -2.0514265567559953e-06 0 0.053390439146532159 -0.0001619990780192704 0 0.054232225167994856 -0.0001314231840605071 0 0.0549953613227036 -2.0514265567559953e-06 0 0.054998537164533914 4.5339976071439368e-07 0 0.054232225167994856 -0.0001314231840605071 0 0.053390439146532159 -0.0001619990780192704 0 0.054232225167994856 -0.0001314231840605071 0 0.053329271961814008 0.00013752261773877965 0 0.054998537164533914 4.5339976071439368e-07 0 0.054232225167994856 -0.0001314231840605071 0 0.054648444665838299 9.0749624943142416e-06 0 0.054232225167994856 -0.0001314231840605071 0 0.053329271961814008 0.00013752261773877965 0 0.054309664538428941 -3.4884717398421471e-05 0 0.054232225167994856 -0.0001314231840605071 0 0.054309664538428941 -3.4884717398421471e-05 0 0.054304738081288412 -0.0001062022036875116 0 0.054875744474715639 -8.5072418310672913e-05 0 0.052146208934266886 0.00029506343944932098 0 0.045907822888263068 0.0011236325166178954 0 0.046148367761825404 0.0012361290046521139 0 0.04617000833633373 0.00087700572704280545 0 0.050156814966233296 0.00061429228511993776 0 0.048398759760194733 -0.00033647610061906397 0 0.050156814966233296 0.00061429228511993776 0 0.0468943413024299 0.00073734945538303975 0 0.045907822888263068 0.0011236325166178954 0 0.046148367761825404 0.0012361290046521139 0 0.046097743333947491 0.0015777001065712226 0 0.046148367761825404 0.0012361290046521139 0 0.046928855685283974 0.0012564349449444747 0 0.047050013473795733 0.00026267600155617575 0 0.046928855685283974 0.0012564349449444747 0 0.047050013473795733 0.00026267600155617575 0 0.048145335716162252 0.00063324566763236861 0 0.047050013473795733 0.00026267600155617575 0 0.047383183758480774 -0.0005329261274777177 0 0.048275728537424005 -0.00035114106179662166 0 0.047050013473795733 0.00026267600155617575 0 0.046331797112717989 -0.00015121871916298988 0 0.046771005254654836 -0.00071022421749877232 0 0.046148367761825404 0.0012361290046521139 0 0.047050013473795733 0.00026267600155617575 0 0.046331797112717989 -0.00015121871916298988 0 0.046148367761825404 0.0012361290046521139 0 0.046331797112717989 -0.00015121871916298988 0 0.045807602663448209 -0.00058651382721839284 0 0.045479690654376535 0.0013490447393787982 0 0.048398759760194733 -0.00033647610061906397 0 0.045955297913443043 -0.00073359009040138842 0 0.045760888868653808 -0.0011560540747026897 0 0.046771005254654836 -0.00071022421749877232 0 0.046331797112717989 -0.00015121871916298988 0 0.045955297913443043 -0.00073359009040138842 0 0.045807602663448209 -0.00058651382721839284 0 0.045760888868653808 -0.0011560540747026897 0 0.047397629470447074 -0.0014284959393031569 0 0.046771005254654836 -0.00071022421749877232 0 0.052146208934266886 0.00029506343944932098 0 0.050825168853524109 -0.00083783438822002197 0 0.047939342595380394 -0.00014450680315496596 0 0.048398759760194733 -0.00033647610061906397 0 0.046331797112717989 -0.00015121871916298988 0 0.045955297913443043 -0.00073359009040138842 0 0.046771005254654836 -0.00071022421749877232 0 0.048398759760194733 -0.00033647610061906397 0 0.052146208934266886 0.00029506343944932098 0 0.045955297913443043 -0.00073359009040138842 0 0.045818248203948912 -0.00060575074099438223 0 0.045760888868653808 -0.0011560540747026897 0 0.054999945334175557 4.2446816647347534e-08 0 0.054995287700403024 -1.6885634240255464e-05 0 0.055000078102649397 -1.6525055969978788e-07 0 0.054999945334175557 4.2446816647347534e-08 0 0.054985239282456758 -1.227707356786063e-05 0 0.054995287700403024 -1.6885634240255464e-05 0 0.054985239282456758 -1.227707356786063e-05 0 0.054995287700403024 -1.6885634240255464e-05 0 0.054983744581470942 -5.4446266357195591e-05 0 0.054999864338279594 -1.1496483710948555e-07 0 0.052146208934266886 0.00029506343944932098 0 0.054995287700403024 -1.6885634240255464e-05 0 0.055000078102649397 -1.6525055969978788e-07 0 0.054983744581470942 -5.4446266357195591e-05 0 0.047397629470447074 -0.0014284959393031569 0 0.046771005254654836 -0.00071022421749877232 0 0.047383183758480774 -0.0005329261274777177 0 0.047050013473795733 0.00026267600155617575 0 0.046771005254654836 -0.00071022421749877232 0 0.047383183758480774 -0.0005329261274777177 0 0.047397629470447074 -0.0014284959393031569 0 0.047383183758480774 -0.0005329261274777177 0 0.048275728537424005 -0.00035114106179662166 0 0.047397629470447074 -0.0014284959393031569 0 0.048275728537424005 -0.00035114106179662166 0 0.049838800457511094 -0.0016467852180350874 0 0.048275728537424005 -0.00035114106179662166 0 0.049838800457511094 -0.0016467852180350874 0 0.049597437257383789 0.00011164086033800502 0 0.055000078102649397 -1.6525055969978788e-07 0 0.054983744581470942 -5.4446266357195591e-05 0 0.055025392921465618 -0.00026350664995301821 0 0.055000078102649397 -1.6525055969978788e-07 0 0.055025392921465618 -0.00026350664995301821 0 0.054999986243682901 1.3061991953783533e-07 0 0.050825168853524109 -0.00083783438822002197 0 0.052502747705086505 -0.00087888368771170259 0 0.053938628015825253 -0.00058886714580454972 0 0.055025392921465618 -0.00026350664995301821 0 0.054999986243682901 1.3061991953783533e-07 0 0.051716207715739738 8.6845950324834369e-05 0 0.049838800457511094 -0.0016467852180350874 0 0.049597437257383789 0.00011164086033800502 0 0.049597437257383789 0.00011164086033800502 0 0.048145335716162252 0.00063324566763236861 0 0.04998743948785267 0.0010874217283285816 0 0.051716207715739738 8.6845950324834369e-05 0 0.049597437257383789 0.00011164086033800502 0 0.04998743948785267 0.0010874217283285816 0 0.047050013473795733 0.00026267600155617575 0 0.048275728537424005 -0.00035114106179662166 0 0.048145335716162252 0.00063324566763236861 0 0.048275728537424005 -0.00035114106179662166 0 0.049597437257383789 0.00011164086033800502 0 0.048145335716162252 0.00063324566763236861 0 0.048145335716162252 0.00063324566763236861 0 0.04998743948785267 0.0010874217283285816 0 0.047445211762766094 0.0016385476928124632 0 0.046928855685283974 0.0012564349449444747 0 0.048145335716162252 0.00063324566763236861 0 0.047445211762766094 0.0016385476928124632 0 0.04998743948785267 0.0010874217283285816 0 0.047445211762766094 0.0016385476928124632 0 0.047077876815288466 0.0023594026475132392 0 0.051157049584363248 0.002741861412658753 0 0.04998743948785267 0.0010874217283285816 0 0.047077876815288466 0.0023594026475132392 0 0.048268817083578157 0.0024155384138560125 0 0.047229965846316335 0.0024176406376333519 0 0.047445211762766094 0.0016385476928124632 0 0.047077876815288466 0.0023594026475132392 0 0.046322378703097605 0.0018910555536211071 0 0.047077876815288466 0.0023594026475132392 0 0.045855086397373977 0.0015000361847015973 0 0.046322378703097605 0.0018910555536211071 0 0.047077876815288466 0.0023594026475132392 0 0.045697508110421482 0.0013646990271591352 0 0.045855086397373977 0.0015000361847015973 0 0.04540655323336399 0.0022808711480923256 0 0.047077876815288466 0.0023594026475132392 0 0.045697508110421482 0.0013646990271591352 0 0.045697508110421482 0.0013646990271591352 0 0.045138449139251337 0.0011354282794732128 0 0.045167904435102824 0.001269022910016292 0 0.045138449139251337 0.0011354282794732128 0 0.045855086397373977 0.0015000361847015973 0 0.044836398817737384 0.00090256208955520796 0 0.045697508110421482 0.0013646990271591352 0 0.045138449139251337 0.0011354282794732128 0 0.045855086397373977 0.0015000361847015973 0 0.044836398817737384 0.00090256208955520796 0 0.046131649248738756 0.001562509063549737 0 0.046322378703097605 0.0018910555536211071 0 0.045855086397373977 0.0015000361847015973 0 0.044836398817737384 0.00090256208955520796 0 0.046322378703097605 0.0018910555536211071 0 0.045138449139251337 0.0011354282794732128 0 0.044836398817737384 0.00090256208955520796 0 0.044117570666474711 0.0012303522172396344 0 0.044836398817737384 0.00090256208955520796 0 0.043538373282480364 0.0006652518019891505 0 0.044117570666474711 0.0012303522172396344 0 0.044836398817737384 0.00090256208955520796 0 0.043538373282480364 0.0006652518019891505 0 0.043220362149948191 -0.00022808470070446223 0 0.044826736898653012 0.00087362853872487069 0 0.044740122502844086 0.00072839105914715083 0 0.046131649248738756 0.001562509063549737 0 0.046322378703097605 0.0018910555536211071 0 0.046097743333947491 0.0015777001065712226 0 0.046148367761825404 0.0012361290046521139 0 0.046928855685283974 0.0012564349449444747 0 0.046322378703097605 0.0018910555536211071 0 0.046928855685283974 0.0012564349449444747 0 0.047445211762766094 0.0016385476928124632 0 0.046322378703097605 0.0018910555536211071 0 0.046148367761825404 0.0012361290046521139 0 0.046322378703097605 0.0018910555536211071 0 0.046097743333947491 0.0015777001065712226 0 0.045907822888263068 0.0011236325166178954 0 0.046097743333947491 0.0015777001065712226 0 0.045928129515991761 0.0015939883380718116 0 0.045907822888263068 0.0011236325166178954 0 0.045928129515991761 0.0015939883380718116 0 0.045664258251039168 0.0013676767166621747 0 0.043949301056402837 0.00080165571974906186 0 0.0468943413024299 0.00073734945538303975 0 0.044740122502844086 0.00072839105914715083 0 0.043949301056402837 0.00080165571974906186 0 0.046131649248738756 0.001562509063549737 0 0.046097743333947491 0.0015777001065712226 0 0.045928129515991761 0.0015939883380718116 0 0.042679325451856598 -2.2885992263885321e-05 0 0.042744401730728236 2.024347719500624e-05 0 0.042575679647289692 -0.00022734442048201743 0 0.043220362149948191 -0.00022808470070446223 0 0.042679325451856598 -2.2885992263885321e-05 0 0.042744401730728236 2.024347719500624e-05 0 0.043538373282480364 0.0006652518019891505 0 0.043220362149948191 -0.00022808470070446223 0 0.042744401730728236 2.024347719500624e-05 0 0.043538373282480364 0.0006652518019891505 0 0.042744401730728236 2.024347719500624e-05 0 0.042790188860783271 0.00045607337134997029 0 0.042744401730728236 2.024347719500624e-05 0 0.042151087243496213 -3.4053810181483141e-05 0 0.042790188860783271 0.00045607337134997029 0 0.042744401730728236 2.024347719500624e-05 0 0.042575679647289692 -0.00022734442048201743 0 0.042151087243496213 -3.4053810181483141e-05 0 0.042575679647289692 -0.00022734442048201743 0 0.042621411089492245 -1.4380751788166776e-06 0 0.043505269196639308 -0.00016705995560328295 0 0.042575679647289692 -0.00022734442048201743 0 0.041579012143333705 -0.00022023919207959694 0 0.042151087243496213 -3.4053810181483141e-05 0 0.042575679647289692 -0.00022734442048201743 0 0.042621411089492245 -1.4380751788166776e-06 0 0.041579012143333705 -0.00022023919207959694 0 0.042621411089492245 -1.4380751788166776e-06 0 0.045799541215391495 2.1048658584949061e-06 0 0.043505269196639308 -0.00016705995560328295 0 0.045799541215391495 2.1048658584949061e-06 0 0.043505269196639308 -0.00016705995560328295 0 0.04352623954070247 0.0013928804405201692 0 0.050390806627287683 0.00042379847860129799 0 0.051543965010343251 0.00013145839518018891 0 0.045816694965961149 3.7111524076660089e-06 0 0.042679325451856598 -2.2885992263885321e-05 0 0.042575679647289692 -0.00022734442048201743 0 0.043505269196639308 -0.00016705995560328295 0 0.042679325451856598 -2.2885992263885321e-05 0 0.043505269196639308 -0.00016705995560328295 0 0.04352623954070247 0.0013928804405201692 0 0.047438590652669407 0.00097431095310851002 0 0.0468943413024299 0.00073734945538303975 0 0.045807422521123589 -1.1521841649743994e-07 0 0.0468943413024299 0.00073734945538303975 0 0.050390806627287683 0.00042379847860129799 0 0.045816694965961149 3.7111524076660089e-06 0 0.050603053277929015 0.00059544954931619242 0 0.035467724856689753 -0.00019627222286075963 0 0.035476572741098431 -0.00011442053519830507 0 0.036240730668723208 -9.0389958084259227e-07 0 0.035467724856689753 -0.00019627222286075963 0 0.035565151446307973 0.00013023770974527187 0 0.034075201031556174 8.7804632601990508e-07 0 0.035467724856689753 -0.00019627222286075963 0 0.036240730668723208 -9.0389958084259227e-07 0 0.034075201031556174 8.7804632601990508e-07 0 0.035467724856689753 -0.00019627222286075963 0 0.035546279834004497 -4.1249390138419913e-05 0 0.035476572741098431 -0.00011442053519830507 0 0.035467724856689753 -0.00019627222286075963 0 0.035546279834004497 -4.1249390138419913e-05 0 0.035565151446307973 0.00013023770974527187 0 0.035546279834004497 -4.1249390138419913e-05 0 0.035659361914140139 5.7385543377744811e-05 0 0.035565151446307973 0.00013023770974527187 0 0.035546279834004497 -4.1249390138419913e-05 0 0.035476572741098431 -0.00011442053519830507 0 0.035659361914140139 5.7385543377744811e-05 0 0.040556591625689607 0.0017200858464736864 0 0.036253607161240084 4.6413104974352701e-06 0 0.041164028178204901 0.00016253749443712761 0 0.037811483635436509 0.0008294330852310391 0 0.036247388031216722 2.9779339829279934e-07 0 0.036253607161240084 4.6413104974352701e-06 0 0.039431567563304508 -1.2110179702167078e-06 0 0.041164028178204901 0.00016253749443712761 0 0.042621411089492245 -1.4380751788166776e-06 0 0.039431567563304508 -1.2110179702167078e-06 0 0.041579012143333705 -0.00022023919207959694 0 0.039431567563304508 -1.2110179702167078e-06 0 0.041579012143333705 -0.00022023919207959694 0 0.041164028178204901 0.00016253749443712761 0 0.041579012143333705 -0.00022023919207959694 0 0.041164028178204901 0.00016253749443712761 0 0.042151087243496213 -3.4053810181483141e-05 0 0.041164028178204901 0.00016253749443712761 0 0.042790188860783271 0.00045607337134997029 0 0.042523942699406708 0.00074204690436730121 0 0.041164028178204901 0.00016253749443712761 0 0.042151087243496213 -3.4053810181483141e-05 0 0.042790188860783271 0.00045607337134997029 0 0.042799989679512145 0.00033554068828062873 0 0.043032323325477975 0.0010754469334757744 0 0.042790188860783271 0.00045607337134997029 0 0.043325237725030358 0.00094811832791757273 0 0.043651751179722052 0.0011286577550711457 0 0.043032323325477975 0.0010754469334757744 0 0.040508447952668308 0.00016979201613555219 0 0.043325237725030358 0.00094811832791757273 0 0.043597801985308361 0.00078105658535459154 0 0.043590003167037088 0.00089368756886600345 0 0.037811483635436509 0.0008294330852310391 0 0.040508447952668308 0.00016979201613555219 0 0.040556591625689607 0.0017200858464736864 0 0.042523942699406708 0.00074204690436730121 0 0.042558287259554919 0.0019620250498535671 0 0.040556591625689607 0.0017200858464736864 0 0.041164028178204901 0.00016253749443712761 0 0.042523942699406708 0.00074204690436730121 0 0.035476572741098431 -0.00011442053519830507 0 0.035659361914140139 5.7385543377744811e-05 0 0.036015806926200059 -0.00016554526484925325 0 0.040019961217638324 -0.0011960790762241386 0 0.040033395458364096 -0.0011855057916243489 0 0.04002860086499483 -0.0012038389201768393 0 0.040508447952668308 0.00016979201613555219 0 0.037965780595074078 -0.00069941029202305594 0 0.035659361914140139 5.7385543377744811e-05 0 0.036015806926200059 -0.00016554526484925325 0 0.036030605986383836 9.7342649650303338e-05 0 0.040019961217638324 -0.0011960790762241386 0 0.040033395458364096 -0.0011855057916243489 0 0.040133334026775117 -0.0011591171876723044 0 0.040508447952668308 0.00016979201613555219 0 0.041998615998951196 -0.00048539367031582263 0 0.040033395458364096 -0.0011855057916243489 0 0.040133334026775117 -0.0011591171876723044 0 0.040108080774805134 -0.0011495420491530425 0 0.040133334026775117 -0.0011591171876723044 0 0.040708813915731251 -0.00055678831824942921 0 0.040108080774805134 -0.0011495420491530425 0 0.043437014827816423 0.00025004338450327186 0 0.043590003167037088 0.00089368756886600345 0 0.043042534185573099 0.0015476105223074994 0 0.043597801985308361 0.00078105658535459154 0 0.043437014827816423 0.00025004338450327186 0 0.043590003167037088 0.00089368756886600345 0 0.043325237725030358 0.00094811832791757273 0 0.043590003167037088 0.00089368756886600345 0 0.043651751179722052 0.0011286577550711457 0 0.043538373282480364 0.0006652518019891505 0 0.043651751179722052 0.0011286577550711457 0 0.044117570666474711 0.0012303522172396344 0 0.043538373282480364 0.0006652518019891505 0 0.042790188860783271 0.00045607337134997029 0 0.043651751179722052 0.0011286577550711457 0 0.043651751179722052 0.0011286577550711457 0 0.044117570666474711 0.0012303522172396344 0 0.043042534185573099 0.0015476105223074994 0 0.043590003167037088 0.00089368756886600345 0 0.043651751179722052 0.0011286577550711457 0 0.043042534185573099 0.0015476105223074994 0 0.045138449139251337 0.0011354282794732128 0 0.044117570666474711 0.0012303522172396344 0 0.045167904435102824 0.001269022910016292 0 0.044117570666474711 0.0012303522172396344 0 0.043042534185573099 0.0015476105223074994 0 0.045167904435102824 0.001269022910016292 0 0.043042534185573099 0.0015476105223074994 0 0.039670336021235438 0.0030949066034348422 0 0.039564893009764471 0.00064906643928835169 0 0.043093479534648788 0.0015622928740499141 0 0.042436118231631882 0.0021087355028914958 0 0.039564893009764471 0.00064906643928835169 0 0.040708813915731251 -0.00055678831824942921 0 0.03906070969118107 -0.00043141990269179788 0 0.043437014827816423 0.00025004338450327186 0 0.043042534185573099 0.0015476105223074994 0 0.040708813915731251 -0.00055678831824942921 0 0.043042534185573099 0.0015476105223074994 0 0.039564893009764471 0.00064906643928835169 0 0.040708813915731251 -0.00055678831824942921 0 0.041998615998951196 -0.00048539367031582263 0 0.040584545852488468 -0.00053971784093934355 0 0.03906070969118107 -0.00043141990269179788 0 0.039586131239535319 -0.0011808819349393943 0 0.037958659103541237 -0.0010036838741920013 0 0.040708813915731251 -0.00055678831824942921 0 0.03906070969118107 -0.00043141990269179788 0 0.039586131239535319 -0.0011808819349393943 0 0.039586131239535319 -0.0011808819349393943 0 0.039359839442559684 -0.0017578822335995615 0 0.037958659103541237 -0.0010036838741920013 0 0.039586131239535319 -0.0011808819349393943 0 0.040043015366798891 -0.0013045895307700302 0 0.039681340344383351 -0.0014837861840145256 0 0.040708813915731251 -0.00055678831824942921 0 0.040043015366798891 -0.0013045895307700302 0 0.040108080774805134 -0.0011495420491530425 0 0.040708813915731251 -0.00055678831824942921 0 0.039586131239535319 -0.0011808819349393943 0 0.040043015366798891 -0.0013045895307700302 0 0.040043015366798891 -0.0013045895307700302 0 0.039803030850724438 -0.0015697654453284825 0 0.039681340344383351 -0.0014837861840145256 0 0.040043015366798891 -0.0013045895307700302 0 0.039803030850724438 -0.0015697654453284825 0 0.040030101380175334 -0.0014024910635516169 0 0.039803030850724438 -0.0015697654453284825 0 0.039359839442559684 -0.0017578822335995615 0 0.039681340344383351 -0.0014837861840145256 0 0.039586131239535319 -0.0011808819349393943 0 0.039359839442559684 -0.0017578822335995615 0 0.039681340344383351 -0.0014837861840145256 0 0.039803030850724438 -0.0015697654453284825 0 0.039359839442559684 -0.0017578822335995615 0 0.039678892776431565 -0.0017257025933744377 0 0.038389809612641018 -0.0016643744390319364 0 0.038546422986603046 -0.0018919654351568769 0 0.037481683661457418 -0.0017065071105320587 0 0.037454452179297618 -0.001994434054116148 0 0.037563795727579896 -0.0021461684137810953 0 0.036099979638900409 -0.0019453112170027141 0 0.036026084286446672 -0.0025281214536795348 0 0.036641613507200847 -0.0030188709783537538 0 0.037454452179297618 -0.001994434054116148 0 0.037563795727579896 -0.0021461684137810953 0 0.037566470436971651 -0.0023930325269857391 0 0.036718111232087403 -0.0018441092097011627 0 0.03772331372425268 -0.0029593117909244909 0 0.036026084286446672 -0.0025281214536795348 0 0.036135324665706167 -0.002880961825733028 0 0.036641613507200847 -0.0030188709783537538 0 0.036135324665706167 -0.002880961825733028 0 0.03569385418345597 -0.0027758819375898317 0 0.036049470821588915 -0.0033998250641060616 0 0.036026084286446672 -0.0025281214536795348 0 0.036135324665706167 -0.002880961825733028 0 0.03569385418345597 -0.0027758819375898317 0 0.038546422986603046 -0.0018919654351568769 0 0.039167939526963791 -0.002266806810946632 0 0.037563795727579896 -0.0021461684137810953 0 0.037566470436971651 -0.0023930325269857391 0 0.037597144000886505 -0.0024501951409186535 0 0.039678892776431565 -0.0017257025933744377 0 0.03980926630407345 -0.0017308781973826538 0 0.039762978560602201 -0.0018406204106148417 0 0.03980926630407345 -0.0017308781973826538 0 0.039813291534731766 -0.0018116925001415091 0 0.039762978560602201 -0.0018406204106148417 0 0.039803030850724438 -0.0015697654453284825 0 0.039678892776431565 -0.0017257025933744377 0 0.039788748785515159 -0.0016339619380715568 0 0.039803030850724438 -0.0015697654453284825 0 0.039788748785515159 -0.0016339619380715568 0 0.040030101380175334 -0.0014024910635516169 0 0.039678892776431565 -0.0017257025933744377 0 0.03980926630407345 -0.0017308781973826538 0 0.039788748785515159 -0.0016339619380715568 0 0.03980926630407345 -0.0017308781973826538 0 0.039788748785515159 -0.0016339619380715568 0 0.040030101380175334 -0.0014024910635516169 0 0.039723688210642566 -0.0013327882729193845 0 0.041059307782932312 -0.00097188482560521658 0 0.040030101380175334 -0.0014024910635516169 0 0.039978210500778155 -0.00010608385949850967 0 0.039677835657006937 -0.00081540144295698543 0 0.03980926630407345 -0.0017308781973826538 0 0.040030101380175334 -0.0014024910635516169 0 0.039891381758242708 -0.0018188742014696837 0 0.03980926630407345 -0.0017308781973826538 0 0.039891381758242708 -0.0018188742014696837 0 0.039813291534731766 -0.0018116925001415091 0 0.039978210500778155 -0.00010608385949850967 0 0.03920636201074975 3.4723615706474553e-05 0 0.039445061550226992 -0.00038418852478778093 0 0.03920636201074975 3.4723615706474553e-05 0 0.039445061550226992 -0.00038418852478778093 0 0.039063102199788043 -0.00044667595409313848 0 0.039978210500778155 -0.00010608385949850967 0 0.039445061550226992 -0.00038418852478778093 0 0.039677835657006937 -0.00081540144295698543 0 0.039445061550226992 -0.00038418852478778093 0 0.039333354749027813 -0.00070876010399034857 0 0.039063102199788043 -0.00044667595409313848 0 0.039445061550226992 -0.00038418852478778093 0 0.039333354749027813 -0.00070876010399034857 0 0.039677835657006937 -0.00081540144295698543 0 0.039333354749027813 -0.00070876010399034857 0 0.039410782815073965 -0.001054102184519662 0 0.039036744996799981 -0.00081639910024397348 0 0.039333354749027813 -0.00070876010399034857 0 0.039677835657006937 -0.00081540144295698543 0 0.039410782815073965 -0.001054102184519662 0 0.039677835657006937 -0.00081540144295698543 0 0.039410782815073965 -0.001054102184519662 0 0.039754227340340148 -0.0013038618746857875 0 0.040030101380175334 -0.0014024910635516169 0 0.039677835657006937 -0.00081540144295698543 0 0.039754227340340148 -0.0013038618746857875 0 0.039410782815073965 -0.001054102184519662 0 0.039429068121581798 -0.001296190815307673 0 0.039754227340340148 -0.0013038618746857875 0 0.039429068121581798 -0.001296190815307673 0 0.039712459748041391 -0.0014734048654301106 0 0.039754227340340148 -0.0013038618746857875 0 0.039712459748041391 -0.0014734048654301106 0 0.039952085119750701 -0.0013704398822323733 0 0.039938516547569525 -0.001282362969176892 0 0.039712459748041391 -0.0014734048654301106 0 0.039938516547569525 -0.001282362969176892 0 0.039955908821794887 -0.0014078692482830978 0 0.039712459748041391 -0.0014734048654301106 0 0.039952085119750701 -0.0013704398822323733 0 0.039754227340340148 -0.0013038618746857875 0 0.040030101380175334 -0.0014024910635516169 0 0.039952085119750701 -0.0013704398822323733 0 0.039754227340340148 -0.0013038618746857875 0 0.040043015366798891 -0.0013045895307700302 0 0.040030101380175334 -0.0014024910635516169 0 0.039952085119750701 -0.0013704398822323733 0 0.040043015366798891 -0.0013045895307700302 0 0.039952085119750701 -0.0013704398822323733 0 0.040108080774805134 -0.0011495420491530425 0 0.040033395458364096 -0.0011855057916243489 0 0.040108080774805134 -0.0011495420491530425 0 0.039938516547569525 -0.001282362969176892 0 0.039952085119750701 -0.0013704398822323733 0 0.040108080774805134 -0.0011495420491530425 0 0.039938516547569525 -0.001282362969176892 0 0.040033395458364096 -0.0011855057916243489 0 0.039938516547569525 -0.001282362969176892 0 0.04002860086499483 -0.0012038389201768393 0 0.036030605986383836 9.7342649650303338e-05 0 0.035735720646245958 0.00025376956122771295 0 0.036068559518981858 0.0003580057403484458 0 0.037965780595074078 -0.00069941029202305594 0 0.038122109598402579 -0.00077639203771319573 0 0.039938516547569525 -0.001282362969176892 0 0.04002860086499483 -0.0012038389201768393 0 0.039955908821794887 -0.0014078692482830978 0 0.035659361914140139 5.7385543377744811e-05 0 0.036030605986383836 9.7342649650303338e-05 0 0.035735720646245958 0.00025376956122771295 0 0.038245640112186528 -0.0015508196591924454 0 0.037646265277802016 -0.001066013192507326 0 0.037345003763408088 -0.0017295728489805525 0 0.037852988318806992 -0.0022580183295430713 0 0.038245640112186528 -0.0015508196591924454 0 0.037345003763408088 -0.0017295728489805525 0 0.037852988318806992 -0.0022580183295430713 0 0.038245640112186528 -0.0015508196591924454 0 0.039043021077209757 -0.0018554376929313305 0 0.038245640112186528 -0.0015508196591924454 0 0.03881696681436534 -0.0013941718038390292 0 0.039043021077209757 -0.0018554376929313305 0 0.036823723116483582 -0.0010260163139314024 0 0.038122109598402579 -0.00077639203771319573 0 0.039483886466296823 -0.00098767558210643394 0 0.038122109598402579 -0.00077639203771319573 0 0.039712459748041391 -0.0014734048654301106 0 0.039074622446606304 -0.001840086783992272 0 0.039103276176116565 -0.0015183273501422569 0 0.03881696681436534 -0.0013941718038390292 0 0.039043021077209757 -0.0018554376929313305 0 0.039103276176116565 -0.0015183273501422569 0 0.039429068121581798 -0.001296190815307673 0 0.039712459748041391 -0.0014734048654301106 0 0.039103276176116565 -0.0015183273501422569 0 0.038122109598402579 -0.00077639203771319573 0 0.03831464488718437 -0.0012665444163458121 0 0.03881696681436534 -0.0013941718038390292 0 0.039103276176116565 -0.0015183273501422569 0 0.039059038528583744 -0.0011531135345636213 0 0.039429068121581798 -0.001296190815307673 0 0.039103276176116565 -0.0015183273501422569 0 0.039059038528583744 -0.0011531135345636213 0 0.039410782815073965 -0.001054102184519662 0 0.039429068121581798 -0.001296190815307673 0 0.039059038528583744 -0.0011531135345636213 0 0.039410782815073965 -0.001054102184519662 0 0.039059038528583744 -0.0011531135345636213 0 0.039036744996799981 -0.00081639910024397348 0 0.039059038528583744 -0.0011531135345636213 0 0.03863502099718219 -0.00097819093741303553 0 0.039036744996799981 -0.00081639910024397348 0 0.038245640112186528 -0.0015508196591924454 0 0.03881696681436534 -0.0013941718038390292 0 0.03863502099718219 -0.00097819093741303553 0 0.03881696681436534 -0.0013941718038390292 0 0.039059038528583744 -0.0011531135345636213 0 0.03863502099718219 -0.00097819093741303553 0 0.03863502099718219 -0.00097819093741303553 0 0.038669524457047841 -0.00060322926267865698 0 0.038138435343686897 -0.0006965294284550092 0 0.03863502099718219 -0.00097819093741303553 0 0.038669524457047841 -0.00060322926267865698 0 0.039036744996799981 -0.00081639910024397348 0 0.038669524457047841 -0.00060322926267865698 0 0.039036744996799981 -0.00081639910024397348 0 0.039063102199788043 -0.00044667595409313848 0 0.039333354749027813 -0.00070876010399034857 0 0.039036744996799981 -0.00081639910024397348 0 0.039063102199788043 -0.00044667595409313848 0 0.038669524457047841 -0.00060322926267865698 0 0.039063102199788043 -0.00044667595409313848 0 0.038562818750651505 -0.00011755084051608812 0 0.038669524457047841 -0.00060322926267865698 0 0.038562818750651505 -0.00011755084051608812 0 0.038138435343686897 -0.0006965294284550092 0 0.03920636201074975 3.4723615706474553e-05 0 0.039063102199788043 -0.00044667595409313848 0 0.038562818750651505 -0.00011755084051608812 0 0.038562818750651505 -0.00011755084051608812 0 0.037695388242339034 -0.00011067907207213762 0 0.038138435343686897 -0.0006965294284550092 0 0.038562818750651505 -0.00011755084051608812 0 0.037695388242339034 -0.00011067907207213762 0 0.038776228582948095 0.00046240095634651941 0 0.038245640112186528 -0.0015508196591924454 0 0.038138435343686897 -0.0006965294284550092 0 0.037646265277802016 -0.001066013192507326 0 0.037695388242339034 -0.00011067907207213762 0 0.038138435343686897 -0.0006965294284550092 0 0.037646265277802016 -0.001066013192507326 0 0.038245640112186528 -0.0015508196591924454 0 0.03863502099718219 -0.00097819093741303553 0 0.038138435343686897 -0.0006965294284550092 0 0.037695388242339034 -0.00011067907207213762 0 0.037646265277802016 -0.001066013192507326 0 0.037041813017564713 -0.0011701958349058697 0 0.037041813017564713 -0.0011701958349058697 0 0.036443488467279087 -0.0008653026532271387 0 0.036588356910791764 -0.0017337088074955355 0 0.037695388242339034 -0.00011067907207213762 0 0.037041813017564713 -0.0011701958349058697 0 0.036443488467279087 -0.0008653026532271387 0 0.037646265277802016 -0.001066013192507326 0 0.037041813017564713 -0.0011701958349058697 0 0.037345003763408088 -0.0017295728489805525 0 0.021442791552003661 0.0027475102432383703 0 0.022483021639141201 0.0027324657837794037 0 0.023026543286656018 0.0038608796636423813 0 0.02968813254483851 0.001338571405589635 0 0.029348920922560199 0.0012033773455963086 0 0.021442791552003661 0.0027475102432383703 0 0.022483021639141201 0.0027324657837794037 0 0.022210853778394064 0.0020071845706689799 0 0.027877230948134386 -7.0391856583984392e-07 0 0.02941665060752759 -4.8422342409617776e-06 0 0.027463203044093908 2.6292638858329548e-05 0 0.022483021639141201 0.0027324657837794037 0 0.023026543286656018 0.0038608796636423813 0 0.023254093457586857 0.0022783824025941523 0 0.029348920922560199 0.0012033773455963086 0 0.024964790884463878 0.0011815902501738792 0 0.029348920922560199 0.0012033773455963086 0 0.03435177715235458 -0.0013715418376039074 0 0.031782311911621397 0.00073364877590120098 0 0.030847641758785436 1.5748910506219032e-08 0 0.032099943897457683 -0.00028860656482710773 0 0.027877230948134386 -7.0391856583984392e-07 0 0.02941665060752759 -4.8422342409617776e-06 0 0.030838524608835051 7.398447589384271e-07 0 0.029348920922560199 0.0012033773455963086 0 0.030841526038564448 6.0631842784285088e-07 0 0.030847641758785436 1.5748910506219032e-08 0 0.032099943897457683 -0.00028860656482710773 0 0.034063622376627377 -3.5041876137549611e-08 0 0.03435177715235458 -0.0013715418376039074 0 0.035339823045295898 -0.000757289534168329 0 0.036588356910791764 -0.0017337088074955355 0 0.037345003763408088 -0.0017295728489805525 0 0.036714921575259275 -0.0026066267821925819 0 0.037041813017564713 -0.0011701958349058697 0 0.036588356910791764 -0.0017337088074955355 0 0.037345003763408088 -0.0017295728489805525 0 0.036823723116483582 -0.0010260163139314024 0 0.035339823045295898 -0.000757289534168329 0 0.035659361914140139 5.7385543377744811e-05 0 0.035735720646245958 0.00025376956122771295 0 0.03554911451085576 0.00016072606489288344 0 0.037852988318806992 -0.0022580183295430713 0 0.037345003763408088 -0.0017295728489805525 0 0.036714921575259275 -0.0026066267821925819 0 0.035659361914140139 5.7385543377744811e-05 0 0.03554911451085576 0.00016072606489288344 0 0.035565151446307973 0.00013023770974527187 0 0.035339823045295898 -0.000757289534168329 0 0.035330687159447642 -0.00024117088230150562 0 0.035339823045295898 -0.000757289534168329 0 0.034068564032513939 -9.6667136123150787e-08 0 0.032099943897457683 -0.00028860656482710773 0 0.032584679410840867 0.00014664443996557886 0 0.034063622376627377 -3.5041876137549611e-08 0 0.035503580756448071 0.00053132292181936583 0 0.035565151446307973 0.00013023770974527187 0 0.034075201031556174 8.7804632601990508e-07 0 0.034674919027090252 -0.00088116429923724786 0 0.034498940375516929 -0.00096161798963690596 0 0.034462885152023837 -0.0012474480016242853 0 0.035427972649520509 -0.00055812002697635198 0 0.035026551210616978 -0.00015057439019021727 0 0.036247429280407646 -0.00031351449104842998 0 0.035074026414054757 -0.00013855204524554525 0 0.036063027481336336 0.0004995385645802866 0 0.036247429280407646 -0.00031351449104842998 0 0.036063027481336336 0.0004995385645802866 0 0.036740940094294947 0.00075549374084243534 0 0.034674919027090252 -0.00088116429923724786 0 0.034498940375516929 -0.00096161798963690596 0 0.035074026414054757 -0.00013855204524554525 0 0.033671487761564534 -0.0012955205398573427 0 0.033849622704898975 -0.00032338491399238456 0 0.034498940375516929 -0.00096161798963690596 0 0.033849622704898975 -0.00032338491399238456 0 0.034498940375516929 -0.00096161798963690596 0 0.034524967981872039 8.902511447575385e-05 0 0.034498940375516929 -0.00096161798963690596 0 0.034524967981872039 8.902511447575385e-05 0 0.035074026414054757 -0.00013855204524554525 0 0.034524967981872039 8.902511447575385e-05 0 0.035074026414054757 -0.00013855204524554525 0 0.035373000928186543 0.00084187894487931032 0 0.034524967981872039 8.902511447575385e-05 0 0.034528964698745931 0.00094631923273468508 0 0.035373000928186543 0.00084187894487931032 0 0.035109281948670613 0.0014942021991773168 0 0.034528964698745931 0.00094631923273468508 0 0.035373000928186543 0.00084187894487931032 0 0.034477952974206423 0.0016332160708128582 0 0.035109281948670613 0.0014942021991773168 0 0.034528964698745931 0.00094631923273468508 0 0.035883506997401879 0.001623953793438293 0 0.035109281948670613 0.0014942021991773168 0 0.035373000928186543 0.00084187894487931032 0 0.035883506997401879 0.001623953793438293 0 0.035373000928186543 0.00084187894487931032 0 0.036423947475588081 0.001236897224216812 0 0.035373000928186543 0.00084187894487931032 0 0.036423947475588081 0.001236897224216812 0 0.036063027481336336 0.0004995385645802866 0 0.035074026414054757 -0.00013855204524554525 0 0.035373000928186543 0.00084187894487931032 0 0.036063027481336336 0.0004995385645802866 0 0.036423947475588081 0.001236897224216812 0 0.036063027481336336 0.0004995385645802866 0 0.036740940094294947 0.00075549374084243534 0 0.036423947475588081 0.001236897224216812 0 0.036942450428114018 0.0013905247257651574 0 0.036740940094294947 0.00075549374084243534 0 0.036942450428114018 0.0013905247257651574 0 0.037172768599096837 0.0012548051674319226 0 0.036740940094294947 0.00075549374084243534 0 0.037252628071050467 0.0016733539787779929 0 0.036942450428114018 0.0013905247257651574 0 0.037172768599096837 0.0012548051674319226 0 0.037252628071050467 0.0016733539787779929 0 0.037172768599096837 0.0012548051674319226 0 0.037521665949228081 0.0014500606215611144 0 0.037172768599096837 0.0012548051674319226 0 0.037521665949228081 0.0014500606215611144 0 0.03729244296638478 0.0009499668362925465 0 0.03729244296638478 0.0009499668362925465 0 0.036740940094294947 0.00075549374084243534 0 0.036950396654981878 0.0002105174409720372 0 0.03729244296638478 0.0009499668362925465 0 0.037794887911402619 0.0010267781347974268 0 0.036950396654981878 0.0002105174409720372 0 0.037172768599096837 0.0012548051674319226 0 0.03729244296638478 0.0009499668362925465 0 0.036740940094294947 0.00075549374084243534 0 0.039670336021235438 0.0030949066034348422 0 0.038104078152679174 0.0028359651972107605 0 0.037794887911402619 0.0010267781347974268 0 0.037572270679903978 0.0040624067410657992 0 0.039670336021235438 0.0030949066034348422 0 0.038104078152679174 0.0028359651972107605 0 0.036607384901915466 0.0027964117493625498 0 0.038010100699480874 0.00089145777657476046 0 0.036881551750443504 0.0034457611363249655 0 0.038104078152679174 0.0028359651972107605 0 0.037794887911402619 0.0010267781347974268 0 0.037572270679903978 0.0040624067410657992 0 0.036881551750443504 0.0034457611363249655 0 0.038104078152679174 0.0028359651972107605 0 0.037521665949228081 0.0014500606215611144 0 0.03729244296638478 0.0009499668362925465 0 0.037794887911402619 0.0010267781347974268 0 0.039670336021235438 0.0030949066034348422 0 0.039564893009764471 0.00064906643928835169 0 0.037794887911402619 0.0010267781347974268 0 0.039564893009764471 0.00064906643928835169 0 0.03906070969118107 -0.00043141990269179788 0 0.038183945199283441 8.9684380134367645e-05 0 0.039564893009764471 0.00064906643928835169 0 0.037794887911402619 0.0010267781347974268 0 0.038183945199283441 8.9684380134367645e-05 0 0.037794887911402619 0.0010267781347974268 0 0.03712229492906069 -0.00024441628925127084 0 0.036950396654981878 0.0002105174409720372 0 0.037794887911402619 0.0010267781347974268 0 0.038183945199283441 8.9684380134367645e-05 0 0.03712229492906069 -0.00024441628925127084 0 0.038183945199283441 8.9684380134367645e-05 0 0.03712229492906069 -0.00024441628925127084 0 0.037700061124405604 -0.00052690609413796007 0 0.03712229492906069 -0.00024441628925127084 0 0.037700061124405604 -0.00052690609413796007 0 0.036900310715835355 -0.00086208490109924464 0 0.03906070969118107 -0.00043141990269179788 0 0.038183945199283441 8.9684380134367645e-05 0 0.037700061124405604 -0.00052690609413796007 0 0.037700061124405604 -0.00052690609413796007 0 0.037958659103541237 -0.0010036838741920013 0 0.036900310715835355 -0.00086208490109924464 0 0.03906070969118107 -0.00043141990269179788 0 0.037700061124405604 -0.00052690609413796007 0 0.037958659103541237 -0.0010036838741920013 0 0.036247429280407646 -0.00031351449104842998 0 0.036740940094294947 0.00075549374084243534 0 0.036950396654981878 0.0002105174409720372 0 0.03712229492906069 -0.00024441628925127084 0 0.03667131313013413 -0.00066569276700432427 0 0.036900310715835355 -0.00086208490109924464 0 0.03712229492906069 -0.00024441628925127084 0 0.036950396654981878 0.0002105174409720372 0 0.03667131313013413 -0.00066569276700432427 0 0.036247429280407646 -0.00031351449104842998 0 0.036950396654981878 0.0002105174409720372 0 0.03667131313013413 -0.00066569276700432427 0 0.034674919027090252 -0.00088116429923724786 0 0.034731129675799617 -0.00097648815507090628 0 0.034462885152023837 -0.0012474480016242853 0 0.035427972649520509 -0.00055812002697635198 0 0.035738460134216755 -0.0008637331290823069 0 0.034731129675799617 -0.00097648815507090628 0 0.034410252291604423 -0.0016113563825122697 0 0.034462885152023837 -0.0012474480016242853 0 0.034731129675799617 -0.00097648815507090628 0 0.034410252291604423 -0.0016113563825122697 0 0.036205154642493763 -0.0013608527868931193 0 0.035738460134216755 -0.0008637331290823069 0 0.036244555391888651 -0.0013419838421920354 0 0.034410252291604423 -0.0016113563825122697 0 0.036205154642493763 -0.0013608527868931193 0 0.034944372429729191 -0.0019486088465446362 0 0.038389809612641018 -0.0016643744390319364 0 0.037960180594493742 -0.00095836584026281059 0 0.037481683661457418 -0.0017065071105320587 0 0.037958659103541237 -0.0010036838741920013 0 0.037246415237988932 -0.00132569219572342 0 0.037958659103541237 -0.0010036838741920013 0 0.037246415237988932 -0.00132569219572342 0 0.036900310715835355 -0.00086208490109924464 0 0.03667131313013413 -0.00066569276700432427 0 0.036900310715835355 -0.00086208490109924464 0 0.036205154642493763 -0.0013608527868931193 0 0.037246415237988932 -0.00132569219572342 0 0.036900310715835355 -0.00086208490109924464 0 0.036205154642493763 -0.0013608527868931193 0 0.035771039391356126 -0.0018352936849857532 0 0.036205154642493763 -0.0013608527868931193 0 0.034944372429729191 -0.0019486088465446362 0 0.037246415237988932 -0.00132569219572342 0 0.036392603061155576 -0.0015661695147454213 0 0.036205154642493763 -0.0013608527868931193 0 0.035771039391356126 -0.0018352936849857532 0 0.036392603061155576 -0.0015661695147454213 0 0.036205154642493763 -0.0013608527868931193 0 0.037481683661457418 -0.0017065071105320587 0 0.037454452179297618 -0.001994434054116148 0 0.037246415237988932 -0.00132569219572342 0 0.036099979638900409 -0.0019453112170027141 0 0.037246415237988932 -0.00132569219572342 0 0.036326085221099473 -0.0017372900811396072 0 0.037246415237988932 -0.00132569219572342 0 0.036392603061155576 -0.0015661695147454213 0 0.036326085221099473 -0.0017372900811396072 0 0.036718111232087403 -0.0018441092097011627 0 0.037147679182530369 -0.0013832904626447998 0 0.035771039391356126 -0.0018352936849857532 0 0.036392603061155576 -0.0015661695147454213 0 0.036326085221099473 -0.0017372900811396072 0 0.036099979638900409 -0.0019453112170027141 0 0.036026084286446672 -0.0025281214536795348 0 0.035724776831225567 -0.0020946477220783683 0 0.036099979638900409 -0.0019453112170027141 0 0.036326085221099473 -0.0017372900811396072 0 0.035724776831225567 -0.0020946477220783683 0 0.035771039391356126 -0.0018352936849857532 0 0.036326085221099473 -0.0017372900811396072 0 0.035724776831225567 -0.0020946477220783683 0 0.035771039391356126 -0.0018352936849857532 0 0.035724776831225567 -0.0020946477220783683 0 0.034978828386474314 -0.0022371403573604154 0 0.035771039391356126 -0.0018352936849857532 0 0.034978828386474314 -0.0022371403573604154 0 0.034944372429729191 -0.0019486088465446362 0 0.035724776831225567 -0.0020946477220783683 0 0.034978828386474314 -0.0022371403573604154 0 0.034581753266424826 -0.0026988725745720325 0 0.034581753266424826 -0.0026988725745720325 0 0.033893896311030486 -0.0025705232071476609 0 0.032885155718893451 -0.0033556473939830426 0 0.034978828386474314 -0.0022371403573604154 0 0.034581753266424826 -0.0026988725745720325 0 0.033893896311030486 -0.0025705232071476609 0 0.036026084286446672 -0.0025281214536795348 0 0.035724776831225567 -0.0020946477220783683 0 0.03569385418345597 -0.0027758819375898317 0 0.035724776831225567 -0.0020946477220783683 0 0.034581753266424826 -0.0026988725745720325 0 0.03569385418345597 -0.0027758819375898317 0 0.034410252291604423 -0.0016113563825122697 0 0.034118596474383985 -0.0022060496897401108 0 0.033982821629523159 -0.002090017605827586 0 0.034118596474383985 -0.0022060496897401108 0 0.033715156848997778 -0.0024271963195730138 0 0.033982821629523159 -0.002090017605827586 0 0.034978828386474314 -0.0022371403573604154 0 0.034944372429729191 -0.0019486088465446362 0 0.033893896311030486 -0.0025705232071476609 0 0.034118596474383985 -0.0022060496897401108 0 0.034944372429729191 -0.0019486088465446362 0 0.033893896311030486 -0.0025705232071476609 0 0.034410252291604423 -0.0016113563825122697 0 0.034118596474383985 -0.0022060496897401108 0 0.034944372429729191 -0.0019486088465446362 0 0.033893896311030486 -0.0025705232071476609 0 0.033715156848997778 -0.0024271963195730138 0 0.03330648717985208 -0.0027289969238472986 0 0.034118596474383985 -0.0022060496897401108 0 0.033893896311030486 -0.0025705232071476609 0 0.033715156848997778 -0.0024271963195730138 0 0.033715156848997778 -0.0024271963195730138 0 0.033852166485688 -0.002229559490868688 0 0.033982821629523159 -0.002090017605827586 0 0.033852166485688 -0.002229559490868688 0 0.033998927462215237 -0.001990365711077558 0 0.033982821629523159 -0.002090017605827586 0 0.033998927462215237 -0.001990365711077558 0 0.033982821629523159 -0.002090017605827586 0 0.034203722887988723 -0.001624206835853133 0 0.034498940375516929 -0.00096161798963690596 0 0.034203722887988723 -0.001624206835853133 0 0.034462885152023837 -0.0012474480016242853 0 0.034410252291604423 -0.0016113563825122697 0 0.034203722887988723 -0.001624206835853133 0 0.034462885152023837 -0.0012474480016242853 0 0.034410252291604423 -0.0016113563825122697 0 0.033982821629523159 -0.002090017605827586 0 0.034203722887988723 -0.001624206835853133 0 0.033671487761564534 -0.0012955205398573427 0 0.034498940375516929 -0.00096161798963690596 0 0.034040956530704346 -0.0016797424780629411 0 0.034498940375516929 -0.00096161798963690596 0 0.034203722887988723 -0.001624206835853133 0 0.034040956530704346 -0.0016797424780629411 0 0.033998927462215237 -0.001990365711077558 0 0.034203722887988723 -0.001624206835853133 0 0.034040956530704346 -0.0016797424780629411 0 0.033746532204510737 -0.0018749616586761473 0 0.034040956530704346 -0.0016797424780629411 0 0.033961172107201239 -0.0020131293363737689 0 0.033998927462215237 -0.001990365711077558 0 0.034040956530704346 -0.0016797424780629411 0 0.033961172107201239 -0.0020131293363737689 0 0.033852166485688 -0.002229559490868688 0 0.033998927462215237 -0.001990365711077558 0 0.033961172107201239 -0.0020131293363737689 0 0.033852166485688 -0.002229559490868688 0 0.033961172107201239 -0.0020131293363737689 0 0.033972019345729527 -0.0020685705216774665 0 0.033961172107201239 -0.0020131293363737689 0 0.033972019345729527 -0.0020685705216774665 0 0.033936288526226634 -0.0020397158632980686 0 0.033972019345729527 -0.0020685705216774665 0 0.034031275666091508 -0.0019610687648057208 0 0.033936288526226634 -0.0020397158632980686 0 0.033972019345729527 -0.0020685705216774665 0 0.03397830919517042 -0.0019259086732743393 0 0.033731186691136131 -0.0020567659888470263 0 0.033972019345729527 -0.0020685705216774665 0 0.03397830919517042 -0.0019259086732743393 0 0.034031275666091508 -0.0019610687648057208 0 0.03397830919517042 -0.0019259086732743393 0 0.034031275666091508 -0.0019610687648057208 0 0.034065924862000573 -0.0017679407268644072 0 0.034031275666091508 -0.0019610687648057208 0 0.034065924862000573 -0.0017679407268644072 0 0.034079597384523215 -0.001943104467350831 0 0.034883472023870279 -0.0012542333236698882 0 0.033862263112538878 -0.00091187684456265163 0 0.03397830919517042 -0.0019259086732743393 0 0.034065924862000573 -0.0017679407268644072 0 0.033834516670495786 -0.0012798972357790646 0 0.035298158932705374 -0.00090016217750489113 0 0.034964752795511214 -0.00021493897982023289 0 0.034103523910559035 -0.00058242380341829434 0 0.034964752795511214 -0.00021493897982023289 0 0.035552192640621323 -3.5859910628551687e-05 0 0.035801243155201667 -0.00060342113167959456 0 0.032673082773867483 -0.0014736000464224467 0 0.032517616084631669 -0.001050817849193019 0 0.03387189255313533 -0.002201407558195494 0 0.035298158932705374 -0.00090016217750489113 0 0.034964752795511214 -0.00021493897982023289 0 0.035801243155201667 -0.00060342113167959456 0 0.033862263112538878 -0.00091187684456265163 0 0.032587879577530933 -0.00032114145174866874 0 0.034103523910559035 -0.00058242380341829434 0 0.032526992127315045 -0.00028313517406040444 0 0.033174192376775491 0.00068617210221489462 0 0.033834516670495786 -0.0012798972357790646 0 0.033164820265450694 -0.0015340364725420035 0 0.032526992127315045 -0.00028313517406040444 0 0.034964752795511214 -0.00021493897982023289 0 0.034103523910559035 -0.00058242380341829434 0 0.034094462405864424 0.00036240408397231948 0 0.033834516670495786 -0.0012798972357790646 0 0.033164820265450694 -0.0015340364725420035 0 0.033731186691136131 -0.0020567659888470263 0 0.03397830919517042 -0.0019259086732743393 0 0.033834516670495786 -0.0012798972357790646 0 0.033731186691136131 -0.0020567659888470263 0 0.033164820265450694 -0.0015340364725420035 0 0.033731186691136131 -0.0020567659888470263 0 0.033085963937064519 -0.0021698847362855668 0 0.033731186691136131 -0.0020567659888470263 0 0.033553745188049718 -0.0023822857132871399 0 0.033085963937064519 -0.0021698847362855668 0 0.033852166485688 -0.002229559490868688 0 0.033972019345729527 -0.0020685705216774665 0 0.033731186691136131 -0.0020567659888470263 0 0.033852166485688 -0.002229559490868688 0 0.033731186691136131 -0.0020567659888470263 0 0.033553745188049718 -0.0023822857132871399 0 0.033715156848997778 -0.0024271963195730138 0 0.033852166485688 -0.002229559490868688 0 0.033553745188049718 -0.0023822857132871399 0 0.033715156848997778 -0.0024271963195730138 0 0.033553745188049718 -0.0023822857132871399 0 0.03330648717985208 -0.0027289969238472986 0 0.033553745188049718 -0.0023822857132871399 0 0.03330648717985208 -0.0027289969238472986 0 0.033085963937064519 -0.0021698847362855668 0 0.03330648717985208 -0.0027289969238472986 0 0.032293564289196032 -0.0022937167845005929 0 0.032885155718893451 -0.0033556473939830426 0 0.033893896311030486 -0.0025705232071476609 0 0.03330648717985208 -0.0027289969238472986 0 0.032885155718893451 -0.0033556473939830426 0 0.03330648717985208 -0.0027289969238472986 0 0.032293564289196032 -0.0022937167845005929 0 0.033085963937064519 -0.0021698847362855668 0 0.034581753266424826 -0.0026988725745720325 0 0.03569385418345597 -0.0027758819375898317 0 0.035242553908351688 -0.0039413697459323854 0 0.03569385418345597 -0.0027758819375898317 0 0.035242553908351688 -0.0039413697459323854 0 0.036049470821588915 -0.0033998250641060616 0 0.034581753266424826 -0.0026988725745720325 0 0.035242553908351688 -0.0039413697459323854 0 0.032885155718893451 -0.0033556473939830426 0 0.032469118968542973 -0.0035614110613247695 0 0.032745164610249226 -0.0034325907481847686 0 0.032293564289196032 -0.0022937167845005929 0 0.032885155718893451 -0.0033556473939830426 0 0.030621573830706943 -0.00210698019528022 0 0.029587200254048814 -0.0033268264047934598 0 0.032885155718893451 -0.0033556473939830426 0 0.030621573830706943 -0.00210698019528022 0 0.029587200254048814 -0.0033268264047934598 0 0.030621573830706943 -0.00210698019528022 0 0.028788074694753949 -0.0019745736630234724 0 0.029587200254048814 -0.0033268264047934598 0 0.028788074694753949 -0.0019745736630234724 0 0.02803596064200509 -0.0027387868926832433 0 0.030621573830706943 -0.00210698019528022 0 0.028788074694753949 -0.0019745736630234724 0 0.028584933818242991 -0.00095867379067701393 0 0.030621573830706943 -0.00210698019528022 0 0.028584933818242991 -0.00095867379067701393 0 0.031011551440012643 -0.0013254787278741387 0 0.029351098102273345 -0.00019737120234944919 0 0.028584933818242991 -0.00095867379067701393 0 0.028029788405766105 0.00038035520663434763 0 0.029351098102273345 -0.00019737120234944919 0 0.028584933818242991 -0.00095867379067701393 0 0.031011551440012643 -0.0013254787278741387 0 0.028584933818242991 -0.00095867379067701393 0 0.028029788405766105 0.00038035520663434763 0 0.02693391502461389 0.00020603763433853513 0 0.033164820265450694 -0.0015340364725420035 0 0.033085963937064519 -0.0021698847362855668 0 0.0322075438840808 -0.0013026323107682648 0 0.032293564289196032 -0.0022937167845005929 0 0.033085963937064519 -0.0021698847362855668 0 0.0322075438840808 -0.0013026323107682648 0 0.032293564289196032 -0.0022937167845005929 0 0.0322075438840808 -0.0013026323107682648 0 0.031011551440012643 -0.0013254787278741387 0 0.032293564289196032 -0.0022937167845005929 0 0.030621573830706943 -0.00210698019528022 0 0.031011551440012643 -0.0013254787278741387 0 0.029351098102273345 -0.00019737120234944919 0 0.031011551440012643 -0.0013254787278741387 0 0.0309438545367909 -0.00012734813641148668 0 0.0322075438840808 -0.0013026323107682648 0 0.031011551440012643 -0.0013254787278741387 0 0.0309438545367909 -0.00012734813641148668 0 0.0322075438840808 -0.0013026323107682648 0 0.032526992127315045 -0.00028313517406040444 0 0.0309438545367909 -0.00012734813641148668 0 0.033164820265450694 -0.0015340364725420035 0 0.0322075438840808 -0.0013026323107682648 0 0.032526992127315045 -0.00028313517406040444 0 0.032526992127315045 -0.00028313517406040444 0 0.032144336514655904 0.0014671598847936181 0 0.033174192376775491 0.00068617210221489462 0 0.032526992127315045 -0.00028313517406040444 0 0.0309438545367909 -0.00012734813641148668 0 0.032144336514655904 0.0014671598847936181 0 0.029351098102273345 -0.00019737120234944919 0 0.0309438545367909 -0.00012734813641148668 0 0.028497330820243409 0.0011557849331426827 0 0.0309438545367909 -0.00012734813641148668 0 0.032144336514655904 0.0014671598847936181 0 0.028497330820243409 0.0011557849331426827 0 0.029549575302640095 0.0014621502354173733 0 0.028468308402376824 0.001174432970965829 0 0.027277570929323366 0.0011210302260123923 0 0.026802053191413874 0.0014055486736136312 0 0.028497330820243409 0.0011557849331426827 0 0.027277570929323366 0.0011210302260123923 0 0.028497330820243409 0.0011557849331426827 0 0.027371993844483744 0.0010512667161529825 0 0.027277570929323366 0.0011210302260123923 0 0.02629514253845644 0.0013447857770369036 0 0.02662839090277528 0.0012058300540476962 0 0.02712677849642478 0.0011878041939116064 0 0.026628088073910119 0.0012396081688272717 0 0.027277570929323366 0.0011210302260123923 0 0.026802053191413874 0.0014055486736136312 0 0.026780515919404609 0.0011672394448790642 0 0.028029788405766105 0.00038035520663434763 0 0.026960118034947585 0.00080944243971931788 0 0.02693391502461389 0.00020603763433853513 0 0.029351098102273345 -0.00019737120234944919 0 0.028029788405766105 0.00038035520663434763 0 0.028497330820243409 0.0011557849331426827 0 0.028029788405766105 0.00038035520663434763 0 0.028497330820243409 0.0011557849331426827 0 0.027630325574374767 0.00098559879781534229 0 0.027371993844483744 0.0010512667161529825 0 0.027630325574374767 0.00098559879781534229 0 0.026986672133214658 0.0010682793977139459 0 0.028497330820243409 0.0011557849331426827 0 0.027371993844483744 0.0010512667161529825 0 0.027630325574374767 0.00098559879781534229 0 0.026960118034947585 0.00080944243971931788 0 0.026986672133214658 0.0010682793977139459 0 0.026094650702741602 0.0010950921319741558 0 0.028029788405766105 0.00038035520663434763 0 0.027630325574374767 0.00098559879781534229 0 0.026960118034947585 0.00080944243971931788 0 0.027630325574374767 0.00098559879781534229 0 0.026960118034947585 0.00080944243971931788 0 0.026986672133214658 0.0010682793977139459 0 0.027371993844483744 0.0010512667161529825 0 0.026986672133214658 0.0010682793977139459 0 0.026555548623889959 0.0014079930357887523 0 0.026986672133214658 0.0010682793977139459 0 0.026555548623889959 0.0014079930357887523 0 0.026094650702741602 0.0010950921319741558 0 0.027371993844483744 0.0010512667161529825 0 0.026490567368986057 0.0011371608864158757 0 0.025507206778864096 0.0010670669267373596 0 0.027371993844483744 0.0010512667161529825 0 0.026490567368986057 0.0011371608864158757 0 0.026880126124106729 0.0010991154407297967 0 0.027187282013469406 0.0010321110613039249 0 0.026057383797023936 0.0012773397051503755 0 0.026490567368986057 0.0011371608864158757 0 0.02592718852555841 0.0013627420680820219 0 0.025507206778864096 0.0010670669267373596 0 0.026490567368986057 0.0011371608864158757 0 0.026242062115924645 0.001247255380776134 0 0.026466104185387744 0.0011771526777612643 0 0.026490567368986057 0.0011371608864158757 0 0.026242062115924645 0.001247255380776134 0 0.02592718852555841 0.0013627420680820219 0 0.026242062115924645 0.001247255380776134 0 0.02592718852555841 0.0013627420680820219 0 0.025990049869274466 0.0013458864212448902 0 0.02592718852555841 0.0013627420680820219 0 0.025507206778864096 0.0010670669267373596 0 0.025132213931289098 0.0019066673771354996 0 0.026306978965082196 0.0012616069365924995 0 0.02665965465975205 0.0011533645315278116 0 0.02631743643912236 0.0012071696392782867 0 0.026306978965082196 0.0012616069365924995 0 0.02631743643912236 0.0012071696392782867 0 0.026137139772383869 0.0012600365575136166 0 0.026306978965082196 0.0012616069365924995 0 0.026137139772383869 0.0012600365575136166 0 0.025972018522389863 0.0012942194210806513 0 0.026306978965082196 0.0012616069365924995 0 0.02629514253845644 0.0013447857770369036 0 0.02662839090277528 0.0012058300540476962 0 0.026306978965082196 0.0012616069365924995 0 0.02662839090277528 0.0012058300540476962 0 0.02665965465975205 0.0011533645315278116 0 0.027277570929323366 0.0011210302260123923 0 0.02662839090277528 0.0012058300540476962 0 0.02665965465975205 0.0011533645315278116 0 0.027277570929323366 0.0011210302260123923 0 0.026880126124106729 0.0010991154407297967 0 0.02665965465975205 0.0011533645315278116 0 0.027277570929323366 0.0011210302260123923 0 0.027371993844483744 0.0010512667161529825 0 0.026880126124106729 0.0010991154407297967 0 0.026490567368986057 0.0011371608864158757 0 0.026880126124106729 0.0010991154407297967 0 0.026466104185387744 0.0011771526777612643 0 0.026880126124106729 0.0010991154407297967 0 0.02665965465975205 0.0011533645315278116 0 0.026466104185387744 0.0011771526777612643 0 0.02665965465975205 0.0011533645315278116 0 0.026466104185387744 0.0011771526777612643 0 0.02631743643912236 0.0012071696392782867 0 0.026242062115924645 0.001247255380776134 0 0.026466104185387744 0.0011771526777612643 0 0.025990049869274466 0.0013458864212448902 0 0.026466104185387744 0.0011771526777612643 0 0.026130465560218349 0.0012581961086092529 0 0.02631743643912236 0.0012071696392782867 0 0.026466104185387744 0.0011771526777612643 0 0.026130465560218349 0.0012581961086092529 0 0.025990049869274466 0.0013458864212448902 0 0.026130465560218349 0.0012581961086092529 0 0.025993798925858673 0.001273542072155392 0 0.025861276554196438 0.0013215273773505665 0 0.026130465560218349 0.0012581961086092529 0 0.02631743643912236 0.0012071696392782867 0 0.025993798925858673 0.001273542072155392 0 0.026137139772383869 0.0012600365575136166 0 0.025993798925858673 0.001273542072155392 0 0.025972018522389863 0.0012942194210806513 0 0.02631743643912236 0.0012071696392782867 0 0.026137139772383869 0.0012600365575136166 0 0.025993798925858673 0.001273542072155392 0 0.026306978965082196 0.0012616069365924995 0 0.025714991188197648 0.0013662889526591404 0 0.025972018522389863 0.0012942194210806513 0 0.025993798925858673 0.001273542072155392 0 0.025739605152012599 0.0013118328292531123 0 0.025972018522389863 0.0012942194210806513 0 0.025739605152012599 0.0013118328292531123 0 0.025714991188197648 0.0013662889526591404 0 0.025644393918323551 0.0013263159499222552 0 0.025739605152012599 0.0013118328292531123 0 0.025714991188197648 0.0013662889526591404 0 0.025972018522389863 0.0012942194210806513 0 0.026628088073910119 0.0012396081688272717 0 0.026545823688828414 0.00071924578911377636 0 0.026306978965082196 0.0012616069365924995 0 0.02629514253845644 0.0013447857770369036 0 0.026295724055397249 0.0012345897054346793 0 0.026780515919404609 0.0011672394448790642 0 0.026812598713441414 0.0012789623471161659 0 0.026780557798807034 0.0012064037269896705 0 0.02629514253845644 0.0013447857770369036 0 0.026295724055397249 0.0012345897054346793 0 0.026290335880850592 0.0012354722259333988 0 0.026306978965082196 0.0012616069365924995 0 0.026316103716651804 0.0012361860943847891 0 0.026295724055397249 0.0012345897054346793 0 0.026241671214943058 0.0012648578788114263 0 0.026015930365278543 0.0013204392828467025 0 0.026316103716651804 0.0012361860943847891 0 0.026295724055397249 0.0012345897054346793 0 0.026347098372436782 0.0012138789608928961 0 0.026295724055397249 0.0012345897054346793 0 0.026295617366059724 0.0011911465722224291 0 0.026347098372436782 0.0012138789608928961 0 0.026393307746014373 0.0008895579848332524 0 0.026545823688828414 0.00071924578911377636 0 0.027190962654001446 -0.00058136108029733992 0 0.028296239586492338 -0.00021169562130777893 0 0.028503646939228824 -0.00082468744031489614 0 0.027190962654001446 -0.00058136108029733992 0 0.028503646939228824 -0.00082468744031489614 0 0.028484775669936811 -0.0016649552401183064 0 0.026295617366059724 0.0011911465722224291 0 0.026347098372436782 0.0012138789608928961 0 0.026553989063429002 0.0012287732715285545 0 0.026545823688828414 0.00071924578911377636 0 0.027359956399957912 0.0004566649775636178 0 0.026015930365278543 0.0013204392828467025 0 0.026194029425104567 0.00087740072473308406 0 0.025714991188197648 0.0013662889526591404 0 0.025622060902112311 0.0013303480804453369 0 0.025644393918323551 0.0013263159499222552 0 0.026347098372436782 0.0012138789608928961 0 0.026553989063429002 0.0012287732715285545 0 0.02671304346824669 0.0014310140941306206 0 0.026347098372436782 0.0012138789608928961 0 0.026345528648640419 0.0012270100634552503 0 0.026361247909697145 0.0012332917754079578 0 0.026316103716651804 0.0012361860943847891 0 0.026347444993787522 0.0012327802144937734 0 0.026360537023782358 0.0012422120343957555 0 0.026192462521692227 0.0015652449707892441 0 0.027300605044882801 6.8798743800108677e-05 0 0.026316103716651804 0.0012361860943847891 0 0.026345528648640419 0.0012270100634552503 0 0.026347444993787522 0.0012327802144937734 0 0.026316103716651804 0.0012361860943847891 0 0.026347098372436782 0.0012138789608928961 0 0.026345528648640419 0.0012270100634552503 0 0.026345528648640419 0.0012270100634552503 0 0.026347444993787522 0.0012327802144937734 0 0.026361247909697145 0.0012332917754079578 0 0.026347444993787522 0.0012327802144937734 0 0.026361247909697145 0.0012332917754079578 0 0.026360537023782358 0.0012422120343957555 0 0.027300605044882801 6.8798743800108677e-05 0 0.026194029425104567 0.00087740072473308406 0 0.027300605044882801 6.8798743800108677e-05 0 0.028133208970175343 -0.001037420720156232 0 0.029979457792126393 -0.002291867805148529 0 0.030100872504416488 -0.0023213686702613849 0 0.030092980144622375 -0.0022163320827713931 0 0.029979457792126393 -0.002291867805148529 0 0.03006696917843564 -0.0024126198263309663 0 0.030100872504416488 -0.0023213686702613849 0 0.027300605044882801 6.8798743800108677e-05 0 0.029302394046290047 -0.00099111591417753303 0 0.026553989063429002 0.0012287732715285545 0 0.02671304346824669 0.0014310140941306206 0 0.026822306420461257 0.0012794274952113449 0 0.030256176366530097 -0.0023635743874106077 0 0.030092980144622375 -0.0022163320827713931 0 0.030360820752347775 -0.0023422995342740555 0 0.030100872504416488 -0.0023213686702613849 0 0.030256176366530097 -0.0023635743874106077 0 0.030092980144622375 -0.0022163320827713931 0 0.029302394046290047 -0.00099111591417753303 0 0.030317329143704157 -0.0022656971375415989 0 0.03006696917843564 -0.0024126198263309663 0 0.030100872504416488 -0.0023213686702613849 0 0.030256176366530097 -0.0023635743874106077 0 0.029302394046290047 -0.00099111591417753303 0 0.030363619854355931 -0.0018698364277108604 0 0.029179407731810915 -0.00057545223637008014 0 0.029358267372958467 -0.0011666255315658065 0 0.030321701165366956 -0.0011985803547054444 0 0.030208258649432322 -0.0023737096997613633 0 0.030256176366530097 -0.0023635743874106077 0 0.030292123923762255 -0.0024474343344843036 0 0.029396625592579172 0.00015531359728901851 0 0.029179407731810915 -0.00057545223637008014 0 0.030321701165366956 -0.0011985803547054444 0 0.028296239586492338 -0.00021169562130777893 0 0.029179407731810915 -0.00057545223637008014 0 0.028503646939228824 -0.00082468744031489614 0 0.027359956399957912 0.0004566649775636178 0 0.029302394046290047 -0.00099111591417753303 0 0.028296239586492338 -0.00021169562130777893 0 0.029396625592579172 0.00015531359728901851 0 0.029179407731810915 -0.00057545223637008014 0 0.029179407731810915 -0.00057545223637008014 0 0.028503646939228824 -0.00082468744031489614 0 0.029358267372958467 -0.0011666255315658065 0 0.029358267372958467 -0.0011666255315658065 0 0.028484775669936811 -0.0016649552401183064 0 0.029810533026278788 -0.001494125988486743 0 0.028503646939228824 -0.00082468744031489614 0 0.029358267372958467 -0.0011666255315658065 0 0.028484775669936811 -0.0016649552401183064 0 0.030186940923189735 -0.0020967154883317629 0 0.030581036976345226 -0.0020586223693956273 0 0.030629216155493875 -0.0024590098656762818 0 0.029301420460066136 -0.00075095204554384326 0 0.030115077727488469 -0.0016860207941083684 0 0.030115077727488469 -0.0016860207941083684 0 0.03087724033576426 -0.0024204976564064749 0 0.030349465212341813 -0.0014194966431235634 0 0.029827868946367669 -0.0014882680472203043 0 0.031200967739227422 -0.0024950117587216425 0 0.030349465212341813 -0.0014194966431235634 0 0.030321701165366956 -0.0011985803547054444 0 0.029807680244985476 -0.0014945551069559747 0 0.030182908604197266 -0.0015749654075449815 0 0.030115077727488469 -0.0016860207941083684 0 0.029358267372958467 -0.0011666255315658065 0 0.030321701165366956 -0.0011985803547054444 0 0.029807680244985476 -0.0014945551069559747 0 0.029556115604937528 -0.0012934495413899523 0 0.030115077727488469 -0.0016860207941083684 0 0.030581036976345226 -0.0020586223693956273 0 0.030629216155493875 -0.0024590098656762818 0 0.030962934624116586 -0.0023818986058533578 0 0.032673082773867483 -0.0014736000464224467 0 0.032517616084631669 -0.001050817849193019 0 0.031443266682103711 -0.00074070935679490741 0 0.031121612363991816 0.00012000318020842279 0 0.032517616084631669 -0.001050817849193019 0 0.031443266682103711 -0.00074070935679490741 0 0.034964752795511214 -0.00021493897982023289 0 0.035552192640621323 -3.5859910628551687e-05 0 0.034783982836999239 0.00057362371683701823 0 0.029301420460066136 -0.00075095204554384326 0 0.031681263749313175 -0.0018664209796675727 0 0.034964752795511214 -0.00021493897982023289 0 0.034783982836999239 0.00057362371683701823 0 0.034094462405864424 0.00036240408397231948 0 0.03428365998976661 -0.00074339894239835612 0 0.033417012231942177 -0.00019084012892896503 0 0.034103523910559035 -0.00058242380341829434 0 0.034094462405864424 0.00036240408397231948 0 0.033174192376775491 0.00068617210221489462 0 0.034783982836999239 0.00057362371683701823 0 0.034094462405864424 0.00036240408397231948 0 0.033895669183180134 0.0012900252372939464 0 0.034094462405864424 0.00036240408397231948 0 0.033174192376775491 0.00068617210221489462 0 0.033895669183180134 0.0012900252372939464 0 0.029549575302640095 0.0014621502354173733 0 0.029906396177221611 0.00068550559618704644 0 0.026812598713441414 0.0012789623471161659 0 0.026780557798807034 0.0012064037269896705 0 0.0268866428479945 0.0011304009970393555 0 0.026802053191413874 0.0014055486736136312 0 0.026780557798807034 0.0012064037269896705 0 0.026774775057607138 0.0011817059487195095 0 0.026802053191413874 0.0014055486736136312 0 0.026780515919404609 0.0011672394448790642 0 0.026780557798807034 0.0012064037269896705 0 0.032144336514655904 0.0014671598847936181 0 0.033174192376775491 0.00068617210221489462 0 0.033895669183180134 0.0012900252372939464 0 0.026823455736396374 0.0017234423628833826 0 0.029906396177221611 0.00068550559618704644 0 0.033417012231942177 -0.00019084012892896503 0 0.029906396177221611 0.00068550559618704644 0 0.026545823688828414 0.00071924578911377636 0 0.029301420460066136 -0.00075095204554384326 0 0.026812598713441414 0.0012789623471161659 0 0.027050502597080219 0.001137077431107629 0 0.0268866428479945 0.0011304009970393555 0 0.031121612363991816 0.00012000318020842279 0 0.031443266682103711 -0.00074070935679490741 0 0.030196443897652622 3.4384822907642064e-06 0 0.029301420460066136 -0.00075095204554384326 0 0.029906396177221611 0.00068550559618704644 0 0.021943154972299869 -1.1361884980831437e-06 0 0.020900172440837448 -0.00042260468203299289 0 0.02243346932265184 -0.00012793005305071563 0 0.021943154972299869 -1.1361884980831437e-06 0 0.020900172440837448 -0.00042260468203299289 0 0.018977861988555493 -8.0832105825730002e-07 0 0.020920857670372151 -0.00041864262967826975 0 0.020900172440837448 -0.00042260468203299289 0 0.020351657843582269 -0.00060989281124803566 0 0.020920857670372151 -0.00041864262967826975 0 0.020900172440837448 -0.00042260468203299289 0 0.021649961733993448 -0.00016155697160833565 0 0.020900172440837448 -0.00042260468203299289 0 0.021649961733993448 -0.00016155697160833565 0 0.02243346932265184 -0.00012793005305071563 0 0.020920857670372151 -0.00041864262967826975 0 0.021649961733993448 -0.00016155697160833565 0 0.021346796849537924 0.00017770042212288776 0 0.021649961733993448 -0.00016155697160833565 0 0.021346796849537924 0.00017770042212288776 0 0.022490695551695257 0.00033570675351350535 0 0.021649961733993448 -0.00016155697160833565 0 0.02243346932265184 -0.00012793005305071563 0 0.022490695551695257 0.00033570675351350535 0 0.021943154972299869 -1.1361884980831437e-06 0 0.02243346932265184 -0.00012793005305071563 0 0.024145664831821716 6.3508955150197829e-05 0 0.021943154972299869 -1.1361884980831437e-06 0 0.024145664831821716 6.3508955150197829e-05 0 0.024908062035097395 1.2995165574543117e-06 0 0.024145664831821716 6.3508955150197829e-05 0 0.023142146397289908 0.00098280920209053491 0 0.023254093457586857 0.0022783824025941523 0 0.024145664831821716 6.3508955150197829e-05 0 0.024908062035097395 1.2995165574543117e-06 0 0.027463203044093908 2.6292638858329548e-05 0 0.02243346932265184 -0.00012793005305071563 0 0.024145664831821716 6.3508955150197829e-05 0 0.022490695551695257 0.00033570675351350535 0 0.024145664831821716 6.3508955150197829e-05 0 0.022490695551695257 0.00033570675351350535 0 0.023142146397289908 0.00098280920209053491 0 0.022490695551695257 0.00033570675351350535 0 0.023142146397289908 0.00098280920209053491 0 0.022599098008288784 0.0012454194687622796 0 0.027877230948134386 -7.0391856583984392e-07 0 0.024908062035097395 1.2995165574543117e-06 0 0.027463203044093908 2.6292638858329548e-05 0 0.024525200311663244 -0.0001388152802628167 0 0.024964790884463878 0.0011815902501738792 0 0.023142146397289908 0.00098280920209053491 0 0.023254093457586857 0.0022783824025941523 0 0.022599098008288784 0.0012454194687622796 0 0.023254093457586857 0.0022783824025941523 0 0.022210853778394064 0.0020071845706689799 0 0.022599098008288784 0.0012454194687622796 0 0.022210853778394064 0.0020071845706689799 0 0.021724386203505835 0.0010161068638768435 0 0.020944147879761996 0.0014658691717948154 0 0.022483021639141201 0.0027324657837794037 0 0.023254093457586857 0.0022783824025941523 0 0.022210853778394064 0.0020071845706689799 0 0.022210853778394064 0.0020071845706689799 0 0.022599098008288784 0.0012454194687622796 0 0.021724386203505835 0.0010161068638768435 0 0.022490695551695257 0.00033570675351350535 0 0.022599098008288784 0.0012454194687622796 0 0.021724386203505835 0.0010161068638768435 0 0.021346796849537924 0.00017770042212288776 0 0.022490695551695257 0.00033570675351350535 0 0.021724386203505835 0.0010161068638768435 0 0.021346796849537924 0.00017770042212288776 0 0.020639971570534592 0.00072793639983083683 0 0.020774958959319901 -0.000169292918479836 0 0.021724386203505835 0.0010161068638768435 0 0.020639971570534592 0.00072793639983083683 0 0.020944147879761996 0.0014658691717948154 0 0.021346796849537924 0.00017770042212288776 0 0.021724386203505835 0.0010161068638768435 0 0.020639971570534592 0.00072793639983083683 0 0.020639971570534592 0.00072793639983083683 0 0.020944147879761996 0.0014658691717948154 0 0.020472651159862965 0.0011994244070276069 0 0.021442791552003661 0.0027475102432383703 0 0.020944147879761996 0.0014658691717948154 0 0.020156366241127689 0.0014237079500403571 0 0.02968813254483851 0.001338571405589635 0 0.029274799292055943 0.0011821744185948743 0 0.021442791552003661 0.0027475102432383703 0 0.022210853778394064 0.0020071845706689799 0 0.020944147879761996 0.0014658691717948154 0 0.03920636201074975 3.4723615706474553e-05 0 0.038562818750651505 -0.00011755084051608812 0 0.038776228582948095 0.00046240095634651941 0 0.020472651159862965 0.0011994244070276069 0 0.020156366241127689 0.0014237079500403571 0 0.020218554883826779 0.0011094952236191257 0 0.020944147879761996 0.0014658691717948154 0 0.020472651159862965 0.0011994244070276069 0 0.020156366241127689 0.0014237079500403571 0 0.020218554883826779 0.0011094952236191257 0 0.020052002121478923 0.0006713123596274066 0 0.019526181781441204 0.00060217485591055567 0 0.020639971570534592 0.00072793639983083683 0 0.020472651159862965 0.0011994244070276069 0 0.020218554883826779 0.0011094952236191257 0 0.020639971570534592 0.00072793639983083683 0 0.020218554883826779 0.0011094952236191257 0 0.020052002121478923 0.0006713123596274066 0 0.020639971570534592 0.00072793639983083683 0 0.020052002121478923 0.0006713123596274066 0 0.019935229964019321 0.00022553641856397529 0 0.020052002121478923 0.0006713123596274066 0 0.019935229964019321 0.00022553641856397529 0 0.019526181781441204 0.00060217485591055567 0 0.019445462468336897 0.00013787687546879917 0 0.021028647535606838 -0.00024184203795413924 0 0.020502851956282112 -0.00031064204751274404 0 0.020562733828616064 -0.00039564475083615834 0 0.020774958959319901 -0.000169292918479836 0 0.020639971570534592 0.00072793639983083683 0 0.019935229964019321 0.00022553641856397529 0 0.020774958959319901 -0.000169292918479836 0 0.020502851956282112 -0.00031064204751274404 0 0.020562733828616064 -0.00039564475083615834 0 0.020515121470459308 -0.00049618390278372004 0 0.020562733828616064 -0.00039564475083615834 0 0.020774958959319901 -0.000169292918479836 0 0.020547506258624334 -0.00058456445354096074 0 0.020920857670372151 -0.00041864262967826975 0 0.021346796849537924 0.00017770042212288776 0 0.020774958959319901 -0.000169292918479836 0 0.020920857670372151 -0.00041864262967826975 0 0.020774958959319901 -0.000169292918479836 0 0.020547506258624334 -0.00058456445354096074 0 0.020547506258624334 -0.00058456445354096074 0 0.020436811848672333 -0.00065585109337611483 0 0.020351657843582269 -0.00060989281124803566 0 0.020920857670372151 -0.00041864262967826975 0 0.020547506258624334 -0.00058456445354096074 0 0.020351657843582269 -0.00060989281124803566 0 0.020547506258624334 -0.00058456445354096074 0 0.020593202595193989 -0.00072200610488308353 0 0.020436811848672333 -0.00065585109337611483 0 0.020547506258624334 -0.00058456445354096074 0 0.020515121470459308 -0.00049618390278372004 0 0.020593202595193989 -0.00072200610488308353 0 0.020562733828616064 -0.00039564475083615834 0 0.020547506258624334 -0.00058456445354096074 0 0.020515121470459308 -0.00049618390278372004 0 0.020353028427042886 -0.00051706952006343708 0 0.020593202595193989 -0.00072200610488308353 0 0.020431748965315771 -0.00091926901224045248 0 0.024609878675872474 -0.00086710960590011537 0 0.024694405901090066 -0.00052943304741091476 0 0.024937323979845244 -0.0012778667463813529 0 0.022472687063128563 -0.00086283170223950699 0 0.021821288020511146 -0.00030011082882798896 0 0.024609878675872474 -0.00086710960590011537 0 0.024694405901090066 -0.00052943304741091476 0 0.024487567642130816 0.00010929706918185188 0 0.020353028427042886 -0.00051706952006343708 0 0.020515121470459308 -0.00049618390278372004 0 0.020593202595193989 -0.00072200610488308353 0 0.024694405901090066 -0.00052943304741091476 0 0.025300318968436198 -0.00033267180726445611 0 0.025138690776989641 3.9324165645034749e-05 0 0.024694405901090066 -0.00052943304741091476 0 0.02551536713776861 -0.00082107667130437722 0 0.025394133927923824 -0.0012910167513869102 0 0.024694405901090066 -0.00052943304741091476 0 0.025300318968436198 -0.00033267180726445611 0 0.02551536713776861 -0.00082107667130437722 0 0.025300318968436198 -0.00033267180726445611 0 0.02551536713776861 -0.00082107667130437722 0 0.025851342707853681 -2.3058843093669031e-05 0 0.024694405901090066 -0.00052943304741091476 0 0.025394133927923824 -0.0012910167513869102 0 0.02527283948073154 -0.0019548999463176028 0 0.024609878675872474 -0.00086710960590011537 0 0.024937323979845244 -0.0012778667463813529 0 0.024874811578616849 -0.0014863260635325989 0 0.024694405901090066 -0.00052943304741091476 0 0.024937323979845244 -0.0012778667463813529 0 0.025246660891456298 -0.0016158397407327494 0 0.024152833449342975 -0.0004736533369307211 0 0.027293873958245864 -0.0017389974896757897 0 0.025394133927923824 -0.0012910167513869102 0 0.02527283948073154 -0.0019548999463176028 0 0.025486867457558467 -0.0018112895366782524 0 0.025246660891456298 -0.0016158397407327494 0 0.025096800832142982 -0.0015393660975349889 0 0.025151936811377479 -0.001679547055307854 0 0.027293873958245864 -0.0017389974896757897 0 0.026485866089336063 -0.0020877896395056612 0 0.024937323979845244 -0.0012778667463813529 0 0.024985644379541368 -0.0015304857377826276 0 0.024874811578616849 -0.0014863260635325989 0 0.024937323979845244 -0.0012778667463813529 0 0.024985644379541368 -0.0015304857377826276 0 0.025096800832142982 -0.0015393660975349889 0 0.024937323979845244 -0.0012778667463813529 0 0.025246660891456298 -0.0016158397407327494 0 0.025096800832142982 -0.0015393660975349889 0 0.024985644379541368 -0.0015304857377826276 0 0.024966760830761266 -0.0016383849004318518 0 0.025151936811377479 -0.001679547055307854 0 0.024985644379541368 -0.0015304857377826276 0 0.025096800832142982 -0.0015393660975349889 0 0.025151936811377479 -0.001679547055307854 0 0.024874811578616849 -0.0014863260635325989 0 0.024767834611904412 -0.0017539583819950421 0 0.024851960551924415 -0.0016540966839614546 0 0.024966760830761266 -0.0016383849004318518 0 0.024874811578616849 -0.0014863260635325989 0 0.024851960551924415 -0.0016540966839614546 0 0.024985644379541368 -0.0015304857377826276 0 0.024966760830761266 -0.0016383849004318518 0 0.024874811578616849 -0.0014863260635325989 0 0.024609878675872474 -0.00086710960590011537 0 0.024874811578616849 -0.0014863260635325989 0 0.024767834611904412 -0.0017539583819950421 0 0.022472687063128563 -0.00086283170223950699 0 0.024015732215447436 -0.00012514558634806345 0 0.020502851956282112 -0.00031064204751274404 0 0.020428446657972246 -0.00039472662472349226 0 0.020356324774717743 -0.0002761431837614245 0 0.020353028427042886 -0.00051706952006343708 0 0.020428446657972246 -0.00039472662472349226 0 0.020356324774717743 -0.0002761431837614245 0 0.020353028427042886 -0.00051706952006343708 0 0.020515121470459308 -0.00049618390278372004 0 0.020428446657972246 -0.00039472662472349226 0 0.020502851956282112 -0.00031064204751274404 0 0.020515121470459308 -0.00049618390278372004 0 0.020428446657972246 -0.00039472662472349226 0 0.020218554883826779 0.0011094952236191257 0 0.020026790908618738 0.00094223755776514165 0 0.020017217144814289 0.00098280556836808004 0 0.020156366241127689 0.0014237079500403571 0 0.020218554883826779 0.0011094952236191257 0 0.020017217144814289 0.00098280556836808004 0 0.029274799292055943 0.0011821744185948743 0 0.031301542872974042 -0.00081685078083193583 0 0.019445462468336897 0.00013787687546879917 0 0.024015732215447436 -0.00012514558634806345 0 0.018507849794588385 0.00095075881873423309 0 0.024015732215447436 -0.00012514558634806345 0 0.019935229964019321 0.00022553641856397529 0 0.019526181781441204 0.00060217485591055567 0 0.018976180927575775 0.00046013963962639773 0 0.020218554883826779 0.0011094952236191257 0 0.019526181781441204 0.00060217485591055567 0 0.018976180927575775 0.00046013963962639773 0 0.024015732215447436 -0.00012514558634806345 0 0.031301542872974042 -0.00081685078083193583 0 0.039245167008808479 0.00045389295934015919 0 0.039493934042314785 0.00034742788934469764 0 0.039673572934731942 0.0010850671536472662 0 0.039978210500778155 -0.00010608385949850967 0 0.039493934042314785 0.00034742788934469764 0 0.039673572934731942 0.0010850671536472662 0 0.039978210500778155 -0.00010608385949850967 0 0.03920636201074975 3.4723615706474553e-05 0 0.039493934042314785 0.00034742788934469764 0 0.038776228582948095 0.00046240095634651941 0 0.039245167008808479 0.00045389295934015919 0 0.039673572934731942 0.0010850671536472662 0 0.03920636201074975 3.4723615706474553e-05 0 0.038776228582948095 0.00046240095634651941 0 0.039245167008808479 0.00045389295934015919 0 0.03920636201074975 3.4723615706474553e-05 0 0.039245167008808479 0.00045389295934015919 0 0.039493934042314785 0.00034742788934469764 0 0.039891381758242708 -0.0018188742014696837 0 0.039796209209566516 -0.001839385258995794 0 0.039762642021556584 -0.0018513192519867857 0 0.041059307782932312 -0.00097188482560521658 0 0.031301542872974042 -0.00081685078083193583 0 0.039891381758242708 -0.0018188742014696837 0 0.039762642021556584 -0.0018513192519867857 0 0.039706879843283402 -0.0018559862022988242 0 0.039891381758242708 -0.0018188742014696837 0 0.039813291534731766 -0.0018116925001415091 0 0.039796209209566516 -0.001839385258995794 0 0.039796209209566516 -0.001839385258995794 0 0.03976605000512503 -0.0018502944924238664 0 0.039762642021556584 -0.0018513192519867857 0 0.03976605000512503 -0.0018502944924238664 0 0.039742102868562362 -0.0018546032128599816 0 0.039744379456521296 -0.0018565325545253115 0 0.03976605000512503 -0.0018502944924238664 0 0.039742102868562362 -0.0018546032128599816 0 0.039762642021556584 -0.0018513192519867857 0 0.039762642021556584 -0.0018513192519867857 0 0.039730940701826874 -0.0018530889813206813 0 0.039706879843283402 -0.0018559862022988242 0 0.039742102868562362 -0.0018546032128599816 0 0.039762642021556584 -0.0018513192519867857 0 0.039730940701826874 -0.0018530889813206813 0 0.039730940701826874 -0.0018530889813206813 0 0.039706879843283402 -0.0018559862022988242 0 0.039714036894472608 -0.0018435580767095932 0 0.029317424533772878 -0.0025365717051555573 0 0.029218327044990895 -0.0017610952391433523 0 0.02887169040357844 -0.0024184354058918484 0 0.029218327044990895 -0.0017610952391433523 0 0.0284502713295509 -0.0023063728946118539 0 0.02887169040357844 -0.0024184354058918484 0 0.031301542872974042 -0.00081685078083193583 0 0.031199713041910486 -0.001239401757323787 0 0.039742102868562362 -0.0018546032128599816 0 0.039730940701826874 -0.0018530889813206813 0 0.039714036894472608 -0.0018435580767095932 0 0.031199713041910486 -0.001239401757323787 0 0.028120180867462694 -0.0015651255850379648 0 0.029463029463959501 -0.00063288193472660619 0 0.030036551263497 -0.00078258280829653711 0 0.028300212810197779 -0.0014665379332620082 0 0.027536550222587448 -0.00088895115472679769 0 0.028120180867462694 -0.0015651255850379648 0 0.024966760830761266 -0.0016383849004318518 0 0.024867221836213628 -0.0017799365201422342 0 0.025151936811377479 -0.001679547055307854 0 0.031199713041910486 -0.001239401757323787 0 0.027536550222587448 -0.00088895115472679769 0 0.024966760830761266 -0.0016383849004318518 0 0.024851960551924415 -0.0016540966839614546 0 0.024867221836213628 -0.0017799365201422342 0 0.024015732215447436 -0.00012514558634806345 0 0.027536550222587448 -0.00088895115472679769 0 0.024767834611904412 -0.0017539583819950421 0 0.024851960551924415 -0.0016540966839614546 0 0.024867221836213628 -0.0017799365201422342 0 0.039742102868562362 -0.0018546032128599816 0 0.039714036894472608 -0.0018435580767095932 0 0.039744379456521296 -0.0018565325545253115 0 0.029957320811499186 -0.0016900142966732395 0 0.031153013419235556 -0.0020151682757758933 0 0.030473123070907965 -0.0013276209357099816 0 0.031199713041910486 -0.001239401757323787 0 0.034051277659141753 -0.0027410045036519769 0 0.031599954729033035 -0.0016434051223600541 0 0.033578923579290341 -0.0030217214592191039 0 0.027003967970934375 -0.0023975109981000282 0 0.026966548452249359 -0.0022082697868989042 0 0.027111610703948807 -0.0024246244362128807 0 0.034051277659141753 -0.0027410045036519769 0 0.033578923579290341 -0.0030217214592191039 0 0.03072561600528494 -0.0011492056121955438 0 0.031153013419235556 -0.0020151682757758933 0 0.030473123070907965 -0.0013276209357099816 0 0.027293873958245864 -0.0017389974896757897 0 0.028120180867462694 -0.0015651255850379648 0 0.027293873958245864 -0.0017389974896757897 0 0.034051277659141753 -0.0027410045036519769 0 0.026814850364393145 -0.0020302779499666202 0 0.027003967970934375 -0.0023975109981000282 0 0.026966548452249359 -0.0022082697868989042 0 0.026966548452249359 -0.0022082697868989042 0 0.027077390435443938 -0.0024223051555265491 0 0.027916178700636209 -0.0015566814031634849 0 0.027077390435443938 -0.0024223051555265491 0 0.02803596064200509 -0.0027387868926832433 0 0.027916178700636209 -0.0015566814031634849 0 0.037583493169208324 -0.0026757841366905912 0 0.037573629859775366 -0.002669563848816372 0 0.037597144000886505 -0.0024501951409186535 0 0.033578923579290341 -0.0030217214592191039 0 0.031938498024561689 -0.0033779556145079473 0 0.039796209209566516 -0.001839385258995794 0 0.03976605000512503 -0.0018502944924238664 0 0.039762978560602201 -0.0018406204106148417 0 0.036641613507200847 -0.0030188709783537538 0 0.03725574054834975 -0.0042531145664988102 0 0.036334905880553964 -0.004021577600268624 0 0.034051277659141753 -0.0027410045036519769 0 0.039167939526963791 -0.002266806810946632 0 0.03772331372425268 -0.0029593117909244909 0 0.033578923579290341 -0.0030217214592191039 0 0.03976605000512503 -0.0018502944924238664 0 0.039744379456521296 -0.0018565325545253115 0 0.039762978560602201 -0.0018406204106148417 0 0.037566470436971651 -0.0023930325269857391 0 0.037573629859775366 -0.002669563848816372 0 0.037597144000886505 -0.0024501951409186535 0 0.039813291534731766 -0.0018116925001415091 0 0.039796209209566516 -0.001839385258995794 0 0.039762978560602201 -0.0018406204106148417 0 0.036641613507200847 -0.0030188709783537538 0 0.036049470821588915 -0.0033998250641060616 0 0.036334905880553964 -0.004021577600268624 0 0.035242553908351688 -0.0039413697459323854 0 0.036049470821588915 -0.0033998250641060616 0 0.036334905880553964 -0.004021577600268624 0 0.036135324665706167 -0.002880961825733028 0 0.036641613507200847 -0.0030188709783537538 0 0.036049470821588915 -0.0033998250641060616 0 0.028788074694753949 -0.0019745736630234724 0 0.02803596064200509 -0.0027387868926832433 0 0.027916178700636209 -0.0015566814031634849 0 0.032469118968542973 -0.0035614110613247695 0 0.031938498024561689 -0.0033779556145079473 0 0.028631139068039688 -0.00097887071108912634 0 0.027027938719413218 -0.0016383216954304687 0 0.028788074694753949 -0.0019745736630234724 0 0.028584933818242991 -0.00095867379067701393 0 0.027916178700636209 -0.0015566814031634849 0 0.027293873958245864 -0.0017389974896757897 0 0.027027938719413218 -0.0016383216954304687 0 0.025263781403697488 -0.0019322118887491846 0 0.025486867457558467 -0.0018112895366782524 0 0.026619793561013128 -0.0016408396702040757 0 0.026814850364393145 -0.0020302779499666202 0 0.026966548452249359 -0.0022082697868989042 0 0.027916178700636209 -0.0015566814031634849 0 0.025486867457558467 -0.0018112895366782524 0 0.026619793561013128 -0.0016408396702040757 0 0.025885061898156186 -0.0012648722157364248 0 0.02551536713776861 -0.00082107667130437722 0 0.025394133927923824 -0.0012910167513869102 0 0.025885061898156186 -0.0012648722157364248 0 0.025394133927923824 -0.0012910167513869102 0 0.025486867457558467 -0.0018112895366782524 0 0.025885061898156186 -0.0012648722157364248 0 0.026619793561013128 -0.0016408396702040757 0 0.025885061898156186 -0.0012648722157364248 0 0.026395787281460154 -0.00070664899522463408 0 0.026395787281460154 -0.00070664899522463408 0 0.02693391502461389 0.00020603763433853513 0 0.025851342707853681 -2.3058843093669031e-05 0 0.02551536713776861 -0.00082107667130437722 0 0.026395787281460154 -0.00070664899522463408 0 0.025851342707853681 -2.3058843093669031e-05 0 0.02551536713776861 -0.00082107667130437722 0 0.025885061898156186 -0.0012648722157364248 0 0.026395787281460154 -0.00070664899522463408 0 0.028584933818242991 -0.00095867379067701393 0 0.026619793561013128 -0.0016408396702040757 0 0.026395787281460154 -0.00070664899522463408 0 0.028584933818242991 -0.00095867379067701393 0 0.026395787281460154 -0.00070664899522463408 0 0.02693391502461389 0.00020603763433853513 0 0.02693391502461389 0.00020603763433853513 0 0.025851342707853681 -2.3058843093669031e-05 0 0.026184796294171878 0.00080444408391594936 0 0.025851342707853681 -2.3058843093669031e-05 0 0.025599707974031292 0.0005587422261042487 0 0.026184796294171878 0.00080444408391594936 0 0.025599707974031292 0.0005587422261042487 0 0.026184796294171878 0.00080444408391594936 0 0.025675920093029804 0.0011675277166467513 0 0.026960118034947585 0.00080944243971931788 0 0.02693391502461389 0.00020603763433853513 0 0.026184796294171878 0.00080444408391594936 0 0.026960118034947585 0.00080944243971931788 0 0.026184796294171878 0.00080444408391594936 0 0.026094650702741602 0.0010950921319741558 0 0.026094650702741602 0.0010950921319741558 0 0.025082844588559597 0.0012921900619536182 0 0.025675920093029804 0.0011675277166467513 0 0.026555548623889959 0.0014079930357887523 0 0.026094650702741602 0.0010950921319741558 0 0.025082844588559597 0.0012921900619536182 0 0.026555548623889959 0.0014079930357887523 0 0.025082844588559597 0.0012921900619536182 0 0.024709347730345763 0.0023063688675935752 0 0.025082844588559597 0.0012921900619536182 0 0.022885717983083993 -0.00015021538977783987 0 0.022406660559690421 0.0012938035557209019 0 0.025078219658492249 0.0013081187000310245 0 0.024295673838463688 0.00055400136241014902 0 0.026184796294171878 0.00080444408391594936 0 0.026094650702741602 0.0010950921319741558 0 0.025675920093029804 0.0011675277166467513 0 0.022885717983083993 -0.00015021538977783987 0 0.02192947320376093 0.00045010395265875449 0 0.021562471332338198 -0.00067708993888566623 0 0.022885717983083993 -0.00015021538977783987 0 0.02192947320376093 0.00045010395265875449 0 0.022406660559690421 0.0012938035557209019 0 0.02192947320376093 0.00045010395265875449 0 0.022406660559690421 0.0012938035557209019 0 0.021107077886771776 0.0010154961341722259 0 0.02192947320376093 0.00045010395265875449 0 0.021180882185087246 0.00010818044574399873 0 0.021562471332338198 -0.00067708993888566623 0 0.02192947320376093 0.00045010395265875449 0 0.021107077886771776 0.0010154961341722259 0 0.021180882185087246 0.00010818044574399873 0 0.021180882185087246 0.00010818044574399873 0 0.021027005015063549 -0.00036193580053194707 0 0.021562471332338198 -0.00067708993888566623 0 0.021180882185087246 0.00010818044574399873 0 0.021027005015063549 -0.00036193580053194707 0 0.020608581007242482 -0.00027442264158869496 0 0.021027005015063549 -0.00036193580053194707 0 0.021562471332338198 -0.00067708993888566623 0 0.0208219325792765 -0.00058913025547445029 0 0.024295673838463688 0.00055400136241014902 0 0.023239141098916331 4.166439216938531e-05 0 0.025599707974031292 0.0005587422261042487 0 0.025675920093029804 0.0011675277166467513 0 0.024940021690631094 0.00055950655552302838 0 0.024940021690631094 0.00055950655552302838 0 0.025138690776989641 3.9324165645034749e-05 0 0.024487567642130816 0.00010929706918185188 0 0.025599707974031292 0.0005587422261042487 0 0.024940021690631094 0.00055950655552302838 0 0.025138690776989641 3.9324165645034749e-05 0 0.025851342707853681 -2.3058843093669031e-05 0 0.025599707974031292 0.0005587422261042487 0 0.025138690776989641 3.9324165645034749e-05 0 0.025300318968436198 -0.00033267180726445611 0 0.025851342707853681 -2.3058843093669031e-05 0 0.025138690776989641 3.9324165645034749e-05 0 0.024694405901090066 -0.00052943304741091476 0 0.025138690776989641 3.9324165645034749e-05 0 0.024487567642130816 0.00010929706918185188 0 0.021562471332338198 -0.00067708993888566623 0 0.021058713247241997 -0.00074197636208937236 0 0.0208219325792765 -0.00058913025547445029 0 0.020593202595193989 -0.00072200610488308353 0 0.021058713247241997 -0.00074197636208937236 0 0.0208219325792765 -0.00058913025547445029 0 0.020565483267748957 -0.0010030440621132384 0 0.021821288020511146 -0.00030011082882798896 0 0.023239141098916331 4.166439216938531e-05 0 0.021821288020511146 -0.00030011082882798896 0 0.020593202595193989 -0.00072200610488308353 0 0.0208219325792765 -0.00058913025547445029 0 0.020436811848672333 -0.00065585109337611483 0 0.0208219325792765 -0.00058913025547445029 0 0.020436811848672333 -0.00065585109337611483 0 0.020608581007242482 -0.00027442264158869496 0 0.020436811848672333 -0.00065585109337611483 0 0.020351657843582269 -0.00060989281124803566 0 0.019906236363890238 -0.00044903969332620302 0 0.019906236363890238 -0.00044903969332620302 0 0.020216643646803846 0.00049802398910835121 0 0.018456754965875177 -8.8570372063010474e-05 0 0.020436811848672333 -0.00065585109337611483 0 0.019906236363890238 -0.00044903969332620302 0 0.020608581007242482 -0.00027442264158869496 0 0.019906236363890238 -0.00044903969332620302 0 0.020608581007242482 -0.00027442264158869496 0 0.020216643646803846 0.00049802398910835121 0 0.021027005015063549 -0.00036193580053194707 0 0.0208219325792765 -0.00058913025547445029 0 0.020608581007242482 -0.00027442264158869496 0 0.021107077886771776 0.0010154961341722259 0 0.021180882185087246 0.00010818044574399873 0 0.020216643646803846 0.00049802398910835121 0 0.021180882185087246 0.00010818044574399873 0 0.020608581007242482 -0.00027442264158869496 0 0.020216643646803846 0.00049802398910835121 0 0.021107077886771776 0.0010154961341722259 0 0.020216643646803846 0.00049802398910835121 0 0.020391041460289923 0.0016582038523796766 0 0.020216643646803846 0.00049802398910835121 0 0.019307743294919355 0.0011412108931679009 0 0.020391041460289923 0.0016582038523796766 0 0.020216643646803846 0.00049802398910835121 0 0.019307743294919355 0.0011412108931679009 0 0.018456754965875177 -8.8570372063010474e-05 0 0.017225748192757604 0.00019111204192789416 0 0.018221965467636703 -0.00016617555590246768 0 0.015154817274291956 -0.00020941597349711171 0 0.016012135928627103 3.3154830785101985e-07 0 0.018456754965875177 -8.8570372063010474e-05 0 0.015154817274291956 -0.00020941597349711171 0 0.016012135928627103 3.3154830785101985e-07 0 0.013046606422482355 -9.0565755461113156e-07 0 0.016012135928627103 3.3154830785101985e-07 0 0.018456754965875177 -8.8570372063010474e-05 0 0.018977861988555493 -8.0832105825730002e-07 0 0.018456754965875177 -8.8570372063010474e-05 0 0.019655024015061372 -0.00038104847625124779 0 0.018977861988555493 -8.0832105825730002e-07 0 0.019906236363890238 -0.00044903969332620302 0 0.018456754965875177 -8.8570372063010474e-05 0 0.019655024015061372 -0.00038104847625124779 0 0.020351657843582269 -0.00060989281124803566 0 0.019906236363890238 -0.00044903969332620302 0 0.019655024015061372 -0.00038104847625124779 0 0.020900172440837448 -0.00042260468203299289 0 0.020351657843582269 -0.00060989281124803566 0 0.019655024015061372 -0.00038104847625124779 0 0.020900172440837448 -0.00042260468203299289 0 0.019655024015061372 -0.00038104847625124779 0 0.018977861988555493 -8.0832105825730002e-07 0 0.0071126712994080644 -2.7744724351964455e-06 0 0.0083259462270953172 -0.00053063686402906208 0 0.0091153005068833615 -0.00030687171015642342 0 0.0071126712994080644 -2.7744724351964455e-06 0 0.0083259462270953172 -0.00053063686402906208 0 0.0077891544445003466 5.1083707386524633e-05 0 0.0083259462270953172 -0.00053063686402906208 0 0.0094383409880348344 -0.0011543977546472582 0 0.0077891544445003466 5.1083707386524633e-05 0 0.012972362875608859 0.0016038383274007103 0 0.013822268463343442 7.766439718756583e-05 0 0.014201526906791743 0.0022489612062250486 0 0.0083259462270953172 -0.00053063686402906208 0 0.0085035928971905119 -0.00051602596443714368 0 0.0094383409880348344 -0.0011543977546472582 0 0.010587865515387321 0.00034217943339817913 0 0.013825296035503531 0.00027055538106713527 0 0.012972362875608859 0.0016038383274007103 0 0.010552114596924022 0.00018457416405816344 0 0.012755852771113645 0.00036842044635323264 0 0.0085035928971905119 -0.00051602596443714368 0 0.0091153005068833615 -0.00030687171015642342 0 0.010552114596924022 0.00018457416405816344 0 0.0071126712994080644 -2.7744724351964455e-06 0 0.0091153005068833615 -0.00030687171015642342 0 0.01008048376962631 1.5267391957619584e-06 0 0.010587865515387321 0.00034217943339817913 0 0.010595324680268556 0.00029320099853363184 0 0.0083259462270953172 -0.00053063686402906208 0 0.0085035928971905119 -0.00051602596443714368 0 0.0091153005068833615 -0.00030687171015642342 0 0.0091153005068833615 -0.00030687171015642342 0 0.01008048376962631 1.5267391957619584e-06 0 0.010552114596924022 0.00018457416405816344 0 0.01008048376962631 1.5267391957619584e-06 0 0.010552114596924022 0.00018457416405816344 0 0.013046606422482355 -9.0565755461113156e-07 0 0.010552114596924022 0.00018457416405816344 0 0.013060972829580159 -1.6447441272900443e-05 0 0.013046606422482355 -9.0565755461113156e-07 0 0.010552114596924022 0.00018457416405816344 0 0.013060972829580159 -1.6447441272900443e-05 0 0.012755852771113645 0.00036842044635323264 0 0.015154817274291956 -0.00020941597349711171 0 0.013060972829580159 -1.6447441272900443e-05 0 0.013046606422482355 -9.0565755461113156e-07 0 0.015154817274291956 -0.00020941597349711171 0 0.013060972829580159 -1.6447441272900443e-05 0 0.013822268463343442 7.766439718756583e-05 0 0.017225748192757604 0.00019111204192789416 0 0.017392275989876332 0.0014687526597994265 0 0.012972362875608859 0.0016038383274007103 0 0.013822268463343442 7.766439718756583e-05 0 0.012755852771113645 0.00036842044635323264 0 0.013060972829580159 -1.6447441272900443e-05 0 0.013822268463343442 7.766439718756583e-05 0 0.012755852771113645 0.00036842044635323264 0 0.019908336368680248 0.001931748185559473 0 0.02034276895343106 0.0020594409436271934 0 0.020391041460289923 0.0016582038523796766 0 0.019307743294919355 0.0011412108931679009 0 0.019908336368680248 0.001931748185559473 0 0.020391041460289923 0.0016582038523796766 0 0.02034276895343106 0.0020594409436271934 0 0.020391041460289923 0.0016582038523796766 0 0.020657108168144939 0.0020974955437598518 0 0.020391041460289923 0.0016582038523796766 0 0.020657108168144939 0.0020974955437598518 0 0.021115132455359457 0.001839775814384765 0 0.020657108168144939 0.0020974955437598518 0 0.020499966919415098 0.0021303163839094686 0 0.020570207006720558 0.0021210529471754483 0 0.02034276895343106 0.0020594409436271934 0 0.020657108168144939 0.0020974955437598518 0 0.020499966919415098 0.0021303163839094686 0 0.019908336368680248 0.001931748185559473 0 0.02034276895343106 0.0020594409436271934 0 0.020324733132178589 0.0021971998429569091 0 0.017392275989876332 0.0014687526597994265 0 0.013825296035503531 0.00027055538106713527 0 0.02034276895343106 0.0020594409436271934 0 0.020499966919415098 0.0021303163839094686 0 0.020324733132178589 0.0021971998429569091 0 0.013825296035503531 0.00027055538106713527 0 0.010178756781752764 -0.00036339364295649192 0 0.010634309689065879 -0.0039654067978491759 0 0.014636476959309547 -0.0019423682054410373 0 0.013783219822618639 0.00029059062160893422 0 0.020499966919415098 0.0021303163839094686 0 0.020324733132178589 0.0021971998429569091 0 0.020598239011662786 0.0019686711738370354 0 0.013825296035503531 0.00027055538106713527 0 0.017810548761507308 7.458452885024306e-05 0 0.020598239011662786 0.0019686711738370354 0 0.020253851410353747 0.0019083143228615005 0 0.020570207006720558 0.0021210529471754483 0 0.020499966919415098 0.0021303163839094686 0 0.020598239011662786 0.0019686711738370354 0 0.020570207006720558 0.0021210529471754483 0 0.020598239011662786 0.0019686711738370354 0 0.020253851410353747 0.0019083143228615005 0 0.019518555957231423 0.0013761371787188055 0 0.020253851410353747 0.0019083143228615005 0 0.020289639353396109 0.0017840035310994688 0 0.020723018028832023 0.0019966211198081691 0 0.020253851410353747 0.0019083143228615005 0 0.020723018028832023 0.0019966211198081691 0 0.020570207006720558 0.0021210529471754483 0 0.020253851410353747 0.0019083143228615005 0 0.020289639353396109 0.0017840035310994688 0 0.019518555957231423 0.0013761371787188055 0 0.020289639353396109 0.0017840035310994688 0 0.020533380593695069 0.0018484044412508331 0 0.019518555957231423 0.0013761371787188055 0 0.020289639353396109 0.0017840035310994688 0 0.020533380593695069 0.0018484044412508331 0 0.020766813283737324 0.0017992024520325067 0 0.020533380593695069 0.0018484044412508331 0 0.020766813283737324 0.0017992024520325067 0 0.020958537132206488 0.0019100353335846554 0 0.020289639353396109 0.0017840035310994688 0 0.020766813283737324 0.0017992024520325067 0 0.020723018028832023 0.0019966211198081691 0 0.021152254346895563 0.0020350404550345232 0 0.021851405315001515 0.0023716311147740339 0 0.020854296622770139 0.0017282100406079319 0 0.020766813283737324 0.0017992024520325067 0 0.021152254346895563 0.0020350404550345232 0 0.020723018028832023 0.0019966211198081691 0 0.020766813283737324 0.0017992024520325067 0 0.021152254346895563 0.0020350404550345232 0 0.020854296622770139 0.0017282100406079319 0 0.021152254346895563 0.0020350404550345232 0 0.020723018028832023 0.0019966211198081691 0 0.021048905773516917 0.0021816856168928333 0 0.020723018028832023 0.0019966211198081691 0 0.020570207006720558 0.0021210529471754483 0 0.021048905773516917 0.0021816856168928333 0 0.020657108168144939 0.0020974955437598518 0 0.020570207006720558 0.0021210529471754483 0 0.021048905773516917 0.0021816856168928333 0 0.020657108168144939 0.0020974955437598518 0 0.021048905773516917 0.0021816856168928333 0 0.021115132455359457 0.001839775814384765 0 0.021048905773516917 0.0021816856168928333 0 0.021115132455359457 0.001839775814384765 0 0.021851405315001515 0.0023716311147740339 0 0.022406660559690421 0.0012938035557209019 0 0.021107077886771776 0.0010154961341722259 0 0.021115132455359457 0.001839775814384765 0 0.021107077886771776 0.0010154961341722259 0 0.020391041460289923 0.0016582038523796766 0 0.021115132455359457 0.001839775814384765 0 0.022406660559690421 0.0012938035557209019 0 0.021115132455359457 0.001839775814384765 0 0.021851405315001515 0.0023716311147740339 0 0.022406660559690421 0.0012938035557209019 0 0.021851405315001515 0.0023716311147740339 0 0.023249396956951499 0.0020050933352281988 0 0.021152254346895563 0.0020350404550345232 0 0.021048905773516917 0.0021816856168928333 0 0.021851405315001515 0.0023716311147740339 0 0.024460383880961795 0.0021601803951143183 0 0.023124659697968335 0.0031013505825177069 0 0.021851405315001515 0.0023716311147740339 0 0.023249396956951499 0.0020050933352281988 0 0.022993797073284021 0.0031249428893580003 0 0.023249396956951499 0.0020050933352281988 0 0.024709347730345763 0.0023063688675935752 0 0.022993797073284021 0.0031249428893580003 0 0.024209583016541615 0.0020508634087203432 0 0.023872352607893981 0.0031516773101546778 0 0.022993797073284021 0.0031249428893580003 0 0.025082844588559597 0.0012921900619536182 0 0.022406660559690421 0.0012938035557209019 0 0.023249396956951499 0.0020050933352281988 0 0.025082844588559597 0.0012921900619536182 0 0.023249396956951499 0.0020050933352281988 0 0.024709347730345763 0.0023063688675935752 0 0.024209583016541615 0.0020508634087203432 0 0.025132213931289098 0.0019066673771354996 0 0.024765492914547868 0.0024371072845909918 0 0.026057383797023936 0.0012773397051503755 0 0.024460383880961795 0.0021601803951143183 0 0.024209583016541615 0.0020508634087203432 0 0.024355211823149665 0.0029183155535492701 0 0.023872352607893981 0.0031516773101546778 0 0.024209583016541615 0.0020508634087203432 0 0.024355211823149665 0.0029183155535492701 0 0.024765492914547868 0.0024371072845909918 0 0.023872352607893981 0.0031516773101546778 0 0.02362590275907981 0.0036593818033041005 0 0.024279734450496058 0.0035439379476826819 0 0.024355211823149665 0.0029183155535492701 0 0.023872352607893981 0.0031516773101546778 0 0.024279734450496058 0.0035439379476826819 0 0.021837810764615578 0.0023198926178760008 0 0.022261885378069612 0.0026449271165306762 0 0.021851405315001515 0.0023716311147740339 0 0.022993797073284021 0.0031249428893580003 0 0.02362590275907981 0.0036593818033041005 0 0.023872352607893981 0.0031516773101546778 0 0.022993797073284021 0.0031249428893580003 0 0.02362590275907981 0.0036593818033041005 0 0.022261885378069612 0.0026449271165306762 0 0.023080982749077775 0.0029074256289867107 0 0.020854296622770139 0.0017282100406079319 0 0.020958537132206488 0.0019100353335846554 0 0.021883360112671411 0.0021487901586938456 0 0.020766813283737324 0.0017992024520325067 0 0.020854296622770139 0.0017282100406079319 0 0.020958537132206488 0.0019100353335846554 0 0.02362590275907981 0.0036593818033041005 0 0.024279734450496058 0.0035439379476826819 0 0.024346420976565575 0.0036115883581259536 0 0.024279734450496058 0.0035439379476826819 0 0.024346420976565575 0.0036115883581259536 0 0.024442215076398238 0.003520522365260419 0 0.021883360112671411 0.0021487901586938456 0 0.02109211149503579 0.0023833465404624796 0 0.021915614287420268 0.0033400965377156132 0 0.020958537132206488 0.0019100353335846554 0 0.021883360112671411 0.0021487901586938456 0 0.02109211149503579 0.0023833465404624796 0 0.020533380593695069 0.0018484044412508331 0 0.020958537132206488 0.0019100353335846554 0 0.02109211149503579 0.0023833465404624796 0 0.020926241412511985 0.0033962986633627244 0 0.021915614287420268 0.0033400965377156132 0 0.021106253101395939 0.0042060663161026116 0 0.02109211149503579 0.0023833465404624796 0 0.020926241412511985 0.0033962986633627244 0 0.020404928177994091 0.0025901923158029895 0 0.02109211149503579 0.0023833465404624796 0 0.020926241412511985 0.0033962986633627244 0 0.021915614287420268 0.0033400965377156132 0 0.021883360112671411 0.0021487901586938456 0 0.021915614287420268 0.0033400965377156132 0 0.023036294779462271 0.0033969694425211084 0 0.023080982749077775 0.0029074256289867107 0 0.023664635574236519 0.003466857367292922 0 0.021915614287420268 0.0033400965377156132 0 0.022496724827665595 0.0038690104398886242 0 0.023036294779462271 0.0033969694425211084 0 0.021915614287420268 0.0033400965377156132 0 0.022496724827665595 0.0038690104398886242 0 0.021958549906662288 0.0043433301459007709 0 0.022496724827665595 0.0038690104398886242 0 0.021958549906662288 0.0043433301459007709 0 0.022972646681071612 0.0043799023674169248 0 0.021958549906662288 0.0043433301459007709 0 0.022278809401525605 0.0050774084187496741 0 0.022972646681071612 0.0043799023674169248 0 0.021958549906662288 0.0043433301459007709 0 0.022278809401525605 0.0050774084187496741 0 0.021477464403756086 0.0048387910175201427 0 0.021477226343759172 0.0056468154375368231 0 0.022278809401525605 0.0050774084187496741 0 0.021477464403756086 0.0048387910175201427 0 0.022653789884755964 0.0059955694917327076 0 0.022278809401525605 0.0050774084187496741 0 0.023348630656618886 0.0052272102963797518 0 0.0047887819976862363 0.002443018792607297 0 0.0043023668460140793 0.0025188082883136945 0 0.0013401270118667988 0.00133376088953122 0 0.015157072358958308 0.0048478308014945747 0 0.0094192511710835623 0.0046836738577138272 0 0.015157072358958308 0.0048478308014945747 0 0.020804932471859376 0.0067831491135756129 0 0.021477226343759172 0.0056468154375368231 0 0.021477464403756086 0.0048387910175201427 0 0.020601117626135177 0.0048382296799379517 0 0.021915614287420268 0.0033400965377156132 0 0.021958549906662288 0.0043433301459007709 0 0.021106253101395939 0.0042060663161026116 0 0.021477464403756086 0.0048387910175201427 0 0.021106253101395939 0.0042060663161026116 0 0.020601117626135177 0.0048382296799379517 0 0.021958549906662288 0.0043433301459007709 0 0.021477464403756086 0.0048387910175201427 0 0.021106253101395939 0.0042060663161026116 0 0.018518354504232972 0.0080564612689872986 0 0.019278096293714544 0.0073452347212951668 0 0.018105416825467163 0.0056601678770403308 0 0.021106253101395939 0.0042060663161026116 0 0.020601117626135177 0.0048382296799379517 0 0.019582430702480298 0.0043111556323388017 0 0.020926241412511985 0.0033962986633627244 0 0.021106253101395939 0.0042060663161026116 0 0.019582430702480298 0.0043111556323388017 0 0.020804932471859376 0.0067831491135756129 0 0.018540508237167318 0.0047278786782399985 0 0.020327733192547565 0.0085033892680903608 0 0.018518354504232972 0.0080564612689872986 0 0.019278096293714544 0.0073452347212951668 0 0.0027502506940335967 0.0032271650846418592 0 0.0013401270118667988 0.00133376088953122 0 -0.00047163475249825757 0.0018046724558253497 0 0.0094192511710835623 0.0046836738577138272 0 0.0071901074099805246 0.0040576330077660688 0 0.0013401270118667988 0.00133376088953122 0 -0.00047163475249825757 0.0018046724558253497 0 -0.001681260129101733 0.00056874426957996516 0 0.018105416825467163 0.0056601678770403308 0 0.015409881430597181 0.0053724082713517167 0 0.015917785520982535 0.0074938097427935798 0 0.018518354504232972 0.0080564612689872986 0 0.018105416825467163 0.0056601678770403308 0 0.015917785520982535 0.0074938097427935798 0 0.018105416825467163 0.0056601678770403308 0 0.016879913272124573 0.0033090847681199053 0 0.015409881430597181 0.0053724082713517167 0 0.018540508237167318 0.0047278786782399985 0 0.017065468131862022 0.003393160056905712 0 0.019582430702480298 0.0043111556323388017 0 0.016879913272124573 0.0033090847681199053 0 0.01923875021176083 0.0029196840969943449 0 0.020926241412511985 0.0033962986633627244 0 0.019582430702480298 0.0043111556323388017 0 0.020404928177994091 0.0025901923158029895 0 0.019582430702480298 0.0043111556323388017 0 0.01923875021176083 0.0029196840969943449 0 0.020404928177994091 0.0025901923158029895 0 0.01923875021176083 0.0029196840969943449 0 0.020404928177994091 0.0025901923158029895 0 0.019518555957231423 0.0013761371787188055 0 0.020533380593695069 0.0018484044412508331 0 0.020404928177994091 0.0025901923158029895 0 0.019518555957231423 0.0013761371787188055 0 0.020533380593695069 0.0018484044412508331 0 0.02109211149503579 0.0023833465404624796 0 0.020404928177994091 0.0025901923158029895 0 0.017810548761507308 7.458452885024306e-05 0 0.019280598856264129 0.0011670350066862387 0 0.016879913272124573 0.0033090847681199053 0 0.019518555957231423 0.0013761371787188055 0 0.016114809383949245 0.0013597033953934069 0 0.016879913272124573 0.0033090847681199053 0 0.01923875021176083 0.0029196840969943449 0 0.019518555957231423 0.0013761371787188055 0 0.014636476959309547 -0.0019423682054410373 0 0.019518555957231423 0.0013761371787188055 0 0.016114809383949245 0.0013597033953934069 0 0.016114809383949245 0.0013597033953934069 0 0.013783219822618639 0.00029059062160893422 0 0.014572958884565843 0.0035648425747688709 0 0.016879913272124573 0.0033090847681199053 0 0.016114809383949245 0.0013597033953934069 0 0.014572958884565843 0.0035648425747688709 0 0.014636476959309547 -0.0019423682054410373 0 0.016114809383949245 0.0013597033953934069 0 0.013783219822618639 0.00029059062160893422 0 0.013675241889843726 0.00059786880144628877 0 0.0085315562405048513 0.0021407773854239132 0 0.013783219822618639 0.00029059062160893422 0 0.014572958884565843 0.0035648425747688709 0 0.0091316006445915174 0.0040753805695051019 0 0.013783219822618639 0.00029059062160893422 0 0.011304851019841182 0.00099470162857908848 0 0.0087905632701492289 0.0022700612181605641 0 0.0094383409880348344 -0.0011543977546472582 0 0.011304851019841182 0.00099470162857908848 0 0.0091465338153491806 0.00079259844333264852 0 0.010634309689065879 -0.0039654067978491759 0 0.013783219822618639 0.00029059062160893422 0 0.011304851019841182 0.00099470162857908848 0 0.011304851019841182 0.00099470162857908848 0 0.0087905632701492289 0.0022700612181605641 0 0.0091465338153491806 0.00079259844333264852 0 0.013314691501205173 0.0048235704130740326 0 0.014572958884565843 0.0035648425747688709 0 0.010935741102060855 0.003784724855685847 0 0.01486241576252597 0.0038924867958945635 0 0.0085315562405048513 0.0021407773854239132 0 0.013314691501205173 0.0048235704130740326 0 0.01238968288877944 0.0066376065284982685 0 0.010935741102060855 0.003784724855685847 0 0.013314691501205173 0.0048235704130740326 0 0.014572958884565843 0.0035648425747688709 0 0.015409881430597181 0.0053724082713517167 0 0.016879913272124573 0.0033090847681199053 0 0.014572958884565843 0.0035648425747688709 0 0.015409881430597181 0.0053724082713517167 0 0.0071901074099805246 0.0040576330077660688 0 0.0048995135994768227 0.0039648917825349196 0 0.015409881430597181 0.0053724082713517167 0 0.015917785520982535 0.0074938097427935798 0 0.01238968288877944 0.0066376065284982685 0 -0.001681260129101733 0.00056874426957996516 0 -0.0026420817349155101 0.00075445306779102137 0 -0.0029951273923446123 0.00092332141588589382 0 -0.0015978199100897979 0.0011770182134192082 0 -0.0025980588543646293 0.00076734470852938034 0 -0.0028316532855238094 0.00048242378496026638 0 -0.0028778615395191206 0.00048987897193586731 0 -0.0026420817349155101 0.00075445306779102137 0 -0.00047163475249825757 0.0018046724558253497 0 -0.001681260129101733 0.00056874426957996516 0 -0.0026420817349155101 0.00075445306779102137 0 -0.0028316532855238094 0.00048242378496026638 0 -0.0028913422182009732 0.00041721981504256412 0 -0.0026420817349155101 0.00075445306779102137 0 -0.0028913422182009732 0.00041721981504256412 0 -0.0025537416344445798 0.00016009406453783387 0 -0.0027050422171575206 0.00054151492473738952 0 -0.0028913422182009732 0.00041721981504256412 0 -0.0026420817349155101 0.00075445306779102137 0 -0.0027050422171575206 0.00054151492473738952 0 -0.0026420817349155101 0.00075445306779102137 0 -0.0027050422171575206 0.00054151492473738952 0 -0.0029951273923446123 0.00092332141588589382 0 0.013314691501205173 0.0048235704130740326 0 0.015409881430597181 0.0053724082713517167 0 0.01238968288877944 0.0066376065284982685 0 -0.0027050422171575206 0.00054151492473738952 0 -0.0029951273923446123 0.00092332141588589382 0 -0.0017952666916748691 0.00066222478558480337 0 0.01238968288877944 0.0066376065284982685 0 0.0087089459598232184 0.0054078828507586173 0 0.010935741102060855 0.003784724855685847 0 0.0048995135994768227 0.0039648917825349196 0 0.003652123924446137 0.0022562280399664337 0 -0.0029951273923446123 0.00092332141588589382 0 -0.0017952666916748691 0.00066222478558480337 0 -0.00065644388569458055 0.0023173092130752983 0 -0.0025537416344445798 0.00016009406453783387 0 -0.0027050422171575206 0.00054151492473738952 0 -0.0017952666916748691 0.00066222478558480337 0 -0.0025537416344445798 0.00016009406453783387 0 -0.0017952666916748691 0.00066222478558480337 0 -0.00066863929297169612 3.0927714313416099e-05 0 -0.0017952666916748691 0.00066222478558480337 0 -0.00066863929297169612 3.0927714313416099e-05 0 0.002058016444864644 4.1345010971334882e-06 0 -0.00094302782255648292 -1.0917219936171693e-06 0 -0.00066863929297169612 3.0927714313416099e-05 0 0.002058016444864644 4.1345010971334882e-06 0 0.0020683457855602194 7.095035511261541e-09 0 0.0033096371110699109 1.1918274828517371e-05 0 0.0038680492659757611 1.3051824958918024e-08 0 -0.0017952666916748691 0.00066222478558480337 0 0.002058016444864644 4.1345010971334882e-06 0 -0.00065644388569458055 0.0023173092130752983 0 0.0020624516224815007 8.7460703086858289e-07 0 0.003652123924446137 0.0022562280399664337 0 0.0042197413302147921 6.7461638822187271e-05 0 0.0038782165907520001 1.3684906172407457e-06 0 0.0041424046979696818 -1.3363307224842808e-06 0 0.0041455107293511782 -1.5618441671757961e-08 0 0.0085315562405048513 0.0021407773854239132 0 0.003652123924446137 0.0022562280399664337 0 0.0038723005044419626 1.01978549667162e-07 0 0.0041531990265366763 5.3567095845213157e-06 0 0.0087905632701492289 0.0022700612181605641 0 0.0077891544445003466 5.1083707386524633e-05 0 0.0042197413302147921 6.7461638822187271e-05 0 0.0041424046979696818 -1.3363307224842808e-06 0 0.004336720838620853 2.1847111818500693e-05 0 0.003652123924446137 0.0022562280399664337 0 0.0085315562405048513 0.0021407773854239132 0 0.0087905632701492289 0.0022700612181605641 0 0.0077891544445003466 5.1083707386524633e-05 0 0.0091465338153491806 0.00079259844333264852 0 0.0094383409880348344 -0.0011543977546472582 0 0.0077891544445003466 5.1083707386524633e-05 0 0.0091465338153491806 0.00079259844333264852 0 0.0071126712994080644 -2.7744724351964455e-06 0 0.0041531990265366763 5.3567095845213157e-06 0 0.0077891544445003466 5.1083707386524633e-05 0 0.024727887307163104 0.0012238499215300397 0 0.02529387710510567 0.001422020990558724 0 0.024827718191461116 0.0012474002122168906 0 0.02529387710510567 0.001422020990558724 0 0.024827718191461116 0.0012474002122168906 0 0.025361547953020147 0.0015151696718766843 0 0.024827718191461116 0.0012474002122168906 0 0.025361547953020147 0.0015151696718766843 0 0.024538877620980067 0.0011213309955733365 0 0.024827718191461116 0.0012474002122168906 0 0.024283923587066707 0.00095726034320687832 0 0.024538877620980067 0.0011213309955733365 0 0.024727887307163104 0.0012238499215300397 0 0.024283923587066707 0.00095726034320687832 0 0.024355986349919076 0.00091073536123724972 0 0.024727887307163104 0.0012238499215300397 0 0.024827718191461116 0.0012474002122168906 0 0.024283923587066707 0.00095726034320687832 0 0.024283923587066707 0.00095726034320687832 0 0.024355986349919076 0.00091073536123724972 0 0.024281016429745637 0.00084660119257033858 0 0.024281016429745637 0.00084660119257033858 0 0.024403849466262218 0.00070696276978171363 0 0.024365309309813385 0.00072306257066142795 0 0.024355986349919076 0.00091073536123724972 0 0.024281016429745637 0.00084660119257033858 0 0.024365309309813385 0.00072306257066142795 0 0.024320105908162696 0.0011771408543697413 0 0.024225969701399352 0.00044366204616234179 0 0.024355986349919076 0.00091073536123724972 0 0.02433352375829138 0.00090343079742880971 0 0.024365309309813385 0.00072306257066142795 0 0.024730098748565337 0.0011789654095773119 0 0.024320105908162696 0.0011771408543697413 0 0.024727887307163104 0.0012238499215300397 0 0.024355986349919076 0.00091073536123724972 0 0.02433352375829138 0.00090343079742880971 0 0.024727887307163104 0.0012238499215300397 0 0.024398295227247728 0.0015076073639441691 0 0.024602818139625397 0.00161376625340417 0 0.024398295227247728 0.0015076073639441691 0 0.024602818139625397 0.00161376625340417 0 0.024243695074695558 0.0016309744060555591 0 0.025123935243808574 0.0015717097122910776 0 0.025431584155868523 0.00071240749914773223 0 0.024727887307163104 0.0012238499215300397 0 0.024296632707384976 0.0013231959816299491 0 0.024398295227247728 0.0015076073639441691 0 0.025585315705289057 0.00037349975883562092 0 0.025239670892706682 0.00042586972476389815 0 0.024617537240606668 -0.00028815010705070899 0 0.024296632707384976 0.0013231959816299491 0 0.024398295227247728 0.0015076073639441691 0 0.024243695074695558 0.0016309744060555591 0 0.024296632707384976 0.0013231959816299491 0 0.024243695074695558 0.0016309744060555591 0 0.023883324218632613 0.0013627528539854664 0 0.028133208970175343 -0.001037420720156232 0 0.029655100432425224 -0.0026018852605245888 0 0.028064784865712691 -0.0019159465378902113 0 0.027591904344116788 -0.0023216233678566814 0 0.02860524590505964 -0.0025127329297861228 0 0.025431584155868523 0.00071240749914773223 0 0.025977602178214619 -0.00072311933848874695 0 0.026396973791904883 -0.00027744622277747874 0 0.026131142995147395 -0.00023880588912287965 0 0.026586097408774694 0.00015685496592449268 0 0.025977602178214619 -0.00072311933848874695 0 0.028133208970175343 -0.001037420720156232 0 0.026105352792553979 0.0013934192544105754 0 0.025819155568178747 0.0013347597793581072 0 0.025830849484212454 0.0012048426194268813 0 0.025761106666066121 0.0014640132179073531 0 0.026105352792553979 0.0013934192544105754 0 0.025819155568178747 0.0013347597793581072 0 0.025761106666066121 0.0014640132179073531 0 0.025819155568178747 0.0013347597793581072 0 0.025650613866199878 0.001354284512729384 0 0.025819155568178747 0.0013347597793581072 0 0.025762161096456515 0.0012142235290304739 0 0.025650613866199878 0.001354284512729384 0 0.025431584155868523 0.00071240749914773223 0 0.026393775478391165 0.00064729977713807476 0 0.026396973791904883 -0.00027744622277747874 0 0.026586097408774694 0.00015685496592449268 0 0.026940704012030959 0.00010043981907266285 0 0.027148290190115238 -0.0003456265140305728 0 0.027560031620924342 6.6643507811391126e-06 0 0.027037232250685477 9.9491558068987615e-05 0 0.028133208970175343 -0.001037420720156232 0 0.026393775478391165 0.00064729977713807476 0 0.025762161096456515 0.0012142235290304739 0 0.025784707171724021 0.0011680340096769978 0 0.025650613866199878 0.001354284512729384 0 0.027148290190115238 -0.0003456265140305728 0 0.027037232250685477 9.9491558068987615e-05 0 0.026903946790917618 9.2239413041715358e-06 0 0.025819155568178747 0.0013347597793581072 0 0.025830849484212454 0.0012048426194268813 0 0.025762161096456515 0.0012142235290304739 0 0.026393775478391165 0.00064729977713807476 0 0.026194029425104567 0.00087740072473308406 0 0.026393775478391165 0.00064729977713807476 0 0.026117831703755274 0.00075491840848802079 0 0.025836702475234164 0.0012016067715273258 0 0.025762161096456515 0.0012142235290304739 0 0.025784707171724021 0.0011680340096769978 0 0.025622060902112311 0.0013303480804453369 0 0.025644393918323551 0.0013263159499222552 0 0.025650613866199878 0.001354284512729384 0 0.025739605152012599 0.0013118328292531123 0 0.025644393918323551 0.0013263159499222552 0 0.02555979575846247 0.0013606395616438032 0 0.025644393918323551 0.0013263159499222552 0 0.02555979575846247 0.0013606395616438032 0 0.025650613866199878 0.001354284512729384 0 0.02555979575846247 0.0013606395616438032 0 0.025650613866199878 0.001354284512729384 0 0.025332359838239622 0.001497107665697102 0 0.026194029425104567 0.00087740072473308406 0 0.025634374921094067 0.0014548337455780724 0 0.025761106666066121 0.0014640132179073531 0 0.025650613866199878 0.001354284512729384 0 0.025332359838239622 0.001497107665697102 0 0.024727887307163104 0.0012238499215300397 0 0.024602818139625397 0.00161376625340417 0 0.025332359838239622 0.001497107665697102 0 0.025123935243808574 0.0015717097122910776 0 0.0253444790280309 0.0014984730963101536 0 0.024727887307163104 0.0012238499215300397 0 0.02529387710510567 0.001422020990558724 0 0.025332359838239622 0.001497107665697102 0 0.025332359838239622 0.001497107665697102 0 0.025667595686856566 0.0013471421385869156 0 0.025638430939911173 0.0014119362629763498 0 0.02529387710510567 0.001422020990558724 0 0.025332359838239622 0.001497107665697102 0 0.025638430939911173 0.0014119362629763498 0 0.02555979575846247 0.0013606395616438032 0 0.025332359838239622 0.001497107665697102 0 0.025667595686856566 0.0013471421385869156 0 0.025739605152012599 0.0013118328292531123 0 0.02555979575846247 0.0013606395616438032 0 0.025667595686856566 0.0013471421385869156 0 0.025993798925858673 0.001273542072155392 0 0.025739605152012599 0.0013118328292531123 0 0.025667595686856566 0.0013471421385869156 0 0.025993798925858673 0.001273542072155392 0 0.025667595686856566 0.0013471421385869156 0 0.025861276554196438 0.0013215273773505665 0 0.025667595686856566 0.0013471421385869156 0 0.025861276554196438 0.0013215273773505665 0 0.025638430939911173 0.0014119362629763498 0 0.025861276554196438 0.0013215273773505665 0 0.025875698234161262 0.0013484897420643961 0 0.025638430939911173 0.0014119362629763498 0 0.026130465560218349 0.0012581961086092529 0 0.025861276554196438 0.0013215273773505665 0 0.025875698234161262 0.0013484897420643961 0 0.026130465560218349 0.0012581961086092529 0 0.025990049869274466 0.0013458864212448902 0 0.025875698234161262 0.0013484897420643961 0 0.025990049869274466 0.0013458864212448902 0 0.025875698234161262 0.0013484897420643961 0 0.025690411725671741 0.0014038972730167354 0 0.025875698234161262 0.0013484897420643961 0 0.025690411725671741 0.0014038972730167354 0 0.025638430939911173 0.0014119362629763498 0 0.02529387710510567 0.001422020990558724 0 0.025638430939911173 0.0014119362629763498 0 0.025506594227352932 0.0014563504560057812 0 0.025690411725671741 0.0014038972730167354 0 0.025638430939911173 0.0014119362629763498 0 0.025506594227352932 0.0014563504560057812 0 0.02592718852555841 0.0013627420680820219 0 0.025132213931289098 0.0019066673771354996 0 0.025257253267375369 0.0027894548933431918 0 0.025507206778864096 0.0010670669267373596 0 0.024209583016541615 0.0020508634087203432 0 0.025132213931289098 0.0019066673771354996 0 0.02592718852555841 0.0013627420680820219 0 0.025990049869274466 0.0013458864212448902 0 0.025445418073009068 0.001432920640589019 0 0.025841677061110624 0.0013899643315373443 0 0.025359208770601261 0.0020955146497928421 0 0.025990049869274466 0.0013458864212448902 0 0.025690411725671741 0.0014038972730167354 0 0.025445418073009068 0.001432920640589019 0 0.025690411725671741 0.0014038972730167354 0 0.025445418073009068 0.001432920640589019 0 0.025378506626446255 0.0015755715663004855 0 0.025132213931289098 0.0019066673771354996 0 0.025257253267375369 0.0027894548933431918 0 0.024765492914547868 0.0024371072845909918 0 0.024355211823149665 0.0029183155535492701 0 0.025257253267375369 0.0027894548933431918 0 0.024765492914547868 0.0024371072845909918 0 0.024279734450496058 0.0035439379476826819 0 0.025257253267375369 0.0027894548933431918 0 0.024665335812711537 0.0035650776066068228 0 0.024355211823149665 0.0029183155535492701 0 0.024279734450496058 0.0035439379476826819 0 0.025257253267375369 0.0027894548933431918 0 0.025359208770601261 0.0020955146497928421 0 0.024752030288088821 0.0027234546529123246 0 0.025445418073009068 0.001432920640589019 0 0.024817962915971062 0.0018542159108735116 0 0.025378506626446255 0.0015755715663004855 0 0.024817962915971062 0.0018542159108735116 0 0.025378506626446255 0.0015755715663004855 0 0.025217999114674091 0.0022034390117262946 0 0.024279734450496058 0.0035439379476826819 0 0.024665335812711537 0.0035650776066068228 0 0.024442215076398238 0.003520522365260419 0 0.02529387710510567 0.001422020990558724 0 0.025506594227352932 0.0014563504560057812 0 0.025361547953020147 0.0015151696718766843 0 0.025506594227352932 0.0014563504560057812 0 0.025378506626446255 0.0015755715663004855 0 0.025361547953020147 0.0015151696718766843 0 0.025690411725671741 0.0014038972730167354 0 0.025506594227352932 0.0014563504560057812 0 0.025378506626446255 0.0015755715663004855 0 0.025378506626446255 0.0015755715663004855 0 0.025361547953020147 0.0015151696718766843 0 0.025217999114674091 0.0022034390117262946 0 0.025361547953020147 0.0015151696718766843 0 0.025296869292675894 0.0010018769347948659 0 0.024538877620980067 0.0011213309955733365 0 0.025358900105943844 0.0016232768179642724 0 0.025495479352597047 0.0016772030716401135 0 0.025296869292675894 0.0010018769347948659 0 0.024500743069837991 0.00072474226744870284 0 0.024538877620980067 0.0011213309955733365 0 0.025643235235800563 0.0025012771218723899 0 0.025217999114674091 0.0022034390117262946 0 0.025060771994180903 0.0030990235874800744 0 0.025361547953020147 0.0015151696718766843 0 0.025643235235800563 0.0025012771218723899 0 0.025217999114674091 0.0022034390117262946 0 0.025296869292675894 0.0010018769347948659 0 0.025056008279135098 -8.3178787280110104e-05 0 0.025834056657792391 -0.0002576879514620825 0 0.025643235235800563 0.0025012771218723899 0 0.025060771994180903 0.0030990235874800744 0 0.025409800326781799 0.00375344432453563 0 0.025495479352597047 0.0016772030716401135 0 0.025428605142767499 0.0021142991595801642 0 0.024500743069837991 0.00072474226744870284 0 0.025056008279135098 -8.3178787280110104e-05 0 0.023454150731214943 -0.00096976095264672145 0 0.025296869292675894 0.0010018769347948659 0 0.024500743069837991 0.00072474226744870284 0 0.025056008279135098 -8.3178787280110104e-05 0 0.024665335812711537 0.0035650776066068228 0 0.024442215076398238 0.003520522365260419 0 0.024380643866825862 0.0033116843788575808 0 0.024346420976565575 0.0036115883581259536 0 0.024442215076398238 0.003520522365260419 0 0.024255350531842225 0.0034102155132836125 0 0.024752030288088821 0.0027234546529123246 0 0.024429647282960511 0.003288192561404469 0 0.024817962915971062 0.0018542159108735116 0 0.025217999114674091 0.0022034390117262946 0 0.024380643866825862 0.0033116843788575808 0 0.025217999114674091 0.0022034390117262946 0 0.025060771994180903 0.0030990235874800744 0 0.024380643866825862 0.0033116843788575808 0 0.025060771994180903 0.0030990235874800744 0 0.024687822102332141 0.0036714993307953737 0 0.025409800326781799 0.00375344432453563 0 0.025060771994180903 0.0030990235874800744 0 0.024380643866825862 0.0033116843788575808 0 0.024687822102332141 0.0036714993307953737 0 0.024380643866825862 0.0033116843788575808 0 0.024421262278035767 0.0037168735040355315 0 0.024687822102332141 0.0036714993307953737 0 0.024442215076398238 0.003520522365260419 0 0.024380643866825862 0.0033116843788575808 0 0.024255350531842225 0.0034102155132836125 0 0.024380643866825862 0.0033116843788575808 0 0.024255350531842225 0.0034102155132836125 0 0.024421262278035767 0.0037168735040355315 0 0.023036294779462271 0.0033969694425211084 0 0.022972646681071612 0.0043799023674169248 0 0.024314798438558657 0.0046105961800968756 0 0.022496724827665595 0.0038690104398886242 0 0.023036294779462271 0.0033969694425211084 0 0.022972646681071612 0.0043799023674169248 0 0.024255350531842225 0.0034102155132836125 0 0.024421262278035767 0.0037168735040355315 0 0.024314798438558657 0.0046105961800968756 0 0.023664635574236519 0.003466857367292922 0 0.024315011368568219 0.0045790697679108459 0 0.024687822102332141 0.0036714993307953737 0 0.024314798438558657 0.0046105961800968756 0 0.025409800326781799 0.00375344432453563 0 0.024421262278035767 0.0037168735040355315 0 0.024687822102332141 0.0036714993307953737 0 0.024314798438558657 0.0046105961800968756 0 0.024924000032125974 0.0051584914377382071 0 0.024314798438558657 0.0046105961800968756 0 0.025409800326781799 0.00375344432453563 0 0.024924000032125974 0.0051584914377382071 0 0.024125864067365107 0.0053208442293751134 0 0.024314798438558657 0.0046105961800968756 0 0.022972646681071612 0.0043799023674169248 0 0.024314798438558657 0.0046105961800968756 0 0.023348630656618886 0.0052272102963797518 0 0.024125864067365107 0.0053208442293751134 0 0.024314798438558657 0.0046105961800968756 0 0.023348630656618886 0.0052272102963797518 0 0.022278809401525605 0.0050774084187496741 0 0.022972646681071612 0.0043799023674169248 0 0.023348630656618886 0.0052272102963797518 0 0.025056008279135098 -8.3178787280110104e-05 0 0.025164687172609879 -0.0019096199584918211 0 0.027030721066259561 -0.002901919813187714 0 0.025056008279135098 -8.3178787280110104e-05 0 0.025164687172609879 -0.0019096199584918211 0 0.023454150731214943 -0.00096976095264672145 0 0.025031593853284795 -0.00025898477427842265 0 0.02675478196591053 -0.0016521437902083356 0 0.025056008279135098 -8.3178787280110104e-05 0 0.025834056657792391 -0.0002576879514620825 0 0.025979252378577802 -0.0010756666055288424 0 0.026223346866919277 -0.0013529457532738059 0 0.025834056657792391 -0.0002576879514620825 0 0.025979252378577802 -0.0010756666055288424 0 0.026988283453320251 -0.0046893098575529662 0 0.027429698790855675 -0.0035873377172517726 0 0.027030721066259561 -0.002901919813187714 0 0.025164687172609879 -0.0019096199584918211 0 0.027030721066259561 -0.002901919813187714 0 0.025716972302198653 -0.0030417903414387088 0 0.026683054494566857 0.00031610238964109707 0 0.025428605142767499 0.0021142991595801642 0 0.026683054494566857 0.00031610238964109707 0 0.02675478196591053 -0.0016521437902083356 0 0.025886107843633533 -0.0044034921124229453 0 0.027030721066259561 -0.002901919813187714 0 0.025716972302198653 -0.0030417903414387088 0 0.025886107843633533 -0.0044034921124229453 0 0.025716972302198653 -0.0030417903414387088 0 0.02457020036939787 -0.0031678981076634677 0 0.025164687172609879 -0.0019096199584918211 0 0.02457020036939787 -0.0031678981076634677 0 0.023454150731214943 -0.00096976095264672145 0 0.025164687172609879 -0.0019096199584918211 0 0.025716972302198653 -0.0030417903414387088 0 0.02457020036939787 -0.0031678981076634677 0 0.02457020036939787 -0.0031678981076634677 0 0.02303533347060405 -0.0039604522578215945 0 0.023454150731214943 -0.00096976095264672145 0 0.02303533347060405 -0.0039604522578215945 0 0.021320078228769863 -0.002950548410377416 0 0.023454150731214943 -0.00096976095264672145 0 0.020003063227755712 -0.0052357385338912725 0 0.021320078228769863 -0.002950548410377416 0 0.017733112743489841 -0.0029623997408818104 0 0.021320078228769863 -0.002950548410377416 0 0.019972666881548248 -0.0013454416153869297 0 0.017733112743489841 -0.0029623997408818104 0 0.020003063227755712 -0.0052357385338912725 0 0.02303533347060405 -0.0039604522578215945 0 0.021320078228769863 -0.002950548410377416 0 0.019972666881548248 -0.0013454416153869297 0 0.023357843338609584 0.00099522676020870923 0 0.018762859920218148 0.00099039348628154888 0 0.019972666881548248 -0.0013454416153869297 0 0.023454150731214943 -0.00096976095264672145 0 0.023357843338609584 0.00099522676020870923 0 0.021320078228769863 -0.002950548410377416 0 0.019972666881548248 -0.0013454416153869297 0 0.023454150731214943 -0.00096976095264672145 0 0.024500743069837991 0.00072474226744870284 0 0.023357843338609584 0.00099522676020870923 0 0.024538877620980067 0.0011213309955733365 0 0.024500743069837991 0.00072474226744870284 0 0.023454150731214943 -0.00096976095264672145 0 0.023357843338609584 0.00099522676020870923 0 0.023357843338609584 0.00099522676020870923 0 0.024075139632994742 0.00092789838643205533 0 0.024150012803813004 0.0011329746284635565 0 0.02310970404634017 0.0010816188858544132 0 0.021404365600237757 0.00096567254869851977 0 0.024283923587066707 0.00095726034320687832 0 0.023357843338609584 0.00099522676020870923 0 0.024075139632994742 0.00092789838643205533 0 0.024283923587066707 0.00095726034320687832 0 0.023357843338609584 0.00099522676020870923 0 0.024538877620980067 0.0011213309955733365 0 0.024281016429745637 0.00084660119257033858 0 0.024352734551347354 0.00076035888501932946 0 0.024403849466262218 0.00070696276978171363 0 0.024281016429745637 0.00084660119257033858 0 0.024168503152316473 0.00097477906607284484 0 0.024132405713107079 0.00097659667495824244 0 0.024203246135891022 0.0007783492316377254 0 0.024427229328061146 0.00097433444468986055 0 0.024281016429745637 0.00084660119257033858 0 0.024075139632994742 0.00092789838643205533 0 0.024168503152316473 0.00097477906607284484 0 0.024283923587066707 0.00095726034320687832 0 0.024281016429745637 0.00084660119257033858 0 0.024075139632994742 0.00092789838643205533 0 0.024075139632994742 0.00092789838643205533 0 0.024168503152316473 0.00097477906607284484 0 0.024150012803813004 0.0011329746284635565 0 0.024168503152316473 0.00097477906607284484 0 0.024150012803813004 0.0011329746284635565 0 0.0240657649098742 0.001007060498932643 0 0.024168503152316473 0.00097477906607284484 0 0.0240657649098742 0.001007060498932643 0 0.024132405713107079 0.00097659667495824244 0 0.018762859920218148 0.00099039348628154888 0 0.014352536687498021 0.00031322469587261482 0 0.016792099994402933 -0.00096220812864675589 0 0.024150012803813004 0.0011329746284635565 0 0.0240657649098742 0.001007060498932643 0 0.023924584916261007 0.00076734134008235816 0 0.021404365600237757 0.00096567254869851977 0 0.019094170658944729 0.00069957674562383604 0 0.014352536687498021 0.00031322469587261482 0 0.016792099994402933 -0.00096220812864675589 0 0.01425313553323126 -0.0014566294600140081 0 0.014352536687498021 0.00031322469587261482 0 0.01425313553323126 -0.0014566294600140081 0 0.012434313676160619 -0.0013068520079442172 0 0.019972666881548248 -0.0013454416153869297 0 0.018762859920218148 0.00099039348628154888 0 0.016792099994402933 -0.00096220812864675589 0 0.019972666881548248 -0.0013454416153869297 0 0.016792099994402933 -0.00096220812864675589 0 0.017733112743489841 -0.0029623997408818104 0 0.016792099994402933 -0.00096220812864675589 0 0.017733112743489841 -0.0029623997408818104 0 0.015292313725484974 -0.00294511007997826 0 0.016555375823151468 -0.0052679697246015731 0 0.017733112743489841 -0.0029623997408818104 0 0.015292313725484974 -0.00294511007997826 0 0.01425313553323126 -0.0014566294600140081 0 0.015292313725484974 -0.00294511007997826 0 0.01274144211913833 -0.0030162066328818567 0 0.016792099994402933 -0.00096220812864675589 0 0.01425313553323126 -0.0014566294600140081 0 0.015292313725484974 -0.00294511007997826 0 0.013999503815235652 -0.0047755871734943582 0 0.015292313725484974 -0.00294511007997826 0 0.01274144211913833 -0.0030162066328818567 0 0.01425313553323126 -0.0014566294600140081 0 0.01274144211913833 -0.0030162066328818567 0 0.012434313676160619 -0.0013068520079442172 0 0.01274144211913833 -0.0030162066328818567 0 0.012434313676160619 -0.0013068520079442172 0 0.011126553067846103 -0.0022984841567952798 0 0.012434313676160619 -0.0013068520079442172 0 0.011126553067846103 -0.0022984841567952798 0 0.0099174765633454603 -0.00082035199975317671 0 0.01274144211913833 -0.0030162066328818567 0 0.011126553067846103 -0.0022984841567952798 0 0.010731465137401064 -0.0035755204394890324 0 0.011126553067846103 -0.0022984841567952798 0 0.010731465137401064 -0.0035755204394890324 0 0.0097881396046151301 -0.0027675427005687835 0 0.02042432728000947 -0.0010774760207903267 0 0.01940916725459859 -0.0012315243981047815 0 0.019403647414801734 -0.0014499805429837426 0 0.01677294176155706 -0.0022104672085880117 0 0.016943971058766751 -0.00291722452102447 0 0.014287302685567622 -0.0049044895680166361 0 0.014861172380631529 -0.0041252350899333955 0 0.014132615841062178 -0.0044009273855454018 0 0.0097881396046151301 -0.0027675427005687835 0 0.0078862959666438862 -0.0038449291741906532 0 0.0099174765633454603 -0.00082035199975317671 0 0.0068940298436937523 -0.004628744927100862 0 0.0078862959666438862 -0.0038449291741906532 0 0.0099174765633454603 -0.00082035199975317671 0 0.0092941932608187911 -0.003983343880144494 0 0.0097881396046151301 -0.0027675427005687835 0 0.0078862959666438862 -0.0038449291741906532 0 0.0090251703920726824 -0.0039326329055828077 0 0.01677294176155706 -0.0022104672085880117 0 0.0092941932608187911 -0.003983343880144494 0 0.010731465137401064 -0.0035755204394890324 0 0.0097881396046151301 -0.0027675427005687835 0 0.011126553067846103 -0.0022984841567952798 0 0.0097881396046151301 -0.0027675427005687835 0 0.0099174765633454603 -0.00082035199975317671 0 0.024526087222866696 0.00086025551754792214 0 0.024400586520342517 0.00088895865410765912 0 0.024451497798846377 0.00075659719993409209 0 0.022904356887262719 0.00081985119547805705 0 0.022173353495858725 -1.6828041822046184e-05 0 0.024526087222866696 0.00086025551754792214 0 0.024400586520342517 0.00088895865410765912 0 0.024662003963464438 0.001051497290702345 0 0.024526087222866696 0.00086025551754792214 0 0.024662003963464438 0.001051497290702345 0 0.024610721601488417 0.0007861087018671037 0 0.02042432728000947 -0.0010774760207903267 0 0.020691694658208137 -0.00068070595389212814 0 0.01940916725459859 -0.0012315243981047815 0 0.0240657649098742 0.001007060498932643 0 0.023924584916261007 0.00076734134008235816 0 0.023172491089451436 0.00075030341846258177 0 0.014352536687498021 0.00031322469587261482 0 0.012434313676160619 -0.0013068520079442172 0 0.0099174765633454603 -0.00082035199975317671 0 0.024311344752486471 0.0010793562874597267 0 0.022904356887262719 0.00081985119547805705 0 0.023924584916261007 0.00076734134008235816 0 0.022926010504064308 0.00040566129996509576 0 0.023172491089451436 0.00075030341846258177 0 0.019094170658944729 0.00069957674562383604 0 0.01677294176155706 -0.0022104672085880117 0 0.01677294176155706 -0.0022104672085880117 0 0.022904356887262719 0.00081985119547805705 0 0.020702409635974563 -0.0013721177637897725 0 0.022173353495858725 -1.6828041822046184e-05 0 0.018188085737339137 -0.0017688110976951598 0 0.0184302295964664 -0.001816974887848121 0 0.01940916725459859 -0.0012315243981047815 0 0.013533295403553261 -0.0046915079482521809 0 0.013592996177728347 -0.0046998636373589689 0 0.014132615841062178 -0.0044009273855454018 0 0.025097706117326299 0.0012662953126237806 0 0.024662003963464438 0.001051497290702345 0 0.025027074274116167 0.00096561179377744092 0 0.013229214464908313 -0.004876984202715217 0 0.013523354167877486 -0.0046032858992968084 0 0.013700001259646792 -0.0046193066371900083 0 0.020702409635974563 -0.0013721177637897725 0 0.015749835677696403 -0.0031062525804078796 0 0.015749835677696403 -0.0031062525804078796 0 0.015484330034834022 -0.0031275018158533189 0 0.013657919532953458 -0.0049002270422575768 0 0.013592996177728347 -0.0046998636373589689 0 0.013822076545584379 -0.0047245682572235499 0 0.013657919532953458 -0.0049002270422575768 0 0.013538948128011581 -0.0046986235694585002 0 0.013592996177728347 -0.0046998636373589689 0 0.013592996177728347 -0.0046998636373589689 0 0.013822076545584379 -0.0047245682572235499 0 0.014132615841062178 -0.0044009273855454018 0 0.015749835677696403 -0.0031062525804078796 0 0.016943971058766751 -0.00291722452102447 0 0.0184302295964664 -0.001816974887848121 0 0.01940916725459859 -0.0012315243981047815 0 0.019403647414801734 -0.0014499805429837426 0 0.01391448594538435 -0.0048817432708419218 0 0.013822076545584379 -0.0047245682572235499 0 0.014132615841062178 -0.0044009273855454018 0 0.014287302685567622 -0.0049044895680166361 0 0.01391448594538435 -0.0048817432708419218 0 0.014132615841062178 -0.0044009273855454018 0 0.024662003963464438 0.001051497290702345 0 0.024877104348258437 0.00075883959431868192 0 0.024610721601488417 0.0007861087018671037 0 0.025027074274116167 0.00096561179377744092 0 0.024877104348258437 0.00075883959431868192 0 0.025248755102371286 0.0007494118982760543 0 0.024662003963464438 0.001051497290702345 0 0.025027074274116167 0.00096561179377744092 0 0.024877104348258437 0.00075883959431868192 0 0.024877104348258437 0.00075883959431868192 0 0.025187768254381057 0.00048417861791105396 0 0.025248755102371286 0.0007494118982760543 0 0.024877104348258437 0.00075883959431868192 0 0.024893563366991604 0.00054486740653716666 0 0.025187768254381057 0.00048417861791105396 0 0.024877104348258437 0.00075883959431868192 0 0.024725501077081529 0.00065720550002747614 0 0.024610721601488417 0.0007861087018671037 0 0.024877104348258437 0.00075883959431868192 0 0.024725501077081529 0.00065720550002747614 0 0.024893563366991604 0.00054486740653716666 0 0.024725501077081529 0.00065720550002747614 0 0.024610721601488417 0.0007861087018671037 0 0.024571544740725804 0.00067299828924224242 0 0.024721111082698251 0.00053417068620555 0 0.024682335868784142 0.00045430208956147641 0 0.025077484638695746 0.00018607099856759028 0 0.024725501077081529 0.00065720550002747614 0 0.024721111082698251 0.00053417068620555 0 0.024571544740725804 0.00067299828924224242 0 0.024721111082698251 0.00053417068620555 0 0.024571544740725804 0.00067299828924224242 0 0.024569307138969119 0.00057444384385572185 0 0.024721111082698251 0.00053417068620555 0 0.024569307138969119 0.00057444384385572185 0 0.024682335868784142 0.00045430208956147641 0 0.024725501077081529 0.00065720550002747614 0 0.024721111082698251 0.00053417068620555 0 0.024893563366991604 0.00054486740653716666 0 0.024893563366991604 0.00054486740653716666 0 0.025077484638695746 0.00018607099856759028 0 0.025187768254381057 0.00048417861791105396 0 0.024721111082698251 0.00053417068620555 0 0.024893563366991604 0.00054486740653716666 0 0.025077484638695746 0.00018607099856759028 0 0.024427229328061146 0.00097433444468986055 0 0.022904356887262719 0.00081985119547805705 0 0.0240657649098742 0.001007060498932643 0 0.024132405713107079 0.00097659667495824244 0 0.024148054787183734 0.0010398738093559763 0 0.024352734551347354 0.00076035888501932946 0 0.024451497798846377 0.00075659719993409209 0 0.024403849466262218 0.00070696276978171363 0 0.024352734551347354 0.00076035888501932946 0 0.024400586520342517 0.00088895865410765912 0 0.024451497798846377 0.00075659719993409209 0 0.024526087222866696 0.00086025551754792214 0 0.024610721601488417 0.0007861087018671037 0 0.024451497798846377 0.00075659719993409209 0 0.024610721601488417 0.0007861087018671037 0 0.024571544740725804 0.00067299828924224242 0 0.024451497798846377 0.00075659719993409209 0 0.024571544740725804 0.00067299828924224242 0 0.024451497798846377 0.00075659719993409209 0 0.024490105584384272 0.00066124380502834764 0 0.024451497798846377 0.00075659719993409209 0 0.024490105584384272 0.00066124380502834764 0 0.024403849466262218 0.00070696276978171363 0 0.024571544740725804 0.00067299828924224242 0 0.024490105584384272 0.00066124380502834764 0 0.024569307138969119 0.00057444384385572185 0 0.024490105584384272 0.00066124380502834764 0 0.024403849466262218 0.00070696276978171363 0 0.02447542361344127 0.00061412877093673635 0 0.024490105584384272 0.00066124380502834764 0 0.024569307138969119 0.00057444384385572185 0 0.02447542361344127 0.00061412877093673635 0 0.024403849466262218 0.00070696276978171363 0 0.024365309309813385 0.00072306257066142795 0 0.02447542361344127 0.00061412877093673635 0 0.024365309309813385 0.00072306257066142795 0 0.024468368664138058 0.00059310666302733717 0 0.02447542361344127 0.00061412877093673635 0 0.02433352375829138 0.00090343079742880971 0 0.024365309309813385 0.00072306257066142795 0 0.024401654039315591 0.00066055426100847627 0 0.024365309309813385 0.00072306257066142795 0 0.024468368664138058 0.00059310666302733717 0 0.024401654039315591 0.00066055426100847627 0 0.024453025103799576 0.00022339901507651184 0 0.024223027714202518 6.994911053577551e-05 0 0.024265357259908967 6.4435724717159699e-05 0 0.024548772754120988 0.00013562371635021509 0 0.024200060800856321 -0.00031375462016610707 0 0.024548772754120988 0.00013562371635021509 0 0.024225969701399352 0.00044366204616234179 0 0.024468368664138058 0.00059310666302733717 0 0.024554310932284312 0.00047635998524653376 0 0.024401654039315591 0.00066055426100847627 0 0.024587408436616692 -0.00028023219560612022 0 0.024623618504457483 -0.00054467981244244075 0 0.024053510081379362 -0.00071655182174190201 0 0.024555455107055989 0.00051592177516743222 0 0.024468368664138058 0.00059310666302733717 0 0.024554310932284312 0.00047635998524653376 0 0.024555455107055989 0.00051592177516743222 0 0.024468368664138058 0.00059310666302733717 0 0.02447542361344127 0.00061412877093673635 0 0.024569307138969119 0.00057444384385572185 0 0.024555455107055989 0.00051592177516743222 0 0.02447542361344127 0.00061412877093673635 0 0.024682335868784142 0.00045430208956147641 0 0.025077484638695746 0.00018607099856759028 0 0.024554310932284312 0.00047635998524653376 0 0.024555455107055989 0.00051592177516743222 0 0.024682335868784142 0.00045430208956147641 0 0.024554310932284312 0.00047635998524653376 0 0.024569307138969119 0.00057444384385572185 0 0.024555455107055989 0.00051592177516743222 0 0.024682335868784142 0.00045430208956147641 0 0.025082636539240921 0.0002112356237372861 0 0.024548772754120988 0.00013562371635021509 0 0.025077484638695746 0.00018607099856759028 0 0.025073841607026179 -0.00024210991120783321 0 0.024587408436616692 -0.00028023219560612022 0 0.025077484638695746 0.00018607099856759028 0 0.025073841607026179 -0.00024210991120783321 0 0.025522171705489437 -0.00011603149864131175 0 0.024994330919967146 -0.00043407612823801248 0 0.025491519756005197 -0.00037036498800635699 0 0.024925419741292018 -0.00046116774508732887 0 0.025660645149723306 -0.00085275939105006041 0 0.024874887568828264 -0.00044140884983228876 0 0.024955397913129822 -0.00044045933294444169 0 0.02551182021662082 -0.00085486582316008253 0 0.025073841607026179 -0.00024210991120783321 0 0.024955397913129822 -0.00044045933294444169 0 0.025368609825709775 -0.00037900304611795227 0 0.024955397913129822 -0.00044045933294444169 0 0.02551182021662082 -0.00085486582316008253 0 0.025613636294585532 -0.00034826681976197544 0 0.025073841607026179 -0.00024210991120783321 0 0.024874887568828264 -0.00044140884983228876 0 0.024955397913129822 -0.00044045933294444169 0 0.025073841607026179 -0.00024210991120783321 0 0.024587408436616692 -0.00028023219560612022 0 0.024874887568828264 -0.00044140884983228876 0 0.024587408436616692 -0.00028023219560612022 0 0.024874887568828264 -0.00044140884983228876 0 0.024623618504457483 -0.00054467981244244075 0 0.024874887568828264 -0.00044140884983228876 0 0.024623618504457483 -0.00054467981244244075 0 0.025071151807383903 -0.00087957479279562152 0 0.025012602433988989 -0.00088075458817794632 0 0.024660833444071401 -0.00083843996728556758 0 0.024623618504457483 -0.00054467981244244075 0 0.025071151807383903 -0.00087957479279562152 0 0.024518311420958928 -0.00078577649407327933 0 0.024961537411077976 -0.0011544816624810938 0 0.025071151807383903 -0.00087957479279562152 0 0.024727115646028676 -0.00091674454104879012 0 0.024961537411077976 -0.0011544816624810938 0 0.024602376689755033 -0.0012832047444500012 0 0.024727115646028676 -0.00091674454104879012 0 0.025071151807383903 -0.00087957479279562152 0 0.025421950047835595 -0.001144312231855571 0 0.02578558072222285 -0.00083227745569716606 0 0.024874887568828264 -0.00044140884983228876 0 0.025071151807383903 -0.00087957479279562152 0 0.02578558072222285 -0.00083227745569716606 0 0.024961537411077976 -0.0011544816624810938 0 0.025071151807383903 -0.00087957479279562152 0 0.025421950047835595 -0.001144312231855571 0 0.025421950047835595 -0.001144312231855571 0 0.025316050523465798 -0.0015503293110369341 0 0.025924744229071765 -0.0013314399202965968 0 0.024961537411077976 -0.0011544816624810938 0 0.025421950047835595 -0.001144312231855571 0 0.025316050523465798 -0.0015503293110369341 0 0.029931372387819465 -0.0023639371369396159 0 0.029078617072804132 -0.002113845525577601 0 0.029559984623485261 -0.0026543559888802049 0 0.024961537411077976 -0.0011544816624810938 0 0.025316050523465798 -0.0015503293110369341 0 0.024602376689755033 -0.0012832047444500012 0 0.027594047286637707 -0.0019409544623288019 0 0.026888345243837816 -0.0018193731869748076 0 0.029078617072804132 -0.002113845525577601 0 0.02860524590505964 -0.0025127329297861228 0 0.029559984623485261 -0.0026543559888802049 0 0.028064784865712691 -0.0019159465378902113 0 0.029078617072804132 -0.002113845525577601 0 0.02860524590505964 -0.0025127329297861228 0 0.025977602178214619 -0.00072311933848874695 0 0.026888345243837816 -0.0018193731869748076 0 0.024161042671032581 -0.0011738213687886012 0 0.024602376689755033 -0.0012832047444500012 0 0.024434784072593842 -0.00090728524128818981 0 0.025431584155868523 0.00071240749914773223 0 0.024225969701399352 0.00044366204616234179 0 0.025977602178214619 -0.00072311933848874695 0 0.024200060800856321 -0.00031375462016610707 0 0.025239670892706682 0.00042586972476389815 0 0.024617537240606668 -0.00028815010705070899 0 0.024436566243694158 -0.00026734046299754289 0 0.024225969701399352 0.00044366204616234179 0 0.024200060800856321 -0.00031375462016610707 0 0.024200060800856321 -0.00031375462016610707 0 0.024660833444071401 -0.00083843996728556758 0 0.024623618504457483 -0.00054467981244244075 0 0.024053510081379362 -0.00071655182174190201 0 0.024518311420958928 -0.00078577649407327933 0 0.024602376689755033 -0.0012832047444500012 0 0.024434784072593842 -0.00090728524128818981 0 0.024727115646028676 -0.00091674454104879012 0 0.026673916386621765 -0.0012075080373083911 0 0.026514965765761924 -0.00090522244160160577 0 0.026993568954373246 -0.00092306078558974513 0 0.026673916386621765 -0.0012075080373083911 0 0.026514965765761924 -0.00090522244160160577 0 0.026228784269262968 -0.0012890787909422532 0 0.026514965765761924 -0.00090522244160160577 0 0.026993568954373246 -0.00092306078558974513 0 0.026719652716729062 -0.00051316536577456558 0 0.027515462357303205 -0.0013911746233110339 0 0.027556820198537311 -0.0011823622090532493 0 0.027895884390865513 -0.0014574283047099879 0 0.027515462357303205 -0.0013911746233110339 0 0.027760341744717303 -0.0016835563846371426 0 0.027895884390865513 -0.0014574283047099879 0 0.027515462357303205 -0.0013911746233110339 0 0.027760341744717303 -0.0016835563846371426 0 0.02758949426736922 -0.0019906695526374606 0 0.027760341744717303 -0.0016835563846371426 0 0.028013781458923526 -0.0019354294401422016 0 0.028328270047301842 -0.0019050992311510472 0 0.0272530021670888 -0.0011332938147857827 0 0.027694909666578157 -0.0019217502110892802 0 0.027760341744717303 -0.0016835563846371426 0 0.028013781458923526 -0.0019354294401422016 0 0.02758949426736922 -0.0019906695526374606 0 0.026673916386621765 -0.0012075080373083911 0 0.026957877811217251 -0.0017141114633885219 0 0.026228784269262968 -0.0012890787909422532 0 0.026673916386621765 -0.0012075080373083911 0 0.026993568954373246 -0.00092306078558974513 0 0.026957877811217251 -0.0017141114633885219 0 0.027694909666578157 -0.0019217502110892802 0 0.026398765548458967 -0.0012669779601652228 0 0.026445341625900804 -0.0018177078389425185 0 0.026712530053987785 -0.0013073055397431021 0 0.025924744229071765 -0.0013314399202965968 0 0.027702045758187611 -0.001873753596614826 0 0.026445341625900804 -0.0018177078389425185 0 0.026712530053987785 -0.0013073055397431021 0 0.025316050523465798 -0.0015503293110369341 0 0.026445341625900804 -0.0018177078389425185 0 0.025924744229071765 -0.0013314399202965968 0 0.027594047286637707 -0.0019409544623288019 0 0.028357662577610007 -0.0022380553025161008 0 0.026712530053987785 -0.0013073055397431021 0 0.025924744229071765 -0.0013314399202965968 0 0.02578558072222285 -0.00083227745569716606 0 0.026398765548458967 -0.0012669779601652228 0 0.025660645149723306 -0.00085275939105006041 0 0.025421950047835595 -0.001144312231855571 0 0.025924744229071765 -0.0013314399202965968 0 0.02578558072222285 -0.00083227745569716606 0 0.026514965765761924 -0.00090522244160160577 0 0.026228784269262968 -0.0012890787909422532 0 0.02606263192911366 -0.00074158726347041328 0 0.026228784269262968 -0.0012890787909422532 0 0.02551182021662082 -0.00085486582316008253 0 0.02606263192911366 -0.00074158726347041328 0 0.026514965765761924 -0.00090522244160160577 0 0.02606263192911366 -0.00074158726347041328 0 0.026321920870253975 -0.00024391271001624653 0 0.026084176729411799 -0.00028712498015214129 0 0.025491519756005197 -0.00037036498800635699 0 0.02606263192911366 -0.00074158726347041328 0 0.026321920870253975 -0.00024391271001624653 0 0.025613636294585532 -0.00034826681976197544 0 0.02551182021662082 -0.00085486582316008253 0 0.02606263192911366 -0.00074158726347041328 0 0.025613636294585532 -0.00034826681976197544 0 0.025871985100802682 -0.00038663451406357313 0 0.025368609825709775 -0.00037900304611795227 0 0.025522171705489437 -0.00011603149864131175 0 0.025073841607026179 -0.00024210991120783321 0 0.025368609825709775 -0.00037900304611795227 0 0.025522171705489437 -0.00011603149864131175 0 0.025871985100802682 -0.00038663451406357313 0 0.025522171705489437 -0.00011603149864131175 0 0.026022016813781291 -8.2312676219033968e-05 0 0.025522171705489437 -0.00011603149864131175 0 0.026022016813781291 -8.2312676219033968e-05 0 0.025596601756146524 0.00020472432683439043 0 0.026022016813781291 -8.2312676219033968e-05 0 0.02633093034028364 -0.00036383942312344549 0 0.026429965156482674 -9.7536667797655952e-06 0 0.025871985100802682 -0.00038663451406357313 0 0.026022016813781291 -8.2312676219033968e-05 0 0.02633093034028364 -0.00036383942312344549 0 0.026084176729411799 -0.00028712498015214129 0 0.026802401649697098 -0.0006326553648304409 0 0.026321920870253975 -0.00024391271001624653 0 0.026719652716729062 -0.00051316536577456558 0 0.027031693629726291 -0.00014552409625252598 0 0.026993568954373246 -0.00092306078558974513 0 0.026719652716729062 -0.00051316536577456558 0 0.027031693629726291 -0.00014552409625252598 0 0.026514965765761924 -0.00090522244160160577 0 0.026321920870253975 -0.00024391271001624653 0 0.026719652716729062 -0.00051316536577456558 0 0.027556820198537311 -0.0011823622090532493 0 0.027395375030337822 -0.0010638684681814957 0 0.027350942074775585 -0.00097882955079384507 0 0.0272530021670888 -0.0011332938147857827 0 0.026802401649697098 -0.0006326553648304409 0 0.027515462357303205 -0.0013911746233110339 0 0.027556820198537311 -0.0011823622090532493 0 0.027395375030337822 -0.0010638684681814957 0 0.026465583725878705 -0.0011284824094471278 0 0.026429965156482674 -9.7536667797655952e-06 0 0.027350942074775585 -0.00097882955079384507 0 0.026802401649697098 -0.0006326553648304409 0 0.027326240519468574 -0.00098810108329056294 0 0.026802401649697098 -0.0006326553648304409 0 0.026358398753393263 -9.5198533065764699e-05 0 0.026429965156482674 -9.7536667797655952e-06 0 0.027195932365598023 -0.0003504776196559029 0 0.027350942074775585 -0.00097882955079384507 0 0.026429965156482674 -9.7536667797655952e-06 0 0.027195932365598023 -0.0003504776196559029 0 0.026913653824419941 0.00013943739092905021 0 0.026022016813781291 -8.2312676219033968e-05 0 0.026429965156482674 -9.7536667797655952e-06 0 0.026040745258574825 0.0003479815787150123 0 0.026040745258574825 0.0003479815787150123 0 0.026473989186905775 0.00049525373418133256 0 0.026138725229459103 0.00069329437383136919 0 0.026429965156482674 -9.7536667797655952e-06 0 0.026040745258574825 0.0003479815787150123 0 0.026473989186905775 0.00049525373418133256 0 0.026040745258574825 0.0003479815787150123 0 0.025870816374840816 0.00067887044425752143 0 0.026138725229459103 0.00069329437383136919 0 0.026429965156482674 -9.7536667797655952e-06 0 0.026473989186905775 0.00049525373418133256 0 0.026913653824419941 0.00013943739092905021 0 0.026473989186905775 0.00049525373418133256 0 0.026913653824419941 0.00013943739092905021 0 0.026819854153877411 0.00044701593112829403 0 0.025077484638695746 0.00018607099856759028 0 0.025596601756146524 0.00020472432683439043 0 0.025187768254381057 0.00048417861791105396 0 0.025077484638695746 0.00018607099856759028 0 0.025522171705489437 -0.00011603149864131175 0 0.025596601756146524 0.00020472432683439043 0 0.026022016813781291 -8.2312676219033968e-05 0 0.026040745258574825 0.0003479815787150123 0 0.025596601756146524 0.00020472432683439043 0 0.026040745258574825 0.0003479815787150123 0 0.025582251397748057 0.0005544235109078249 0 0.025870816374840816 0.00067887044425752143 0 0.026040745258574825 0.0003479815787150123 0 0.025596601756146524 0.00020472432683439043 0 0.025582251397748057 0.0005544235109078249 0 0.025596601756146524 0.00020472432683439043 0 0.025582251397748057 0.0005544235109078249 0 0.025187768254381057 0.00048417861791105396 0 0.025582251397748057 0.0005544235109078249 0 0.025187768254381057 0.00048417861791105396 0 0.025248755102371286 0.0007494118982760543 0 0.025027074274116167 0.00096561179377744092 0 0.025317039323699837 0.00099870017564450712 0 0.025248755102371286 0.0007494118982760543 0 0.025582251397748057 0.0005544235109078249 0 0.025248755102371286 0.0007494118982760543 0 0.025594288334578112 0.00087339446048654917 0 0.025317039323699837 0.00099870017564450712 0 0.025248755102371286 0.0007494118982760543 0 0.025594288334578112 0.00087339446048654917 0 0.025317039323699837 0.00099870017564450712 0 0.025594288334578112 0.00087339446048654917 0 0.025641413049562509 0.001184869463490774 0 0.025582251397748057 0.0005544235109078249 0 0.025594288334578112 0.00087339446048654917 0 0.025870816374840816 0.00067887044425752143 0 0.025594288334578112 0.00087339446048654917 0 0.025870816374840816 0.00067887044425752143 0 0.025903340630962869 0.0008968827312760768 0 0.025594288334578112 0.00087339446048654917 0 0.025903340630962869 0.0008968827312760768 0 0.025641413049562509 0.001184869463490774 0 0.023153093531666502 -6.7915197267435069e-05 0 0.023176493182690203 0.0008449001303223009 0 0.022125567745284944 0.00025248620827463312 0 0.023153093531666502 -6.7915197267435069e-05 0 0.024456615316849235 0.00049166264115748151 0 0.023176493182690203 0.0008449001303223009 0 0.025097706117326299 0.0012662953126237806 0 0.025317039323699837 0.00099870017564450712 0 0.025641413049562509 0.001184869463490774 0 0.017645312021635214 -0.002750982796398703 0 0.020702409635974563 -0.0013721177637897725 0 0.020702409635974563 -0.0013721177637897725 0 0.025155325652755061 0.0011185757714467848 0 0.012608293424950925 -0.0049384552305927806 0 0.015749835677696403 -0.0031062525804078796 0 0.025097706117326299 0.0012662953126237806 0 0.025027074274116167 0.00096561179377744092 0 0.025317039323699837 0.00099870017564450712 0 0.026473989186905775 0.00049525373418133256 0 0.02624350948054973 0.0010146306731013631 0 0.026862065508926506 0.00071964517776930035 0 0.023633113061095921 0.001103283375432404 0 0.02501833709253605 0.00067245387393913248 0 0.026473989186905775 0.00049525373418133256 0 0.026862065508926506 0.00071964517776930035 0 0.026819854153877411 0.00044701593112829403 0 0.026473989186905775 0.00049525373418133256 0 0.026138725229459103 0.00069329437383136919 0 0.02624350948054973 0.0010146306731013631 0 0.025870816374840816 0.00067887044425752143 0 0.025903340630962869 0.0008968827312760768 0 0.026138725229459103 0.00069329437383136919 0 0.025903340630962869 0.0008968827312760768 0 0.026138725229459103 0.00069329437383136919 0 0.02624350948054973 0.0010146306731013631 0 0.025903340630962869 0.0008968827312760768 0 0.025641413049562509 0.001184869463490774 0 0.02624350948054973 0.0010146306731013631 0 0.025155325652755061 0.0011185757714467848 0 0.023633113061095921 0.001103283375432404 0 0.023176493182690203 0.0008449001303223009 0 0.021201377158800314 0.0012662926340320105 0 0.022125567745284944 0.00025248620827463312 0 0.021264254651527877 0.00012143687904295276 0 0.022125567745284944 0.00025248620827463312 0 0.021441826895139401 0.0008382213785273194 0 0.021201377158800314 0.0012662926340320105 0 0.022125567745284944 0.00025248620827463312 0 0.021441826895139401 0.0008382213785273194 0 0.021264254651527877 0.00012143687904295276 0 0.021441826895139401 0.0008382213785273194 0 0.021456433543349026 0.0014672044549248018 0 0.021201377158800314 0.0012662926340320105 0 0.021456433543349026 0.0014672044549248018 0 0.02304120156629736 0.00048248221265477016 0 0.021201377158800314 0.0012662926340320105 0 0.021441826895139401 0.0008382213785273194 0 0.021456433543349026 0.0014672044549248018 0 0.020139789729401423 4.8463702792214358e-05 0 0.021264254651527877 0.00012143687904295276 0 0.021456433543349026 0.0014672044549248018 0 0.018136154923399237 0.00022543417247206684 0 0.020139789729401423 4.8463702792214358e-05 0 0.021456433543349026 0.0014672044549248018 0 0.021456433543349026 0.0014672044549248018 0 0.02304120156629736 0.00048248221265477016 0 0.026280354598673339 0.0018118022433325583 0 0.021083055523457538 0.0014505308397266196 0 0.022145701174022758 0.0024574531772287903 0 0.018136154923399237 0.00022543417247206684 0 0.021456433543349026 0.0014672044549248018 0 0.016258976768740545 0.0023149953648459532 0 0.02501833709253605 0.00067245387393913248 0 0.026684406049075442 0.000513319800039145 0 0.026862065508926506 0.00071964517776930035 0 0.026926573957412187 0.00056125669491930829 0 0.027018122491445678 0.0003578378028414164 0 0.026862065508926506 0.00071964517776930035 0 0.026819854153877411 0.00044701593112829403 0 0.027018122491445678 0.0003578378028414164 0 0.02304120156629736 0.00048248221265477016 0 0.026926573957412187 0.00056125669491930829 0 0.026280354598673339 0.0018118022433325583 0 0.026926573957412187 0.00056125669491930829 0 0.026280354598673339 0.0018118022433325583 0 0.02800357346470388 0.0005138895553715683 0 0.018136154923399237 0.00022543417247206684 0 0.016258976768740545 0.0023149953648459532 0 0.015955383287307688 0.00047346996925085592 0 0.016258976768740545 0.0023149953648459532 0 0.015955383287307688 0.00047346996925085592 0 0.013792420386655449 0.00047753938345706078 0 0.016258976768740545 0.0023149953648459532 0 0.013792420386655449 0.00047753938345706078 0 0.011692786315924455 0.0024686135468443972 0 0.022145701174022758 0.0024574531772287903 0 0.016299219869622145 -0.0014769268591434698 0 0.010906367827947258 -0.0015202746839080381 0 0.013792420386655449 0.00047753938345706078 0 0.011692786315924455 0.0024686135468443972 0 0.0042828654333897731 -0.00226276710993657 0 0.016299219869622145 -0.0014769268591434698 0 0.02854644436813817 0.0013062514326818199 0 0.02800357346470388 0.0005138895553715683 0 0.028095380662723463 -0.00022517424311231307 0 0.016299219869622145 -0.0014769268591434698 0 0.029074968257131604 -0.0043535137543383746 0 0.026216925839736723 -0.0093812131399326846 0 0.026331725000540641 -0.0076765440615901293 0 0.025272366294694582 -0.008440061199670371 0 0.026280354598673339 0.0018118022433325583 0 0.02854644436813817 0.0013062514326818199 0 0.02800357346470388 0.0005138895553715683 0 0.026926573957412187 0.00056125669491930829 0 0.02800357346470388 0.0005138895553715683 0 0.027534636365986173 0.00010482414298664818 0 0.02800357346470388 0.0005138895553715683 0 0.027853996163865882 4.9586117504675575e-05 0 0.028095380662723463 -0.00022517424311231307 0 0.02800357346470388 0.0005138895553715683 0 0.027534636365986173 0.00010482414298664818 0 0.027853996163865882 4.9586117504675575e-05 0 0.027853996163865882 4.9586117504675575e-05 0 0.028095380662723463 -0.00022517424311231307 0 0.027784844157404419 -0.00013117158550924056 0 0.027534636365986173 0.00010482414298664818 0 0.027784844157404419 -0.00013117158550924056 0 0.027567081594374147 -0.00011005620477644975 0 0.027534636365986173 0.00010482414298664818 0 0.027853996163865882 4.9586117504675575e-05 0 0.027784844157404419 -0.00013117158550924056 0 0.026216925839736723 -0.0093812131399326846 0 0.026790595476851479 -0.0077235642677847237 0 0.026331725000540641 -0.0076765440615901293 0 0.025908934090936871 -0.0080378900735757989 0 0.026523673764146799 -0.0079357180298653077 0 0.026790595476851479 -0.0077235642677847237 0 0.026132554811908671 -0.0073484789229456065 0 0.026388560551715953 -0.0066575946479700172 0 0.026790595476851479 -0.0077235642677847237 0 0.027353523390380018 -0.0062767274500807983 0 0.026388560551715953 -0.0066575946479700172 0 0.026331725000540641 -0.0076765440615901293 0 0.026132554811908671 -0.0073484789229456065 0 0.025799422212324213 -0.0077454660404267482 0 0.026790595476851479 -0.0077235642677847237 0 0.026331725000540641 -0.0076765440615901293 0 0.026132554811908671 -0.0073484789229456065 0 0.026132554811908671 -0.0073484789229456065 0 0.025726996381149156 -0.0069612528210099079 0 0.026388560551715953 -0.0066575946479700172 0 0.028095380662723463 -0.00022517424311231307 0 0.027833803475010049 -0.00039266096312449799 0 0.028147764715649105 -0.00090098988778064624 0 0.029074968257131604 -0.0043535137543383746 0 0.027520758929622403 -0.0035294105641824106 0 0.027784844157404419 -0.00013117158550924056 0 0.027833803475010049 -0.00039266096312449799 0 0.027567081594374147 -0.00011005620477644975 0 0.028095380662723463 -0.00022517424311231307 0 0.027784844157404419 -0.00013117158550924056 0 0.027833803475010049 -0.00039266096312449799 0 0.027833803475010049 -0.00039266096312449799 0 0.027413419302660533 -0.00022563482467477389 0 0.027655651579567939 -0.0006935572266721186 0 0.027833803475010049 -0.00039266096312449799 0 0.027413419302660533 -0.00022563482467477389 0 0.027567081594374147 -0.00011005620477644975 0 0.027413419302660533 -0.00022563482467477389 0 0.027195932365598023 -0.0003504776196559029 0 0.027655651579567939 -0.0006935572266721186 0 0.027413419302660533 -0.00022563482467477389 0 0.027195932365598023 -0.0003504776196559029 0 0.026913653824419941 0.00013943739092905021 0 0.027413419302660533 -0.00022563482467477389 0 0.026913653824419941 0.00013943739092905021 0 0.027018122491445678 0.0003578378028414164 0 0.026913653824419941 0.00013943739092905021 0 0.026819854153877411 0.00044701593112829403 0 0.027018122491445678 0.0003578378028414164 0 0.027413419302660533 -0.00022563482467477389 0 0.027018122491445678 0.0003578378028414164 0 0.027285593639653268 0.00011906844223472489 0 0.026926573957412187 0.00056125669491930829 0 0.027018122491445678 0.0003578378028414164 0 0.027285593639653268 0.00011906844223472489 0 0.026926573957412187 0.00056125669491930829 0 0.027534636365986173 0.00010482414298664818 0 0.027285593639653268 0.00011906844223472489 0 0.027534636365986173 0.00010482414298664818 0 0.027567081594374147 -0.00011005620477644975 0 0.027285593639653268 0.00011906844223472489 0 0.027413419302660533 -0.00022563482467477389 0 0.027567081594374147 -0.00011005620477644975 0 0.027285593639653268 0.00011906844223472489 0 -0.0012417518970384686 -0.0044116662209622353 0 -0.0012273888887398977 -0.0044549295735102912 0 -0.0015298263637414399 -0.0043304370924877201 0 0.013392085221920366 -0.0074691962027936985 0 0.013798481423387444 -0.0074981028701041228 0 0.013919495180900094 -0.0064377214748099288 0 0.023083383776476139 -0.0083455193978843809 0 0.022627414521565508 -0.0087480724884201749 0 0.022774397738621333 -0.0077162453604921483 0 0.0082258970814671085 -0.005850393510882507 0 0.010319812227727604 -0.0072095842667744079 0 -0.0012417518970384686 -0.0044116662209622353 0 -0.0012254148029271082 -0.004513762373918713 0 -0.0011029281134532353 -0.0043833376672610226 0 -0.00092229947214139045 -0.0045843620509554671 0 -0.0012254148029271082 -0.004513762373918713 0 -0.0011029281134532353 -0.0043833376672610226 0 0.0094805297789379538 -0.0065431244829272242 0 0.010319812227727604 -0.0072095842667744079 0 -0.0012417518970384686 -0.0044116662209622353 0 -0.0011029281134532353 -0.0043833376672610226 0 -0.0012135910091971851 -0.0043064966768974235 0 -0.0012417518970384686 -0.0044116662209622353 0 -0.0013278120773956832 -0.0042148787312066786 0 -0.0012135910091971851 -0.0043064966768974235 0 -0.0013278120773956832 -0.0042148787312066786 0 -0.0012135910091971851 -0.0043064966768974235 0 -0.0011735508900837111 -0.0042175699151232393 0 -0.0011029281134532353 -0.0043833376672610226 0 -0.0012135910091971851 -0.0043064966768974235 0 -0.0011735508900837111 -0.0042175699151232393 0 -0.0014410574430911522 -0.0039298292490041993 0 -0.0013278120773956832 -0.0042148787312066786 0 -0.0011735508900837111 -0.0042175699151232393 0 -0.0014410574430911522 -0.0039298292490041993 0 -0.0013278120773956832 -0.0042148787312066786 0 -0.0014655376137861966 -0.0041467042914084887 0 -0.0012417518970384686 -0.0044116662209622353 0 -0.0013278120773956832 -0.0042148787312066786 0 -0.0014655376137861966 -0.0041467042914084887 0 -0.0014655376137861966 -0.0041467042914084887 0 -0.0015743317281890362 -0.0041096649868327152 0 -0.0015298263637414399 -0.0043304370924877201 0 -0.0012417518970384686 -0.0044116662209622353 0 -0.0014655376137861966 -0.0041467042914084887 0 -0.0015298263637414399 -0.0043304370924877201 0 0.0012218250137166456 -0.0042495506486125954 0 0.013983706451387759 -0.006478001481513224 0 0.023811383333100251 -0.0092853820450629256 0 0.02457540343484322 -0.0084990659193681182 0 0.023730139544101952 -0.0083037062242234602 0 0.023083383776476139 -0.0083455193978843809 0 0.022627414521565508 -0.0087480724884201749 0 0.023444128832467589 -0.0087889117716048841 0 0.023083383776476139 -0.0083455193978843809 0 0.023444128832467589 -0.0087889117716048841 0 0.023463328994154826 -0.008101470189899004 0 0.013983706451387759 -0.006478001481513224 0 0.023842785641052862 -0.0088843613119414192 0 0.010319812227727604 -0.0072095842667744079 0 0.013983706451387759 -0.006478001481513224 0 0.013983706451387759 -0.006478001481513224 0 0.013912249082920745 -0.0070767038222396012 0 0.024758885197803247 -0.0093593121827726111 0 0.025625473343626155 -0.0085328257906351311 0 0.02457540343484322 -0.0084990659193681182 0 0.023811383333100251 -0.0092853820450629256 0 0.024758885197803247 -0.0093593121827726111 0 0.02457540343484322 -0.0084990659193681182 0 0.0092050175231318324 -0.0067298288600797515 0 0.0090013032658687701 -0.0051944609095736886 0 0.010641914240472221 -0.0053045520466584043 0 0.0012218250137166456 -0.0042495506486125954 0 0.013912249082920745 -0.0070767038222396012 0 -0.00057035356724520817 -0.0030011075197515073 0 -0.0014499270705240184 -0.0027569306246416907 0 -0.00073330754919133313 -0.002066766099145381 0 -0.00057035356724520817 -0.0030011075197515073 0 0.00073933183084599083 -0.0021318107824686663 0 -0.00073330754919133313 -0.002066766099145381 0 0.016299219869622145 -0.0014769268591434698 0 0.013912249082920745 -0.0070767038222396012 0 0.026216925839736723 -0.0093812131399326846 0 0.024279271927732549 -0.0093097373522215456 0 0.025272366294694582 -0.008440061199670371 0 0.013912249082920745 -0.0070767038222396012 0 0.026523673764146799 -0.0079357180298653077 0 0.025625473343626155 -0.0085328257906351311 0 0.025243820866684755 -0.007803657576363322 0 0.02457540343484322 -0.0084990659193681182 0 0.025243820866684755 -0.007803657576363322 0 0.025799422212324213 -0.0077454660404267482 0 0.025624934451305186 -0.0073937424954220541 0 0.025625473343626155 -0.0085328257906351311 0 0.025243820866684755 -0.007803657576363322 0 0.025799422212324213 -0.0077454660404267482 0 0.026331725000540641 -0.0076765440615901293 0 0.025625473343626155 -0.0085328257906351311 0 0.025799422212324213 -0.0077454660404267482 0 0.026132554811908671 -0.0073484789229456065 0 0.025624934451305186 -0.0073937424954220541 0 0.025726996381149156 -0.0069612528210099079 0 0.026132554811908671 -0.0073484789229456065 0 0.025799422212324213 -0.0077454660404267482 0 0.025624934451305186 -0.0073937424954220541 0 0.025726996381149156 -0.0069612528210099079 0 0.025176031590776398 -0.0072318269290067884 0 0.025246693014480768 -0.0067048469772323484 0 0.025624934451305186 -0.0073937424954220541 0 0.025726996381149156 -0.0069612528210099079 0 0.025176031590776398 -0.0072318269290067884 0 0.025243820866684755 -0.007803657576363322 0 0.025624934451305186 -0.0073937424954220541 0 0.025176031590776398 -0.0072318269290067884 0 0.025176031590776398 -0.0072318269290067884 0 0.024726654921334117 -0.0069297310096623575 0 0.024462167417889095 -0.0076085184197223028 0 0.025243820866684755 -0.007803657576363322 0 0.025176031590776398 -0.0072318269290067884 0 0.024462167417889095 -0.0076085184197223028 0 0.025176031590776398 -0.0072318269290067884 0 0.024726654921334117 -0.0069297310096623575 0 0.025246693014480768 -0.0067048469772323484 0 0.024726654921334117 -0.0069297310096623575 0 0.024197334839500144 -0.0070633361748838417 0 0.024406698368836958 -0.0065971833473919168 0 0.024726654921334117 -0.0069297310096623575 0 0.024462167417889095 -0.0076085184197223028 0 0.024197334839500144 -0.0070633361748838417 0 0.025243820866684755 -0.007803657576363322 0 0.024462167417889095 -0.0076085184197223028 0 0.02457540343484322 -0.0084990659193681182 0 0.024462167417889095 -0.0076085184197223028 0 0.02457540343484322 -0.0084990659193681182 0 0.023730139544101952 -0.0083037062242234602 0 0.023463328994154826 -0.008101470189899004 0 0.023576529168833769 -0.0073099905176808016 0 0.022774397738621333 -0.0077162453604921483 0 0.024462167417889095 -0.0076085184197223028 0 0.023730139544101952 -0.0083037062242234602 0 0.023576529168833769 -0.0073099905176808016 0 0.023842785641052862 -0.0088843613119414192 0 0.023508102889430168 -0.0071415275278977168 0 0.024462167417889095 -0.0076085184197223028 0 0.024197334839500144 -0.0070633361748838417 0 0.023576529168833769 -0.0073099905176808016 0 0.024197334839500144 -0.0070633361748838417 0 0.023576529168833769 -0.0073099905176808016 0 0.023974686177801994 -0.0065871663022960773 0 0.020708220372070173 -0.0074863876175943044 0 0.020901784281947555 -0.007918369337210053 0 0.021184648169389086 -0.0069674037632068316 0 0.020675773803807314 -0.0078917426253734876 0 0.023044759150783498 -0.0071694973753886962 0 0.023576529168833769 -0.0073099905176808016 0 0.022774397738621333 -0.0077162453604921483 0 0.023415017608873021 -0.0064981639673658614 0 0.021768144710695211 -0.0090748032843423181 0 0.021803335067441785 -0.0075073134558740102 0 0.022346225043682087 -0.0077204840911098459 0 0.020675773803807314 -0.0078917426253734876 0 0.021592203193425301 -0.007331864826063331 0 0.010319812227727604 -0.0072095842667744079 0 0.020675773803807314 -0.0078917426253734876 0 0.023083383776476139 -0.0083455193978843809 0 0.023463328994154826 -0.008101470189899004 0 0.022774397738621333 -0.0077162453604921483 0 0.0082258970814671085 -0.005850393510882507 0 0.020675773803807314 -0.0078917426253734876 0 0.022315919686322964 -0.006146205509090152 0 0.021803335067441785 -0.0075073134558740102 0 0.022401595678601071 -0.0068340609613692978 0 0.021220012850808594 -0.006194840124463882 0 0.021184648169389086 -0.0069674037632068316 0 0.021737930869814473 -0.0056489289375798611 0 0.022315919686322964 -0.006146205509090152 0 0.021803335067441785 -0.0075073134558740102 0 0.021737930869814473 -0.0056489289375798611 0 0.021592203193425301 -0.007331864826063331 0 0.021678217141347596 -0.0056409859078777247 0 0.020967469695807858 -0.0064445612761340944 0 0.021220012850808594 -0.006194840124463882 0 0.021184648169389086 -0.0069674037632068316 0 0.020914114350371202 -0.0067222408830686494 0 0.020967469695807858 -0.0064445612761340944 0 0.021184648169389086 -0.0069674037632068316 0 0.02080515105120441 -0.0071318562870275309 0 0.020914114350371202 -0.0067222408830686494 0 0.021184648169389086 -0.0069674037632068316 0 0.020708220372070173 -0.0074863876175943044 0 0.02080515105120441 -0.0071318562870275309 0 0.021184648169389086 -0.0069674037632068316 0 0.021803335067441785 -0.0075073134558740102 0 0.022346225043682087 -0.0077204840911098459 0 0.022401595678601071 -0.0068340609613692978 0 0.023576529168833769 -0.0073099905176808016 0 0.023415017608873021 -0.0064981639673658614 0 0.023974686177801994 -0.0065871663022960773 0 0.023415017608873021 -0.0064981639673658614 0 0.023974686177801994 -0.0065871663022960773 0 0.023850686989648637 -0.0058853899876155687 0 0.024197334839500144 -0.0070633361748838417 0 0.023974686177801994 -0.0065871663022960773 0 0.024406698368836958 -0.0065971833473919168 0 0.023974686177801994 -0.0065871663022960773 0 0.024426848332164786 -0.0060977564031886745 0 0.024406698368836958 -0.0065971833473919168 0 0.023974686177801994 -0.0065871663022960773 0 0.023850686989648637 -0.0058853899876155687 0 0.024426848332164786 -0.0060977564031886745 0 0.023044759150783498 -0.0071694973753886962 0 0.02375941158098686 -0.0056567392575377091 0 0.023850686989648637 -0.0058853899876155687 0 0.024593750324611439 -0.0054658507414266947 0 0.024426848332164786 -0.0060977564031886745 0 0.022346225043682087 -0.0077204840911098459 0 0.022401595678601071 -0.0068340609613692978 0 0.023055312526741274 -0.0061692716949339763 0 0.023415017608873021 -0.0064981639673658614 0 0.023850686989648637 -0.0058853899876155687 0 0.024100759319542062 -0.0051967226258387532 0 0.022315919686322964 -0.006146205509090152 0 0.022401595678601071 -0.0068340609613692978 0 0.023055312526741274 -0.0061692716949339763 0 0.023905598272229191 -0.0056445048001367371 0 0.02375941158098686 -0.0056567392575377091 0 0.023850686989648637 -0.0058853899876155687 0 0.024117199208111451 -0.0052192006835230682 0 0.024593750324611439 -0.0054658507414266947 0 0.024117199208111451 -0.0052192006835230682 0 0.024593750324611439 -0.0054658507414266947 0 0.024607375694986743 -0.0049151292545098202 0 0.024593750324611439 -0.0054658507414266947 0 0.025189584968424199 -0.0054012510390798315 0 0.024925479927445909 -0.0058706459518285412 0 0.024593750324611439 -0.0054658507414266947 0 0.025189584968424199 -0.0054012510390798315 0 0.025113978123817351 -0.0049670532196807544 0 0.025189584968424199 -0.0054012510390798315 0 0.024925479927445909 -0.0058706459518285412 0 0.025600040410118503 -0.0061120788108799369 0 0.024593750324611439 -0.0054658507414266947 0 0.024925479927445909 -0.0058706459518285412 0 0.024426848332164786 -0.0060977564031886745 0 0.024925479927445909 -0.0058706459518285412 0 0.024426848332164786 -0.0060977564031886745 0 0.024860931889475139 -0.006385663220960556 0 0.024426848332164786 -0.0060977564031886745 0 0.024406698368836958 -0.0065971833473919168 0 0.024860931889475139 -0.006385663220960556 0 0.024726654921334117 -0.0069297310096623575 0 0.024406698368836958 -0.0065971833473919168 0 0.024860931889475139 -0.006385663220960556 0 0.024726654921334117 -0.0069297310096623575 0 0.024860931889475139 -0.006385663220960556 0 0.025246693014480768 -0.0067048469772323484 0 0.024925479927445909 -0.0058706459518285412 0 0.024860931889475139 -0.006385663220960556 0 0.025600040410118503 -0.0061120788108799369 0 0.025726996381149156 -0.0069612528210099079 0 0.025600040410118503 -0.0061120788108799369 0 0.025246693014480768 -0.0067048469772323484 0 0.025726996381149156 -0.0069612528210099079 0 0.025600040410118503 -0.0061120788108799369 0 0.026388560551715953 -0.0066575946479700172 0 0.024860931889475139 -0.006385663220960556 0 0.025600040410118503 -0.0061120788108799369 0 0.025246693014480768 -0.0067048469772323484 0 0.025189584968424199 -0.0054012510390798315 0 0.025600040410118503 -0.0061120788108799369 0 0.02582671669601757 -0.0052476464547409167 0 0.025600040410118503 -0.0061120788108799369 0 0.02582671669601757 -0.0052476464547409167 0 0.026622669885827357 -0.005615191783673667 0 0.02582671669601757 -0.0052476464547409167 0 0.025716974577242684 -0.0046694572950964101 0 0.026594332699392396 -0.0045669598082220273 0 0.025189584968424199 -0.0054012510390798315 0 0.02582671669601757 -0.0052476464547409167 0 0.025113978123817351 -0.0049670532196807544 0 0.02582671669601757 -0.0052476464547409167 0 0.025716974577242684 -0.0046694572950964101 0 0.025113978123817351 -0.0049670532196807544 0 0.025716974577242684 -0.0046694572950964101 0 0.025883573874946383 -0.0041332689409838115 0 0.025185850353925003 -0.0044269167151493507 0 0.025716974577242684 -0.0046694572950964101 0 0.025883573874946383 -0.0041332689409838115 0 0.026594332699392396 -0.0045669598082220273 0 0.025883573874946383 -0.0041332689409838115 0 0.026594332699392396 -0.0045669598082220273 0 0.026511053406986847 -0.0036578854077030957 0 0.025883573874946383 -0.0041332689409838115 0 0.026511053406986847 -0.0036578854077030957 0 0.025707495938718256 -0.0034767693148704134 0 0.025883573874946383 -0.0041332689409838115 0 0.025224899099129273 -0.0038781210943483169 0 0.025707495938718256 -0.0034767693148704134 0 0.025883573874946383 -0.0041332689409838115 0 0.025224899099129273 -0.0038781210943483169 0 0.025185850353925003 -0.0044269167151493507 0 0.024300583895158955 -0.0044147530737870967 0 0.024416874450707206 -0.0046512601762723534 0 0.024916711811098998 -0.0034330624566337427 0 0.025224899099129273 -0.0038781210943483169 0 0.024630636292962797 -0.0042382590499564863 0 0.025107918228147879 -0.0032374551214743833 0 0.024971162289542957 -0.0042270984683756736 0 0.025224899099129273 -0.0038781210943483169 0 0.025185850353925003 -0.0044269167151493507 0 0.024541839683397536 -0.0044194713592841574 0 0.025006294220611843 -0.0033156553413689039 0 0.024971162289542957 -0.0042270984683756736 0 0.02486525274046486 -0.0043685949531794555 0 0.025185850353925003 -0.0044269167151493507 0 0.024971162289542957 -0.0042270984683756736 0 0.025224899099129273 -0.0038781210943483169 0 0.024630636292962797 -0.0042382590499564863 0 0.024971162289542957 -0.0042270984683756736 0 0.02486525274046486 -0.0043685949531794555 0 0.024630636292962797 -0.0042382590499564863 0 0.024630636292962797 -0.0042382590499564863 0 0.024812425003631559 -0.0045983251254849474 0 0.024607375694986743 -0.0049151292545098202 0 0.02486525274046486 -0.0043685949531794555 0 0.024630636292962797 -0.0042382590499564863 0 0.024812425003631559 -0.0045983251254849474 0 0.024812425003631559 -0.0045983251254849474 0 0.025185850353925003 -0.0044269167151493507 0 0.025113978123817351 -0.0049670532196807544 0 0.025716974577242684 -0.0046694572950964101 0 0.025185850353925003 -0.0044269167151493507 0 0.025113978123817351 -0.0049670532196807544 0 0.02486525274046486 -0.0043685949531794555 0 0.024812425003631559 -0.0045983251254849474 0 0.025185850353925003 -0.0044269167151493507 0 0.024593750324611439 -0.0054658507414266947 0 0.025113978123817351 -0.0049670532196807544 0 0.024607375694986743 -0.0049151292545098202 0 0.024812425003631559 -0.0045983251254849474 0 0.025113978123817351 -0.0049670532196807544 0 0.024607375694986743 -0.0049151292545098202 0 0.02375941158098686 -0.0056567392575377091 0 0.024541839683397536 -0.0044194713592841574 0 0.023055312526741274 -0.0061692716949339763 0 0.02358650635591766 -0.0046379830154347863 0 0.022580356626826857 -0.0053328877559343877 0 0.02375941158098686 -0.0056567392575377091 0 0.02391267660728251 -0.0046017872334603036 0 0.024117199208111451 -0.0052192006835230682 0 0.024630636292962797 -0.0042382590499564863 0 0.024607375694986743 -0.0049151292545098202 0 0.023926348474878758 -0.0058487400118087882 0 0.024300583895158955 -0.0044147530737870967 0 0.024416874450707206 -0.0046512601762723534 0 0.022315919686322964 -0.006146205509090152 0 0.023055312526741274 -0.0061692716949339763 0 0.022580356626826857 -0.0053328877559343877 0 0.022670260217659877 -0.0045827460471811673 0 0.021838497834451447 -0.0042522760832543688 0 0.023304659029624978 -0.0037165388254372022 0 0.02358650635591766 -0.0046379830154347863 0 0.022670260217659877 -0.0045827460471811673 0 0.023304659029624978 -0.0037165388254372022 0 0.02358650635591766 -0.0046379830154347863 0 0.022580356626826857 -0.0053328877559343877 0 0.022670260217659877 -0.0045827460471811673 0 0.020631003951219324 -0.0059582716465454832 0 0.022023573073004274 -0.0044490076662634164 0 0.022580356626826857 -0.0053328877559343877 0 0.022670260217659877 -0.0045827460471811673 0 0.021919122671691771 -0.0050973135306435569 0 0.02087195449077572 -0.0056544328174545216 0 0.021838497834451447 -0.0042522760832543688 0 0.021919122671691771 -0.0050973135306435569 0 0.022670260217659877 -0.0045827460471811673 0 0.021838497834451447 -0.0042522760832543688 0 0.021919122671691771 -0.0050973135306435569 0 0.02087195449077572 -0.0056544328174545216 0 0.021919122671691771 -0.0050973135306435569 0 0.021737930869814473 -0.0056489289375798611 0 0.022580356626826857 -0.0053328877559343877 0 0.021919122671691771 -0.0050973135306435569 0 0.021737930869814473 -0.0056489289375798611 0 0.022315919686322964 -0.006146205509090152 0 0.022580356626826857 -0.0053328877559343877 0 0.021737930869814473 -0.0056489289375798611 0 0.02087195449077572 -0.0056544328174545216 0 0.021220012850808594 -0.006194840124463882 0 0.021737930869814473 -0.0056489289375798611 0 0.027813779747002585 -0.0011562072501235142 0 0.028147764715649105 -0.00090098988778064624 0 0.02835298190295988 -0.001574070309163378 0 0.027556820198537311 -0.0011823622090532493 0 0.027813779747002585 -0.0011562072501235142 0 0.027895884390865513 -0.0014574283047099879 0 0.027556820198537311 -0.0011823622090532493 0 0.027813779747002585 -0.0011562072501235142 0 0.027350942074775585 -0.00097882955079384507 0 0.027813779747002585 -0.0011562072501235142 0 0.027350942074775585 -0.00097882955079384507 0 0.027655651579567939 -0.0006935572266721186 0 0.027195932365598023 -0.0003504776196559029 0 0.027350942074775585 -0.00097882955079384507 0 0.027655651579567939 -0.0006935572266721186 0 0.027813779747002585 -0.0011562072501235142 0 0.027655651579567939 -0.0006935572266721186 0 0.028147764715649105 -0.00090098988778064624 0 0.027833803475010049 -0.00039266096312449799 0 0.027655651579567939 -0.0006935572266721186 0 0.028147764715649105 -0.00090098988778064624 0 0.027353523390380018 -0.0062767274500807983 0 0.026388560551715953 -0.0066575946479700172 0 0.026622669885827357 -0.005615191783673667 0 0.025600040410118503 -0.0061120788108799369 0 0.026388560551715953 -0.0066575946479700172 0 0.026622669885827357 -0.005615191783673667 0 0.027520758929622403 -0.0035294105641824106 0 0.028213851802629069 -0.003172259282558999 0 0.027353523390380018 -0.0062767274500807983 0 0.026622669885827357 -0.005615191783673667 0 0.028003468904262127 -0.0047605202101187287 0 0.02582671669601757 -0.0052476464547409167 0 0.026622669885827357 -0.005615191783673667 0 0.026594332699392396 -0.0045669598082220273 0 0.026622669885827357 -0.005615191783673667 0 0.028003468904262127 -0.0047605202101187287 0 0.026594332699392396 -0.0045669598082220273 0 0.026594332699392396 -0.0045669598082220273 0 0.026511053406986847 -0.0036578854077030957 0 0.027531986159067698 -0.0036943397619429927 0 0.028003468904262127 -0.0047605202101187287 0 0.026594332699392396 -0.0045669598082220273 0 0.027531986159067698 -0.0036943397619429927 0 0.028003468904262127 -0.0047605202101187287 0 0.027531986159067698 -0.0036943397619429927 0 0.028737199482282878 -0.0030143812058968603 0 0.02835298190295988 -0.001574070309163378 0 0.028328270047301842 -0.0019050992311510472 0 0.028594490672860146 -0.0020455914209666299 0 0.028213851802629069 -0.003172259282558999 0 0.028660358710035815 -0.0025272391101329025 0 0.02835298190295988 -0.001574070309163378 0 0.027895884390865513 -0.0014574283047099879 0 0.028328270047301842 -0.0019050992311510472 0 0.027813779747002585 -0.0011562072501235142 0 0.02835298190295988 -0.001574070309163378 0 0.027895884390865513 -0.0014574283047099879 0 0.027760341744717303 -0.0016835563846371426 0 0.027895884390865513 -0.0014574283047099879 0 0.028328270047301842 -0.0019050992311510472 0 0.028013781458923526 -0.0019354294401422016 0 0.028328270047301842 -0.0019050992311510472 0 0.02849108671812273 -0.0021263389002280329 0 0.028328270047301842 -0.0019050992311510472 0 0.02849108671812273 -0.0021263389002280329 0 0.02870188330906711 -0.0020619412450969747 0 0.02849108671812273 -0.0021263389002280329 0 0.02870188330906711 -0.0020619412450969747 0 0.028988153859453768 -0.0019999802451929889 0 0.02870188330906711 -0.0020619412450969747 0 0.028988153859453768 -0.0019999802451929889 0 0.029073001299890402 -0.0018688538177260442 0 0.02870188330906711 -0.0020619412450969747 0 0.028594490672860146 -0.0020455914209666299 0 0.029073001299890402 -0.0018688538177260442 0 0.028737199482282878 -0.0030143812058968603 0 0.028665964708888204 -0.0018100765264197852 0 0.029073001299890402 -0.0018688538177260442 0 0.028660358710035815 -0.0025272391101329025 0 0.029027602283597478 -0.0019104120935311323 0 0.028328270047301842 -0.0019050992311510472 0 0.02870188330906711 -0.0020619412450969747 0 0.028594490672860146 -0.0020455914209666299 0 0.027531986159067698 -0.0036943397619429927 0 0.028737199482282878 -0.0030143812058968603 0 0.027897064187256744 -0.0027688514196702939 0 0.027531986159067698 -0.0036943397619429927 0 0.027897064187256744 -0.0027688514196702939 0 0.027074113395814236 -0.0029850788645043036 0 0.026511053406986847 -0.0036578854077030957 0 0.027531986159067698 -0.0036943397619429927 0 0.027074113395814236 -0.0029850788645043036 0 0.026511053406986847 -0.0036578854077030957 0 0.027074113395814236 -0.0029850788645043036 0 0.026121280821168422 -0.0029364988275139285 0 0.027897064187256744 -0.0027688514196702939 0 0.027074113395814236 -0.0029850788645043036 0 0.02743241265147018 -0.0022778582045411017 0 0.027074113395814236 -0.0029850788645043036 0 0.026121280821168422 -0.0029364988275139285 0 0.02650922314541455 -0.0023241795309721755 0 0.02743241265147018 -0.0022778582045411017 0 0.028665964708888204 -0.0018100765264197852 0 0.026244827435072577 -0.0010024827605347761 0 0.02743241265147018 -0.0022778582045411017 0 0.02650922314541455 -0.0023241795309721755 0 0.026244827435072577 -0.0010024827605347761 0 0.027074113395814236 -0.0029850788645043036 0 0.02743241265147018 -0.0022778582045411017 0 0.02650922314541455 -0.0023241795309721755 0 0.028737199482282878 -0.0030143812058968603 0 0.027897064187256744 -0.0027688514196702939 0 0.028665964708888204 -0.0018100765264197852 0 0.027897064187256744 -0.0027688514196702939 0 0.02743241265147018 -0.0022778582045411017 0 0.028665964708888204 -0.0018100765264197852 0 0.028665964708888204 -0.0018100765264197852 0 0.029096683306595737 -0.0018407111204676303 0 0.029073001299890402 -0.0018688538177260442 0 0.028665964708888204 -0.0018100765264197852 0 0.029096683306595737 -0.0018407111204676303 0 0.029329445294833268 -0.0018153181266914692 0 0.028665964708888204 -0.0018100765264197852 0 0.029329445294833268 -0.0018153181266914692 0 0.029854282352261247 -0.0015249846519490367 0 0.028667154708985405 -0.0017486177355789873 0 0.028089441498047329 -0.0013147171997244689 0 0.029329445294833268 -0.0018153181266914692 0 0.029798211695446469 -0.0018969072903851027 0 0.029431616025386461 -0.0019321223613434553 0 0.029329445294833268 -0.0018153181266914692 0 0.029798211695446469 -0.0018969072903851027 0 0.029854282352261247 -0.0015249846519490367 0 0.029096683306595737 -0.0018407111204676303 0 0.029431616025386461 -0.0019321223613434553 0 0.029278307388540748 -0.0019292795575362365 0 0.029096683306595737 -0.0018407111204676303 0 0.029329445294833268 -0.0018153181266914692 0 0.029431616025386461 -0.0019321223613434553 0 0.029278307388540748 -0.0019292795575362365 0 0.029344182661647747 -0.0019953468492152153 0 0.029073001299890402 -0.0018688538177260442 0 0.029278307388540748 -0.0019292795575362365 0 0.029344182661647747 -0.0019953468492152153 0 0.029489020146907921 -0.002016290779025715 0 0.029344182661647747 -0.0019953468492152153 0 0.029073001299890402 -0.0018688538177260442 0 0.029261509561892489 -0.0020409622006808963 0 0.028988153859453768 -0.0019999802451929889 0 0.029073001299890402 -0.0018688538177260442 0 0.029261509561892489 -0.0020409622006808963 0 0.029096683306595737 -0.0018407111204676303 0 0.029278307388540748 -0.0019292795575362365 0 0.029073001299890402 -0.0018688538177260442 0 0.021717005150559278 -0.0021502517073604282 0 0.023114293691052303 -0.0031655100605101384 0 0.022829079599220457 -0.0013287996715450007 0 0.021717005150559278 -0.0021502517073604282 0 0.021696595882276071 -0.0034242351274107003 0 0.023114293691052303 -0.0031655100605101384 0 0.022023573073004274 -0.0044490076662634164 0 0.023039934863893365 -0.0029606424849595863 0 0.02209837300789488 -0.0046830413940267927 0 0.021696595882276071 -0.0034242351274107003 0 0.023114293691052303 -0.0031655100605101384 0 0.021838497834451447 -0.0042522760832543688 0 0.023304659029624978 -0.0037165388254372022 0 0.022955414109676126 -0.002770901801625255 0 0.023304659029624978 -0.0037165388254372022 0 0.023565361942353549 -0.0031383484361159025 0 0.022955414109676126 -0.002770901801625255 0 0.023304659029624978 -0.0037165388254372022 0 0.023565361942353549 -0.0031383484361159025 0 0.024195015127836849 -0.0030893247758555864 0 0.023565361942353549 -0.0031383484361159025 0 0.02368997341395198 -0.002802507518534086 0 0.022955414109676126 -0.002770901801625255 0 0.022955414109676126 -0.002770901801625255 0 0.023982179535206302 -0.0022690970830973917 0 0.024200484942947489 -0.0013406318355303397 0 0.02368997341395198 -0.002802507518534086 0 0.022955414109676126 -0.002770901801625255 0 0.023982179535206302 -0.0022690970830973917 0 0.023039934863893365 -0.0029606424849595863 0 0.024103262721476799 -0.0014501520360289991 0 0.024452886918649955 -0.0029577786647114494 0 0.024888911887566919 -0.0015304372028576273 0 0.02467708365857196 -0.0029477998826948435 0 0.025426454547357792 -0.002174855561619149 0 0.024934236323534031 -0.0014375571780225454 0 0.023982179535206302 -0.0022690970830973917 0 0.024195015127836849 -0.0030893247758555864 0 0.024934236323534031 -0.0014375571780225454 0 0.02368997341395198 -0.002802507518534086 0 0.023982179535206302 -0.0022690970830973917 0 0.024195015127836849 -0.0030893247758555864 0 0.025107918228147879 -0.0032374551214743833 0 0.025590186742807559 -0.0029638254116432948 0 0.025426454547357792 -0.002174855561619149 0 0.023565361942353549 -0.0031383484361159025 0 0.02368997341395198 -0.002802507518534086 0 0.024195015127836849 -0.0030893247758555864 0 0.02358650635591766 -0.0046379830154347863 0 0.023304659029624978 -0.0037165388254372022 0 0.024195015127836849 -0.0030893247758555864 0 0.02467708365857196 -0.0029477998826948435 0 0.024916711811098998 -0.0034330624566337427 0 0.025426454547357792 -0.002174855561619149 0 0.024300583895158955 -0.0044147530737870967 0 0.02467708365857196 -0.0029477998826948435 0 0.024916711811098998 -0.0034330624566337427 0 0.02391267660728251 -0.0046017872334603036 0 0.024452886918649955 -0.0029577786647114494 0 0.025006294220611843 -0.0033156553413689039 0 0.025401694029587221 -0.002273729045079771 0 0.025224899099129273 -0.0038781210943483169 0 0.025107918228147879 -0.0032374551214743833 0 0.025707495938718256 -0.0034767693148704134 0 0.025590186742807559 -0.0029638254116432948 0 0.026121280821168422 -0.0029364988275139285 0 0.025426454547357792 -0.002174855561619149 0 0.025107918228147879 -0.0032374551214743833 0 0.025590186742807559 -0.0029638254116432948 0 0.025707495938718256 -0.0034767693148704134 0 0.025590186742807559 -0.0029638254116432948 0 0.025707495938718256 -0.0034767693148704134 0 0.026121280821168422 -0.0029364988275139285 0 0.026511053406986847 -0.0036578854077030957 0 0.025707495938718256 -0.0034767693148704134 0 0.026121280821168422 -0.0029364988275139285 0 0.02650922314541455 -0.0023241795309721755 0 0.025426454547357792 -0.002174855561619149 0 0.026244827435072577 -0.0010024827605347761 0 0.026121280821168422 -0.0029364988275139285 0 0.02650922314541455 -0.0023241795309721755 0 0.025426454547357792 -0.002174855561619149 0 0.025426454547357792 -0.002174855561619149 0 0.026244827435072577 -0.0010024827605347761 0 0.024934236323534031 -0.0014375571780225454 0 0.029798211695446469 -0.0018969072903851027 0 0.029854282352261247 -0.0015249846519490367 0 0.030136882096098046 -0.0017451158913864965 0 0.029798211695446469 -0.0018969072903851027 0 0.030116581223156677 -0.0019165376071094155 0 0.030136882096098046 -0.0017451158913864965 0 0.030136882096098046 -0.0017451158913864965 0 0.030335932466645978 -0.0018214265421752488 0 0.030495912326047515 -0.0016588216075019676 0 0.029854282352261247 -0.0015249846519490367 0 0.030136882096098046 -0.0017451158913864965 0 0.030495912326047515 -0.0016588216075019676 0 0.030116581223156677 -0.0019165376071094155 0 0.030335932466645978 -0.0018214265421752488 0 0.030363401783690323 -0.0019370952508610988 0 0.030116581223156677 -0.0019165376071094155 0 0.030136882096098046 -0.0017451158913864965 0 0.030335932466645978 -0.0018214265421752488 0 0.030335932466645978 -0.0018214265421752488 0 0.030495912326047515 -0.0016588216075019676 0 0.030512155305307934 -0.0019105938976868796 0 0.030335932466645978 -0.0018214265421752488 0 0.030512155305307934 -0.0019105938976868796 0 0.030363401783690323 -0.0019370952508610988 0 0.028089441498047329 -0.0013147171997244689 0 0.027140309485299455 -0.0010864448089649469 0 0.024934236323534031 -0.0014375571780225454 0 0.024200484942947489 -0.0013406318355303397 0 0.023995887423994826 -0.00053987468654607051 0 0.026244827435072577 -0.0010024827605347761 0 0.024934236323534031 -0.0014375571780225454 0 0.023995887423994826 -0.00053987468654607051 0 0.023982179535206302 -0.0022690970830973917 0 0.024934236323534031 -0.0014375571780225454 0 0.024200484942947489 -0.0013406318355303397 0 0.023114293691052303 -0.0031655100605101384 0 0.024200484942947489 -0.0013406318355303397 0 0.023572745145798782 -0.0011064556908818371 0 0.023114293691052303 -0.0031655100605101384 0 0.022829079599220457 -0.0013287996715450007 0 0.023572745145798782 -0.0011064556908818371 0 0.024200484942947489 -0.0013406318355303397 0 0.023572745145798782 -0.0011064556908818371 0 0.023995887423994826 -0.00053987468654607051 0 0.022829079599220457 -0.0013287996715450007 0 0.023572745145798782 -0.0011064556908818371 0 0.023995887423994826 -0.00053987468654607051 0 0.022829079599220457 -0.0013287996715450007 0 0.023995887423994826 -0.00053987468654607051 0 0.021817537404939573 -7.2954185891347027e-05 0 0.030495912326047515 -0.0016588216075019676 0 0.030686401905419769 -0.0018972057659074019 0 0.03092435092801555 -0.0018802592635158073 0 0.027140309485299455 -0.0010864448089649469 0 0.026874653818888258 -0.00098387997578148491 0 0.030495912326047515 -0.0016588216075019676 0 0.030686401905419769 -0.0018972057659074019 0 0.030512155305307934 -0.0019105938976868796 0 0.022829079599220457 -0.0013287996715450007 0 0.021817537404939573 -7.2954185891347027e-05 0 0.021798106828909179 -0.0010428494109568965 0 0.021717005150559278 -0.0021502517073604282 0 0.022829079599220457 -0.0013287996715450007 0 0.021798106828909179 -0.0010428494109568965 0 0.031046606825786985 -0.0023049631814075489 0 0.030902324441935351 -0.0022503446370531386 0 0.030990306185375658 -0.0023569477819839228 0 0.031046606825786985 -0.0023049631814075489 0 0.030902324441935351 -0.0022503446370531386 0 0.030994734407145428 -0.0021847090295598042 0 0.030902324441935351 -0.0022503446370531386 0 0.030881624831831402 -0.0021293050294147798 0 0.030792750996785627 -0.0021483807377764906 0 0.030902324441935351 -0.0022503446370531386 0 0.030994734407145428 -0.0021847090295598042 0 0.030881624831831402 -0.0021293050294147798 0 0.030686401905419769 -0.0018972057659074019 0 0.03092435092801555 -0.0018802592635158073 0 0.030814337418121694 -0.0020281512651611137 0 0.030994734407145428 -0.0021847090295598042 0 0.030938353460300383 -0.0020672207486465456 0 0.030881624831831402 -0.0021293050294147798 0 0.03092435092801555 -0.0018802592635158073 0 0.030938353460300383 -0.0020672207486465456 0 0.030814337418121694 -0.0020281512651611137 0 0.030938353460300383 -0.0020672207486465456 0 0.030814337418121694 -0.0020281512651611137 0 0.030881624831831402 -0.0021293050294147798 0 0.030814337418121694 -0.0020281512651611137 0 0.030881624831831402 -0.0021293050294147798 0 0.030792750996785627 -0.0021483807377764906 0 0.030814337418121694 -0.0020281512651611137 0 0.030667724191273095 -0.002065555324321173 0 0.030792750996785627 -0.0021483807377764906 0 0.030686401905419769 -0.0018972057659074019 0 0.030814337418121694 -0.0020281512651611137 0 0.030667724191273095 -0.002065555324321173 0 0.030686401905419769 -0.0018972057659074019 0 0.030512155305307934 -0.0019105938976868796 0 0.030667724191273095 -0.002065555324321173 0 0.030512155305307934 -0.0019105938976868796 0 0.030667724191273095 -0.002065555324321173 0 0.030499068000336041 -0.0020810692120395691 0 0.030667724191273095 -0.002065555324321173 0 0.030732904748131607 -0.0022393363095356503 0 0.030499068000336041 -0.0020810692120395691 0 0.030732904748131607 -0.0022393363095356503 0 0.030553194730200888 -0.0022354711467687098 0 0.030499068000336041 -0.0020810692120395691 0 0.030667724191273095 -0.002065555324321173 0 0.030792750996785627 -0.0021483807377764906 0 0.030732904748131607 -0.0022393363095356503 0 0.030902324441935351 -0.0022503446370531386 0 0.030792750996785627 -0.0021483807377764906 0 0.030732904748131607 -0.0022393363095356503 0 0.030902324441935351 -0.0022503446370531386 0 0.030732904748131607 -0.0022393363095356503 0 0.03090653752071593 -0.0023695143968851394 0 0.030732904748131607 -0.0022393363095356503 0 0.030553194730200888 -0.0022354711467687098 0 0.030677473498895783 -0.0023619376455714935 0 0.030553194730200888 -0.0022354711467687098 0 0.030359656922025115 -0.0021547011214245104 0 0.030415059727968399 -0.0023236068030964103 0 0.030553194730200888 -0.0022354711467687098 0 0.030359656922025115 -0.0021547011214245104 0 0.030499068000336041 -0.0020810692120395691 0 0.030512155305307934 -0.0019105938976868796 0 0.030499068000336041 -0.0020810692120395691 0 0.030363401783690323 -0.0019370952508610988 0 0.030116581223156677 -0.0019165376071094155 0 0.030363401783690323 -0.0019370952508610988 0 0.030291938531385516 -0.0020364802334462795 0 0.030359656922025115 -0.0021547011214245104 0 0.030499068000336041 -0.0020810692120395691 0 0.030291938531385516 -0.0020364802334462795 0 0.030499068000336041 -0.0020810692120395691 0 0.030363401783690323 -0.0019370952508610988 0 0.030291938531385516 -0.0020364802334462795 0 0.030359656922025115 -0.0021547011214245104 0 0.030291938531385516 -0.0020364802334462795 0 0.030089353045268441 -0.0020530785592766027 0 0.029798211695446469 -0.0018969072903851027 0 0.030116581223156677 -0.0019165376071094155 0 0.030089353045268441 -0.0020530785592766027 0 0.030116581223156677 -0.0019165376071094155 0 0.030291938531385516 -0.0020364802334462795 0 0.030089353045268441 -0.0020530785592766027 0 0.030359656922025115 -0.0021547011214245104 0 0.030089353045268441 -0.0020530785592766027 0 0.030069908469434699 -0.0021883175363004476 0 0.030359656922025115 -0.0021547011214245104 0 0.030069908469434699 -0.0021883175363004476 0 0.030415059727968399 -0.0023236068030964103 0 0.030069908469434699 -0.0021883175363004476 0 0.030415059727968399 -0.0023236068030964103 0 0.030029018460143376 -0.0023143104218654614 0 0.030415059727968399 -0.0023236068030964103 0 0.030434866089850052 -0.002476562957386181 0 0.030029018460143376 -0.0023143104218654614 0 0.030303847400428366 -0.0026344145915557235 0 0.030434866089850052 -0.002476562957386181 0 0.030029018460143376 -0.0023143104218654614 0 0.030303847400428366 -0.0026344145915557235 0 0.030594337003080164 -0.0026885270197000866 0 0.030434866089850052 -0.002476562957386181 0 0.030594337003080164 -0.0026885270197000866 0 0.03081588595232149 -0.0027453555483474626 0 0.030434866089850052 -0.002476562957386181 0 0.03081588595232149 -0.0027453555483474626 0 0.030434866089850052 -0.002476562957386181 0 0.030659892579932353 -0.0024848132058291456 0 0.03081588595232149 -0.0027453555483474626 0 0.030659892579932353 -0.0024848132058291456 0 0.03085863339668635 -0.0025860189723527337 0 0.03081588595232149 -0.0027453555483474626 0 0.03085863339668635 -0.0025860189723527337 0 0.0309217059951955 -0.0027077908544960619 0 0.030659892579932353 -0.0024848132058291456 0 0.03078298606176616 -0.0024648498725229947 0 0.03085863339668635 -0.0025860189723527337 0 0.030659892579932353 -0.0024848132058291456 0 0.030677473498895783 -0.0023619376455714935 0 0.03078298606176616 -0.0024648498725229947 0 0.030415059727968399 -0.0023236068030964103 0 0.030659892579932353 -0.0024848132058291456 0 0.030677473498895783 -0.0023619376455714935 0 0.030415059727968399 -0.0023236068030964103 0 0.030434866089850052 -0.002476562957386181 0 0.030659892579932353 -0.0024848132058291456 0 0.030553194730200888 -0.0022354711467687098 0 0.030415059727968399 -0.0023236068030964103 0 0.030677473498895783 -0.0023619376455714935 0 0.030732904748131607 -0.0022393363095356503 0 0.030677473498895783 -0.0023619376455714935 0 0.030809218620304894 -0.0023858765188621103 0 0.030677473498895783 -0.0023619376455714935 0 0.030809218620304894 -0.0023858765188621103 0 0.03078298606176616 -0.0024648498725229947 0 0.030809218620304894 -0.0023858765188621103 0 0.030892038088708784 -0.0024770802740023191 0 0.03090653752071593 -0.0023695143968851394 0 0.030732904748131607 -0.0022393363095356503 0 0.030809218620304894 -0.0023858765188621103 0 0.03090653752071593 -0.0023695143968851394 0 0.030892038088708784 -0.0024770802740023191 0 0.03096628806686846 -0.0025730084457026236 0 0.030989693795997249 -0.0024655440951139224 0 0.030892038088708784 -0.0024770802740023191 0 0.03078298606176616 -0.0024648498725229947 0 0.03085863339668635 -0.0025860189723527337 0 0.030809218620304894 -0.0023858765188621103 0 0.030892038088708784 -0.0024770802740023191 0 0.03078298606176616 -0.0024648498725229947 0 0.03085863339668635 -0.0025860189723527337 0 0.0309217059951955 -0.0027077908544960619 0 0.030981417117840367 -0.0026767265507948493 0 0.03101131947599186 -0.0028227353884784879 0 0.0309217059951955 -0.0027077908544960619 0 0.030981417117840367 -0.0026767265507948493 0 0.030981417117840367 -0.0026767265507948493 0 0.03096628806686846 -0.0025730084457026236 0 0.031057556006274446 -0.0026521604686607302 0 0.031043889843730084 -0.0027440586581866399 0 0.030981417117840367 -0.0026767265507948493 0 0.031057556006274446 -0.0026521604686607302 0 0.030892038088708784 -0.0024770802740023191 0 0.03085863339668635 -0.0025860189723527337 0 0.03096628806686846 -0.0025730084457026236 0 0.03085863339668635 -0.0025860189723527337 0 0.030981417117840367 -0.0026767265507948493 0 0.03096628806686846 -0.0025730084457026236 0 0.03096628806686846 -0.0025730084457026236 0 0.031037773754824131 -0.0025640255605526752 0 0.030989693795997249 -0.0024655440951139224 0 0.03096628806686846 -0.0025730084457026236 0 0.031037773754824131 -0.0025640255605526752 0 0.031057556006274446 -0.0026521604686607302 0 0.031037773754824131 -0.0025640255605526752 0 0.031057556006274446 -0.0026521604686607302 0 0.031099189039828497 -0.0026067929540242278 0 0.031132710013061851 -0.0026805129965466776 0 0.031057556006274446 -0.0026521604686607302 0 0.031099189039828497 -0.0026067929540242278 0 0.031159659431845687 -0.0026117218048101287 0 0.031099189039828497 -0.0026067929540242278 0 0.031111598579902852 -0.002529053621983861 0 0.031159659431845687 -0.0026117218048101287 0 0.031132710013061851 -0.0026805129965466776 0 0.031099189039828497 -0.0026067929540242278 0 0.031037773754824131 -0.0025640255605526752 0 0.031111598579902852 -0.002529053621983861 0 0.030989693795997249 -0.0024655440951139224 0 0.031037773754824131 -0.0025640255605526752 0 0.031099189039828497 -0.0026067929540242278 0 0.031111598579902852 -0.002529053621983861 0 0.031091689987505691 -0.0024180994915312245 0 0.030989693795997249 -0.0024655440951139224 0 0.030990306185375658 -0.0023569477819839228 0 0.031091689987505691 -0.0024180994915312245 0 0.031111598579902852 -0.002529053621983861 0 0.030989693795997249 -0.0024655440951139224 0 0.030892038088708784 -0.0024770802740023191 0 0.030989693795997249 -0.0024655440951139224 0 0.03090653752071593 -0.0023695143968851394 0 0.030989693795997249 -0.0024655440951139224 0 0.03090653752071593 -0.0023695143968851394 0 0.030990306185375658 -0.0023569477819839228 0 0.030902324441935351 -0.0022503446370531386 0 0.03090653752071593 -0.0023695143968851394 0 0.030990306185375658 -0.0023569477819839228 0 0.031091689987505691 -0.0024180994915312245 0 0.031046606825786985 -0.0023049631814075489 0 0.030990306185375658 -0.0023569477819839228 0 0.029570080687081866 -0.0020740777384449772 0 0.029717666110543547 -0.002239477116328074 0 0.029696763745423453 -0.0021051596837075456 0 0.029489020146907921 -0.002016290779025715 0 0.029570080687081866 -0.0020740777384449772 0 0.029696763745423453 -0.0021051596837075456 0 0.029489020146907921 -0.002016290779025715 0 0.029696763745423453 -0.0021051596837075456 0 0.029648785903508782 -0.0020032553921218491 0 0.029344182661647747 -0.0019953468492152153 0 0.029489020146907921 -0.002016290779025715 0 0.029648785903508782 -0.0020032553921218491 0 0.029278307388540748 -0.0019292795575362365 0 0.029489020146907921 -0.002016290779025715 0 0.029570080687081866 -0.0020740777384449772 0 0.029431616025386461 -0.0019321223613434553 0 0.029757925717957559 -0.0020692016441031702 0 0.029570080687081866 -0.0020740777384449772 0 0.029431616025386461 -0.0019321223613434553 0 0.029278307388540748 -0.0019292795575362365 0 0.029570080687081866 -0.0020740777384449772 0 0.029798211695446469 -0.0018969072903851027 0 0.029431616025386461 -0.0019321223613434553 0 0.029757925717957559 -0.0020692016441031702 0 0.029798211695446469 -0.0018969072903851027 0 0.030089353045268441 -0.0020530785592766027 0 0.029757925717957559 -0.0020692016441031702 0 0.030069908469434699 -0.0021883175363004476 0 0.029757925717957559 -0.0020692016441031702 0 0.029817089642487835 -0.002176539370965565 0 0.030089353045268441 -0.0020530785592766027 0 0.030069908469434699 -0.0021883175363004476 0 0.029757925717957559 -0.0020692016441031702 0 0.029817089642487835 -0.002176539370965565 0 0.029570080687081866 -0.0020740777384449772 0 0.029717666110543547 -0.002239477116328074 0 0.029757925717957559 -0.0020692016441031702 0 0.029817089642487835 -0.002176539370965565 0 0.029570080687081866 -0.0020740777384449772 0 0.029817089642487835 -0.002176539370965565 0 0.030029018460143376 -0.0023143104218654614 0 0.029717666110543547 -0.002239477116328074 0 0.030069908469434699 -0.0021883175363004476 0 0.029817089642487835 -0.002176539370965565 0 0.030029018460143376 -0.0023143104218654614 0 0.030303847400428366 -0.0026344145915557235 0 0.030029018460143376 -0.0023143104218654614 0 0.029733245658637684 -0.0023874648522167032 0 0.030029018460143376 -0.0023143104218654614 0 0.029733245658637684 -0.0023874648522167032 0 0.029717666110543547 -0.002239477116328074 0 0.029880132347599567 -0.0021709872613116131 0 0.029717666110543547 -0.002239477116328074 0 0.029918429687467621 -0.0021418414294478443 0 0.029880132347599567 -0.0021709872613116131 0 0.029733245658637684 -0.0023874648522167032 0 0.029717666110543547 -0.002239477116328074 0 0.029717666110543547 -0.002239477116328074 0 0.029696763745423453 -0.0021051596837075456 0 0.029918429687467621 -0.0021418414294478443 0 0.029696763745423453 -0.0021051596837075456 0 0.029918429687467621 -0.0021418414294478443 0 0.029886451623806091 -0.0020537932366084029 0 0.030164997861798812 -0.0020927311330790799 0 0.03002193308593493 -0.0020870524897759184 0 0.029886451623806091 -0.0020537932366084029 0 0.030164997861798812 -0.0020927311330790799 0 0.029918429687467621 -0.0021418414294478443 0 0.029886451623806091 -0.0020537932366084029 0 0.0303647578630886 -0.0022183384808211809 0 0.030366919615834341 -0.0023256022968194782 0 0.029886451623806091 -0.0020537932366084029 0 0.029801877377275323 -0.0019641644747695228 0 0.029854648127223389 -0.0019866854459037698 0 0.03002193308593493 -0.0020870524897759184 0 0.029886451623806091 -0.0020537932366084029 0 0.029854648127223389 -0.0019866854459037698 0 0.029696763745423453 -0.0021051596837075456 0 0.029886451623806091 -0.0020537932366084029 0 0.029648785903508782 -0.0020032553921218491 0 0.029886451623806091 -0.0020537932366084029 0 0.029648785903508782 -0.0020032553921218491 0 0.029801877377275323 -0.0019641644747695228 0 0.029648785903508782 -0.0020032553921218491 0 0.029801877377275323 -0.0019641644747695228 0 0.029724450716138901 -0.0020069384539421319 0 0.029801877377275323 -0.0019641644747695228 0 0.029724450716138901 -0.0020069384539421319 0 0.030002992650401166 -0.0019299121519456069 0 0.029344182661647747 -0.0019953468492152153 0 0.029648785903508782 -0.0020032553921218491 0 0.029724450716138901 -0.0020069384539421319 0 0.030848759118890706 -0.0026125765021310873 0 0.030920351893792705 -0.0027134666827514291 0 0.030602352446413482 -0.002448717104146513 0 0.030848759118890706 -0.0026125765021310873 0 0.030602352446413482 -0.002448717104146513 0 0.030388272596300326 -0.0022913868290541915 0 0.030419074765067802 -0.0022965378906789511 0 0.030410276206145146 -0.00231630936044812 0 0.029724450716138901 -0.0020069384539421319 0 0.030002992650401166 -0.0019299121519456069 0 0.030388272596300326 -0.0022913868290541915 0 0.030848759118890706 -0.0026125765021310873 0 0.030982146253699147 -0.0026980529421335615 0 0.030861702285556434 -0.0026807184144723964 0 0.029801877377275323 -0.0019641644747695228 0 0.030002992650401166 -0.0019299121519456069 0 0.029854648127223389 -0.0019866854459037698 0 0.030419074765067802 -0.0022965378906789511 0 0.030366919615834341 -0.0023256022968194782 0 0.030848759118890706 -0.0026125765021310873 0 0.030982146253699147 -0.0026980529421335615 0 0.030920351893792705 -0.0027134666827514291 0 0.030982146253699147 -0.0026980529421335615 0 0.031001653895342918 -0.0024679535792689776 0 0.031359141629065231 -0.0026971658414105832 0 0.030982146253699147 -0.0026980529421335615 0 0.030861702285556434 -0.0026807184144723964 0 0.031001653895342918 -0.0024679535792689776 0 0.030685874966190265 -0.002409652407785675 0 0.030861702285556434 -0.0026807184144723964 0 0.031001653895342918 -0.0024679535792689776 0 0.030775106643907667 -0.0021741824559732498 0 0.030685874966190265 -0.002409652407785675 0 0.031001653895342918 -0.0024679535792689776 0 0.031481861789377022 -0.0021989828259512244 0 0.031001653895342918 -0.0024679535792689776 0 0.031359141629065231 -0.0026971658414105832 0 0.031481861789377022 -0.0021989828259512244 0 0.03212773503790331 -0.0024432895809377393 0 0.031359141629065231 -0.0026971658414105832 0 0.03212773503790331 -0.0024432895809377393 0 0.03206045852972219 -0.0028535193298699275 0 0.031359141629065231 -0.0026971658414105832 0 0.03212773503790331 -0.0024432895809377393 0 0.03206045852972219 -0.0028535193298699275 0 0.032394223084422413 -0.0027611686697948724 0 0.031369947206395785 -0.0026993355858673088 0 0.031584908584599343 -0.0031182047586644137 0 0.031359141629065231 -0.0026971658414105832 0 0.031131104720181681 -0.002704483524542738 0 0.031133714587442646 -0.0027189547466459157 0 0.03206045852972219 -0.0028535193298699275 0 0.031359141629065231 -0.0026971658414105832 0 0.032150050398766443 -0.0033562917074270973 0 0.03206045852972219 -0.0028535193298699275 0 0.032394223084422413 -0.0027611686697948724 0 0.032249367479216667 -0.0031248646936193536 0 0.03206045852972219 -0.0028535193298699275 0 0.032249367479216667 -0.0031248646936193536 0 0.032150050398766443 -0.0033562917074270973 0 0.030982146253699147 -0.0026980529421335615 0 0.031359141629065231 -0.0026971658414105832 0 0.030920351893792705 -0.0027134666827514291 0 0.031359141629065231 -0.0026971658414105832 0 0.030920351893792705 -0.0027134666827514291 0 0.031131104720181681 -0.002704483524542738 0 0.03212773503790331 -0.0024432895809377393 0 0.032871315816296695 -0.0024608114732133555 0 0.032394223084422413 -0.0027611686697948724 0 0.032249367479216667 -0.0031248646936193536 0 0.032816132491658406 -0.0033251879020757746 0 0.032150050398766443 -0.0033562917074270973 0 0.032871315816296695 -0.0024608114732133555 0 0.032394223084422413 -0.0027611686697948724 0 0.032804945410906047 -0.0033018980152962948 0 0.031984505992314761 -0.0030905890502318021 0 0.034120471193899916 -0.0023269236605059761 0 0.032394223084422413 -0.0027611686697948724 0 0.032249367479216667 -0.0031248646936193536 0 0.032804945410906047 -0.0033018980152962948 0 0.034031275666091508 -0.0019610687648057208 0 0.033936288526226634 -0.0020397158632980686 0 0.034079597384523215 -0.001943104467350831 0 0.033312206230300324 -0.0023106207108048241 0 0.034120471193899916 -0.0023269236605059761 0 0.035801243155201667 -0.00060342113167959456 0 0.03630865022553606 -0.0012605213264037178 0 0.036360295016199251 -0.0006328090433747243 0 0.034120471193899916 -0.0023269236605059761 0 0.032533950194663763 -0.0024522503402751635 0 0.034883472023870279 -0.0012542333236698882 0 0.034120471193899916 -0.0023269236605059761 0 0.035298158932705374 -0.00090016217750489113 0 0.035801243155201667 -0.00060342113167959456 0 0.03630865022553606 -0.0012605213264037178 0 0.032533950194663763 -0.0024522503402751635 0 0.031584908584599343 -0.0031182047586644137 0 0.031131133803988981 -0.0027369952673551514 0 0.031134119974944589 -0.0027430336160755974 0 0.031133714587442646 -0.0027189547466459157 0 0.032816132491658406 -0.0033251879020757746 0 0.032771643377654792 -0.0038310636186623536 0 0.032150050398766443 -0.0033562917074270973 0 0.031370526902549975 -0.0023313531108890939 0 0.032533950194663763 -0.0024522503402751635 0 0.031131133803988981 -0.0027369952673551514 0 0.031141944120038172 -0.0027162364697456334 0 0.031144425289586553 -0.0027262307147712665 0 0.031131133803988981 -0.0027369952673551514 0 0.031133714587442646 -0.0027189547466459157 0 0.031144425289586553 -0.0027262307147712665 0 0.031141944120038172 -0.0027162364697456334 0 0.031149703513799396 -0.0026198062277692558 0 0.031115886756544017 -0.0026748380416488373 0 0.031149703513799396 -0.0026198062277692558 0 0.031115886756544017 -0.0026748380416488373 0 0.031068405598687145 -0.0025668655837413619 0 0.031115886756544017 -0.0026748380416488373 0 0.031081965567051593 -0.0026954576490199503 0 0.031068405598687145 -0.0025668655837413619 0 0.031131133803988981 -0.0027369952673551514 0 0.031141944120038172 -0.0027162364697456334 0 0.031105114733776602 -0.0027249222485871347 0 0.031141944120038172 -0.0027162364697456334 0 0.031115886756544017 -0.0026748380416488373 0 0.031105114733776602 -0.0027249222485871347 0 0.031081965567051593 -0.0026954576490199503 0 0.031105114733776602 -0.0027249222485871347 0 0.031075006917147156 -0.0027243449869223503 0 0.031115886756544017 -0.0026748380416488373 0 0.031081965567051593 -0.0026954576490199503 0 0.031105114733776602 -0.0027249222485871347 0 0.031105114733776602 -0.0027249222485871347 0 0.031075006917147156 -0.0027243449869223503 0 0.03105616041660492 -0.0027474873611034317 0 0.031081965567051593 -0.0026954576490199503 0 0.031075006917147156 -0.0027243449869223503 0 0.03105616041660492 -0.0027474873611034317 0 0.031131133803988981 -0.0027369952673551514 0 0.031105114733776602 -0.0027249222485871347 0 0.03105616041660492 -0.0027474873611034317 0 0.035552192640621323 -3.5859910628551687e-05 0 0.035801243155201667 -0.00060342113167959456 0 0.036236641169697117 -0.00052305852956307445 0 0.03428365998976661 -0.00074339894239835612 0 0.033314384707955315 -0.0021253943931783979 0 0.031681263749313175 -0.0018664209796675727 0 0.033314384707955315 -0.0021253943931783979 0 0.035801243155201667 -0.00060342113167959456 0 0.036360295016199251 -0.0006328090433747243 0 0.036236641169697117 -0.00052305852956307445 0 0.032533950194663763 -0.0024522503402751635 0 0.033314384707955315 -0.0021253943931783979 0 0.031081965567051593 -0.0026954576490199503 0 0.03105616041660492 -0.0027474873611034317 0 0.031008771922086623 -0.0027378879942560239 0 0.031081965567051593 -0.0026954576490199503 0 0.031008771922086623 -0.0027378879942560239 0 0.031068405598687145 -0.0025668655837413619 0 0.030920351893792705 -0.0027134666827514291 0 0.031131104720181681 -0.002704483524542738 0 0.031151496132285683 -0.0027555276060247814 0 0.030895829626107121 -0.0026990531552375284 0 0.030822723389128181 -0.0026408228939085883 0 0.031131104720181681 -0.002704483524542738 0 0.031133714587442646 -0.0027189547466459157 0 0.031144425289586553 -0.0027262307147712665 0 0.031131104720181681 -0.002704483524542738 0 0.031144425289586553 -0.0027262307147712665 0 0.031151496132285683 -0.0027555276060247814 0 0.030394420695012934 -0.0024816152495868004 0 0.030485794602173329 -0.0025413810372503657 0 0.030419516280875671 -0.0024453581666067409 0 0.031141944120038172 -0.0027162364697456334 0 0.031149703513799396 -0.0026198062277692558 0 0.031151496132285683 -0.0027555276060247814 0 0.030737301161161593 -0.0025383514433652099 0 0.030822723389128181 -0.0026408228939085883 0 0.031141944120038172 -0.0027162364697456334 0 0.031144425289586553 -0.0027262307147712665 0 0.031151496132285683 -0.0027555276060247814 0 0.030920351893792705 -0.0027134666827514291 0 0.030485794602173329 -0.0025413810372503657 0 0.030602352446413482 -0.002448717104146513 0 0.030485794602173329 -0.0025413810372503657 0 0.030602352446413482 -0.002448717104146513 0 0.030463273705279053 -0.0024223911336582007 0 0.030602352446413482 -0.002448717104146513 0 0.03044799335561249 -0.0023817324506445431 0 0.030463273705279053 -0.0024223911336582007 0 0.03044799335561249 -0.0023817324506445431 0 0.030463273705279053 -0.0024223911336582007 0 0.03042366105208583 -0.002419637053983105 0 0.030485794602173329 -0.0025413810372503657 0 0.030463273705279053 -0.0024223911336582007 0 0.030419516280875671 -0.0024453581666067409 0 0.030419516280875671 -0.0024453581666067409 0 0.030422761170339273 -0.0024307829783345994 0 0.030394256252332837 -0.0024485054876639124 0 0.030463273705279053 -0.0024223911336582007 0 0.030419516280875671 -0.0024453581666067409 0 0.030422761170339273 -0.0024307829783345994 0 0.030463273705279053 -0.0024223911336582007 0 0.03042366105208583 -0.002419637053983105 0 0.030422761170339273 -0.0024307829783345994 0 0.03042366105208583 -0.002419637053983105 0 0.030411558022933875 -0.0024350362321174939 0 0.030393956337965312 -0.002459369241849133 0 0.03042366105208583 -0.002419637053983105 0 0.030422761170339273 -0.0024307829783345994 0 0.030411558022933875 -0.0024350362321174939 0 0.030422761170339273 -0.0024307829783345994 0 0.030411558022933875 -0.0024350362321174939 0 0.030394256252332837 -0.0024485054876639124 0 0.03042366105208583 -0.002419637053983105 0 0.030365159303620416 -0.002440922893374318 0 0.030393956337965312 -0.002459369241849133 0 0.03044799335561249 -0.0023817324506445431 0 0.03042366105208583 -0.002419637053983105 0 0.030365159303620416 -0.002440922893374318 0 0.031008771922086623 -0.0027378879942560239 0 0.030962934624116586 -0.0023818986058533578 0 0.031068405598687145 -0.0025668655837413619 0 0.030629216155493875 -0.0024590098656762818 0 0.031008771922086623 -0.0027378879942560239 0 0.030962934624116586 -0.0023818986058533578 0 0.03087724033576426 -0.0024204976564064749 0 0.031044580720157647 -0.0025544231055811277 0 0.030737301161161593 -0.0025383514433652099 0 0.03087724033576426 -0.0024204976564064749 0 0.030394420695012934 -0.0024816152495868004 0 0.030358708582124468 -0.0024713004736427627 0 0.030394256252332837 -0.0024485054876639124 0 0.030394420695012934 -0.0024816152495868004 0 0.030419516280875671 -0.0024453581666067409 0 0.030394256252332837 -0.0024485054876639124 0 0.031149703513799396 -0.0026198062277692558 0 0.031006368789646716 -0.0024335359221490864 0 0.031068405598687145 -0.0025668655837413619 0 0.030411558022933875 -0.0024350362321174939 0 0.030394256252332837 -0.0024485054876639124 0 0.030380778177577946 -0.0024408579937079751 0 0.030394256252332837 -0.0024485054876639124 0 0.030380778177577946 -0.0024408579937079751 0 0.030360435865014832 -0.0024540185697059275 0 0.030292123923762255 -0.0024474343344843036 0 0.030380778177577946 -0.0024408579937079751 0 0.030360435865014832 -0.0024540185697059275 0 0.030349465212341813 -0.0014194966431235634 0 0.030321701165366956 -0.0011985803547054444 0 0.031200967739227422 -0.0024950117587216425 0 0.030363619854355931 -0.0018698364277108604 0 0.03087724033576426 -0.0024204976564064749 0 0.030292123923762255 -0.0024474343344843036 0 0.030358708582124468 -0.0024713004736427627 0 0.030360435865014832 -0.0024540185697059275 0 0.030358708582124468 -0.0024713004736427627 0 0.030394256252332837 -0.0024485054876639124 0 0.030360435865014832 -0.0024540185697059275 0 0.030256176366530097 -0.0023635743874106077 0 0.030292123923762255 -0.0024474343344843036 0 0.030331518448732338 -0.0024194179924088106 0 0.030292123923762255 -0.0024474343344843036 0 0.030380778177577946 -0.0024408579937079751 0 0.030331518448732338 -0.0024194179924088106 0 0.030331518448732338 -0.0024194179924088106 0 0.030391603724271805 -0.0024326366917861485 0 0.030341086805435249 -0.0023916556698397678 0 0.030380778177577946 -0.0024408579937079751 0 0.030331518448732338 -0.0024194179924088106 0 0.030391603724271805 -0.0024326366917861485 0 0.030380778177577946 -0.0024408579937079751 0 0.030391603724271805 -0.0024326366917861485 0 0.030406340102280775 -0.0024473858154859468 0 0.030411558022933875 -0.0024350362321174939 0 0.030380778177577946 -0.0024408579937079751 0 0.030406340102280775 -0.0024473858154859468 0 0.030391603724271805 -0.0024326366917861485 0 0.030360820752347775 -0.0023422995342740555 0 0.030419021931334431 -0.0024843591533888097 0 0.029655100432425224 -0.0026018852605245888 0 0.029929134879705242 -0.0025376527410217397 0 0.030391603724271805 -0.0024326366917861485 0 0.030341086805435249 -0.0023916556698397678 0 0.030360820752347775 -0.0023422995342740555 0 0.030256176366530097 -0.0023635743874106077 0 0.030341086805435249 -0.0023916556698397678 0 0.030360820752347775 -0.0023422995342740555 0 0.030256176366530097 -0.0023635743874106077 0 0.030331518448732338 -0.0024194179924088106 0 0.030341086805435249 -0.0023916556698397678 0 0.030313345689026609 -0.0025113762690368129 0 0.030393956337965312 -0.002459369241849133 0 0.030419021931334431 -0.0024843591533888097 0 0.030365159303620416 -0.002440922893374318 0 0.030313345689026609 -0.0025113762690368129 0 0.030393956337965312 -0.002459369241849133 0 0.030393956337965312 -0.002459369241849133 0 0.030406340102280775 -0.0024473858154859468 0 0.030419021931334431 -0.0024843591533888097 0 0.030391603724271805 -0.0024326366917861485 0 0.030406340102280775 -0.0024473858154859468 0 0.030419021931334431 -0.0024843591533888097 0 0.030411558022933875 -0.0024350362321174939 0 0.030393956337965312 -0.002459369241849133 0 0.030406340102280775 -0.0024473858154859468 0 0.030313345689026609 -0.0025113762690368129 0 0.030419021931334431 -0.0024843591533888097 0 0.030183842203705034 -0.0026251960476120439 0 0.029929134879705242 -0.0025376527410217397 0 0.030182070413123537 -0.0026266525153641959 0 0.029931372387819465 -0.0023639371369396159 0 0.029559984623485261 -0.0026543559888802049 0 0.030183842203705034 -0.0026251960476120439 0 0.029931372387819465 -0.0023639371369396159 0 0.030162777211389612 -0.0026493241733260547 0 0.030183842203705034 -0.0026251960476120439 0 0.030162777211389612 -0.0026493241733260547 0 0.030183842203705034 -0.0026251960476120439 0 0.030144187365986733 -0.0026152720603673549 0 0.030365159303620416 -0.002440922893374318 0 0.030313345689026609 -0.0025113762690368129 0 0.030195282779757804 -0.0025297220307038239 0 0.030313345689026609 -0.0025113762690368129 0 0.030183842203705034 -0.0026251960476120439 0 0.030195282779757804 -0.0025297220307038239 0 0.030183842203705034 -0.0026251960476120439 0 0.030195282779757804 -0.0025297220307038239 0 0.030144187365986733 -0.0026152720603673549 0 0.030195282779757804 -0.0025297220307038239 0 0.029980669449149462 -0.0024981443589218327 0 0.030012481764751898 -0.0026121711349169591 0 0.030195282779757804 -0.0025297220307038239 0 0.030012481764751898 -0.0026121711349169591 0 0.030144187365986733 -0.0026152720603673549 0 0.030162777211389612 -0.0026493241733260547 0 0.030012481764751898 -0.0026121711349169591 0 0.030144187365986733 -0.0026152720603673549 0 0.030162777211389612 -0.0026493241733260547 0 0.030012481764751898 -0.0026121711349169591 0 0.029833213099408371 -0.0027255807004424133 0 0.028489208398673336 -0.0023117173475377278 0 0.029567141710745169 -0.0022827464011985175 0 0.030012481764751898 -0.0026121711349169591 0 0.029833213099408371 -0.0027255807004424133 0 0.02978191590707157 -0.002524030584738469 0 0.027702045758187611 -0.001873753596614826 0 0.026445341625900804 -0.0018177078389425185 0 0.027694975310800531 -0.0020250889727232357 0 0.028357662577610007 -0.0022380553025161008 0 0.028489208398673336 -0.0023117173475377278 0 0.027694909666578157 -0.0019217502110892802 0 0.028489208398673336 -0.0023117173475377278 0 0.028013781458923526 -0.0019354294401422016 0 0.02849108671812273 -0.0021263389002280329 0 0.02756787022776774 -0.002134155373229786 0 0.028403300858921756 -0.0021374634489329169 0 0.028489208398673336 -0.0023117173475377278 0 0.02849108671812273 -0.0021263389002280329 0 0.029084509175482453 -0.0022891372452504672 0 0.028918270083827663 -0.0020639895209921605 0 0.029084509175482453 -0.0022891372452504672 0 0.028918270083827663 -0.0020639895209921605 0 0.029157905870308941 -0.0020059402476878068 0 0.02849108671812273 -0.0021263389002280329 0 0.028988153859453768 -0.0019999802451929889 0 0.028918270083827663 -0.0020639895209921605 0 0.028013781458923526 -0.0019354294401422016 0 0.02758949426736922 -0.0019906695526374606 0 0.02756787022776774 -0.002134155373229786 0 0.028988153859453768 -0.0019999802451929889 0 0.029157905870308941 -0.0020059402476878068 0 0.029261509561892489 -0.0020409622006808963 0 0.028988153859453768 -0.0019999802451929889 0 0.028918270083827663 -0.0020639895209921605 0 0.029157905870308941 -0.0020059402476878068 0 0.029980669449149462 -0.0024981443589218327 0 0.030012481764751898 -0.0026121711349169591 0 0.02978191590707157 -0.002524030584738469 0 0.029980669449149462 -0.0024981443589218327 0 0.029579265881174314 -0.002153237020759073 0 0.030039390406708045 -0.0023473133900895433 0 0.029567141710745169 -0.0022827464011985175 0 0.029542729189350012 -0.0021043633063708646 0 0.029980669449149462 -0.0024981443589218327 0 0.02978191590707157 -0.002524030584738469 0 0.029579265881174314 -0.002153237020759073 0 0.029157905870308941 -0.0020059402476878068 0 0.029261509561892489 -0.0020409622006808963 0 0.029579265881174314 -0.002153237020759073 0 0.029344182661647747 -0.0019953468492152153 0 0.029724450716138901 -0.0020069384539421319 0 0.029579265881174314 -0.002153237020759073 0 0.029344182661647747 -0.0019953468492152153 0 0.029261509561892489 -0.0020409622006808963 0 0.029579265881174314 -0.002153237020759073 0 0.029724450716138901 -0.0020069384539421319 0 0.029579265881174314 -0.002153237020759073 0 0.030039390406708045 -0.0023473133900895433 0 0.029724450716138901 -0.0020069384539421319 0 0.030388272596300326 -0.0022913868290541915 0 0.030039390406708045 -0.0023473133900895433 0 0.030602352446413482 -0.002448717104146513 0 0.03044799335561249 -0.0023817324506445431 0 0.030388272596300326 -0.0022913868290541915 0 0.03044799335561249 -0.0023817324506445431 0 0.030388272596300326 -0.0022913868290541915 0 0.030319848391609176 -0.0023970661451425891 0 0.030365159303620416 -0.002440922893374318 0 0.030195282779757804 -0.0025297220307038239 0 0.030319848391609176 -0.0023970661451425891 0 0.03044799335561249 -0.0023817324506445431 0 0.030365159303620416 -0.002440922893374318 0 0.030319848391609176 -0.0023970661451425891 0 0.030195282779757804 -0.0025297220307038239 0 0.030319848391609176 -0.0023970661451425891 0 0.030039390406708045 -0.0023473133900895433 0 0.030388272596300326 -0.0022913868290541915 0 0.030319848391609176 -0.0023970661451425891 0 0.030039390406708045 -0.0023473133900895433 0 0.030195282779757804 -0.0025297220307038239 0 0.029980669449149462 -0.0024981443589218327 0 0.030039390406708045 -0.0023473133900895433 0 
</DataArray>
</PointData>
<CellData Scalars="region_id,cross_section_updated," Vectors="" Tensors="stress,">
<DataArray type="Float64" Name="region_id" format="ascii">
5 5 6 5 5 5 5 5 5 5 5 5 5 5 5 5 5 5 5 5 5 5 5 5 5 5 5 5 5 5 5 5 5 5 5 5 5 5 5 5 6 5 5 6 5 6 6 5 5 5 5 6 5 6 6 5 5 5 6 5 5 5 6 5 5 5 5 5 5 5 5 5 5 6 5 5 5 5 5 5 5 6 6 5 5 6 5 5 6 6 5 5 6 5 5 5 5 5 5 5 5 5 5 5 5 5 6 5 5 5 5 5 5 5 6 5 5 5 6 5 5 5 5 6 5 5 5 5 5 5 5 5 6 5 5 6 5 5 5 5 5 5 5 5 5 5 5 6 5 5 6 5 5 5 5 5 5 5 5 5 5 5 5 5 5 5 6 5 5 5 5 5 5 5 5 6 5 5 5 6 5 5 5 5 5 5 5 5 5 6 5 5 5 5 5 5 6 5 5 5 5 5 5 5 6 6 5 5 5 5 5 6 6 6 6 5 5 5 6 5 5 5 6 5 5 5 5 6 5 5 5 6 5 6 5 5 5 5 5 5 5 6 5 5 5 5 5 5 6 5 5 5 5 6 5 5 6 5 5 6 5 5 5 5 5 6 5 5 5 5 5 6 5 5 5 6 5 5 5 5 6 5 5 5 5 5 5 5 5 5 5 5 5 5 5 6 5 5 6 5 6 6 5 6 5 5 5 5 5 5 6 5 5 5 5 5 5 6 5 6 5 5 5 6 5 5 6 6 5 5 5 6 5 6 5 6 5 5 5 5 6 5 5 5 6 6 5 6 5 5 5 6 5 5 6 5 5 5 5 5 5 5 5 5 5 5 5 5 5 5 5 5 6 5 5 5 5 5 5 5 6 5 5 5 5 5 5 5 5 5 5 5 5 5 5 5 5 5 5 5 5 5 5 5 5 5 5 5 5 5 5 5 5 5 5 5 5 5 5 5 5 5 5 6 6 5 6 5 5 5 5 5 5 5 5 5 5 5 5 6 5 5 5 5 5 5 5 6 5 5 5 5 6 5 5 5 5 5 5 5 5 5 6 5 5 5 5 5 5 5 6 5 5 5 5 5 5 6 5 5 5 5 5 5 6 5 6 5 5 5 5 5 5 6 5 5 5 5 6 5 5 6 5 5 5 5 5 5 5 6 5 5 5 5 6 5 6 6 5 5 5 6 6 6 5 5 6 5 6 5 6 6 5 5 5 6 5 5 6 5 5 5 5 5 5 5 5 5 5 5 5 5 6 5 6 5 5 6 5 6 5 6 5 5 5 5 6 5 5 5 5 5 5 5 5 5 5 5 5 5 6 5 5 5 6 5 6 5 5 5 5 5 5 5 5 5 5 5 6 5 5 5 5 5 5 5 5 5 5 5 5 5 5 5 5 5 5 5 5 5 5 5 5 5 5 5 5 5 5 5 5 5 5 5 5 5 5 5 5 5 6 5 5 5 5 5 5 6 6 5 5 5 5 5 6 5 5 5 5 5 5 5 5 5 5 5 6 5 5 6 5 5 5 5 5 5 5 5 5 5 5 5 5 5 5 5 5 5 5 5 5 5 5 5 5 5 5 5 5 5 5 5 5 5 5 5 5 5 5 5 5 5 5 6 5 6 5 5 6 6 5 5 5 5 5 5 5 5 5 5 5 5 5 5 5 5 6 5 5 5 5 6 5 5 5 5 5 5 5 5 5 5 5 5 6 5 6 6 6 5 5 5 5 6 6 6 5 5 5 5 6 5 5 6 5 5 5 5 5 5 5 5 5 5 5 5 5 5 5 5 5 5 5 5 6 5 5 5 5 5 5 6 5 5 5 5 6 5 5 5 5 5 5 5 5 5 5 5 5 5 5 5 5 5 5 5 5 6 5 5 5 5 5 5 5 5 6 5 5 5 6 5 5 6 6 5 5 5 5 5 6 5 5 5 6 6 6 5 5 5 5 5 6 5 5 5 5 5 5 5 5 5 5 5 5 5 5 6 5 5 5 5 5 5 5 5 5 5 5 5 5 5 5 5 5 5 6 5 5 5 5 5 5 5 5 5 5 5 5 5 5 5 6 5 5 5 5 5 6 5 5 5 6 5 5 5 5 6 5 6 5 5 5 5 6 5 5 5 5 5 5 5 5 5 5 5 5 5 5 5 5 5 5 6 5 5 5 5 6 6 5 5 5 6 5 5 5 6 5 5 5 5 5 5 5 5 6 5 6 5 5 5 5 6 5 5 5 5 5 5 5 6 5 5 5 5 5 5 5 5 5 5 5 5 5 5 5 6 5 5 6 5 5 5 6 5 5 5 5 5 5 6 6 5 5 6 5 5 5 5 5 6 6 5 5 5 5 5 5 5 5 6 5 5 5 5 5 5 6 5 5 5 5 5 6 5 5 5 5 5 5 6 5 6 5 5 6 5 5 5 5 5 5 5 5 5 5 5 6 6 5 5 6 5 5 6 5 5 6 5 6 5 5 5 5 5 6 5 5 5 5 5 5 5 5 5 5 5 5 5 5 5 5 5 6 5 5 6 5 5 6 5 5 5 5 5 6 5 5 5 5 5 6 5 5 5 6 5 5 6 5 5 5 5 6 5 5 5 5 5 5 5 6 6 5 5 5 5 6 5 5 5 5 5 5 5 5 5 5 5 5 5 5 5 5 5 5 6 5 5 5 5 5 5 5 6 5 5 5 5 6 5 5 5 5 5 5 5 5 5 6 5 5 6 5 5 5 5 5 6 6 6 6 5 6 6 5 5 5 6 5 5 5 6 5 6 5 5 6 5 5 5 6 5 5 5 5 6 5 6 5 6 5 5 6 5 6 5 5 5 5 5 5 5 5 5 5 5 5 5 5 6 5 5 5 6 5 5 5 5 5 5 5 5 5 5 5 5 5 6 5 5 5 5 5 5 5 5 5 5 5 6 5 5 5 6 5 5 5 5 5 5 5 5 5 5 5 5 5 5 5 5 5 5 5 5 5 5 5 5 5 5 5 5 6 5 5 5 5 5 6 5 5 5 6 5 5 5 5 5 5 5 5 5 5 5 5 5 5 5 5 5 5 5 5 5 5 6 5 5 5 5 6 6 5 5 5 5 5 5 5 5 5 6 5 5 5 5 5 5 5 5 5 6 5 5 5 5 5 6 5 5 6 5 6 5 5 6 6 5 6 5 5 5 6 5 5 6 5 5 5 6 5 6 5 5 5 5 5 5 5 5 5 5 6 5 5 5 5 5 5 5 5 5 5 5 5 5 5 5 5 5 5 5 5 5 5 6 5 5 5 5 5 6 5 5 5 5 5 6 5 5 5 5 5 5 5 5 5 5 5 5 5 5 5 5 5 5 5 5 5 5 5 6 5 5 6 5 5 5 5 5 5 5 5 5 5 5 5 5 6 5 5 5 5 5 5 5 6 6 6 5 6 5 5 5 5 5 5 6 5 6 6 5 5 5 5 5 5 5 5 5 5 5 5 5 5 5 5 5 5 5 5 6 6 5 5 5 6 6 5 5 5 5 5 5 5 5 5 5 5 5 5 5 5 6 5 6 5 5 5 6 5 5 6 5 5 5 5 5 5 6 5 6 5 5 5 5 5 5 5 5 5 5 6 5 5 5 5 5 5 5 5 5 6 6 5 5 5 5 5 5 5 6 6 5 5 5 6 5 6 5 5 5 5 5 6 5 6 5 5 6 5 5 5 5 5 5 5 6 5 5 6 5 5 5 5 5 5 5 5 6 5 5 5 5 5 5 6 5 5 5 5 5 6 5 5 5 5 5 6 5 5 5 5 6 5 5 5 5 6 6 6 5 5 6 5 6 5 5 5 5 5 5 5 5 5 6 5 5 5 6 5 5 5 6 6 5 5 5 6 5 5 5 5 5 5 5 5 5 5 5 5 5 5 5 5 6 5 5 5 5 5 5 5 5 5 5 5 5 5 5 5 5 5 5 5 5 5 5 5 6 5 5 5 6 5 5 5 5 5 5 5 5 5 5 5 5 6 5 5 6 5 5 5 5 5 5 5 5 5 5 5 5 5 5 5 5 5 5 5 5 5 5 5 5 5 5 5 5 5 5 5 5 5 5 5 5 5 5 6 5 5 5 5 5 5 5 5 6 5 5 5 5 5 5 5 5 5 5 5 5 5 5 5 5 5 5 5 5 5 6 5 5 5 6 5 5 5 6 6 5 5 5 5 5 5 5 5 5 5 5 5 5 5 5 5 5 5 5 5 6 5 5 5 5 5 5 5 5 6 5 5 5 6 5 5 5 5 6 5 6 5 5 6 5 5 5 6 5 6 5 6 5 5 5 5 5 5 5 5 5 5 5 6 5 5 6 5 5 5 5 5 5 5 6 5 5 5 5 5 5 5 5 5 5 5 5 5 5 5 5 5 5 5 5 5 5 5 5 5 5 5 5 5 5 6 5 5 5 6 5 5 5 5 5 5 5 6 5 5 5 5 6 5 5 5 5 6 5 6 5 5 5 5 5 5 6 6 5 5 5 5 5 5 6 5 5 5 5 5 5 5 5 5 5 5 6 5 5 5 5 6 5 5 5 6 5 5 5 5 5 5 5 5 5 5 5 5 5 5 5 5 5 5 5 5 5 5 5 5 5 5 5 5 5 5 5 5 5 5 5 6 5 5 5 5 5 5 5 5 5 5 5 5 5 5 5 5 5 5 5 5 5 6 5 5 5 5 5 5 5 5 5 5 5 5 5 5 6 5 5 5 5 5 5 5 5 5 5 5 5 5 5 5 5 6 5 5 6 5 5 5 5 5 5 5 5 5 5 6 5 6 6 6 5 5 6 6 5 5 6 5 5 5 6 5 5 5 5 5 5 5 5 6 5 5 5 5 5 6 5 5 5 5 6 5 6 5 5 6 6 6 5 5 5 5 5 5 5 5 5 5 5 5 5 5 5 5 5 5 5 6 5 5 5 6 5 5 6 5 5 6 5 5 6 5 5 5 6 5 5 5 6 5 5 5 5 5 5 5 5 5 6 5 5 5 5 5 5 5 5 5 5 5 5 5 5 5 5 5 5 5 5 5 5 6 5 5 5 5 5 5 5 5 5 5 5 5 5 5 5 5 5 5 5 5 5 5 5 6 5 6 6 5 6 5 5 5 5 6 5 5 5 5 5 5 5 6 6 5 5 5 5 5 5 5 5 5 6 5 5 5 6 5 5 5 6 5 5 5 5 5 5 5 5 5 5 5 5 5 5 5 5 5 5 5 5 5 5 5 5 5 5 5 5 5 5 5 5 5 5 5 5 5 5 5 5 5 5 6 5 5 5 5 5 6 5 5 5 5 5 5 5 5 5 5 5 5 5 5 5 5 6 6 5 6 5 5 5 5 6 5 6 5 5 5 5 5 5 5 5 5 5 6 5 5 5 5 6 5 5 5 5 5 5 5 5 6 5 5 5 6 5 5 5 5 5 5 5 5 6 5 5 6 5 5 5 5 5 5 5 5 5 5 5 5 5 5 5 6 5 6 5 5 5 5 6 5 5 5 5 5 6 5 6 5 5 5 5 5 5 5 5 5 5 5 5 5 5 5 5 5 5 5 5 5 5 5 5 5 5 5 5 5 5 6 5 5 5 5 5 5 6 5 5 6 6 5 5 5 5 5 5 6 5 6 5 5 5 6 5 5 5 5 5 5 5 6 5 5 6 5 5 5 5 5 5 6 5 5 5 5 5 5 5 5 5 5 6 5 5 6 5 5 6 5 5 5 5 5 5 5 5 5 5 5 6 5 5 5 5 5 5 5 5 5 5 5 5 5 5 5 6 5 5 6 5 5 6 5 6 5 5 5 5 5 5 5 5 5 6 6 5 5 5 5 5 5 5 5 6 5 5 5 5 5 5 6 6 5 5 6 5 5 5 5 5 6 5 5 6 5 6 5 5 6 5 5 5 6 5 5 5 6 5 5 5 5 5 6 5 5 5 6 5 5 5 6 5 5 6 6 5 5 6 5 5 5 5 5 5 5 5 5 6 5 5 5 5 5 5 5 5 5 5 5 5 5 5 5 5 5 5 5 5 5 6 5 5 6 5 5 5 5 5 5 6 5 5 5 5 5 5 5 5 5 5 6 5 5 5 6 5 5 5 5 6 6 5 5 5 6 5 5 5 5 5 5 5 6 5 5 5 5 5 5 6 5 5 5 6 5 5 5 5 5 5 5 5 5 5 5 5 5 6 6 5 5 5 6 5 5 5 5 6 5 5 5 5 5 5 5 5 5 5 5 5 5 5 6 5 5 5 5 5 5 6 5 5 6 5 5 5 5 6 5 5 5 5 6 5 5 5 5 6 6 5 5 5 5 5 5 5 5 6 5 6 5 5 6 5 5 5 6 6 6 6 5 5 5 5 5 5 6 5 5 6 5 5 5 5 5 5 6 5 5 5 6 5 6 5 5 5 6 5 6 5 5 6 6 5 5 5 5 5 6 5 5 5 5 6 5 5 5 5 6 5 5 5 6 5 6 6 5 5 5 5 5 5 5 6 5 5 5 5 6 6 5 6 5 6 6 6 5 5 5 5 6 5 5 6 5 6 5 5 6 5 5 5 5 5 5 5 6 5 5 6 5 5 5 5 5 5 5 5 5 6 5 5 5 5 5 6 5 6 5 6 5 5 6 5 5 5 6 5 5 5 6 5 5 5 6 5 5 5 5 5 6 5 5 5 5 5 6 5 5 6 6 5 5 6 5 5 5 6 5 5 5 5 5 5 6 6 5 6 5 5 6 5 5 5 6 5 5 5 5 5 5 5 5 5 5 5 5 5 5 5 5 5 5 6 5 5 5 6 5 5 5 5 5 6 5 5 5 5 5 5 5 5 5 5 5 5 5 6 5 5 5 5 5 5 5 5 5 5 5 5 5 5 5 5 5 5 5 5 6 5 5 5 5 5 5 6 5 5 5 5 5 5 5 5 5 5 5 5 5 5 6 5 5 5 5 5 6 5 5 5 5 5 5 5 5 5 5 5 5 5 5 5 5 5 6 5 5 5 6 5 5 5 5 5 5 5 5 5 5 5 5 5 5 5 5 5 5 5 5 5 5 5 5 5 5 5 5 6 5 5 6 5 6 6 5 5 5 6 5 5 5 5 5 5 5 5 5 5 5 5 5 5 5 5 6 5 6 5 5 5 5 5 5 6 5 5 5 5 5 5 5 5 5 5 6 5 5 6 5 6 6 5 5 5 6 5 5 5 5 5 5 5 6 5 5 5 5 5 6 5 6 5 6 5 6 5 5 5 5 5 5 5 6 5 5 5 5 5 5 6 5 5 6 5 5 5 6 5 5 5 5 5 5 6 5 5 5 5 5 5 5 6 5 5 6 6 5 5 6 6 5 5 6 5 5 5 5 5 5 5 5 5 6 6 5 6 5 5 6 5 6 5 5 5 5 5 5 5 5 5 5 5 5 5 5 5 6 5 5 5 5 5 5 5 5 5 6 6 5 6 5 6 6 5 5 5 5 6 5 6 5 5 6 5 5 5 5 6 6 6 6 5 5 6 6 5 5 6 5 6 6 5 5 6 5 6 5 5 5 6 5 5 6 6 5 5 5 5 5 5 5 5 5 5 5 5 6 5 5 5 5 6 5 5 6 5 5 6 5 6 5 5 6 6 5 5 6 5 5 6 5 5 5 6 5 5 5 5 5 5 5 5 5 6 5 5 5 5 5 6 5 6 5 5 6 5 5 5 6 5 5 5 5 6 5 6 6 5 5 5 5 5 5 5 5 5 5 5 5 5 6 5 5 5 5 5 5 5 5 5 5 5 6 5 5 5 5 6 6 5 5 6 5 5 6 5 5 6 5 5 5 6 5 6 5 6 6 5 5 5 5 6 5 6 5 5 5 5 5 5 5 6 5 5 5 5 6 6 5 5 6 5 6 6 5 5 5 5 5 5 5 5 5 5 5 5 5 6 5 5 6 5 5 5 5 5 5 5 5 5 5 5 5 5 5 5 5 5 5 5 6 5 6 5 5 5 6 5 6 5 6 5 5 5 5 5 5 5 5 5 5 5 5 5 5 6 5 5 5 6 5 5 6 5 5 6 5 5 5 5 5 5 5 5 5 5 5 5 5 6 5 5 6 5 5 5 5 5 5 5 6 5 5 5 5 6 5 5 6 5 6 5 5 5 5 5 6 5 5 5 5 6 5 5 5 6 5 5 6 5 5 5 5 6 5 5 5 5 5 5 5 6 5 5 5 5 5 5 5 5 5 5 5 5 5 6 5 5 5 5 5 5 5 5 5 5 5 5 5 5 5 5 5 6 5 5 5 5 6 5 5 5 5 5 5 5 5 6 5 5 5 5 5 5 5 5 5 5 5 5 5 5 5 5 5 5 5 5 5 5 5 5 5 5 5 5 5 5 5 5 5 5 5 5 6 5 5 5 5 5 5 5 5 5 5 5 5 5 5 5 5 5 6 5 5 5 5 6 5 6 5 5 5 5 5 5 5 5 5 5 6 5 6 5 5 5 5 5 6 5 5 5 6 5 6 5 6 5 5 5 5 5 5 5 5 5 5 5 5 5 5 5 5 5 6 5 5 5 5 5 5 5 6 6 5 5 5 6 6 5 6 5 5 5 5 6 5 5 5 6 6 5 5 5 5 5 5 5 5 5 5 5 6 5 5 6 5 5 6 5 5 5 5 5 5 6 5 5 5 5 5 5 5 5 5 5 5 5 5 5 5 5 5 5 5 5 6 5 5 6 5 5 5 6 6 5 5 5 6 5 5 5 6 5 5 5 5 6 5 5 5 5 5 5 5 5 5 5 5 5 5 5 5 5 6 5 6 5 5 5 5 5 5 5 5 5 6 5 5 6 5 5 5 5 6 5 5 5 5 5 6 5 5 5 5 5 5 5 5 5 5 5 5 5 5 6 5 5 5 5 5 6 5 5 5 6 5 5 6 5 5 6 5 5 5 5 5 5 5 5 5 6 5 5 5 5 6 6 5 5 5 6 5 6 5 5 5 5 5 5 5 5 5 5 5 5 5 5 5 5 5 6 5 6 5 5 6 5 5 5 6 5 5 6 5 5 5 5 5 5 5 6 5 5 5 5 5 5 5 5 5 5 5 5 6 5 5 5 5 5 6 5 5 6 5 5 5 6 5 5 6 5 5 6 5 6 5 6 5 5 5 5 6 6 5 5 5 5 5 5 5 5 5 5 6 5 5 5 6 5 6 5 5 5 6 5 5 5 6 5 5 6 6 5 5 5 5 5 5 5 5 5 5 5 6 5 5 5 6 6 5 5 6 5 5 5 5 5 6 6 5 5 5 5 5 5 5 5 6 5 5 6 5 5 5 6 5 5 5 5 5 5 5 5 5 6 5 5 5 6 5 5 5 5 6 5 5 5 5 5 5 5 6 5 5 5 5 5 6 5 5 5 5 5 5 5 5 5 5 5 5 5 5 5 5 5 6 5 5 5 5 5 5 6 5 5 5 5 5 5 5 5 5 5 5 5 5 5 5 5 5 5 5 5 5 5 5 6 5 6 5 5 5 5 5 5 5 5 5 6 5 5 5 6 5 5 5 5 5 5 5 5 5 5 5 5 5 5 5 5 5 5 5 5 5 5 5 5 5 5 5 5 5 6 5 5 5 5 5 5 5 5 5 6 5 5 5 5 5 5 5 5 5 5 5 5 5 5 5 5 5 5 5 5 5 5 5 5 6 6 5 5 5 5 5 5 5 5 5 5 6 5 5 5 5 5 6 5 5 5 6 5 5 6 5 5 5 5 5 6 5 5 5 5 5 5 6 5 5 6 5 5 6 5 6 5 5 6 6 5 5 6 6 5 6 5 5 5 5 5 5 6 5 5 5 5 5 6 5 6 5 5 6 6 5 5 5 5 5 5 5 5 5 5 5 5 5 6 5 6 5 5 5 5 5 5 5 5 5 5 5 5 5 5 5 5 5 5 5 5 6 6 5 5 5 5 5 5 5 5 5 5 6 5 5 5 5 5 5 5 5 5 6 5 5 5 6 5 5 6 5 6 5 5 5 6 5 5 6 5 5 5 5 5 5 5 5 5 5 5 5 5 5 5 5 5 5 5 5 5 6 5 5 5 5 5 5 5 5 5 5 5 5 5 5 5 5 6 5 5 5 5 5 5 5 5 6 5 5 5 5 5 5 5 5 5 6 5 5 5 5 5 5 6 5 6 5 5 5 5 5 5 5 5 5 5 5 6 5 6 5 5 6 6 5 5 5 5 5 6 5 5 5 5 5 5 5 5 6 5 5 6 5 5 5 5 5 6 5 5 5 5 5 5 5 5 5 6 5 5 6 6 5 5 5 5 6 5 5 5 5 5 5 5 5 5 5 5 5 5 6 5 5 5 5 6 5 5 6 5 5 5 5 6 5 5 5 5 5 6 5 5 5 5 6 5 5 6 5 5 5 5 5 6 6 5 5 5 5 6 6 5 5 6 5 5 5 5 5 5 5 5 5 6 5 5 5 5 5 5 5 5 5 5 5 5 5 5 5 5 5 5 6 5 5 5 5 5 5 6 5 5 5 6 5 5 5 5 5 5 5 6 5 5 6 5 5 5 5 5 5 5 5 5 5 5 5 5 5 5 6 5 5 6 5 5 5 6 5 5 6 6 5 5 5 5 5 5 6 5 5 5 5 5 5 5 5 5 5 5 5 5 5 6 5 5 5 5 5 5 6 5 5 5 5 6 5 5 5 5 5 5 5 5 5 5 5 5 5 5 5 5 5 5 5 5 5 5 5 5 5 5 5 5 5 5 5 5 6 5 5 5 5 6 5 5 6 5 6 5 5 6 5 5 5 5 5 6 5 5 5 5 5 5 5 5 5 5 5 5 5 6 5 5 5 5 5 6 5 6 5 5 5 5 5 5 5 5 5 5 5 5 6 6 5 6 5 5 5 5 6 5 5 5 6 5 5 5 5 6 5 5 5 5 5 6 5 6 5 5 5 5 5 5 5 5 5 5 5 5 5 5 5 5 5 5 5 5 6 5 5 5 5 5 5 5 5 5 6 5 5 5 5 5 5 5 5 5 5 5 5 6 5 5 5 5 5 6 6 5 5 5 5 5 6 5 6 5 5 5 5 5 5 5 5 6 5 5 6 5 5 5 6 5 5 5 5 5 5 5 5 5 5 5 5 5 5 5 5 5 5 5 5 5 5 6 5 5 5 5 6 5 5 5 5 6 5 5 5 5 5 5 5 5 5 5 5 6 5 5 5 5 5 5 5 5 5 5 5 5 5 5 5 5 5 5 5 5 5 5 5 5 5 5 5 6 5 5 6 5 5 5 5 5 5 5 5 5 5 5 5 5 5 5 5 6 5 6 5 5 5 5 5 6 5 5 5 6 5 5 5 6 5 5 5 5 6 6 5 5 5 6 5 6 6 5 5 5 5 5 5 6 5 5 5 5 6 5 5 6 5 5 5 5 6 5 5 6 5 5 6 5 5 5 5 5 5 6 5 5 6 6 5 6 5 5 5 5 5 5 6 6 6 5 6 6 5 5 5 5 5 5 5 5 5 5 5 5 5 5 5 5 5 5 5 5 5 5 5 5 5 5 5 5 5 5 5 5 5 5 5 6 5 5 5 6 5 5 5 5 5 5 5 5 5 5 5 5 5 5 5 6 5 5 5 5 5 5 5 5 5 5 5 6 5 5 6 5 6 5 5 5 5 5 6 5 5 5 5 6 5 5 5 6 5 5 5 5 5 5 5 5 5 5 5 5 5 5 5 5 5 5 5 5 5 5 5 5 5 5 5 5 5 5 6 5 5 5 5 5 5 5 5 5 5 5 5 5 5 5 5 5 5 5 5 5 5 5 5 5 5 5 6 5 5 5 5 6 5 5 6 5 5 5 5 5 5 5 5 5 5 6 5 5 5 5 5 5 6 5 6 5 6 5 5 5 5 5 5 5 5 5 5 5 5 5 5 5 5 5 5 5 5 6 5 6 5 5 5 5 5 5 5 5 6 5 5 5 5 6 5 6 5 5 5 5 6 5 5 5 5 5 5 5 5 5 5 5 5 5 5 5 6 5 5 5 5 5 5 6 5 5 5 5 5 5 5 5 5 5 5 5 5 5 5 5 5 5 5 5 5 5 5 5 5 5 5 5 5 5 5 6 6 5 5 5 5 5 5 5 5 5 5 5 5 6 5 6 5 5 5 5 5 5 5 6 5 5 5 5 5 5 5 5 5 5 5 5 5 5 5 5 5 5 5 6 5 5 5 5 5 5 5 5 5 5 5 5 5 5 5 5 5 5 5 5 5 5 5 5 5 5 5 5 5 5 5 5 5 5 5 5 5 5 5 5 5 5 5 5 5 5 5 5 5 5 5 5 5 5 5 5 5 5 5 5 5 5 5 5 5 5 5 5 5 5 5 5 5 5 5 5 5 5 5 5 5 5 5 5 5 5 5 5 5 5 5 5 5 5 5 5 5 5 5 5 5 5 5 5 5 5 5 5 5 5 5 6 5 5 6 5 5 5 5 5 5 5 5 5 5 5 5 5 5 5 5 5 5 5 5 5 5 5 5 5 5 5 5 5 5 5 5 5 5 5 5 5 5 5 5 5 5 6 6 5 5 5 5 5 5 5 5 6 5 5 5 5 5 5 5 5 5 5 5 5 5 6 5 5 5 5 6 5 5 5 5 5 5 5 5 5 5 5 5 5 5 5 5 5 5 5 5 5 5 6 6 5 5 5 5 5 5 5 5 5 5 5 6 5 5 5 5 5 5 5 5 5 5 5 5 5 6 5 5 5 5 5 5 5 5 5 5 5 5 5 5 5 5 5 5 6 5 6 5 5 5 5 5 5 5 5 5 5 5 5 5 5 5 5 5 5 6 5 5 5 5 6 5 5 5 5 5 5 5 5 5 5 6 5 5 5 5 5 5 6 5 5 5 5 5 5 6 5 6 5 5 6 5 5 5 5 6 5 5 5 5 5 5 5 5 5 5 5 5 5 5 5 6 6 5 5 5 6 5 6 6 5 5 5 6 5 5 5 5 5 5 5 5 6 5 5 5 5 5 5 6 5 5 5 5 5 5 5 5 5 5 5 5 5 5 5 5 5 5 5 5 5 6 6 5 5 5 6 5 6 5 5 5 6 5 6 6 5 6 5 5 5 6 5 5 5 5 5 5 5 5 6 5 5 5 5 5 5 5 6 6 5 5 6 6 5 5 5 5 5 5 5 5 5 5 5 5 5 5 5 5 5 5 5 5 5 5 5 5 5 5 5 5 5 5 5 5 5 5 5 5 5 5 5 5 5 5 5 5 5 5 5 5 5 5 5 5 5 5 5 5 5 5 5 5 5 6 6 5 5 5 6 5 5 5 5 5 5 5 5 5 5 5 5 5 5 5 5 5 5 5 5 5 5 5 5 5 5 5 5 5 5 5 6 5 5 5 5 5 5 5 5 6 5 5 5 5 6 5 5 5 6 5 5 5 6 5 5 5 5 5 5 5 5 5 5 5 6 5 5 6 5 5 5 6 6 6 5 5 6 5 5 6 5 5 6 5 5 5 5 5 5 5 6 5 5 5 5 6 5 6 5 5 5 6 5 5 5 6 5 6 5 5 5 5 5 5 5 5 5 5 5 6 5 5 5 5 5 5 5 5 5 5 5 5 5 5 5 5 5 5 5 5 5 5 5 5 5 5 5 5 5 5 5 5 5 5 5 5 5 5 5 5 5 5 5 5 5 5 5 5 5 5 6 5 5 5 5 5 5 5 5 5 5 5 5 5 5 5 5 6 5 5 5 5 5 5 5 5 5 5 5 6 5 5 5 5 5 6 5 5 5 5 5 5 6 5 5 5 5 6 5 5 5 5 5 5 5 5 5 5 5 5 5 5 5 5 5 5 5 5 5 5 5 5 5 5 5 5 5 5 5 5 5 5 5 5 5 5 5 5 5 5 5 5 5 5 5 5 5 5 5 5 5 6 5 5 5 5 5 5 5 5 5 5 5 5 5 5 6 5 5 5 6 5 5 5 5 6 6 5 5 5 6 6 6 5 5 5 6 5 5 5 5 5 5 5 6 5 5 6 5 5 6 5 5 5 5 5 5 5 5 5 5 5 5 5 5 5 5 5 5 5 5 5 5 5 5 6 5 5 6 5 5 5 6 5 6 5 5 5 5 5 5 5 5 5 5 5 5 5 5 5 6 5 5 5 5 6 5 6 5 5 5 5 5 5 5 5 5 5 5 5 5 6 5 5 6 5 5 5 5 6 5 5 5 5 5 5 5 5 6 5 5 5 5 5 6 5 5 5 5 5 5 5 5 5 5 5 5 5 5 5 5 5 5 5 5 5 6 5 5 5 5 5 5 6 5 5 5 5 5 5 5 5 5 5 5 5 5 5 5 6 5 5 5 6 5 5 5 5 5 5 5 6 5 6 5 5 5 5 5 5 5 5 5 5 6 5 5 5 5 5 5 5 5 5 5 5 5 5 5 5 5 5 5 5 5 5 6 6 5 5 5 5 5 5 5 5 5 5 5 5 5 5 5 5 5 5 5 5 5 5 5 5 5 5 5 5 5 6 5 5 5 5 5 5 5 5 5 5 5 5 5 5 5 5 5 5 5 5 5 5 5 5 6 5 5 5 5 5 6 5 5 5 6 5 5 5 5 5 5 5 5 5 5 5 6 6 5 5 5 5 5 5 6 5 5 5 5 5 6 5 5 5 5 5 5 5 5 5 5 5 5 6 5 5 5 5 6 5 6 5 5 5 5 5 6 5 5 5 5 5 5 6 5 5 5 5 6 5 6 5 5 5 5 5 6 5 6 6 5 5 6 5 5 5 5 5 5 5 5 5 5 5 5 5 5 6 5 6 5 5 5 6 5 5 5 6 5 5 5 5 5 5 5 5 6 5 6 5 5 5 5 6 5 5 5 5 5 5 5 5 6 5 5 5 5 6 5 5 5 5 5 6 5 5 5 5 5 5 6 5 5 5 5 5 6 5 5 6 5 5 5 5 5 5 5 5 5 5 5 5 5 5 5 5 6 5 5 5 5 5 6 6 5 6 5 6 5 5 5 5 5 5 5 5 6 5 5 5 6 5 5 5 5 5 5 6 5 5 5 5 6 5 5 5 5 5 5 6 5 5 5 5 5 5 5 5 5 6 5 5 5 5 6 5 5 6 5 5 5 5 5 6 5 5 5 5 5 5 5 5 5 5 5 5 5 5 5 5 5 5 5 5 5 5 5 5 5 5 5 5 5 5 5 5 5 5 5 5 5 5 5 5 5 5 5 5 5 5 5 6 5 6 5 5 5 5 5 5 5 5 5 6 5 5 5 5 5 5 5 6 5 5 5 5 6 5 5 5 5 6 5 5 5 6 5 5 5 5 5 5 5 5 5 5 5 5 5 5 6 5 5 5 5 5 5 5 5 5 5 5 5 6 5 5 5 5 5 5 5 5 6 5 5 5 5 5 6 5 6 5 5 5 6 5 5 6 5 5 5 5 5 5 6 5 6 5 6 5 6 5 5 5 5 6 5 5 5 5 5 5 5 5 5 5 5 5 5 5 6 5 5 5 5 5 5 5 5 5 5 5 5 6 5 5 5 6 5 5 5 5 5 5 5 5 5 5 5 5 5 5 5 5 6 5 5 5 5 5 5 6 5 5 6 5 6 6 6 5 5 5 5 5 5 5 5 5 5 5 5 5 5 5 5 5 5 5 6 5 5 5 5 5 5 6 6 6 5 5 5 5 5 5 5 5 5 5 6 5 5 5 5 5 5 6 5 5 5 5 6 5 5 5 6 5 5 5 5 6 5 5 6 5 6 5 5 5 5 5 5 5 5 5 5 5 5 5 5 6 6 5 5 5 5 5 5 5 5 5 5 5 5 5 5 5 5 5 5 5 5 5 5 5 5 5 5 6 5 6 5 5 5 5 5 5 5 5 5 5 5 5 6 5 5 5 5 5 5 6 5 5 5 5 5 5 6 5 5 5 5 6 5 5 5 5 5 5 5 6 5 6 5 5 5 5 5 6 5 6 5 5 5 5 6 5 5 6 5 6 6 5 6 6 5 6 5 6 5 5 5 6 5 5 5 6 6 5 5 5 6 5 6 5 5 6 5 6 5 5 5 5 6 5 5 5 5 6 6 5 5 5 6 6 5 5 5 5 6 5 5 5 5 5 6 5 5 5 5 5 5 5 6 5 5 5 6 6 6 6 5 5 5 5 6 5 5 5 5 5 5 5 5 5 5 5 5 5 5 5 5 5 5 5 5 5 5 5 5 6 5 5 6 5 5 5 5 5 5 5 6 5 6 5 5 5 6 5 5 5 5 5 5 5 5 5 5 5 5 6 5 5 6 5 6 5 5 5 5 5 6 6 5 5 5 6 5 5 5 6 6 5 6 5 5 5 5 5 6 5 5 5 5 6 5 5 5 5 6 5 5 5 5 5 5 5 5 5 5 5 5 5 5 5 5 5 5 5 5 5 6 5 5 5 5 6 5 5 6 5 5 5 5 5 5 5 6 5 5 5 5 5 6 5 5 5 5 6 6 5 5 5 5 5 5 6 5 5 6 5 5 5 6 5 5 5 5 5 5 6 5 5 5 5 5 6 5 5 5 5 5 6 5 6 5 5 5 5 5 6 5 5 5 5 5 5 5 5 6 5 5 5 5 5 5 5 5 5 5 5 5 5 5 5 5 5 5 5 5 6 5 5 5 6 6 5 6 5 5 5 5 5 5 5 5 5 5 5 5 6 5 5 5 5 6 5 5 5 5 6 5 5 5 5 5 5 5 5 5 5 5 5 5 5 5 5 5 5 5 5 5 6 5 6 5 5 5 5 5 5 5 6 5 5 5 5 5 5 5 5 5 5 5 5 5 5 5 5 5 5 6 5 5 5 5 5 5 5 5 6 5 5 5 5 6 5 5 5 5 5 5 5 5 5 5 5 5 5 5 5 5 5 6 5 5 6 5 6 5 5 5 5 5 5 5 5 6 5 5 6 5 6 5 5 5 5 5 5 5 5 5 5 5 5 5 5 6 5 5 5 5 5 5 5 5 5 5 5 5 6 5 5 5 5 5 5 6 6 5 5 5 5 5 6 5 6 5 6 5 6 6 5 5 5 5 5 6 5 5 5 5 6 5 5 6 5 5 5 5 5 5 5 5 5 5 5 5 6 5 6 5 5 5 5 5 5 5 6 5 6 5 5 5 6 5 5 5 5 5 5 5 5 5 5 5 5 6 5 5 5 5 6 5 5 5 5 5 6 5 6 5 5 5 6 5 5 5 6 5 6 5 5 5 5 6 5 5 6 6 5 5 5 5 5 5 6 5 5 5 5 6 5 5 6 5 5 5 6 5 5 5 6 5 6 5 5 6 6 5 5 5 5 5 6 5 5 5 5 6 5 5 5 6 5 5 5 5 6 5 5 6 5 5 5 5 5 6 5 5 5 5 5 5 5 5 5 5 5 5 5 5 5 6 5 6 5 5 5 6 5 5 6 5 6 5 5 5 5 5 5 5 5 5 6 5 5 5 5 5 5 5 5 5 5 5 5 5 5 5 5 5 5 5 5 5 5 6 5 5 5 5 5 5 5 6 5 6 5 5 6 5 6 5 6 6 5 5 5 6 5 5 5 5 5 5 5 5 5 5 6 5 5 5 5 5 5 6 5 5 5 5 5 5 5 5 5 5 6 5 5 6 5 6 6 5 5 5 5 5 5 6 5 6 5 5 5 5 6 5 5 5 5 6 6 5 5 5 5 5 5 6 5 5 5 6 5 5 5 5 5 5 5 5 5 5 5 5 5 5 5 5 6 6 5 6 5 5 5 5 5 5 6 6 5 5 5 5 5 6 5 5 5 5 5 5 5 5 5 6 5 5 5 5 5 5 5 5 5 5 5 5 5 5 5 5 5 6 5 5 5 5 5 5 5 5 5 5 5 6 6 5 5 5 5 5 6 5 5 5 6 5 6 5 5 5 5 5 5 5 5 6 5 5 5 5 6 6 5 5 5 5 5 6 5 5 5 6 5 5 5 5 6 5 6 5 5 5 6 6 5 6 6 5 6 5 5 5 6 5 6 5 5 5 5 5 5 5 5 6 5 5 5 5 5 5 5 5 5 5 5 6 5 5 5 5 5 5 6 5 5 5 5 5 5 6 5 5 5 5 5 5 6 5 6 5 5 6 5 5 5 5 5 5 5 5 5 6 5 5 6 5 5 6 5 6 5 5 5 5 5 6 5 5 6 5 5 5 5 5 5 5 6 5 5 5 6 5 5 5 5 5 5 5 5 5 5 5 5 5 5 5 5 5 5 5 6 5 5 6 5 5 5 6 5 5 5 5 5 5 5 6 5 5 5 5 5 5 5 5 5 5 5 5 6 5 5 5 5 5 5 5 5 5 5 6 5 5 5 5 6 5 5 5 5 6 5 5 5 6 6 5 5 6 5 5 5 5 5 5 5 5 6 5 5 6 5 5 5 5 5 5 5 6 5 5 5 6 5 5 5 5 5 5 5 5 5 5 5 5 5 5 5 5 5 5 5 6 5 5 5 5 5 5 5 5 5 5 5 5 5 5 5 5 5 5 6 5 5 5 5 5 5 5 5 6 5 6 5 5 5 5 5 5 5 5 5 6 5 5 5 5 5 5 5 5 6 5 5 5 5 5 5 5 5 5 5 6 5 5 6 5 5 6 5 5 5 5 5 6 5 5 5 5 5 5 6 6 5 5 6 6 5 6 5 6 5 5 6 5 6 5 5 5 5 6 5 5 5 6 5 5 6 5 5 5 5 6 5 5 5 5 5 5 5 5 5 6 5 5 5 5 5 5 5 5 5 5 5 6 5 5 5 5 6 5 5 5 6 5 5 5 5 5 5 5 6 5 5 6 5 5 5 5 6 5 6 5 5 5 5 5 5 5 5 5 5 5 5 5 5 5 5 5 5 5 5 5 5 5 5 5 5 5 5 5 5 5 5 5 5 5 5 6 6 5 5 6 5 5 5 5 5 5 5 5 5 5 5 5 5 6 5 5 5 5 5 5 5 6 5 5 5 5 6 6 5 5 5 5 5 6 6 5 5 6 5 5 5 5 5 5 5 6 5 5 6 5 5 5 6 5 5 5 6 5 6 5 6 6 5 5 6 5 5 5 5 5 5 5 6 5 5 5 5 5 6 6 6 5 5 6 5 5 5 5 6 5 5 5 5 5 5 5 6 5 5 5 5 5 5 5 5 5 5 5 5 5 5 5 6 5 5 6 5 5 5 5 5 6 5 5 5 5 5 5 5 5 5 5 5 5 6 5 5 5 5 5 6 5 5 5 5 5 5 6 5 5 5 6 6 6 6 5 5 5 5 5 5 5 6 6 6 5 6 5 6 5 5 5 5 5 5 5 5 5 5 5 5 5 5 5 5 5 6 5 5 5 5 5 5 5 5 6 5 5 5 5 6 5 5 5 5 5 6 5 5 6 5 6 5 5 5 5 6 5 5 5 5 5 5 5 5 5 6 5 5 5 5 5 5 5 5 5 5 5 5 5 5 5 6 5 5 5 5 6 5 5 5 6 5 6 5 6 5 5 5 5 5 5 5 5 5 6 5 5 5 5 5 5 5 5 6 6 6 5 5 6 5 5 5 6 5 5 5 6 5 5 5 6 5 5 5 5 5 5 5 6 5 5 6 5 5 5 6 5 6 5 5 5 5 6 5 5 5 5 5 6 5 5 5 5 6 5 5 5 6 6 5 5 5 5 5 5 5 5 5 5 5 5 5 5 5 5 5 5 6 5 5 5 6 5 6 5 5 6 5 5 5 6 5 5 5 5 5 5 5 5 6 5 5 5 5 5 5 6 5 5 6 6 5 6 5 5 5 5 5 5 5 5 5 5 5 5 5 5 5 5 6 5 5 5 5 5 5 5 6 5 5 5 6 5 5 5 6 5 5 6 5 5 5 5 5 5 5 5 5 5 5 5 5 5 5 5 5 5 5 5 5 6 5 5 5 5 5 5 5 5 5 5 5 5 5 5 5 5 5 5 5 5 5 5 5 5 5 5 5 5 5 5 5 5 6 6 5 5 5 5 5 5 5 5 5 5 5 5 5 5 6 5 5 5 5 5 5 5 5 6 5 5 5 5 5 5 5 5 6 5 5 5 6 5 5 5 5 5 5 5 5 5 5 5 5 5 5 5 5 5 5 5 5 5 5 5 6 5 5 5 6 5 5 5 5 5 5 5 5 5 5 5 5 5 5 5 5 5 5 5 5 5 5 5 5 6 5 5 5 5 5 5 5 5 5 5 6 5 5 5 6 5 5 5 5 6 5 5 5 5 5 5 5 5 6 5 5 5 6 5 5 5 5 6 5 5 6 5 6 5 6 5 5 5 5 5 5 6 5 5 5 5 6 5 5 5 6 5 5 5 5 5 6 5 5 5 5 5 5 5 5 5 5 5 5 5 5 5 6 5 5 5 6 5 5 6 5 5 6 5 5 5 5 5 5 5 5 5 6 5 5 5 5 5 5 5 5 5 6 5 5 5 5 5 5 5 6 5 5 5 6 5 5 5 5 5 5 5 5 5 5 5 5 5 5 5 5 5 5 5 5 6 5 5 5 5 5 5 5 5 5 5 6 5 5 5 5 5 5 5 5 6 5 5 5 5 5 6 5 5 5 5 5 5 5 5 5 5 6 5 5 6 5 5 6 5 5 5 5 5 6 5 5 5 5 6 5 5 6 5 5 5 5 5 5 6 5 5 5 5 5 5 6 5 5 5 6 5 6 5 5 5 5 5 5 5 5 5 5 5 5 6 5 5 6 5 5 5 5 5 5 5 5 6 5 5 5 5 5 5 5 5 5 5 5 5 6 5 6 5 5 5 5 5 5 5 5 5 6 5 5 5 5 5 5 5 5 5 5 5 5 5 5 6 5 5 5 5 5 5 5 5 6 5 6 5 5 5 5 6 5 5 5 6 5 5 5 5 5 5 6 5 5 6 5 5 5 5 6 5 6 5 5 5 5 5 5 5 5 5 5 5 5 5 5 5 5 5 5 5 5 5 5 5 5 5 5 5 5 5 5 5 5 5 5 5 5 5 5 6 5 5 5 5 5 6 5 5 5 5 5 6 5 5 6 5 5 5 5 5 5 5 5 5 5 6 5 5 6 5 5 5 5 5 5 5 5 5 5 5 5 5 5 6 5 5 5 5 5 5 5 5 5 5 5 6 5 6 6 5 5 5 5 5 5 5 6 5 5 5 6 6 5 6 5 5 5 5 6 5 5 5 5 5 5 5 5 6 5 5 5 5 5 5 5 5 5 5 6 5 5 5 5 5 5 5 5 5 5 5 5 6 5 5 5 5 5 5 6 6 5 5 5 5 5 5 5 5 5 5 5 5 5 5 5 6 6 5 5 5 5 5 5 5 5 5 6 5 5 5 5 5 5 6 5 6 5 6 5 5 5 5 6 5 5 6 5 5 5 5 5 5 5 5 5 5 5 5 6 5 5 5 6 5 5 5 5 5 5 5 5 5 5 5 6 5 5 5 6 5 5 5 6 5 5 5 5 5 5 5 6 5 5 5 5 5 5 5 5 5 5 5 5 5 5 5 5 5 5 5 5 5 5 5 5 6 5 5 5 5 5 5 6 6 5 5 5 6 5 5 5 5 5 5 5 5 5 5 5 5 5 5 5 5 5 5 5 5 5 5 5 5 6 5 5 5 6 6 5 5 6 5 6 5 5 6 5 5 5 6 6 5 5 5 6 5 5 5 5 5 5 5 5 5 5 5 5 5 5 5 5 5 5 5 5 5 5 5 5 5 6 5 5 5 5 5 5 5 5 5 5 5 5 5 5 5 5 5 5 6 5 5 6 5 6 5 5 5 5 5 5 5 5 5 5 6 5 5 5 5 5 5 5 5 5 5 5 5 5 5 5 5 5 5 5 5 5 5 5 5 5 5 5 5 5 5 5 5 5 5 5 5 5 6 5 5 5 5 5 6 5 5 5 5 5 5 5 5 5 5 5 5 5 5 5 5 5 5 6 5 5 5 5 5 5 5 5 5 5 5 5 5 5 5 5 5 5 5 5 5 6 5 5 5 6 5 5 5 5 5 5 5 5 5 5 5 5 5 6 5 5 5 5 5 5 5 5 5 5 5 5 5 5 5 5 5 5 5 5 5 5 5 5 5 5 5 6 5 5 5 5 6 5 5 6 5 5 5 6 6 5 5 5 5 6 5 5 5 5 6 6 5 5 6 5 5 5 6 5 6 5 5 5 5 6 5 5 5 5 5 6 6 5 5 6 5 6 5 5 5 5 6 5 6 5 5 5 6 5 5 5 5 6 6 6 5 5 6 5 5 5 5 5 5 5 5 5 5 5 5 5 5 5 5 6 5 5 5 5 5 5 5 5 5 5 5 5 6 5 5 5 5 5 5 5 5 5 6 5 5 5 5 5 5 5 5 5 5 5 5 5 6 5 5 5 5 5 5 5 5 5 6 5 5 6 5 5 5 5 5 5 5 5 5 6 5 5 5 5 5 5 6 6 6 5 5 6 5 5 5 5 5 5 5 6 5 5 5 5 5 5 5 5 5 5 6 5 6 5 6 5 6 5 6 5 5 5 6 6 5 6 5 6 6 5 5 5 5 6 5 5 6 6 5 5 5 5 5 5 5 6 6 5 6 5 5 5 5 5 5 5 5 5 5 5 5 5 5 5 5 5 5 5 5 6 5 5 5 5 5 5 5 5 5 6 5 5 5 5 5 5 5 5 6 6 5 5 5 5 5 5 5 5 5 5 5 5 6 5 5 5 5 5 5 5 5 5 5 5 5 5 6 5 5 5 6 5 5 5 5 5 5 5 6 5 5 5 5 5 5 5 5 5 6 5 6 5 5 6 5 5 5 5 5 5 5 5 5 5 5 5 5 5 5 5 5 5 5 5 5 5 5 6 5 5 5 5 5 5 6 5 5 5 5 6 5 5 6 5 5 5 5 5 5 5 5 5 5 5 6 5 5 5 5 5 5 5 5 6 6 5 5 5 5 5 5 5 6 5 5 6 5 5 5 5 6 5 5 5 5 5 5 6 5 5 5 5 5 5 6 5 5 5 5 5 5 6 5 5 5 6 5 5 6 5 5 5 5 5 5 5 5 5 6 5 5 5 5 5 5 5 6 5 6 6 5 5 6 5 5 5 5 5 5 5 5 5 5 5 5 6 5 6 5 5 5 6 5 5 5 5 6 5 6 5 6 5 5 5 5 6 5 5 6 5 5 5 6 6 5 5 5 5 5 6 5 5 6 5 5 5 5 5 5 5 5 5 5 5 5 5 5 5 5 5 5 6 5 5 5 5 5 5 6 5 5 5 5 5 5 5 5 6 5 5 5 5 5 6 5 5 5 5 6 5 5 5 5 5 5 5 5 5 5 6 5 5 5 5 5 5 5 5 5 6 5 5 5 5 6 6 5 5 5 5 5 5 5 5 5 5 5 5 5 5 5 6 5 5 5 5 6 5 5 5 5 5 5 5 6 5 5 5 5 5 5 5 5 5 5 5 5 5 5 5 6 5 5 5 5 6 5 5 5 6 5 5 5 5 5 6 5 6 6 6 5 5 5 5 6 6 5 5 5 6 5 5 5 5 5 5 5 5 5 5 5 5 5 5 5 5 5 5 6 5 5 5 5 5 5 5 5 5 5 5 5 5 5 5 6 6 5 5 5 5 5 5 5 5 6 5 5 6 6 5 5 5 5 5 5 5 6 5 5 5 5 5 5 5 5 5 5 6 5 5 6 5 6 6 5 6 6 5 5 5 5 5 5 5 5 5 6 5 5 5 6 5 5 5 6 5 6 5 5 5 5 6 5 5 5 5 5 5 5 5 6 5 5 5 5 6 5 5 6 6 5 5 5 5 5 5 5 5 5 5 5 5 5 5 5 5 5 5 5 5 5 5 5 5 5 6 6 6 5 5 6 5 5 5 5 5 6 5 5 5 5 5 5 5 5 5 6 5 6 5 5 5 5 5 5 5 6 5 6 5 6 5 5 5 5 5 5 5 5 5 6 5 5 5 5 5 5 6 5 5 5 5 5 5 5 5 5 5 5 5 5 5 5 5 6 5 5 6 5 5 5 5 5 5 5 5 5 6 5 5 5 6 6 6 5 5 5 6 5 5 6 5 6 5 5 5 5 5 5 5 5 5 5 5 5 5 5 5 5 5 5 6 5 5 5 6 5 5 6 6 5 6 5 5 5 6 5 5 5 5 5 5 5 5 5 5 6 5 5 5 5 6 5 5 5 5 5 5 5 5 5 5 5 5 5 5 5 5 5 5 5 5 5 5 5 5 5 5 5 5 6 5 5 5 5 5 5 5 5 5 5 6 5 6 5 5 5 5 5 5 6 5 5 5 5 5 5 5 5 5 5 5 5 5 5 5 5 6 5 5 5 5 5 5 5 6 5 5 5 5 5 5 5 5 5 6 5 5 5 5 5 5 5 5 5 5 5 5 5 5 5 6 5 5 5 5 5 5 5 5 5 5 5 6 5 5 5 5 5 5 5 6 6 5 5 5 5 5 5 5 5 6 6 5 5 5 5 5 5 5 5 5 5 5 5 5 5 5 5 6 5 5 5 5 5 5 5 5 5 6 5 5 5 5 5 5 5 5 5 5 5 5 5 5 5 5 5 5 5 5 5 5 5 5 5 5 5 5 5 5 5 5 5 5 5 5 5 5 5 5 5 5 5 5 5 5 5 5 5 5 5 5 5 5 5 5 5 5 5 5 5 5 5 5 5 5 5 5 5 5 5 5 5 5 5 5 5 5 5 5 5 5 5 5 5 5 5 5 5 5 5 5 5 5 5 5 6 5 5 5 5 5 5 5 5 5 6 5 5 5 6 5 5 5 5 5 5 5 5 5 6 5 5 5 5 5 5 5 5 5 6 5 5 6 5 6 6 5 6 5 5 6 5 5 5 5 5 5 5 5 5 5 5 5 5 6 6 5 6 5 5 5 6 5 5 5 5 6 5 5 5 5 5 5 5 5 5 5 5 5 5 5 5 5 6 6 5 5 5 5 5 5 5 6 5 5 5 5 5 5 5 5 5 6 5 5 5 5 5 5 5 5 5 6 5 5 5 5 5 5 5 5 5 5 6 5 5 6 6 5 6 5 5 5 5 5 5 5 5 6 5 5 5 5 5 5 5 5 5 5 5 5 5 
</DataArray>
<DataArray type="Float64" Name="stress" NumberOfComponents="9" format="ascii">
5442.2242958762008 -6.0923752005717819 0 -6.0923752005717819 0.0085544652392299178 0 0 0 0 4326.1875100503967 -495.27757137262063 0 -495.27757137262063 -205.3035728976964 0 0 0 0 1.302011825165323 -1.7144860374272497 0 -1.7144860374272497 -0.0026441165000172014 0 0 0 0 4030.5916690381564 -846.89953544640639 0 -846.89953544640639 -301.21733014513597 0 0 0 0 3524.1383439324563 -789.42347416325879 0 -789.42347416325879 -224.91289609965344 0 0 0 0 5489.5193706705759 -713.64617253865606 0 -713.64617253865606 -712.18705156669785 0 0 0 0 4463.6325833245937 -1161.3232967419685 0 -1161.3232967419685 -722.60522596802434 0 0 0 0 5501.0393217986712 -1465.8051638966215 0 -1465.8051638966215 -730.71378518077302 0 0 0 0 3629.9751079436537 -1276.5210454142225 0 -1276.5210454142225 -122.36757347642799 0 0 0 0 4349.4018001965887 -857.25317261571809 0 -857.25317261571809 -373.45965532769861 0 0 0 0 4093.5367197532178 -1684.1415353162849 0 -1684.1415353162849 -47.213669315511481 0 0 0 0 4083.1939083216857 -1852.2120647729278 0 -1852.2120647729278 -503.22638991572586 0 0 0 0 1130.7863627802872 -772.59709073023691 0 -772.59709073023691 484.85503524210662 0 0 0 0 2124.3000417966978 -840.29201667056122 0 -840.29201667056122 137.15095314154576 0 0 0 0 2035.2022859866556 -951.07047720749927 0 -951.07047720749927 310.10499664525463 0 0 0 0 2981.0075436612096 -1161.4986104858731 0 -1161.4986104858731 -103.55092335049358 0 0 0 0 2875.0334802506259 -1288.2714408781194 0 -1288.2714408781194 208.8909366004082 0 0 0 0 2832.7971367162972 -759.06020723554138 0 -759.06020723554138 -33.487367544595031 0 0 0 0 2198.8048646936295 -651.78275832184772 0 -651.78275832184772 75.910329378711026 0 0 0 0 2405.716217253299 -1036.2073767509366 0 -1036.2073767509366 151.75038082368599 0 0 0 0 2405.8350506668121 -726.29400791733053 0 -726.29400791733053 15.763223611459466 0 0 0 0 3430.2571035051078 -903.96811962311745 0 -903.96811962311745 -68.721718492752274 0 0 0 0 3321.5958775217077 -416.97587863922161 0 -416.97587863922161 0.81686511245741666 0 0 0 0 2407.9949968449218 -706.42997718325421 0 -706.42997718325421 161.05864369439558 0 0 0 0 1672.9714163892495 -315.11022059738264 0 -315.11022059738264 0.23632386456782642 0 0 0 0 1432.7061162345344 -532.44231104187827 0 -532.44231104187827 112.75481252152122 0 0 0 0 1244.9655928808497 -194.27920422803516 0 -194.27920422803516 212.26443258813936 0 0 0 0 1089.1917257225723 -352.02719042488695 0 -352.02719042488695 279.58520591671163 0 0 0 0 1533.9773972441617 -534.55161901927363 0 -534.55161901927363 221.3552178422035 0 0 0 0 1523.0862655618694 -560.91504138638743 0 -560.91504138638743 205.45790809780357 0 0 0 0 508.15463826814084 -510.88600071885298 0 -510.88600071885298 189.42840476331799 0 0 0 0 381.27557431349851 -225.98404038855745 0 -225.98404038855745 37.089402734487351 0 0 0 0 626.62430089851841 -365.10471568038997 0 -365.10471568038997 114.12811397346019 0 0 0 0 1184.0479985554048 -259.94297764072064 0 -259.94297764072064 -0.11468654448444071 0 0 0 0 260.44745540217264 -645.41019035275406 0 -645.41019035275406 344.09494602689324 0 0 0 0 1368.862770408814 -272.80461817275648 0 -272.80461817275648 66.924037443592681 0 0 0 0 732.27804636722431 -739.69347384750358 0 -739.69347384750358 209.96729101096128 0 0 0 0 365.42876655800501 -417.77045955317766 0 -417.77045955317766 284.30516682790153 0 0 0 0 260.66034090140602 -303.79183895469112 0 -303.79183895469112 155.36396077964497 0 0 0 0 -188.40182728218497 -421.48319857492663 0 -421.48319857492663 434.23689165708424 0 0 0 0 10.502724793475522 7.9279645287113283 0 7.9279645287113283 5.6633426815358971 0 0 0 0 -81.529585801541543 9.1305545825416807 0 9.1305545825416807 175.83487729304278 0 0 0 0 512.98015956673771 -123.11035915407001 0 -123.11035915407001 -38.3464660573527 0 0 0 0 18.886211527979128 6.808005812255999 0 6.808005812255999 -12.646599639438147 0 0 0 0 504.26246663427446 -100.30166947075713 0 -100.30166947075713 17.045427631392158 0 0 0 0 12.440444286397934 13.739867152416764 0 13.739867152416764 14.713641256587032 0 0 0 0 1.0126478562935404 -0.10424244711262531 0 -0.10424244711262531 -1.2780571962075378 0 0 0 0 -15.807476166402921 -26.94000388186646 0 -26.94000388186646 -20.737996705191108 0 0 0 0 1197.5447597111342 116.30740421926521 0 116.30740421926521 232.23434857856182 0 0 0 0 63.288994014583295 251.14070934793881 0 251.14070934793881 271.60563322486314 0 0 0 0 329.71500460337847 -78.430627601809192 0 -78.430627601809192 -11.952199323677632 0 0 0 0 51.430778077915704 9.1118878661589804 0 9.1118878661589804 17.229820074117544 0 0 0 0 469.82189413817832 -109.96674358236942 0 -109.96674358236942 -400.88708690117164 0 0 0 0 7.1996071774992743 49.73305898070106 0 49.73305898070106 -0.085626172166318071 0 0 0 0 249.8360979567957 -22.841969348208892 0 -22.841969348208892 -39.29595039776455 0 0 0 0 174.50122887107136 -56.008040710348723 0 -56.008040710348723 -12.816721465309456 0 0 0 0 155.78435330459615 -65.595652226640595 0 -65.595652226640595 -17.727849362758207 0 0 0 0 313.91932684784479 -54.025475178554188 0 -54.025475178554188 51.553640338202058 0 0 0 0 102.63604290817875 18.733927928084682 0 18.733927928084682 -33.413412839658051 0 0 0 0 669.89139521832112 -575.72707046549067 0 -575.72707046549067 379.57751254492871 0 0 0 0 1338.7580590759171 -717.82601074525792 0 -717.82601074525792 146.88179036904086 0 0 0 0 1343.3806360708841 -688.99578999029745 0 -688.99578999029745 311.75860202432665 0 0 0 0 6.5607068391869348 2.82342870908289 0 2.82342870908289 1.3775895810706245 0 0 0 0 998.08927096639673 -962.85968398280625 0 -962.85968398280625 622.89092820927817 0 0 0 0 697.10396058662445 -13.62756463327338 0 -13.62756463327338 256.41799002587186 0 0 0 0 1007.435023439175 -228.02762791740133 0 -228.02762791740133 125.93088609556889 0 0 0 0 690.90757785935421 -201.93975386215425 0 -201.93975386215425 292.32353775084448 0 0 0 0 621.94066338450648 -415.48004617621427 0 -415.48004617621427 46.160560101974625 0 0 0 0 782.14176934218267 -215.98524016252213 0 -215.98524016252213 -176.20200081179973 0 0 0 0 357.55612627696246 -310.1604926440441 0 -310.1604926440441 261.1973831678597 0 0 0 0 145.22592929087114 -61.644574773450586 0 -61.644574773450586 166.4913210972968 0 0 0 0 1154.7170865057706 -371.29227853789507 0 -371.29227853789507 -1.3111109800229315 0 0 0 0 867.29624304769095 -438.77919573293275 0 -438.77919573293275 228.70136389430081 0 0 0 0 15.416955333778446 9.5958361879040694 0 9.5958361879040694 6.4689127407092384 0 0 0 0 1123.8467929389153 -423.42300684552259 0 -423.42300684552259 295.57802093458145 0 0 0 0 1021.2267907018249 -783.4531907458163 0 -783.4531907458163 299.7093177763727 0 0 0 0 801.06129084157874 -554.4838204206917 0 -554.4838204206917 486.04647924925212 0 0 0 0 411.88931645915727 -494.73889935008356 0 -494.73889935008356 610.0499660931132 0 0 0 0 512.23115989071084 -96.160049536195402 0 -96.160049536195402 128.48860121094867 0 0 0 0 240.06280347757274 146.28141154326659 0 146.28141154326659 -288.87932142062346 0 0 0 0 464.94960379810072 -113.24008115631932 0 -113.24008115631932 196.88647715569374 0 0 0 0 63.89687063679321 51.24082556961126 0 51.24082556961126 18.628877612592873 0 0 0 0 115.93712727541552 40.091386216397098 0 40.091386216397098 -97.896725120536587 0 0 0 0 933.43559748827829 -642.35339566214134 0 -642.35339566214134 -72.200266112547979 0 0 0 0 -267.85387687692128 62.839504912923076 0 62.839504912923076 169.53521480500604 0 0 0 0 8.2356245318173649 8.7734108605604462 0 8.7734108605604462 -7.3988242205253769 0 0 0 0 884.78115573554533 -631.2249145080259 0 -631.2249145080259 430.88997730722713 0 0 0 0 -17.316116917456384 385.55387123090713 0 385.55387123090713 -390.51659452907188 0 0 0 0 50.613741816166964 26.407421319389627 0 26.407421319389627 12.906560547394115 0 0 0 0 150.83401293537986 -22.849964335016239 0 -22.849964335016239 -2.5391502909305919 0 0 0 0 181.85675739928047 2.928553788039153 0 2.928553788039153 -80.427284293069533 0 0 0 0 514.70187271654868 -202.89364536605171 0 -202.89364536605171 16.436188998698412 0 0 0 0 55.025198140733295 -9.4151083079321154 0 -9.4151083079321154 -3.7666157861371943 0 0 0 0 172.63198158161686 40.007630940770468 0 40.007630940770468 -225.71586564181052 0 0 0 0 520.03073383688752 -86.086929713911559 0 -86.086929713911559 228.81604253481055 0 0 0 0 224.84491493295354 -103.30147674796535 0 -103.30147674796535 -283.37679462848337 0 0 0 0 -145.44824015140421 809.22202671608386 0 809.22202671608386 -292.46888880835832 0 0 0 0 -202.33757113198226 143.54230585953155 0 143.54230585953155 -195.41637315565822 0 0 0 0 238.1008824886303 -108.45526627891923 0 -108.45526627891923 -124.97930271249788 0 0 0 0 219.38210719729977 -78.428485911538246 0 -78.428485911538246 -164.85407873613804 0 0 0 0 231.50740662539465 -274.92997450470693 0 -274.92997450470693 90.772548871993422 0 0 0 0 437.88554252657195 -176.95955581993712 0 -176.95955581993712 -169.98900248111386 0 0 0 0 363.28553574121179 -167.79964690368115 0 -167.79964690368115 171.38658925174423 0 0 0 0 780.92923623890965 -35.864691854822013 0 -35.864691854822013 -311.50735491078103 0 0 0 0 612.3611178041192 731.98450809953067 0 731.98450809953067 -555.72537771457064 0 0 0 0 1571.2677077964327 -435.10048437353908 0 -435.10048437353908 -119.11645764348668 0 0 0 0 6.2448006060986785 6.809334972539574 0 6.809334972539574 3.2270108635163766 0 0 0 0 1162.6540047129238 161.8742998963844 0 161.8742998963844 101.26547957235709 0 0 0 0 267.4208869622671 -70.408575617390397 0 -70.408575617390397 91.589947283085991 0 0 0 0 445.91207094034326 -324.94832691693205 0 -324.94832691693205 78.103134475007209 0 0 0 0 -59.504915242301649 116.57483189127834 0 116.57483189127834 145.07005170901357 0 0 0 0 311.14681865006423 210.3846497326474 0 210.3846497326474 -366.19906918004926 0 0 0 0 124.84679605939891 62.346238133497536 0 62.346238133497536 -467.46174726824756 0 0 0 0 393.20635991809831 -125.75844651686839 0 -125.75844651686839 -261.66580128695296 0 0 0 0 77.413939237805778 64.303408615349667 0 64.303408615349667 -83.494127905327886 0 0 0 0 981.78798670499236 -293.90613872737595 0 -293.90613872737595 674.09874335942368 0 0 0 0 -979.12346243759384 325.30632886385411 0 325.30632886385411 -45.855900451909292 0 0 0 0 -1023.3742113227208 625.88677257171867 0 625.88677257171867 -187.90544600558678 0 0 0 0 5.5071076395293659 3.1024948838440309 0 3.1024948838440309 -2.5022979586772536 0 0 0 0 898.8757872262504 -1045.5424737892536 0 -1045.5424737892536 -238.16738949377213 0 0 0 0 -621.98907605987915 291.48283110723332 0 291.48283110723332 -249.79949417636726 0 0 0 0 -712.83267514615727 563.57658857667047 0 563.57658857667047 -354.7841040728099 0 0 0 0 321.5524464619084 -112.58813557097528 0 -112.58813557097528 -39.282763398843599 0 0 0 0 84.977024588956553 72.341488363729056 0 72.341488363729056 -64.11337928981726 0 0 0 0 1398.2099175761577 569.43890301233841 0 569.43890301233841 -90.800711613621388 0 0 0 0 325.52007509375107 174.84639229379809 0 174.84639229379809 -125.97341814261881 0 0 0 0 20.242341665667482 253.29819901246265 0 253.29819901246265 -74.68992394484485 0 0 0 0 -87.372612369028502 625.42774975834709 0 625.42774975834709 -440.116656186412 0 0 0 0 0.78275169698099489 361.77922476086587 0 361.77922476086587 -258.27886978987226 0 0 0 0 -43.396878198022023 14.400441404650337 0 14.400441404650337 -222.90132921147597 0 0 0 0 -457.4564875800279 331.39266756317556 0 331.39266756317556 -157.96447443719808 0 0 0 0 999.3214502929186 -1311.9348693550573 0 -1311.9348693550573 1343.1353572584358 0 0 0 0 17.139155073559493 8.9413080146032513 0 8.9413080146032513 4.5860699142667443 0 0 0 0 -438.40265373676084 7.473485834974781 0 7.473485834974781 -131.56938372013792 0 0 0 0 2694.9182699661178 -385.41841099255817 0 -385.41841099255817 -961.01504882565405 0 0 0 0 20.112029275874818 19.952999231252193 0 19.952999231252193 20.274547585657388 0 0 0 0 666.97479847926661 -817.03364934071806 0 -817.03364934071806 1216.6344008313176 0 0 0 0 749.17187736422056 -1276.6586893090725 0 -1276.6586893090725 1633.1122424978566 0 0 0 0 881.93169082081295 -1698.9347329443685 0 -1698.9347329443685 1035.6079417957071 0 0 0 0 509.62089911536896 -1484.0761714551272 0 -1484.0761714551272 1473.8548492848249 0 0 0 0 -581.1825660134491 -1400.4278086559561 0 -1400.4278086559561 2500.8165289794961 0 0 0 0 466.25082219776232 387.40220211114138 0 387.40220211114138 -571.24809689524864 0 0 0 0 996.94787933837506 17.762584338411216 0 17.762584338411216 -351.51989120825601 0 0 0 0 366.15158172877273 11.116750911561212 0 11.116750911561212 -139.72218516356133 0 0 0 0 584.9436351385375 127.73642399662549 0 127.73642399662549 320.52748508656464 0 0 0 0 225.13584815378999 -389.88593621575728 0 -389.88593621575728 1562.2148050088676 0 0 0 0 -164.68522808392663 102.75423166450025 0 102.75423166450025 103.2556664908625 0 0 0 0 24.390883615101927 -1.6185710549207215 0 -1.6185710549207215 10.333795707319894 0 0 0 0 630.79593409236986 -2005.0274192384159 0 -2005.0274192384159 4853.2001971946856 0 0 0 0 5434.149627797713 1800.469369899899 0 1800.469369899899 649.35749131772013 0 0 0 0 29.024237316740653 -18.154746709836928 0 -18.154746709836928 19.443814106942487 0 0 0 0 5488.7728378201573 -4223.1467013617721 0 -4223.1467013617721 1242.2634809729657 0 0 0 0 2735.320121241879 -3100.3473580563668 0 -3100.3473580563668 1779.0832094542914 0 0 0 0 1200.6767660485348 -1496.9275240812035 0 -1496.9275240812035 1162.7714311222812 0 0 0 0 636.47739499461022 -2052.4206376489228 0 -2052.4206376489228 2959.7068431440653 0 0 0 0 1810.8561903129594 -1826.7665973089709 0 -1826.7665973089709 883.31480062292712 0 0 0 0 3795.022809843882 -2709.438812638381 0 -2709.438812638381 463.34414269105321 0 0 0 0 3311.7936047589319 -2743.9123395824945 0 -2743.9123395824945 462.8571035551106 0 0 0 0 5500.9147877284004 -2330.3289934631025 0 -2330.3289934631025 -362.87888036786006 0 0 0 0 3153.5595122369632 -1810.0258457476275 0 -1810.0258457476275 327.76395555148275 0 0 0 0 2629.8882950384286 -1634.5985658841141 0 -1634.5985658841141 271.63214043803998 0 0 0 0 1928.0942243649624 -1061.1086492186455 0 -1061.1086492186455 359.54628692731239 0 0 0 0 1743.5022118262132 -1267.3309616546774 0 -1267.3309616546774 604.49166247679011 0 0 0 0 2654.9659792918665 -1388.3715363482841 0 -1388.3715363482841 425.69748087286229 0 0 0 0 1895.4869431118714 -1102.6275724736192 0 -1102.6275724736192 507.4705041798058 0 0 0 0 1444.3405126493017 -863.27450511864231 0 -863.27450511864231 555.62016040260164 0 0 0 0 21.135897180613995 15.881132043307332 0 15.881132043307332 14.739934050662058 0 0 0 0 1597.6161097619115 -1361.3836283428157 0 -1361.3836283428157 735.56394372347131 0 0 0 0 831.48268664033094 -489.99071021089185 0 -489.99071021089185 371.81502165721031 0 0 0 0 964.03470309023396 -570.99433692748062 0 -570.99433692748062 260.40764445089735 0 0 0 0 1393.1728866251069 -1091.9819301408052 0 -1091.9819301408052 659.93243425449577 0 0 0 0 1391.1363732817117 -1825.0220030073988 0 -1825.0220030073988 1567.7909008038541 0 0 0 0 1939.0938512538123 -1339.5686277967877 0 -1339.5686277967877 615.09122771469447 0 0 0 0 2179.2479259049869 -1972.8243364015957 0 -1972.8243364015957 917.35059542217573 0 0 0 0 1722.306146721181 -1420.4491392703715 0 -1420.4491392703715 729.02995717796841 0 0 0 0 42.783509997400643 4.0906728270666335 0 4.0906728270666335 1.2849612467447509 0 0 0 0 2955.2883730649628 -1673.4728236503493 0 -1673.4728236503493 627.0145673492525 0 0 0 0 -8.3175478141929489 308.26290850772648 0 308.26290850772648 -348.09311975746891 0 0 0 0 -793.39401685680787 98.36353533823285 0 98.36353533823285 1016.3344612341025 0 0 0 0 103.30251385297311 11.219100537777855 0 11.219100537777855 -5.0194776078188621 0 0 0 0 -162.9697067474408 -499.31692573620751 0 -499.31692573620751 -79.876329448036813 0 0 0 0 -444.77054933900945 -9.3912004563510436 0 -9.3912004563510436 360.25410531691068 0 0 0 0 1765.3602567029011 61.144974694150278 0 61.144974694150278 50.833051121212975 0 0 0 0 1977.0802027047757 1058.8428456723777 0 1058.8428456723777 -427.4587279766738 0 0 0 0 1864.8702657932008 -105.33199845493436 0 -105.33199845493436 -110.23712218062155 0 0 0 0 1967.8545790437129 -710.51756982686129 0 -710.51756982686129 127.06832208501191 0 0 0 0 2293.0354901053142 157.58397133107866 0 157.58397133107866 -169.25086584018209 0 0 0 0 1719.7800962799229 -746.45161032289332 0 -746.45161032289332 -0.1758623128260689 0 0 0 0 38.193413488275837 -67.995601154506119 0 -67.995601154506119 -5.561964048545974 0 0 0 0 -2.3775666857981435 -5.4320698142990125 0 -5.4320698142990125 -4.2723192081090602 0 0 0 0 -1148.522066883801 475.80308281845771 0 475.80308281845771 465.54951583792035 0 0 0 0 -598.28145726615912 -467.12285110662344 0 -467.12285110662344 594.24099089668744 0 0 0 0 -71.21363580020261 -158.45707463018721 0 -158.45707463018721 268.06467525575681 0 0 0 0 -67.426830711970979 -142.53750867260143 0 -142.53750867260143 -162.14193363205413 0 0 0 0 99.796221707001678 -36.074529248972389 0 -36.074529248972389 4.2922630076222958 0 0 0 0 99.566808379458962 -42.009246900656095 0 -42.009246900656095 4.3706104075971535 0 0 0 0 -0.1917736209492773 -2.438342498282509 0 -2.438342498282509 1.0761332711290676 0 0 0 0 117.49825067760685 -44.163068341008682 0 -44.163068341008682 -6.9357124759037276 0 0 0 0 60.940274201886496 -56.171216642485902 0 -56.171216642485902 0.030228615507368495 0 0 0 0 102.42598834511591 -46.728345503377909 0 -46.728345503377909 -4.7145317504198152 0 0 0 0 91.981779901732807 -38.216500696627278 0 -38.216500696627278 -0.4579977034593341 0 0 0 0 84.132243245490827 -44.81265882966143 0 -44.81265882966143 0.7158901519829044 0 0 0 0 91.467945351832896 -34.800570365703699 0 -34.800570365703699 7.0155074096675207 0 0 0 0 86.868520757270744 -36.603746361025117 0 -36.603746361025117 6.7057745818091234 0 0 0 0 8.6349384041403709 2.0232956702896274 0 2.0232956702896274 -14.268331944650894 0 0 0 0 -7.6973610286621579 -18.895890242639837 0 -18.895890242639837 -1.1739354096469032 0 0 0 0 99.227278718404705 -2.3105875757987633 0 -2.3105875757987633 19.92529292521192 0 0 0 0 -608.67523380572675 -270.59160142633482 0 -270.59160142633482 173.82394109664619 0 0 0 0 161.63498784642434 -90.714146876221093 0 -90.714146876221093 -8.3056631110484886 0 0 0 0 97.263141473566066 -27.071695628007348 0 -27.071695628007348 -3.9589084875460685 0 0 0 0 76.339922785875387 -183.60432695832969 0 -183.60432695832969 -459.88328316536627 0 0 0 0 16.283682312492544 -1.0678451995158014 0 -1.0678451995158014 -9.912984037193727 0 0 0 0 19.302870910066673 -21.222414308945758 0 -21.222414308945758 -19.618689968569644 0 0 0 0 51.988684537561937 8.6730119173054447 0 8.6730119173054447 -12.483962562229911 0 0 0 0 65.459250930682742 -15.691652421525305 0 -15.691652421525305 -0.75592271172394965 0 0 0 0 64.665058971826511 -12.096742144968857 0 -12.096742144968857 -7.1023411363721607 0 0 0 0 85.564946565660648 -35.44817269973754 0 -35.44817269973754 14.915320413956429 0 0 0 0 75.728035827632993 -2.6235733341745799 0 -2.6235733341745799 17.810149690274557 0 0 0 0 7.1243819526748666 -1.5424058855541318 0 -1.5424058855541318 0.013912970974423899 0 0 0 0 88.686033547433908 -33.209265022160722 0 -33.209265022160722 7.2126577449145941 0 0 0 0 293.84449222759577 -57.008694679390828 0 -57.008694679390828 -112.29675056740325 0 0 0 0 200.29090530762915 -14.400886782557791 0 -14.400886782557791 -97.692240635578855 0 0 0 0 78.203908203865751 -45.922858324347231 0 -45.922858324347231 9.716418666469723 0 0 0 0 111.65504558831162 -25.545834128217848 0 -25.545834128217848 -12.67859155010774 0 0 0 0 132.08098866800719 7.5776849844742173 0 7.5776849844742173 20.257958299147504 0 0 0 0 245.10553564241854 -37.555137685933005 0 -37.555137685933005 -49.972368133406462 0 0 0 0 155.50137722576619 -83.755926775639182 0 -83.755926775639182 -72.280814322534525 0 0 0 0 57.182366353121694 27.459403024861047 0 27.459403024861047 -16.052222881100427 0 0 0 0 116.85019389330409 -12.507145824280997 0 -12.507145824280997 4.1747921397982282 0 0 0 0 73.836997835547663 -31.184956518554209 0 -31.184956518554209 9.1857297567837293 0 0 0 0 233.42535469662107 -120.08735540372876 0 -120.08735540372876 91.570695846474848 0 0 0 0 14.283929220385346 -2.8445499114540667 0 -2.8445499114540667 0.38625240453319176 0 0 0 0 490.7400474921451 72.663428475930004 0 72.663428475930004 -1.4221625756860021 0 0 0 0 18.524000054251132 4.4753423966329535 0 4.4753423966329535 -6.2359422257223418 0 0 0 0 88.308937824214809 -33.890127944753402 0 -33.890127944753402 5.0455841255639768 0 0 0 0 80.317759716679575 -30.547587140952842 0 -30.547587140952842 7.1179586588511938 0 0 0 0 80.825575116818072 -34.667227141341485 0 -34.667227141341485 6.8666239582340012 0 0 0 0 75.375448764767498 -31.520053023986311 0 -31.520053023986311 6.1815513934284354 0 0 0 0 77.945307396599674 -43.824570453088931 0 -43.824570453088931 -0.0082243469796411672 0 0 0 0 46.5103824550024 -37.580683168755385 0 -37.580683168755385 8.8093190503699148 0 0 0 0 300.82217825282714 -66.754651313096673 0 -66.754651313096673 -8.7854558762437875 0 0 0 0 -0.82927866069837819 -0.44298187430354119 0 -0.44298187430354119 0.23822136003504091 0 0 0 0 280.69420014834031 -68.552898129118759 0 -68.552898129118759 0.090877353078310644 0 0 0 0 282.38968799811846 -53.241130315835505 0 -53.241130315835505 -8.1512176334786091 0 0 0 0 349.262534445239 -79.003324232324601 0 -79.003324232324601 -8.9810593222088357 0 0 0 0 277.73487033848505 34.40571686852482 0 34.40571686852482 63.617228685440011 0 0 0 0 150.5797494041035 -85.892232655417644 0 -85.892232655417644 17.466413934407299 0 0 0 0 738.89475280526676 654.78555878784903 0 654.78555878784903 0.37363241717223511 0 0 0 0 -1.3107944612858091 -0.78511564526294819 0 -0.78511564526294819 -2.4844926691192875 0 0 0 0 263.4156466384884 -63.098159678775723 0 -63.098159678775723 3.6187147759607621 0 0 0 0 255.5737241888819 -39.332202971583257 0 -39.332202971583257 0.13278045786844928 0 0 0 0 267.17136578945792 -863.66246206074356 0 -863.66246206074356 470.08812882692223 0 0 0 0 207.67951385994093 -124.02736061385627 0 -124.02736061385627 0.50680950989245488 0 0 0 0 4.7885005391570985 1.7070620187037946 0 1.7070620187037946 0.75153852898901663 0 0 0 0 141.54373107984429 -111.9756266631839 0 -111.9756266631839 126.13238532138712 0 0 0 0 768.02149860920326 -61.441045565783099 0 -61.441045565783099 -160.62510147512603 0 0 0 0 14.494990512736649 -10.556511068771641 0 -10.556511068771641 -12.070971248215789 0 0 0 0 79.965542911188095 -4.0524485666382759 0 -4.0524485666382759 21.786429406100922 0 0 0 0 75.651078342139954 -135.52153174907534 0 -135.52153174907534 -16.605800342937584 0 0 0 0 115.42868076092697 -46.679450448661868 0 -46.679450448661868 3.2411399416827882 0 0 0 0 263.24240491908859 -140.73878889096045 0 -140.73878889096045 89.800034801594208 0 0 0 0 123.78599246704835 -7.4710083846037492 0 -7.4710083846037492 -1.6586479117574982 0 0 0 0 278.67169825074961 -86.491804256958631 0 -86.491804256958631 -89.193361510482418 0 0 0 0 87.238700452027842 -28.879435830827788 0 -28.879435830827788 -31.314970608575095 0 0 0 0 135.92014046330587 -40.748228429776873 0 -40.748228429776873 -61.727441470829035 0 0 0 0 122.04177217218626 -47.548290908353138 0 -47.548290908353138 -0.76755518820606206 0 0 0 0 165.20488286163891 -20.762381395919874 0 -20.762381395919874 12.519002205159268 0 0 0 0 118.04521859064698 -36.543677640063834 0 -36.543677640063834 7.5789783737232028 0 0 0 0 168.82416193038807 -75.243813362241781 0 -75.243813362241781 -54.152728608867619 0 0 0 0 175.40361584998027 -35.096330164700703 0 -35.096330164700703 -139.43857745972855 0 0 0 0 156.08377837836451 -77.570268398322696 0 -77.570268398322696 -26.82763167306075 0 0 0 0 125.24841088167261 -37.381757722955129 0 -37.381757722955129 -3.0124062917221153 0 0 0 0 158.78905383601887 -91.34195666067626 0 -91.34195666067626 -49.095097329354758 0 0 0 0 165.89869987608836 -97.010246852550154 0 -97.010246852550154 -72.635559199650743 0 0 0 0 261.82410171398078 -124.13080761113997 0 -124.13080761113997 -46.646759569459391 0 0 0 0 26.502003093198596 -17.871191950549729 0 -17.871191950549729 -34.363241946958517 0 0 0 0 173.88665457729076 -121.24541608781328 0 -121.24541608781328 -40.095504740658612 0 0 0 0 116.13198796327924 -132.90846113749922 0 -132.90846113749922 -40.54970555779903 0 0 0 0 -90.114781882148236 -123.59926756357936 0 -123.59926756357936 100.99232652822684 0 0 0 0 146.1178953189883 -203.04441594910941 0 -203.04441594910941 -7.5738589531028992 0 0 0 0 -3.686816765534374 -2.3596255522583647 0 -2.3596255522583647 -23.294723425879333 0 0 0 0 381.36861717588545 -161.94810443281585 0 -161.94810443281585 -2.6983299721396179 0 0 0 0 268.5032253008394 -57.325592497967591 0 -57.325592497967591 -3.106150087606693 0 0 0 0 160.276052112451 -158.00584623745635 0 -158.00584623745635 33.660381070636504 0 0 0 0 220.006724133229 -134.40025846541766 0 -134.40025846541766 71.944440089787349 0 0 0 0 177.94653604950872 -86.13914482139262 0 -86.13914482139262 33.760361746307403 0 0 0 0 -149.34244370051601 -32.947032892058814 0 -32.947032892058814 54.904436367523886 0 0 0 0 92.660730576157221 -189.31479854412282 0 -189.31479854412282 46.26977822920162 0 0 0 0 3.823074131301837 -96.567429904011988 0 -96.567429904011988 38.783873373111419 0 0 0 0 33.669287465614616 -70.585322970821835 0 -70.585322970821835 37.589527926436858 0 0 0 0 21.409947025715155 -99.754195045875576 0 -99.754195045875576 -2.7392597910875338 0 0 0 0 25.376409589109244 -117.98857089640478 0 -117.98857089640478 36.76081258996237 0 0 0 0 165.63594839208235 -116.33512016567693 0 -116.33512016567693 51.906329723053204 0 0 0 0 150.87611439201282 -63.946310799776256 0 -63.946310799776256 -42.750580107371206 0 0 0 0 173.6270765697991 -132.04007470392753 0 -132.04007470392753 -47.055931583985512 0 0 0 0 97.13821629172611 -55.536826981978052 0 -55.536826981978052 27.421416545312496 0 0 0 0 241.44342499173945 -81.473085052792158 0 -81.473085052792158 37.974423388852301 0 0 0 0 161.96364175184317 -8.0665768126514195 0 -8.0665768126514195 -1.9490063054399798 0 0 0 0 78.711570055705465 -14.637897128325278 0 -14.637897128325278 -16.023171399960411 0 0 0 0 60.601170368259773 -36.986943326410255 0 -36.986943326410255 -41.731072630180279 0 0 0 0 93.860519524113101 -53.447445325875186 0 -53.447445325875186 -0.31176896646316532 0 0 0 0 200.75862834272053 -71.08810923419432 0 -71.08810923419432 -26.496749314689197 0 0 0 0 310.40762018517125 102.7819427073282 0 102.7819427073282 70.996912966453237 0 0 0 0 -2.6450031468901329 -23.065703229631616 0 -23.065703229631616 14.456573036471861 0 0 0 0 -21.154840578441508 -47.220369113434572 0 -47.220369113434572 217.04659943481056 0 0 0 0 381.32466375420336 -110.37187028338667 0 -110.37187028338667 -47.561410376227286 0 0 0 0 145.52921154198702 -165.58360018366511 0 -165.58360018366511 159.07801475796441 0 0 0 0 -98.928620033722837 -37.235612918146217 0 -37.235612918146217 91.691318846318609 0 0 0 0 -99.541238593006597 -171.70871238489684 0 -171.70871238489684 80.990852679413365 0 0 0 0 32.355419325540424 -96.246798549282175 0 -96.246798549282175 -37.456169622109883 0 0 0 0 60.776451372564679 -19.124745031038941 0 -19.124745031038941 -3.1025746721430814 0 0 0 0 9.2322380914993118 17.993612598604159 0 17.993612598604159 -1.1697202369587103 0 0 0 0 52.666731090277608 -30.021520091203911 0 -30.021520091203911 50.745734588475898 0 0 0 0 88.695468323450768 49.844240115788125 0 49.844240115788125 66.538837243657326 0 0 0 0 69.030136539950036 -22.137041703693285 0 -22.137041703693285 -8.7062733860141179 0 0 0 0 89.41774223439279 -4.4947623466277946 0 -4.4947623466277946 2.3659170313403592 0 0 0 0 90.390473034989554 -22.302689344582632 0 -22.302689344582632 1.7175502331633652 0 0 0 0 49.342236103042637 -25.641005196154538 0 -25.641005196154538 13.420203947896535 0 0 0 0 5.9365438109089155 -28.12117361505625 0 -28.12117361505625 39.649052960099652 0 0 0 0 31.069720057211839 10.816973956996009 0 10.816973956996009 9.1564362540078221 0 0 0 0 -87.915486801484803 37.879179677990237 0 37.879179677990237 181.27027902421196 0 0 0 0 16.058515648095636 -61.188031292899495 0 -61.188031292899495 -2.3429553882887149 0 0 0 0 28.819112331271754 -17.463051795943784 0 -17.463051795943784 26.263911727983213 0 0 0 0 16.185399313777623 -16.420531395853345 0 -16.420531395853345 23.901668536222164 0 0 0 0 58.252402137964964 -77.357673468689427 0 -77.357673468689427 2.0383015612853796 0 0 0 0 27.834239873627666 11.799903473365703 0 11.799903473365703 54.829568356492473 0 0 0 0 30.122551731399085 -13.430460649562036 0 -13.430460649562036 24.572860961320018 0 0 0 0 52.852518935561477 -31.347344088146087 0 -31.347344088146087 18.550379416442752 0 0 0 0 61.862929326511221 -13.8132891309142 0 -13.8132891309142 30.310428362904531 0 0 0 0 27.080624857233488 -10.942760265342486 0 -10.942760265342486 14.847749555792689 0 0 0 0 -62.610878800944192 -59.506811223298428 0 -59.506811223298428 26.39940574285265 0 0 0 0 11.827456900976827 -8.2543835006137272 0 -8.2543835006137272 11.951377690542941 0 0 0 0 110.57380847644527 -269.11083504942144 0 -269.11083504942144 434.56875308974941 0 0 0 0 25.401627452974139 -4.4765655758805281 0 -4.4765655758805281 -8.411784305185261 0 0 0 0 34.68086836796283 -15.645377434010015 0 -15.645377434010015 12.692129169896361 0 0 0 0 -0.53569045724758269 -6.5737647606905512 0 -6.5737647606905512 8.2592787211658347 0 0 0 0 -173.35119568262598 -25.43090247280179 0 -25.43090247280179 86.989654690660245 0 0 0 0 110.96785194208496 -57.267041485942173 0 -57.267041485942173 519.99113950198989 0 0 0 0 52.037847562896786 -224.61502584786467 0 -224.61502584786467 789.13805155436557 0 0 0 0 178.62141619552858 253.08108359940525 0 253.08108359940525 615.28772738170392 0 0 0 0 29.474464513432906 -28.629288722359959 0 -28.629288722359959 23.517512044392483 0 0 0 0 50.080838049532758 -240.27711585721454 0 -240.27711585721454 287.96101218036529 0 0 0 0 -7.8453280425746925 10.716614262025359 0 10.716614262025359 28.561074713096787 0 0 0 0 24.594633448694367 -11.313428953004404 0 -11.313428953004404 22.805099329143559 0 0 0 0 11.643329533623501 -15.805119088205714 0 -15.805119088205714 23.517800655825685 0 0 0 0 17.718810541651123 -12.814602558572361 0 -12.814602558572361 18.264428945224982 0 0 0 0 1188.9341369089088 -35.592692447371064 0 -35.592692447371064 50.084027132771098 0 0 0 0 13.448898166441836 -2.7145655557436044 0 -2.7145655557436044 -1.5620704289392506 0 0 0 0 1187.2937610794324 -330.3826851158492 0 -330.3826851158492 129.13948105420195 0 0 0 0 2031.226570412342 162.75739527242877 0 162.75739527242877 -202.8798122290782 0 0 0 0 146.67485359724378 -128.66354887277885 0 -128.66354887277885 99.46460354339024 0 0 0 0 -2.8303326109924569 2.0325232284079675 0 2.0325232284079675 3.9669638535039464 0 0 0 0 49.099797523850611 134.17843199027817 0 134.17843199027817 258.42445977952048 0 0 0 0 51.54759076051414 -121.13749850435943 0 -121.13749850435943 59.131752376142003 0 0 0 0 10.835959227819671 -10.122794578716309 0 -10.122794578716309 11.438167200784608 0 0 0 0 3018.3117645437887 709.1146482809263 0 709.1146482809263 126.35841406123018 0 0 0 0 -110.91930421898724 -182.47889074032264 0 -182.47889074032264 2417.6431616024265 0 0 0 0 -6.2747953915386461 256.29187366232145 0 256.29187366232145 868.28226195431125 0 0 0 0 1957.891125087197 -6.6384388159694936 0 -6.6384388159694936 690.79622252405898 0 0 0 0 2316.9096954174747 -695.38691336445527 0 -695.38691336445527 1074.0430759203136 0 0 0 0 3950.4789127168769 -1260.4854860934697 0 -1260.4854860934697 415.74631150952882 0 0 0 0 2099.75285604698 -610.56888190225914 0 -610.56888190225914 3119.8478030332203 0 0 0 0 2866.265606202418 -412.85415778908646 0 -412.85415778908646 -210.67818449115384 0 0 0 0 3072.1651681449366 -917.57067132897805 0 -917.57067132897805 -34.639618447250541 0 0 0 0 2810.6097539861512 -611.81116755802304 0 -611.81116755802304 -209.82969406050051 0 0 0 0 2003.9751412267506 -827.90402968319358 0 -827.90402968319358 139.44498658727935 0 0 0 0 2606.0831087432161 -735.64446520969523 0 -735.64446520969523 -281.69653870324601 0 0 0 0 2150.940258940529 -395.58928551031124 0 -395.58928551031124 -118.17181771310243 0 0 0 0 2527.0880291645299 -450.38337078678978 0 -450.38337078678978 -172.56052689490116 0 0 0 0 3076.1224642299931 -771.05749253733484 0 -771.05749253733484 -317.21687021308298 0 0 0 0 3912.3190414331912 -1479.5979976867466 0 -1479.5979976867466 156.06453530628278 0 0 0 0 2817.5140487057506 -1199.9039258003741 0 -1199.9039258003741 298.17434571418926 0 0 0 0 7.5009192986071298 -0.31622118524501275 0 -0.31622118524501275 -3.3274880546429237 0 0 0 0 30.131200538213307 36.498875514660995 0 36.498875514660995 -16.206132464831171 0 0 0 0 89.834991229174193 -28.670280359388016 0 -28.670280359388016 -25.401647101631852 0 0 0 0 19.555690117129416 -3.4152878770010204 0 -3.4152878770010204 -33.793665574014085 0 0 0 0 2104.5397089286125 -626.72025578334205 0 -626.72025578334205 195.7069713708529 0 0 0 0 2217.0744783771861 -1509.0152738081961 0 -1509.0152738081961 881.49632658826886 0 0 0 0 489.00449058739468 145.02167697209211 0 145.02167697209211 83.126662047985519 0 0 0 0 766.95959497230069 -247.94930569484109 0 -247.94930569484109 -572.37093425451258 0 0 0 0 6.6467130684991957 -7.3970304621970229 0 -7.3970304621970229 -11.261942680967032 0 0 0 0 -149.56117341961362 397.34789789537081 0 397.34789789537081 -981.58135024132571 0 0 0 0 -30.059824618962011 42.722505034240385 0 42.722505034240385 -75.625387421194318 0 0 0 0 -83.199261954607209 -471.76496470408529 0 -471.76496470408529 -963.11042470370921 0 0 0 0 477.94008197936091 -290.58117585595875 0 -290.58117585595875 -1175.9705952667173 0 0 0 0 406.11624032477266 -497.31794731328182 0 -497.31794731328182 -15.021050148939594 0 0 0 0 556.30397616282062 232.81447667416347 0 232.81447667416347 -1261.0467587150779 0 0 0 0 162.16286437296367 -17.600510038088032 0 -17.600510038088032 -754.59408593250282 0 0 0 0 1139.6234749334981 -128.50546630785425 0 -128.50546630785425 -1110.696554428072 0 0 0 0 269.67826666932524 455.90355770642839 0 455.90355770642839 -132.43393167935392 0 0 0 0 1876.3454967106663 381.71177430179364 0 381.71177430179364 -197.52682500246124 0 0 0 0 1746.7539202137996 601.27227323061993 0 601.27227323061993 183.08072522617181 0 0 0 0 2138.7889214907773 208.05634100284533 0 208.05634100284533 485.3231558695129 0 0 0 0 2601.8703365208166 915.4567519442262 0 915.4567519442262 1370.2482831107309 0 0 0 0 3116.5568624841235 -1618.0354667857077 0 -1618.0354667857077 1473.6171961488362 0 0 0 0 710.79986191692296 -476.11054887710452 0 -476.11054887710452 1021.5650880776916 0 0 0 0 807.575716940657 -686.94695250798929 0 -686.94695250798929 699.01974678400256 0 0 0 0 809.12877201792435 -350.18951105265683 0 -350.18951105265683 22.499533108360538 0 0 0 0 1293.7659052215749 -864.34321660785986 0 -864.34321660785986 566.61399706165344 0 0 0 0 307.73479172468069 -755.59077163944744 0 -755.59077163944744 310.58524321061986 0 0 0 0 -0.26323440979467705 -745.82394042279657 0 -745.82394042279657 785.74942383303369 0 0 0 0 229.25070869602496 -707.52248314176131 0 -707.52248314176131 766.10316288011131 0 0 0 0 98.328837923705578 -522.77634050560835 0 -522.77634050560835 106.0641844657348 0 0 0 0 43.181015903006482 -505.08996012445289 0 -505.08996012445289 711.93023887915206 0 0 0 0 36.815897871718334 -126.93769687296765 0 -126.93769687296765 735.80132302369566 0 0 0 0 151.53523903306632 -786.08286355079599 0 -786.08286355079599 1406.0586471214738 0 0 0 0 -94.59721684732358 125.33677479731841 0 125.33677479731841 1408.4842995958898 0 0 0 0 163.31266528072592 -624.67106935010997 0 -624.67106935010997 616.49080800850606 0 0 0 0 29.963215226511238 -468.66779658632868 0 -468.66779658632868 570.62817938907756 0 0 0 0 -11.802307219157228 -455.6179210876935 0 -455.6179210876935 797.26331140424111 0 0 0 0 -22.090857083152514 -511.94133873429473 0 -511.94133873429473 547.9484632542999 0 0 0 0 70.693409428095038 -660.95216940227351 0 -660.95216940227351 438.68679834171417 0 0 0 0 127.70477496212698 -656.48907480919343 0 -656.48907480919343 342.43598048651802 0 0 0 0 72.642008790789987 -652.70547540232053 0 -652.70547540232053 450.17124430799777 0 0 0 0 10.343549975252245 -798.49649141501595 0 -798.49649141501595 411.52803479523436 0 0 0 0 195.32519339564169 -658.57838511080877 0 -658.57838511080877 340.95420515738215 0 0 0 0 108.73496993300068 -690.30330572568982 0 -690.30330572568982 318.18332452384493 0 0 0 0 -62.713622744369786 -456.67098367701874 0 -456.67098367701874 153.10607975140761 0 0 0 0 163.73388785731368 -749.9480821155214 0 -749.9480821155214 88.924979016093857 0 0 0 0 140.68091065356566 -388.7121615640508 0 -388.7121615640508 -816.39079555592889 0 0 0 0 -81.249329191094148 -688.57471434538456 0 -688.57471434538456 18.200209998386072 0 0 0 0 76.661883870721795 89.65884679028386 0 89.65884679028386 115.22550941380177 0 0 0 0 7.4950032512879261 110.87323815972138 0 110.87323815972138 -580.45104806450763 0 0 0 0 15.184415998730458 -10.960731883945797 0 -10.960731883945797 4.096997405397163 0 0 0 0 5.844587879183095 4.6446698720851316 0 4.6446698720851316 -2.932638965882667 0 0 0 0 442.61396136433177 335.6825578861808 0 335.6825578861808 277.12438673099496 0 0 0 0 3.0133212851895337 -6.3199725332941341 0 -6.3199725332941341 5.0269003807056691 0 0 0 0 665.7033187966299 -46.684207958088336 0 -46.684207958088336 -250.87442645997362 0 0 0 0 58.534464808784833 -416.36264083991045 0 -416.36264083991045 560.34939132166005 0 0 0 0 119.86704252366326 -343.58432475039353 0 -343.58432475039353 583.22340092090644 0 0 0 0 485.30811791240558 -167.51374157259033 0 -167.51374157259033 280.28153460460726 0 0 0 0 440.12680669740075 -784.19990266183243 0 -784.19990266183243 154.58114573829585 0 0 0 0 717.58785916474881 -413.85253699827888 0 -413.85253699827888 186.55227381420912 0 0 0 0 209.48713783372659 -430.86623104799719 0 -430.86623104799719 186.00471397297781 0 0 0 0 210.2356520507019 -484.96116587293091 0 -484.96116587293091 318.8205561483619 0 0 0 0 -83.324428442458156 -342.0065883635807 0 -342.0065883635807 333.46149647667357 0 0 0 0 172.76823042889009 -246.08024937693835 0 -246.08024937693835 184.45413083154199 0 0 0 0 -208.45437121171562 -159.73052169215111 0 -159.73052169215111 166.84337973419861 0 0 0 0 -359.67425824722159 141.0962249825343 0 141.0962249825343 -27.644010786691069 0 0 0 0 8.4532132952239181 -3.0849269815596472 0 -3.0849269815596472 -4.8428753668966742 0 0 0 0 133.18617942785932 -202.08893021121594 0 -202.08893021121594 168.5137127881012 0 0 0 0 407.40931003616424 -242.79899146167611 0 -242.79899146167611 165.89970909496824 0 0 0 0 291.27717039712297 -241.21460101305274 0 -241.21460101305274 253.51804718554172 0 0 0 0 267.50522210769122 -325.66033795892031 0 -325.66033795892031 -35.381342571032746 0 0 0 0 460.14187877291988 -198.9827989552175 0 -198.9827989552175 23.61167694037124 0 0 0 0 327.13648849797028 -119.96289324126656 0 -119.96289324126656 57.102776609379475 0 0 0 0 -344.50104892456147 22.462520307496902 0 22.462520307496902 107.43307684226966 0 0 0 0 2.2288850847135677 1.4427760219134029 0 1.4427760219134029 -8.8207511273009143 0 0 0 0 -23.92407506087693 -607.2462287276212 0 -607.2462287276212 711.71870052341819 0 0 0 0 16.460784064649488 -545.06014484563866 0 -545.06014484563866 210.81356039314323 0 0 0 0 -41.226008508499945 -152.06659504197341 0 -152.06659504197341 833.18212815183233 0 0 0 0 59.826379512269341 -307.27151491288942 0 -307.27151491288942 186.78906372815436 0 0 0 0 79.610825150331266 -23.366353180086698 0 -23.366353180086698 4.5059683091671872 0 0 0 0 268.96981716013943 -335.08064322236203 0 -335.08064322236203 -735.89635965655089 0 0 0 0 -38.615152740041594 23.569669911622213 0 23.569669911622213 -32.664297011498093 0 0 0 0 394.24141884488836 59.859509649527524 0 59.859509649527524 228.98853210788275 0 0 0 0 444.23041715422733 -264.63235427747304 0 -264.63235427747304 387.41253874028325 0 0 0 0 -4.9069315777087468 -38.600090506321521 0 -38.600090506321521 172.72064321499602 0 0 0 0 -28.035401611865382 -28.791214133601443 0 -28.791214133601443 540.02791112092268 0 0 0 0 248.71166987096149 -414.50731860170731 0 -414.50731860170731 299.54999041909559 0 0 0 0 139.6962866743379 -228.75125949590711 0 -228.75125949590711 2.8019588126626331 0 0 0 0 -10.007687407880439 -119.16088991143897 0 -119.16088991143897 307.93631743764763 0 0 0 0 -10.163002715821364 -4.3995202605679893 0 -4.3995202605679893 -1.4769348203407002 0 0 0 0 -31.965094017908086 -216.12214848031908 0 -216.12214848031908 233.92614115069409 0 0 0 0 -23.615442873502616 0.61826438012394647 0 0.61826438012394647 6.643692686669965 0 0 0 0 -44.817994233009813 -17.366783384039536 0 -17.366783384039536 48.789822971548347 0 0 0 0 151.52882382133248 -111.508956644916 0 -111.508956644916 -22.64044726514112 0 0 0 0 101.74421284885102 -305.56820148583222 0 -305.56820148583222 -373.4631619173133 0 0 0 0 67.47221918743162 -129.11868969122679 0 -129.11868969122679 -26.039133345047958 0 0 0 0 -51.737182587297866 -143.68890588626846 0 -143.68890588626846 -9.1879421085614581 0 0 0 0 115.64421902479575 -29.280825540364667 0 -29.280825540364667 6.4434744893196543 0 0 0 0 457.92636857662001 -236.08164890049466 0 -236.08164890049466 -401.47339009803727 0 0 0 0 38.414962163646123 24.43346787759674 0 24.43346787759674 46.215127507113721 0 0 0 0 110.40708378643467 137.34427559735741 0 137.34427559735741 -118.08393098993292 0 0 0 0 123.95064912798989 20.271230816870229 0 20.271230816870229 -120.14252711975496 0 0 0 0 177.11749018159753 8.4842556145467825 0 8.4842556145467825 -231.46115946196187 0 0 0 0 6.3138136285269866 -198.86641071524218 0 -198.86641071524218 21.242701450285495 0 0 0 0 141.88402716760396 -36.269931610026219 0 -36.269931610026219 -0.45959803901665008 0 0 0 0 17.139700070962135 -186.58336927694654 0 -186.58336927694654 27.654058490640637 0 0 0 0 61.133528806327377 -15.014710134848428 0 -15.014710134848428 -22.523466302460292 0 0 0 0 184.30090709746582 -100.855065555549 0 -100.855065555549 33.318875413694172 0 0 0 0 63.932513756430126 -188.39615618065955 0 -188.39615618065955 -6.8986215092945713 0 0 0 0 32.086962519562803 -215.6653200579558 0 -215.6653200579558 -26.962776235431193 0 0 0 0 18.762809994368581 395.95552529581255 0 395.95552529581255 296.36924657451527 0 0 0 0 -3.2120490924859268 -1.623242611425745 0 -1.623242611425745 -0.62899629236672894 0 0 0 0 109.85216608059272 -195.49084269539105 0 -195.49084269539105 -37.877717932116866 0 0 0 0 -20.068515563851079 -18.438260141332776 0 -18.438260141332776 -18.726870393561697 0 0 0 0 58.058777520054718 -131.21445140220521 0 -131.21445140220521 -3.662720619317497 0 0 0 0 138.45023605639653 -113.56617790915652 0 -113.56617790915652 20.642043848122967 0 0 0 0 140.37830466829473 -73.459127258024068 0 -73.459127258024068 17.351455390251942 0 0 0 0 123.95432139418335 -99.159531390977378 0 -99.159531390977378 35.300551267962149 0 0 0 0 178.51641642862523 -110.53337872781321 0 -110.53337872781321 34.134245441721077 0 0 0 0 117.89175235957919 -406.55452970586941 0 -406.55452970586941 -540.44309211589098 0 0 0 0 13.769281215998532 -29.944367509614665 0 -29.944367509614665 -16.822620492798684 0 0 0 0 159.22516601314419 -113.09356257506553 0 -113.09356257506553 40.37772779084122 0 0 0 0 156.93010581294948 -99.59225251452159 0 -99.59225251452159 35.654532283046137 0 0 0 0 172.6831645531056 -93.636734839944552 0 -93.636734839944552 31.945944636162722 0 0 0 0 -159.23825583044527 -144.06947783165765 0 -144.06947783165765 248.54577942574633 0 0 0 0 34.693677789116379 -81.33401530679528 0 -81.33401530679528 25.098248342229631 0 0 0 0 166.71784838131134 -85.302951477137071 0 -85.302951477137071 21.918196447223636 0 0 0 0 126.97196109108336 -192.36986008084114 0 -192.36986008084114 32.199569824201262 0 0 0 0 25.047273197848554 -81.444676203698577 0 -81.444676203698577 25.734952700828423 0 0 0 0 83.145523154526018 -93.630099862185432 0 -93.630099862185432 17.591938950685289 0 0 0 0 641.26306759098952 -271.53827854838676 0 -271.53827854838676 -106.77013410099062 0 0 0 0 647.28328201425029 -230.74548583741853 0 -230.74548583741853 -98.848538339749211 0 0 0 0 -4.937926434140536 -24.016323940597431 0 -24.016323940597431 159.10077976342473 0 0 0 0 452.649483210771 -134.90102519122956 0 -134.90102519122956 90.144974508380983 0 0 0 0 72.786653945309808 -188.75880655562969 0 -188.75880655562969 128.10597555268441 0 0 0 0 62.091954672127031 -65.247017731919186 0 -65.247017731919186 -38.558948340034476 0 0 0 0 -12.875319521987421 -12.465303656291621 0 -12.465303656291621 3.5084754111867467 0 0 0 0 62.352340049576014 -76.136144979759592 0 -76.136144979759592 -17.027199036783713 0 0 0 0 51.84071596886497 -45.657045802732682 0 -45.657045802732682 -53.848746632217626 0 0 0 0 187.87014927592463 -51.307727943049656 0 -51.307727943049656 31.497677495117387 0 0 0 0 -11.542587622338033 -14.530470439826672 0 -14.530470439826672 -17.299175953987287 0 0 0 0 127.57170407297923 -39.730800930269453 0 -39.730800930269453 -34.243880316796677 0 0 0 0 36.853553997469135 -46.363295783507056 0 -46.363295783507056 -8.9216869403717283 0 0 0 0 73.45681317041192 -103.60218365563001 0 -103.60218365563001 -31.479444890854293 0 0 0 0 11.648678976331809 -37.255213964242813 0 -37.255213964242813 1.3197405971383951 0 0 0 0 23.794101408799179 -26.128352112942025 0 -26.128352112942025 -5.8920290464102436 0 0 0 0 23.96450933223241 -27.599218652983382 0 -27.599218652983382 -21.082922774729354 0 0 0 0 56.994439893358503 -19.257574969768712 0 -19.257574969768712 -13.254367566354631 0 0 0 0 20.949651666257971 -1.5957478776545031 0 -1.5957478776545031 -21.548188540038225 0 0 0 0 21.685741576139208 -16.632864471139243 0 -16.632864471139243 -12.65406711283061 0 0 0 0 23.501348502317967 -17.54080565785479 0 -17.54080565785479 -7.4428567951356825 0 0 0 0 27.513153449457604 -41.69696607507376 0 -41.69696607507376 28.602658743542634 0 0 0 0 299.97416143512237 -104.63658064996071 0 -104.63658064996071 -62.926141361179361 0 0 0 0 23.051175612354598 -11.412988366005507 0 -11.412988366005507 -0.88105818102232725 0 0 0 0 181.88907624770218 0.48496367387718919 0 0.48496367387718919 -11.900077058540319 0 0 0 0 41.630600593641589 15.257702433880439 0 15.257702433880439 10.126396989998993 0 0 0 0 137.69507901008183 8.8762640147612046 0 8.8762640147612046 26.95254557182966 0 0 0 0 60.172532753731502 49.801574748821366 0 49.801574748821366 14.803718633342285 0 0 0 0 41.265359896877897 34.7581442027045 0 34.7581442027045 -33.638570164615615 0 0 0 0 140.56071844019607 85.068967925799598 0 85.068967925799598 -30.553807126129868 0 0 0 0 34.288286015333142 120.91011253513534 0 120.91011253513534 -35.032451226134071 0 0 0 0 240.63087397906929 46.376089309686904 0 46.376089309686904 -45.401518377692582 0 0 0 0 8.7173299350482409 23.874078690897704 0 23.874078690897704 20.004296441663509 0 0 0 0 176.73608933846845 -10.664424269849405 0 -10.664424269849405 32.375978516997293 0 0 0 0 14.295976022338436 165.37632444865585 0 165.37632444865585 -75.274711733283766 0 0 0 0 37.44898112671784 42.688246699400864 0 42.688246699400864 13.797079044891621 0 0 0 0 162.13480310558225 -17.302989835802691 0 -17.302989835802691 38.117715871041582 0 0 0 0 2128.9046765398234 228.28905268180426 0 228.28905268180426 -168.62433542805047 0 0 0 0 5498.4657513831044 212.92316403547284 0 212.92316403547284 -1042.2485084937773 0 0 0 0 3640.0872992008517 776.54743572448342 0 776.54743572448342 -683.76648362682738 0 0 0 0 3587.6677619764232 209.65658662288428 0 209.65658662288428 -498.56147259724059 0 0 0 0 1335.2809045028407 185.19074508790055 0 185.19074508790055 34.332755118617598 0 0 0 0 790.22740904580496 -451.69642375834349 0 -451.69642375834349 172.7436968303474 0 0 0 0 3656.1915601537476 2033.2600471142034 0 2033.2600471142034 473.63707618974519 0 0 0 0 5500.6560800429434 1649.0018704954016 0 1649.0018704954016 683.55960355243189 0 0 0 0 5006.9031760681246 794.32933451064673 0 794.32933451064673 -743.15241751683493 0 0 0 0 5493.3548846753274 1743.7923993198999 0 1743.7923993198999 622.7691597395002 0 0 0 0 5344.0354711825785 1707.3298335851982 0 1707.3298335851982 662.32135250736519 0 0 0 0 5311.9643724444759 1823.5716129998293 0 1823.5716129998293 657.25035659199887 0 0 0 0 27.929664996060467 -5.2193982649201587 0 -5.2193982649201587 10.728142136347241 0 0 0 0 -216.45250680811296 1051.6746201202327 0 1051.6746201202327 1718.6185257110017 0 0 0 0 33.873920769488379 -6.8903765528523309 0 -6.8903765528523309 1.212342331241075 0 0 0 0 212.08931560761994 -116.48806131181641 0 -116.48806131181641 -72.541739392203453 0 0 0 0 107.62128291808767 26.927856066756249 0 26.927856066756249 -113.05790294349208 0 0 0 0 87.892869020527087 -36.763349473439149 0 -36.763349473439149 10.062464383147937 0 0 0 0 591.78610447062965 808.48390455285357 0 808.48390455285357 236.91272846069387 0 0 0 0 104.79846480321083 79.387699354447477 0 79.387699354447477 -46.518737993983002 0 0 0 0 325.5639033322368 -28.119415235833912 0 -28.119415235833912 10.697297961417917 0 0 0 0 149.2938149840453 -29.326367130906249 0 -29.326367130906249 -3.2368666799045123 0 0 0 0 338.30558560699137 -23.813280293279036 0 -23.813280293279036 10.844216939831313 0 0 0 0 166.19975324711413 109.53009585132531 0 109.53009585132531 -29.77810112997031 0 0 0 0 554.83505043219338 78.961302403537502 0 78.961302403537502 -169.65119997782404 0 0 0 0 -129.56641923554707 183.31352873661399 0 183.31352873661399 -113.34278079087676 0 0 0 0 12.031123066962422 16.187382015531725 0 16.187382015531725 16.37910833508446 0 0 0 0 850.03503963665571 -87.720968018713791 0 -87.720968018713791 -125.35926891830991 0 0 0 0 651.05270120729256 -47.414004798332599 0 -47.414004798332599 -85.829405947935584 0 0 0 0 -7.1595123327242618 87.649998256799108 0 87.649998256799108 -51.446714983770107 0 0 0 0 956.56872169560665 -222.00831188084817 0 -222.00831188084817 -252.67496125797163 0 0 0 0 272.16002167716215 -375.1730957378428 0 -375.1730957378428 -163.86186276078524 0 0 0 0 906.41318748818594 -253.43091532254391 0 -253.43091532254391 162.14945754738767 0 0 0 0 924.79281713027012 -18.173216666875987 0 -18.173216666875987 -98.17136912310923 0 0 0 0 838.19306337956914 77.265213053356376 0 77.265213053356376 -178.3373881729799 0 0 0 0 724.86410214993521 -90.339476102479694 0 -90.339476102479694 -73.177297598585483 0 0 0 0 1553.584234885624 112.46642578728301 0 112.46642578728301 -183.83955985609919 0 0 0 0 1023.5611210683201 -409.2213373554689 0 -409.2213373554689 246.39923913348321 0 0 0 0 2161.9473507215007 669.56814432464853 0 669.56814432464853 -144.82555953535211 0 0 0 0 2521.9302447070222 -1148.7610209483455 0 -1148.7610209483455 419.80334614400977 0 0 0 0 18.902708561918729 27.973967086670228 0 27.973967086670228 27.314558021900094 0 0 0 0 -7.6727609846784617 109.7046312027569 0 109.7046312027569 -40.04709557046408 0 0 0 0 269.87737816607114 194.39340305705207 0 194.39340305705207 129.73794926992559 0 0 0 0 356.09562666574493 514.96995691494203 0 514.96995691494203 198.70132974923399 0 0 0 0 -5.7855233163185176 8.4093072096009251 0 8.4093072096009251 3.4621450721188403 0 0 0 0 192.89741857844638 -3.365879012075311 0 -3.365879012075311 22.974749650783451 0 0 0 0 0.25816401298492053 6.125509366267508 0 6.125509366267508 -6.0816793679268137 0 0 0 0 -12.559975567288348 57.568832305572414 0 57.568832305572414 -154.57732854098231 0 0 0 0 258.064640154058 156.60426813531558 0 156.60426813531558 -127.1239248013826 0 0 0 0 177.86773271040147 -65.137805636551093 0 -65.137805636551093 164.23623421643242 0 0 0 0 -234.81568297510967 129.59966716838153 0 129.59966716838153 544.81706266419496 0 0 0 0 104.64878656271321 -728.98847246674381 0 -728.98847246674381 1596.478824437514 0 0 0 0 458.59786391959642 -556.88877905640948 0 -556.88877905640948 599.30060528792319 0 0 0 0 823.78538386170112 -545.77234227877443 0 -545.77234227877443 67.761262902086571 0 0 0 0 802.67813169606961 -588.48212779189453 0 -588.48212779189453 69.234668134957246 0 0 0 0 293.24135176079835 -118.44475124115024 0 -118.44475124115024 43.227308083451135 0 0 0 0 527.58172477744665 -309.79341670737949 0 -309.79341670737949 110.56457712317751 0 0 0 0 465.77354284052853 -903.22736032551757 0 -903.22736032551757 1940.3743018939067 0 0 0 0 29.29865696631785 -9.9788021450717181 0 -9.9788021450717181 3.0742424993798396 0 0 0 0 1321.4080688622053 347.55570105376046 0 347.55570105376046 -744.4941135296757 0 0 0 0 1363.2862480677577 -1370.7940775681618 0 -1370.7940775681618 742.90827995362542 0 0 0 0 1164.2598125288641 -178.31075118285253 0 -178.31075118285253 -446.80739979513737 0 0 0 0 2123.6133215009977 -613.68753619976474 0 -613.68753619976474 -293.43052239759982 0 0 0 0 784.83986846941843 -43.289781176575616 0 -43.289781176575616 -56.534591900809573 0 0 0 0 810.82407391957531 -172.0135691708756 0 -172.0135691708756 -68.962449199999355 0 0 0 0 977.40703083876042 -324.18569572217325 0 -324.18569572217325 6.016700827159184 0 0 0 0 731.34105950575031 -345.75672524826268 0 -345.75672524826268 67.523968851151949 0 0 0 0 665.65831310068461 -421.2873729052385 0 -421.2873729052385 232.27226004167096 0 0 0 0 735.0543409129823 -245.37155043975372 0 -245.37155043975372 -69.203941530291559 0 0 0 0 793.80588193824224 -337.38007673640368 0 -337.38007673640368 -33.510692477432485 0 0 0 0 668.6754990788686 -150.32271674223739 0 -150.32271674223739 -23.642569915808053 0 0 0 0 1188.9641568666921 -403.92383826933394 0 -403.92383826933394 -142.73544672347271 0 0 0 0 959.86082880196045 -363.47366597897781 0 -363.47366597897781 -146.36225406526319 0 0 0 0 1053.0078424285311 -175.04308211709031 0 -175.04308211709031 53.111907426438847 0 0 0 0 939.34612958930484 -255.24194838655819 0 -255.24194838655819 -52.299970964226304 0 0 0 0 981.199916612366 -295.65736360799917 0 -295.65736360799917 -49.367217759710911 0 0 0 0 1036.8301004073146 -373.71990202799088 0 -373.71990202799088 18.070169179230106 0 0 0 0 846.42315032136685 -288.75466132518295 0 -288.75466132518295 -9.2444297613305935 0 0 0 0 884.88978611068524 -205.53673969752208 0 -205.53673969752208 -30.001109111859478 0 0 0 0 649.56160081445705 -174.10948199086124 0 -174.10948199086124 156.87431252909937 0 0 0 0 682.53751541009115 -112.91578044605558 0 -112.91578044605558 13.813657092374342 0 0 0 0 445.10931641182106 -72.254813343952264 0 -72.254813343952264 273.97940866410954 0 0 0 0 442.45561309167533 -116.66991149496334 0 -116.66991149496334 44.761961629088546 0 0 0 0 267.82085445613484 -102.69975556660484 0 -102.69975556660484 16.235042795502522 0 0 0 0 514.10491337961867 -34.934414861630103 0 -34.934414861630103 32.043715913980122 0 0 0 0 484.9216508116333 -77.375092424351578 0 -77.375092424351578 -120.81742446134376 0 0 0 0 225.00825040458585 80.387051450726176 0 80.387051450726176 -87.649659879681167 0 0 0 0 224.75567627252894 59.954130426561733 0 59.954130426561733 -170.81248581303225 0 0 0 0 143.6279212432928 24.284358541917982 0 24.284358541917982 -91.766666731717123 0 0 0 0 -18.274978560439195 289.25000591111893 0 289.25000591111893 -187.1490307247841 0 0 0 0 471.57223733975843 21.340010907844771 0 21.340010907844771 -165.84830003306251 0 0 0 0 622.5156298455986 -203.57586432417429 0 -203.57586432417429 -73.757150931422075 0 0 0 0 422.21474064797803 -15.279954324550999 0 -15.279954324550999 -24.470804199094346 0 0 0 0 335.82881935856494 -51.807265623127023 0 -51.807265623127023 -67.180493737740107 0 0 0 0 351.49894982141996 -25.335520693020953 0 -25.335520693020953 -25.077692660405773 0 0 0 0 -165.16779963738009 232.67416911299733 0 232.67416911299733 -45.810473255514808 0 0 0 0 -82.239373912358133 93.873852498692486 0 93.873852498692486 -94.283617063485508 0 0 0 0 106.25191593612544 200.82102471080998 0 200.82102471080998 -172.80996755985461 0 0 0 0 -0.49684050009818748 73.646154549755465 0 73.646154549755465 -57.19444019783441 0 0 0 0 202.76104181421397 -36.129156922105267 0 -36.129156922105267 41.244332113446944 0 0 0 0 31.846675052756027 37.037000616172975 0 37.037000616172975 6.1449983562948027 0 0 0 0 185.08774662084807 109.09202671177943 0 109.09202671177943 -77.271070937260447 0 0 0 0 49.851865283155348 142.40448920687777 0 142.40448920687777 -14.88441771338853 0 0 0 0 4019.7304900259478 -100.95428511898362 0 -100.95428511898362 -817.67877141870179 0 0 0 0 5499.3380647582453 -628.79564362992187 0 -628.79564362992187 -652.72149770376325 0 0 0 0 3954.2214597425482 -447.91117225533361 0 -447.91117225533361 -247.87536578934231 0 0 0 0 3194.5305741142511 -386.87741081978027 0 -386.87741081978027 -59.681665861903568 0 0 0 0 33.297876499938653 19.897185976883634 0 19.897185976883634 25.016310820060056 0 0 0 0 27.170019997178102 1.0031213316477618 0 1.0031213316477618 -2.6378289813315092 0 0 0 0 4163.5684176325085 -1071.3829960587429 0 -1071.3829960587429 139.04612910957007 0 0 0 0 4212.1012723837921 -1201.1946939704451 0 -1201.1946939704451 98.267468174103016 0 0 0 0 5498.6344125951509 -1923.4054148039299 0 -1923.4054148039299 427.61727338966745 0 0 0 0 81.416600898483011 392.63820742078315 0 392.63820742078315 -299.51697258769127 0 0 0 0 -496.32509056034905 387.57561549438515 0 387.57561549438515 -114.24828724992949 0 0 0 0 40.582149861711599 45.297436917504626 0 45.297436917504626 27.652997807134717 0 0 0 0 1.73043973496533 283.67417331849265 0 283.67417331849265 -319.56757005935833 0 0 0 0 -130.87023855923326 186.74356736876871 0 186.74356736876871 -266.04941287500878 0 0 0 0 -128.41147764996276 280.13827897450574 0 280.13827897450574 -359.45791270468362 0 0 0 0 -126.03408329674858 259.58377870455342 0 259.58377870455342 -198.00073794555647 0 0 0 0 -851.3464469250539 685.84313311753635 0 685.84313311753635 -182.22175922703263 0 0 0 0 122.42494427025667 585.62027240843145 0 585.62027240843145 -582.80411067684236 0 0 0 0 5.7746551292948425 264.91026707705305 0 264.91026707705305 -253.5665541659946 0 0 0 0 287.34732992932186 74.929822236035079 0 74.929822236035079 -250.61974336509957 0 0 0 0 -129.34439453890081 176.39501026075959 0 176.39501026075959 -216.23262377692208 0 0 0 0 14.285183795902412 33.501144459288298 0 33.501144459288298 37.142768929518752 0 0 0 0 4781.6013081074198 -1928.249613197411 0 -1928.249613197411 707.29157340017468 0 0 0 0 31.046773665933387 31.351667001091158 0 31.351667001091158 20.519596880259055 0 0 0 0 5499.7426638691177 -2438.9876256150878 0 -2438.9876256150878 1064.2697776391674 0 0 0 0 -1253.4248090336187 567.83598871134143 0 567.83598871134143 1397.7419984556477 0 0 0 0 13.10352361847734 9.4148304192509613 0 9.4148304192509613 10.454611465097335 0 0 0 0 465.88520517021243 -37.23021515215396 0 -37.23021515215396 -352.11096570522955 0 0 0 0 103.32766435659141 -182.0086991478945 0 -182.0086991478945 555.38504835220829 0 0 0 0 399.25152276629524 47.318551632570234 0 47.318551632570234 6.1850990994698805 0 0 0 0 437.9295183600625 207.60985009359752 0 207.60985009359752 750.3496544646589 0 0 0 0 557.14625855567283 439.76731228636208 0 439.76731228636208 1289.6576728674434 0 0 0 0 501.16235937762212 41.570454589551787 0 41.570454589551787 961.16953399712156 0 0 0 0 1296.8944577222574 2069.4482510880434 0 2069.4482510880434 2032.2134117001185 0 0 0 0 5484.0507795301091 1838.5911524742917 0 1838.5911524742917 153.25081470868025 0 0 0 0 612.78884270222852 -101.51555461758876 0 -101.51555461758876 457.62206262511609 0 0 0 0 483.39606674293464 -192.80135042928123 0 -192.80135042928123 313.17376795472319 0 0 0 0 617.4852731871506 -8.5192970600737681 0 -8.5192970600737681 488.01720906507717 0 0 0 0 468.0721409695343 -5.1670941101500887 0 -5.1670941101500887 412.17929909158283 0 0 0 0 301.29366368711635 -193.86615558657422 0 -193.86615558657422 258.11589511892271 0 0 0 0 378.91311781892728 -167.91618997872843 0 -167.91618997872843 552.02626073532065 0 0 0 0 590.01526991365245 73.174067238184932 0 73.174067238184932 777.66755506600271 0 0 0 0 431.95705215728958 47.062277438467618 0 47.062277438467618 849.79319349066168 0 0 0 0 504.00690525436585 -83.826849842455772 0 -83.826849842455772 576.10145972967075 0 0 0 0 570.31894552939048 19.39261809152481 0 19.39261809152481 736.19459244693326 0 0 0 0 796.73105334443972 -20.75782390808854 0 -20.75782390808854 488.51488220558349 0 0 0 0 712.50362724849401 150.39471600335634 0 150.39471600335634 449.82600809464748 0 0 0 0 501.58313195053779 155.05595914419962 0 155.05595914419962 680.74099730345779 0 0 0 0 639.70149835393386 57.183291495243793 0 57.183291495243793 746.06299688909735 0 0 0 0 722.19890199006477 344.249031774728 0 344.249031774728 469.15657355638632 0 0 0 0 502.65175028854719 135.90059295802473 0 135.90059295802473 859.23108383421356 0 0 0 0 466.35065483670769 94.233859061835346 0 94.233859061835346 374.39293547841868 0 0 0 0 712.31980482075596 266.35760777162079 0 266.35760777162079 -118.01540237655627 0 0 0 0 758.17431083258998 70.558172222328409 0 70.558172222328409 445.43867888018758 0 0 0 0 712.92216978649958 266.72143645275366 0 266.72143645275366 30.957283316913852 0 0 0 0 4229.8543661388103 175.28462897597922 0 175.28462897597922 -313.46188432892387 0 0 0 0 2234.8913633690099 495.52264911652725 0 495.52264911652725 -282.51036059824855 0 0 0 0 2180.7868199299701 589.14545023277469 0 589.14545023277469 673.39489512292437 0 0 0 0 702.76185794460662 36.534455281119882 0 36.534455281119882 482.00593316078647 0 0 0 0 1398.5633526230813 154.55502081511736 0 154.55502081511736 150.98745540453592 0 0 0 0 388.24767801296184 -249.78400890531771 0 -249.78400890531771 -7.283972566579223 0 0 0 0 760.54561613239639 -109.36892671232272 0 -109.36892671232272 -318.74720645483831 0 0 0 0 4163.6562102089083 -1052.61444350949 0 -1052.61444350949 -908.95133485536508 0 0 0 0 5504.313010414051 -586.28590318812235 0 -586.28590318812235 -1415.8815432652248 0 0 0 0 877.07937856436183 -1912.1995496846682 0 -1912.1995496846682 -1128.0000781079725 0 0 0 0 1385.4342806287591 -844.12210135575094 0 -844.12210135575094 -335.33195495899031 0 0 0 0 4286.0059677296958 -988.76220888715443 0 -988.76220888715443 -1187.1800328545419 0 0 0 0 5488.7838830457185 -1321.582712900625 0 -1321.582712900625 -1099.7177926813915 0 0 0 0 -1011.1176257606712 -1842.6279448673031 0 -1842.6279448673031 -582.88929146229862 0 0 0 0 5521.3406638555389 -1108.3223936971081 0 -1108.3223936971081 192.70824726850219 0 0 0 0 25.156721508379903 -3.602579004710293 0 -3.602579004710293 -7.4286112002818747 0 0 0 0 3475.521259002373 3526.4206758338451 0 3526.4206758338451 2979.1734216519876 0 0 0 0 20.806355695960718 3.5070037096837829 0 3.5070037096837829 -7.6268436004936229 0 0 0 0 5493.0781854754678 2708.3831422264625 0 2708.3831422264625 528.3943989684177 0 0 0 0 366.57025149057517 39.521580763241218 0 39.521580763241218 -340.77417046995652 0 0 0 0 -1.7952536137654818 40.315130652541988 0 40.315130652541988 -50.009547972929546 0 0 0 0 117.18998575350336 -38.521090322688131 0 -38.521090322688131 2.4803010775330847 0 0 0 0 147.09549661686469 -550.55171001455301 0 -550.55171001455301 -1277.8083150731463 0 0 0 0 -280.23320661611069 -120.05082518103859 0 -120.05082518103859 -863.33881043304973 0 0 0 0 -816.29362400228274 -400.16933276878285 0 -400.16933276878285 -611.83320444112178 0 0 0 0 374.16589297830433 -147.76267075246744 0 -147.76267075246744 -947.73199428597127 0 0 0 0 26.612020419837791 -687.73893036378922 0 -687.73893036378922 -694.90521282933514 0 0 0 0 187.39329020029982 -125.03245081534351 0 -125.03245081534351 -231.38025018998769 0 0 0 0 653.99993288402038 -127.54836485926899 0 -127.54836485926899 -718.48659579893388 0 0 0 0 519.27613640266645 246.6194485220426 0 246.6194485220426 -422.74826499917208 0 0 0 0 421.43484079663176 126.16656284597195 0 126.16656284597195 -222.77778302892193 0 0 0 0 527.23544877696258 73.695055000369848 0 73.695055000369848 26.415770559348509 0 0 0 0 954.01418171173282 271.45176240267119 0 271.45176240267119 -308.91396509606966 0 0 0 0 505.9707785851715 -403.89473009953599 0 -403.89473009953599 -1075.8673160906633 0 0 0 0 120.6957827095539 -136.85612873706532 0 -136.85612873706532 -344.2495518231035 0 0 0 0 -169.54358777965535 -46.982571983688104 0 -46.982571983688104 -634.32154069133594 0 0 0 0 24.705259851227311 132.65832161169419 0 132.65832161169419 76.024026979303017 0 0 0 0 226.23339548503827 -179.26734770559369 0 -179.26734770559369 -829.01918669727456 0 0 0 0 86.043558278736924 -28.021038216885842 0 -28.021038216885842 7.9245873040453834 0 0 0 0 103.90932726874053 74.273503889692279 0 74.273503889692279 528.13801094349765 0 0 0 0 418.81918680039962 330.86708506503282 0 330.86708506503282 -401.48598743337493 0 0 0 0 170.08466894807862 411.51998406678354 0 411.51998406678354 217.0555551577072 0 0 0 0 266.33377079638922 414.09875363339415 0 414.09875363339415 -143.87591395837444 0 0 0 0 -14.457281907803257 23.389395349723337 0 23.389395349723337 -25.03824399266664 0 0 0 0 2838.1341266911913 1090.993342282201 0 1090.993342282201 94.402165725290175 0 0 0 0 5500.3918135711283 1669.6611585372837 0 1669.6611585372837 -571.21984913734457 0 0 0 0 3854.4708983647652 1816.9759325231162 0 1816.9759325231162 44.005079903271849 0 0 0 0 2468.8262867642316 1484.9726369436887 0 1484.9726369436887 851.46662766822078 0 0 0 0 3823.6946122260342 1866.1336214816158 0 1866.1336214816158 415.09520549438065 0 0 0 0 162.27311023361835 -120.16410715579786 0 -120.16410715579786 17.479288550575802 0 0 0 0 437.4655716388952 -559.96360352423471 0 -559.96360352423471 719.98318323503918 0 0 0 0 470.77165353931923 -774.017377651174 0 -774.017377651174 813.41914864619685 0 0 0 0 141.36418957005662 -189.06789913104149 0 -189.06789913104149 696.60784401646742 0 0 0 0 1261.0485802053299 -921.98680033330311 0 -921.98680033330311 -229.7025614944323 0 0 0 0 17.167286822983442 29.025789641861024 0 29.025789641861024 40.273343581886365 0 0 0 0 39.271018463710789 -46.849863462492976 0 -46.849863462492976 185.590669291425 0 0 0 0 5.3156777634303296 6.2705568188827314 0 6.2705568188827314 2.0673218876346837 0 0 0 0 24.020553647613269 6.2908738577348231 0 6.2908738577348231 11.063753578849173 0 0 0 0 6.5481027083840502 -4.1565852423119551 0 -4.1565852423119551 3.8981068079731926 0 0 0 0 25.701930843797527 -10.182618942666913 0 -10.182618942666913 -2.2386036863923877 0 0 0 0 59.14659266639778 32.188786268125725 0 32.188786268125725 16.739198895225353 0 0 0 0 110.04977883777428 55.493106169989744 0 55.493106169989744 -91.072752793431846 0 0 0 0 12.69751082888979 304.91859945733631 0 304.91859945733631 -92.768614053777128 0 0 0 0 73.030702530599228 7.2505532187089727 0 7.2505532187089727 -9.9291270580504261 0 0 0 0 2.4905856104305713 -6.9223849284971948 0 -6.9223849284971948 -1.8378174079880409 0 0 0 0 37.119472815633173 -7.4307890526053164 0 -7.4307890526053164 -9.1841660563975456 0 0 0 0 18.431064304955129 -4.3194738593379753 0 -4.3194738593379753 7.4544601795533048 0 0 0 0 60.702689715844514 39.11835252739877 0 39.11835252739877 20.156976034379777 0 0 0 0 233.16437778548061 57.605932677771762 0 57.605932677771762 -83.955227351165377 0 0 0 0 -28.170306148647796 196.77041762347289 0 196.77041762347289 107.78952500184823 0 0 0 0 1939.6959793169372 913.06993366457527 0 913.06993366457527 2446.8913470793059 0 0 0 0 2961.3391682977417 -1731.3654336373054 0 -1731.3654336373054 126.89712745601901 0 0 0 0 15.55923476292476 0.42850798774618681 0 0.42850798774618681 -16.200105088711386 0 0 0 0 3207.5691809427954 -1520.4988512956397 0 -1520.4988512956397 -298.35622484388114 0 0 0 0 926.56758572017134 696.03535440737551 0 696.03535440737551 -186.70911501682986 0 0 0 0 34.553349059066278 -10.446077746430189 0 -10.446077746430189 3.1221508832565856 0 0 0 0 3545.824353553151 1546.4746515128281 0 1546.4746515128281 73.536413400719539 0 0 0 0 1205.7332118567847 -1827.6739284401906 0 -1827.6739284401906 217.65508962405329 0 0 0 0 5180.5513108000523 -2209.1005559515552 0 -2209.1005559515552 -1360.3122175559856 0 0 0 0 1322.6892823083035 -1167.6333864235967 0 -1167.6333864235967 -494.45860211167928 0 0 0 0 1535.2136561957741 -952.66649883357877 0 -952.66649883357877 -524.38155308115756 0 0 0 0 2832.7137323677016 -504.67188325428287 0 -504.67188325428287 -581.49179606700091 0 0 0 0 1623.019724422833 -307.69766223836086 0 -307.69766223836086 -603.42241585715465 0 0 0 0 2583.1538047052672 516.94932809490115 0 516.94932809490115 -594.35607604365578 0 0 0 0 1100.295440777787 486.06771972193928 0 486.06771972193928 -514.75015296221818 0 0 0 0 1149.8032207686047 311.23757779680273 0 311.23757779680273 -507.08478859758816 0 0 0 0 1026.6870603854113 135.57201154278846 0 135.57201154278846 -56.702550740903916 0 0 0 0 1815.9181016895745 219.10501759562521 0 219.10501759562521 -499.56622810296631 0 0 0 0 1564.6005765325535 341.61923887510875 0 341.61923887510875 -463.03050938479095 0 0 0 0 1549.6177929519617 78.601530957147588 0 78.601530957147588 -273.43652565668799 0 0 0 0 1914.9603171207964 -41.000884829453412 0 -41.000884829453412 -382.67407784499483 0 0 0 0 1633.6852281186148 106.98528877521017 0 106.98528877521017 -388.69235264191201 0 0 0 0 1516.5847643110465 22.932075349936554 0 22.932075349936554 -145.85506561437879 0 0 0 0 1566.0983365776447 -217.88081841754354 0 -217.88081841754354 -96.302820842698566 0 0 0 0 1291.1388791514619 -197.58389268805024 0 -197.58389268805024 -112.29779271761436 0 0 0 0 1242.6813006432058 -371.25443517175154 0 -371.25443517175154 -81.520265486697099 0 0 0 0 4.1729531968667146 -3.0840497843013566 0 -3.0840497843013566 -0.2829459481593517 0 0 0 0 1119.9731950186724 -199.13514413771304 0 -199.13514413771304 -86.201535527126907 0 0 0 0 987.14261025043379 -407.1467453709256 0 -407.1467453709256 -81.681242440623464 0 0 0 0 1573.5802959057473 -695.26112114890111 0 -695.26112114890111 -292.71504050876024 0 0 0 0 -56.251991256140172 7.4493867752858023 0 7.4493867752858023 67.873700281793617 0 0 0 0 12.984938445286389 67.248929100582018 0 67.248929100582018 114.43984814773876 0 0 0 0 353.13357924344746 -369.24493797157294 0 -369.24493797157294 28.275458322387294 0 0 0 0 26.76554224519289 -19.118086702624112 0 -19.118086702624112 12.916890417157578 0 0 0 0 33.273334573867032 -68.16432175693194 0 -68.16432175693194 -249.01770060212039 0 0 0 0 844.25067005895835 468.50309595034275 0 468.50309595034275 -19.012053780296583 0 0 0 0 2044.4229150453393 523.99864141909597 0 523.99864141909597 -81.217250777857771 0 0 0 0 -13.057652444410905 -477.94274229911497 0 -477.94274229911497 403.34419444501327 0 0 0 0 12.909911356118556 -7.5252038459931612 0 -7.5252038459931612 3.7604628539778355 0 0 0 0 44.593430356977024 90.555066226882815 0 90.555066226882815 -31.048758128192276 0 0 0 0 -8.7996441848954419 7.9912860124125018 0 7.9912860124125018 99.062199529791542 0 0 0 0 1093.9080483069629 186.27810908293691 0 186.27810908293691 -68.134341227932509 0 0 0 0 1402.5701326294657 -172.68856811287662 0 -172.68856811287662 330.84446633603159 0 0 0 0 1668.1411738979514 131.28563960308122 0 131.28563960308122 -255.37044174251298 0 0 0 0 2172.8335259263104 -300.95325856496527 0 -300.95325856496527 107.9489004229888 0 0 0 0 1516.2505093660511 -469.89728840931423 0 -469.89728840931423 860.30337958198015 0 0 0 0 890.78319509738503 -36.338415542615962 0 -36.338415542615962 645.35118916200531 0 0 0 0 708.40944279037649 101.69561003038552 0 101.69561003038552 687.39489800597687 0 0 0 0 1079.7707827223639 11.87646043525433 0 11.87646043525433 345.69057168928725 0 0 0 0 812.93269084395433 28.847627055213252 0 28.847627055213252 640.0715083093985 0 0 0 0 1042.0400588201373 -14.431594627668346 0 -14.431594627668346 609.57342087897632 0 0 0 0 1038.5085141732561 92.169245528822103 0 92.169245528822103 1034.5212054905746 0 0 0 0 1173.1298264119523 -327.27110429275797 0 -327.27110429275797 146.10900396995294 0 0 0 0 2060.6933375967492 71.212166494245594 0 71.212166494245594 309.26970161062627 0 0 0 0 1101.7094926662612 -283.12423770702844 0 -283.12423770702844 118.82738722835393 0 0 0 0 1331.8214262884103 27.530756111597384 0 27.530756111597384 272.1284357798877 0 0 0 0 877.81522832109476 -195.51572052126266 0 -195.51572052126266 169.52867772295076 0 0 0 0 921.46083859808277 -62.339268481638555 0 -62.339268481638555 201.22528959838746 0 0 0 0 494.40663060419865 -359.7224035647024 0 -359.7224035647024 242.5050670282626 0 0 0 0 0.24773087430625651 -0.074178652940823042 0 -0.074178652940823042 0.2194436400949229 0 0 0 0 446.17045017736564 -459.66432057086439 0 -459.66432057086439 348.54048314531428 0 0 0 0 1176.802160508596 -871.61922293989574 0 -871.61922293989574 375.35135231761831 0 0 0 0 709.78678716511058 -611.01816568409231 0 -611.01816568409231 343.28631470529865 0 0 0 0 1147.6578239067021 -490.74584091350437 0 -490.74584091350437 113.4115060847198 0 0 0 0 533.66796580933078 -366.43996185175411 0 -366.43996185175411 231.68081461512884 0 0 0 0 361.75629721779842 -430.68367867102234 0 -430.68367867102234 296.00374520636979 0 0 0 0 235.00592743493326 -50.284649312483964 0 -50.284649312483964 56.599959821859557 0 0 0 0 496.72381591000885 -319.27375769226637 0 -319.27375769226637 181.14332826808368 0 0 0 0 2.2787648016345088 -2.4704358114542373 0 -2.4704358114542373 -0.42876234441174432 0 0 0 0 11.997334615050931 -5.3940449966798951 0 -5.3940449966798951 25.270876651501339 0 0 0 0 2.4318716045236215 12.178851859326642 0 12.178851859326642 14.960040772352386 0 0 0 0 15.94547425708879 5.102795393012002 0 5.102795393012002 4.8908569569125575 0 0 0 0 9.4471358879265779 -12.070272343282667 0 -12.070272343282667 -1.9676735270899961 0 0 0 0 -26.318859487422742 -28.216941473758652 0 -28.216941473758652 7.2486250692145404 0 0 0 0 21.738059443494421 -0.72543518610200408 0 -0.72543518610200408 7.7461782751183819 0 0 0 0 -13.599574038230969 -9.716354155440726 0 -9.716354155440726 -2.1260700389862404 0 0 0 0 -0.80509371319480749 -3.4111012503091303 0 -3.4111012503091303 1.7660070798705192 0 0 0 0 -11.344597625278766 -19.033190658668218 0 -19.033190658668218 7.193786731992077 0 0 0 0 -11.075827492604731 -21.303764861287505 0 -21.303764861287505 26.213642237183194 0 0 0 0 -16.126945971642272 -25.58179025259642 0 -25.58179025259642 0.50138436564384392 0 0 0 0 4.265485732003981 -52.138781304919831 0 -52.138781304919831 31.896134595471267 0 0 0 0 2.8339234194354503 -27.072135290136202 0 -27.072135290136202 2.2908263605600041 0 0 0 0 -14.874498299507664 -17.425510097285326 0 -17.425510097285326 -16.433321059949492 0 0 0 0 -5.511032196423912 -20.077070434219195 0 -20.077070434219195 -3.5727039810731185 0 0 0 0 -15.201015158701921 -28.03299134648887 0 -28.03299134648887 3.0392004531527164 0 0 0 0 -24.851070515311221 -15.649261657462773 0 -15.649261657462773 -1.6079509455157677 0 0 0 0 -2.5661129260779987 -3.6134992617328408 0 -3.6134992617328408 -1.3232580857347696 0 0 0 0 -11.69143057751954 -15.407180180400857 0 -15.407180180400857 -13.502000582286264 0 0 0 0 3.9475091266342872 -12.289384055858818 0 -12.289384055858818 -7.2824288822164167 0 0 0 0 4.7787751962168841 -31.213977864934577 0 -31.213977864934577 -24.465648940171832 0 0 0 0 -22.35786526161246 -15.032001162900542 0 -15.032001162900542 -3.9894961900990893 0 0 0 0 34.585546934064041 -2.8416795969192208 0 -2.8416795969192208 -20.744182833630475 0 0 0 0 -13.86152047807991 -27.414720191475908 0 -27.414720191475908 -6.7933390215169425 0 0 0 0 51.541922087431885 -28.109587036928133 0 -28.109587036928133 -10.865711136349319 0 0 0 0 6.3517732465526962 -8.0173443966979931 0 -8.0173443966979931 -13.169973865910563 0 0 0 0 6.7409686342798523 -19.532832054832511 0 -19.532832054832511 -6.7569257102504707 0 0 0 0 30.325785245782754 -4.7911059352576331 0 -4.7911059352576331 -14.196374333359927 0 0 0 0 31.072677571697568 -6.4021824751901022 0 -6.4021824751901022 -27.110647093333682 0 0 0 0 65.784081204001268 -46.93250719667742 0 -46.93250719667742 -12.517343324096146 0 0 0 0 66.157913007344177 -39.74371536392168 0 -39.74371536392168 -8.0498664363335592 0 0 0 0 68.258855477019097 -47.233334606247126 0 -47.233334606247126 -21.783146716945339 0 0 0 0 51.404605166942929 -26.330870453183024 0 -26.330870453183024 -31.865000868981951 0 0 0 0 75.713284870260395 -29.746265056242919 0 -29.746265056242919 -19.117443638376244 0 0 0 0 63.211531588312937 -45.39124762429492 0 -45.39124762429492 -26.732760659412179 0 0 0 0 98.354560735540872 -37.881057747954515 0 -37.881057747954515 -54.403320974613052 0 0 0 0 28.611118393557263 -24.633580063783029 0 -24.633580063783029 -29.670245091792367 0 0 0 0 26.792887294694083 -10.378262272774919 0 -10.378262272774919 -12.736555004650654 0 0 0 0 57.182711169240065 -16.801335335306248 0 -16.801335335306248 -11.514024855882781 0 0 0 0 107.98775852254403 -5.6688922051052941 0 -5.6688922051052941 -30.993583839250277 0 0 0 0 -8.6938304282588632 -5.8405810482734353 0 -5.8405810482734353 -3.4400079436405218 0 0 0 0 26.670262717147125 -29.176519887364975 0 -29.176519887364975 -44.13328038590771 0 0 0 0 28.674397028036765 -18.120040078903912 0 -18.120040078903912 -39.357257974757431 0 0 0 0 25.882321223252802 -12.224011910884201 0 -12.224011910884201 -16.469233060341139 0 0 0 0 20.143095210049069 -21.658835419701063 0 -21.658835419701063 -35.170208664070287 0 0 0 0 15.295792655939294 -24.360077065902487 0 -24.360077065902487 -44.590078779025816 0 0 0 0 20.295846668956074 -19.54511772468436 0 -19.54511772468436 -46.499939317201552 0 0 0 0 25.021545973606408 -4.5871995725619854 0 -4.5871995725619854 -67.026325532765895 0 0 0 0 -0.18949125143444689 26.562276655990161 0 26.562276655990161 -19.400083654479204 0 0 0 0 19.693003700042027 9.1929362870102977 0 9.1929362870102977 -28.537955226799568 0 0 0 0 35.516942738453508 -6.6196632525029599 0 -6.6196632525029599 -20.474373417961033 0 0 0 0 34.006595798127819 -9.9217953986453722 0 -9.9217953986453722 -18.304039769234805 0 0 0 0 28.657179780624574 -8.2763930503979282 0 -8.2763930503979282 -18.789402682807122 0 0 0 0 30.32370198823628 -2.8527810723971925 0 -2.8527810723971925 -22.531868201906036 0 0 0 0 24.243810307285457 -6.6253152004186404 0 -6.6253152004186404 -20.304305337936967 0 0 0 0 28.853666754810547 -4.9865094548142679 0 -4.9865094548142679 -28.946451786727266 0 0 0 0 815.61821300459269 49.055689096205697 0 49.055689096205697 -138.9748591352444 0 0 0 0 111.69039950763545 110.44057049091225 0 110.44057049091225 75.842069261344477 0 0 0 0 641.27212597720791 57.854497671873105 0 57.854497671873105 -132.57021294178594 0 0 0 0 26.23297127415551 -81.105745004413137 0 -81.105745004413137 21.784481929942132 0 0 0 0 -32.104769224984921 -237.62835951959289 0 -237.62835951959289 -71.389598723950712 0 0 0 0 114.66272971464787 -93.356608894139526 0 -93.356608894139526 -37.510226840800897 0 0 0 0 120.9377941464918 -96.09080283893104 0 -96.09080283893104 -12.292083973086164 0 0 0 0 115.43675834874739 -72.629479913561113 0 -72.629479913561113 -17.954731065916917 0 0 0 0 104.75245496506977 -92.946851789619814 0 -92.946851789619814 36.903863031431342 0 0 0 0 114.64350880034908 -86.49870234948537 0 -86.49870234948537 -2.7652921452690862 0 0 0 0 111.5929169721785 -74.990135222551885 0 -74.990135222551885 8.5260656158893653 0 0 0 0 120.46718808707374 -84.091015739729187 0 -84.091015739729187 -15.946831048548574 0 0 0 0 107.87478764125262 -49.645766275519691 0 -49.645766275519691 -47.68718393702261 0 0 0 0 100.92963128699921 -66.808708973433113 0 -66.808708973433113 12.967339029151276 0 0 0 0 155.26478592597414 -27.818555297442572 0 -27.818555297442572 -38.794453332505327 0 0 0 0 85.474139126579757 -2.0967857804898813 0 -2.0967857804898813 -41.075314139003694 0 0 0 0 37.029797085109749 -42.748099578519827 0 -42.748099578519827 -38.501542021662317 0 0 0 0 10.527677463542204 0.84144565656993109 0 0.84144565656993109 -27.933736898580264 0 0 0 0 109.53396581299603 110.44163029939682 0 110.44163029939682 -117.64570244750644 0 0 0 0 4.3866381507266397 2.0768385427609601 0 2.0768385427609601 0.8736013809032146 0 0 0 0 149.69728203750128 -54.950113250922641 0 -54.950113250922641 -126.44624840732945 0 0 0 0 358.11203058467345 7.1429189251923475 0 7.1429189251923475 -118.49265280392865 0 0 0 0 326.65055894773104 -229.50249220142683 0 -229.50249220142683 -119.47213358286581 0 0 0 0 -329.64992970894673 -172.24270626828638 0 -172.24270626828638 335.97297604003393 0 0 0 0 -167.13778284138243 -166.12972739690468 0 -166.12972739690468 451.60994422101658 0 0 0 0 24.461135786668379 -78.875537292080637 0 -78.875537292080637 10.944708602232829 0 0 0 0 799.7393812717346 284.55851968403658 0 284.55851968403658 -48.325774087631999 0 0 0 0 -185.66237675014418 -48.608159456121626 0 -48.608159456121626 37.960986872114972 0 0 0 0 -75.419234327167942 -219.19046912016847 0 -219.19046912016847 243.45561719343004 0 0 0 0 29.59517234044408 -75.136553621966002 0 -75.136553621966002 -13.124076780257859 0 0 0 0 397.80722556041292 -90.218980114511737 0 -90.218980114511737 -70.853269226062253 0 0 0 0 -124.49415034464619 13.136632217737997 0 13.136632217737997 67.973943855215794 0 0 0 0 -75.209975319034129 -32.705926062055084 0 -32.705926062055084 -70.314572026897622 0 0 0 0 35.640137423426495 66.503972554621782 0 66.503972554621782 3.7666401186586427 0 0 0 0 13.104007542372699 -23.174527508957731 0 -23.174527508957731 -6.0870575559026543 0 0 0 0 207.6333812651792 -128.80962334305227 0 -128.80962334305227 -9.1882923326738819 0 0 0 0 10.72009544331533 -0.34987034578092269 0 -0.34987034578092269 0.14760157337418522 0 0 0 0 252.98209716402562 -471.41031510421431 0 -471.41031510421431 384.44521477290482 0 0 0 0 221.76979520911118 -256.62216772492116 0 -256.62216772492116 173.03450873326233 0 0 0 0 196.59977954334317 -468.60869068724503 0 -468.60869068724503 744.01103641522786 0 0 0 0 12.1707974003657 -141.20887707412334 0 -141.20887707412334 246.15865766946007 0 0 0 0 4.7491458224890266 -2.9998716867730186 0 -2.9998716867730186 0.11560331924735306 0 0 0 0 293.23123373429189 252.75798491680371 0 252.75798491680371 -398.37912895186605 0 0 0 0 -87.881901537457452 -136.30969464091532 0 -136.30969464091532 -183.91825585271772 0 0 0 0 422.41155703217373 -1.6652337495186202 0 -1.6652337495186202 -53.514593891307072 0 0 0 0 318.13694644744601 -84.390509245860784 0 -84.390509245860784 -62.373865293398239 0 0 0 0 353.36506680768252 286.87869069658677 0 286.87869069658677 -174.5697041365022 0 0 0 0 142.1748954160139 -75.624497411595144 0 -75.624497411595144 -11.380255601790921 0 0 0 0 211.76584195772011 14.860500402722664 0 14.860500402722664 -154.38603008356358 0 0 0 0 124.73489596685977 -78.51935758489617 0 -78.51935758489617 -10.964344077787246 0 0 0 0 158.3396567490654 -151.04506084365988 0 -151.04506084365988 -113.27870014485734 0 0 0 0 229.2996955520648 -121.91010982446164 0 -121.91010982446164 -484.91341613076577 0 0 0 0 222.93460741602757 -43.856085897138883 0 -43.856085897138883 -284.4869765201297 0 0 0 0 175.94131878961343 -69.966529597473027 0 -69.966529597473027 -292.34542847836474 0 0 0 0 -561.5435033904505 -184.98688497955754 0 -184.98688497955754 72.446624145476306 0 0 0 0 185.81491350541182 -124.20917074241333 0 -124.20917074241333 -325.21998953167213 0 0 0 0 226.18146365766006 -100.39798546899169 0 -100.39798546899169 -319.24676026180992 0 0 0 0 287.75407456413086 18.434339279101437 0 18.434339279101437 -145.21836711824085 0 0 0 0 93.932208674144931 -63.271556429783345 0 -63.271556429783345 -9.646242359888447 0 0 0 0 123.65544360185595 -75.891156781129155 0 -75.891156781129155 -17.359198721232133 0 0 0 0 6.1526705154590928 -80.350489719078695 0 -80.350489719078695 -42.513770180620838 0 0 0 0 107.25353620303213 -193.139843737403 0 -193.139843737403 -334.2258971562278 0 0 0 0 -76.081037341929914 -119.38362263327872 0 -119.38362263327872 -138.51146239853551 0 0 0 0 -117.57089393803108 -135.5498003965622 0 -135.5498003965622 201.88155462218128 0 0 0 0 544.58702673241351 -220.78846229937017 0 -220.78846229937017 -652.07367917011561 0 0 0 0 25.001472568064003 -79.450820252490217 0 -79.450820252490217 -30.66514253290287 0 0 0 0 -0.81883737701091519 1.0011062950001701 0 1.0011062950001701 -4.8901527908739624 0 0 0 0 -1036.1044275598797 -413.64772239903215 0 -413.64772239903215 296.86330153867766 0 0 0 0 13.840403990972845 -58.298271611924065 0 -58.298271611924065 -48.398519170316376 0 0 0 0 -74.178828899899599 -33.546990807004704 0 -33.546990807004704 54.776443019127328 0 0 0 0 29.988725118216507 -28.335827964527226 0 -28.335827964527226 15.597880239523537 0 0 0 0 -48.879322249216784 -82.792916316452192 0 -82.792916316452192 1.3816680407135209 0 0 0 0 25.74665701041522 -22.411939267657544 0 -22.411939267657544 -54.499961012361382 0 0 0 0 27.512037112901453 -36.487832115253241 0 -36.487832115253241 -60.681535299333746 0 0 0 0 12.335825513450622 -20.289831973143535 0 -20.289831973143535 -22.33186639615759 0 0 0 0 28.600649526277266 -25.343100077060285 0 -25.343100077060285 -34.185311065237329 0 0 0 0 26.591874794568866 -49.611250649267959 0 -49.611250649267959 -30.115290779711358 0 0 0 0 28.335565122302796 -22.370140122467205 0 -22.370140122467205 -37.289136428995334 0 0 0 0 25.454932460226701 -29.21359840305081 0 -29.21359840305081 -21.303278283448435 0 0 0 0 24.433622275435482 -33.792495067925756 0 -33.792495067925756 -41.04302376510168 0 0 0 0 28.924933224872802 -6.5562096425101117 0 -6.5562096425101117 -29.7392265489691 0 0 0 0 376.67893363593976 -115.71421310125305 0 -115.71421310125305 -124.824323998512 0 0 0 0 53.270256774652808 -1.2425968780196399 0 -1.2425968780196399 -87.749080144629943 0 0 0 0 18.172085384864943 1.9584298438533949 0 1.9584298438533949 0.76765796114790774 0 0 0 0 829.22914356723777 -574.36553647922005 0 -574.36553647922005 2.1715831610094938 0 0 0 0 6.1819435402636032 -14.245512182512911 0 -14.245512182512911 22.529145217498279 0 0 0 0 -15.043315508952219 -61.658319498352739 0 -61.658319498352739 36.414900809776555 0 0 0 0 546.69642089393164 -225.26522079634537 0 -225.26522079634537 616.28770104266368 0 0 0 0 19.866705176289543 -45.669610093564188 0 -45.669610093564188 -22.459620159107544 0 0 0 0 4.9980457310011843 -41.630769748828243 0 -41.630769748828243 14.277575306836297 0 0 0 0 10.486661324273712 -22.997852908864324 0 -22.997852908864324 -18.733805964001448 0 0 0 0 89.566932433983311 -88.214111527830028 0 -88.214111527830028 29.851973497879953 0 0 0 0 -11.154014487241511 -40.558243963401765 0 -40.558243963401765 72.451564239433537 0 0 0 0 -26.637199968012283 2.1078923617478722 0 2.1078923617478722 -23.717554527761422 0 0 0 0 -11.235481941142098 -43.094244649770957 0 -43.094244649770957 -5.5640341751295637 0 0 0 0 72.593827936711023 -33.512392590187119 0 -33.512392590187119 1.9234383905641153 0 0 0 0 17.476611182908528 -21.601774967594793 0 -21.601774967594793 3.0835974374808757 0 0 0 0 491.94429488766764 69.641506868082729 0 69.641506868082729 -231.26370798279618 0 0 0 0 2.6746105341730271 -7.0551171336951484 0 -7.0551171336951484 15.184869550741006 0 0 0 0 719.22431725462229 106.99919876117156 0 106.99919876117156 -149.4195649793125 0 0 0 0 -204.61314065371698 -152.87995502663534 0 -152.87995502663534 -21.2117695075558 0 0 0 0 -120.44403539405903 -14.342405776793612 0 -14.342405776793612 -6.0847806576057337 0 0 0 0 -5.8207777893112507 -49.705088329415048 0 -49.705088329415048 -30.34239235622772 0 0 0 0 -19.506437447344069 -63.862865603763566 0 -63.862865603763566 -54.97740109735787 0 0 0 0 25.874135596626729 -35.84524047582272 0 -35.84524047582272 -29.289257520526007 0 0 0 0 8.2340796491043875 -16.695767364928543 0 -16.695767364928543 -38.402496382788968 0 0 0 0 13.488100611415575 -22.083167016092375 0 -22.083167016092375 -41.027240625227932 0 0 0 0 3.483958651238936 -40.140125157722196 0 -40.140125157722196 -18.188085052991937 0 0 0 0 29.910239430842921 -56.262698923548669 0 -56.262698923548669 -10.835870187718683 0 0 0 0 15.223531994524819 -56.110343253605606 0 -56.110343253605606 8.4601653633035312 0 0 0 0 12.593329590468784 -35.668281963529807 0 -35.668281963529807 -24.217247525885796 0 0 0 0 19.311367244197754 -48.814693824910137 0 -48.814693824910137 11.521667581853762 0 0 0 0 40.36304674843268 -66.099099405663765 0 -66.099099405663765 0.55998254545556847 0 0 0 0 8.8307877947518136 -61.354109425729348 0 -61.354109425729348 48.169634360867349 0 0 0 0 -22.455811524695889 -14.99293862726352 0 -14.99293862726352 2.8759076776489962 0 0 0 0 -7.3502038222859483 -27.882167706770872 0 -27.882167706770872 44.312787152573947 0 0 0 0 -9.6289330635190709 -43.339424965378385 0 -43.339424965378385 119.50896223301243 0 0 0 0 -1.6282458839377227 -3.9185359339730823 0 -3.9185359339730823 -5.5885672215949782 0 0 0 0 71.954986413211714 -100.90681488065579 0 -100.90681488065579 58.887606108564796 0 0 0 0 4.3473337239556713 -10.802969604631357 0 -10.802969604631357 29.575367605420979 0 0 0 0 2.6124343161209254 -33.951157785214491 0 -33.951157785214491 11.52899706829794 0 0 0 0 -12.479170087899092 -7.9323999723413365 0 -7.9323999723413365 2.6185354909143665 0 0 0 0 -1.1249907714809524 -39.872688771637513 0 -39.872688771637513 15.809101193497554 0 0 0 0 82.582678863585897 -20.73353579966124 0 -20.73353579966124 -74.966098450922686 0 0 0 0 -19.24164224715787 -9.5963764492844348 0 -9.5963764492844348 11.622391437106444 0 0 0 0 11.844078140667989 -34.868501141211709 0 -34.868501141211709 -20.154371182228715 0 0 0 0 17.741072697666823 -51.945328834356587 0 -51.945328834356587 -16.967961474491176 0 0 0 0 -19.522872318400914 -35.166109406096666 0 -35.166109406096666 -30.683665319678767 0 0 0 0 5.4303483209837395 -11.542406472523453 0 -11.542406472523453 5.3416442814976062 0 0 0 0 39.753204987154852 -14.604753432112553 0 -14.604753432112553 -21.48538554679795 0 0 0 0 44.891916074080655 -11.368116566272477 0 -11.368116566272477 -26.9386066790521 0 0 0 0 -23.20695012599208 -110.7046986305175 0 -110.7046986305175 40.839425171167477 0 0 0 0 3.7400075681121621 -0.64841010677641364 0 -0.64841010677641364 0.45325088087296805 0 0 0 0 43.904368540323048 -75.73506099577645 0 -75.73506099577645 137.05382919391968 0 0 0 0 8.5656656318897149 -1.6499769031563574 0 -1.6499769031563574 -10.528877644344789 0 0 0 0 -9.9263619504999951 -46.178264572188937 0 -46.178264572188937 -19.361595785318286 0 0 0 0 2.2075395057472633 -29.850048736773715 0 -29.850048736773715 -29.385609496664983 0 0 0 0 -46.964286665905092 -57.811945495849159 0 -57.811945495849159 10.632889840986536 0 0 0 0 29.748227135800789 -24.42849334218203 0 -24.42849334218203 -12.593695500990082 0 0 0 0 2.1955604192404223 -2.9328571806382016 0 -2.9328571806382016 3.8187056363595087 0 0 0 0 -19.872181233435185 -9.4646119299030715 0 -9.4646119299030715 92.203136815872313 0 0 0 0 211.19881931408599 -28.502638005146309 0 -28.502638005146309 -195.40154301183338 0 0 0 0 55.536016779202328 53.296233131275358 0 53.296233131275358 -8.8242230868531806 0 0 0 0 -51.215775172502617 -31.215255903488924 0 -31.215255903488924 -46.888864461961816 0 0 0 0 52.678961317222274 -241.47962363552676 0 -241.47962363552676 -204.65991524643869 0 0 0 0 175.45055923558539 -192.84195290987191 0 -192.84195290987191 -277.59851238893361 0 0 0 0 -182.67034493206302 249.15063477453197 0 249.15063477453197 328.59839989190544 0 0 0 0 -396.12500813220322 -87.447143494234695 0 -87.447143494234695 185.46502981248045 0 0 0 0 0.87438207953404401 -1.3481578118613839 0 -1.3481578118613839 5.9889197158051424 0 0 0 0 -24.274885944789276 -68.778253010259732 0 -68.778253010259732 -24.44771236099308 0 0 0 0 106.2255482513574 -100.82788463446718 0 -100.82788463446718 -16.669082494854592 0 0 0 0 -13.117016136020538 -100.83562708329805 0 -100.83562708329805 115.25595438833295 0 0 0 0 31.702151455509011 -166.68488563407846 0 -166.68488563407846 43.786605336603998 0 0 0 0 20.020982906135032 -110.68101659754929 0 -110.68101659754929 5.3417289659355873 0 0 0 0 21.462695593887474 -124.08898367531197 0 -124.08898367531197 -22.799484606519034 0 0 0 0 133.72201615827692 -50.176357371089154 0 -50.176357371089154 7.484946277139537 0 0 0 0 233.23183380889532 -136.01496389607564 0 -136.01496389607564 -155.19808732539605 0 0 0 0 -17.630825716019899 -194.31856946371931 0 -194.31856946371931 -153.0217435499203 0 0 0 0 46.184126202046173 -115.04674005706579 0 -115.04674005706579 -101.55190563782844 0 0 0 0 3.5103410874435212 -164.04885119440735 0 -164.04885119440735 -59.70662018713324 0 0 0 0 53.519440685922746 -32.276215237197903 0 -32.276215237197903 -213.21455527284525 0 0 0 0 57.331312839696025 42.404144894003942 0 42.404144894003942 -45.077581655999282 0 0 0 0 -102.69156247397768 -149.33802277142769 0 -149.33802277142769 -7.8545452187954652 0 0 0 0 -111.61879358861188 -123.42550791079088 0 -123.42550791079088 -40.83489663069372 0 0 0 0 -84.511151360056829 -159.11374542102612 0 -159.11374542102612 -23.957696889607632 0 0 0 0 -93.079408898531256 -176.35704892562376 0 -176.35704892562376 4.6131470557256762 0 0 0 0 126.84534316866666 -193.67504768315359 0 -193.67504768315359 -113.25583781660407 0 0 0 0 86.276285917858331 -16.586449494424414 0 -16.586449494424414 -71.086468311717908 0 0 0 0 63.895362159357809 -44.842164835139002 0 -44.842164835139002 -14.86352699127097 0 0 0 0 459.13083826562797 157.22631561404341 0 157.22631561404341 -151.33706020259797 0 0 0 0 25.852066781716392 -0.8227043538410328 0 -0.8227043538410328 -15.906435482356759 0 0 0 0 277.48076974194919 13.116616919480293 0 13.116616919480293 -240.73210688899781 0 0 0 0 266.25793694950335 -108.57067118273881 0 -108.57067118273881 189.22576555302658 0 0 0 0 101.2426814668094 61.223968176272635 0 61.223968176272635 -14.686459402900308 0 0 0 0 84.787228594832413 103.5195040889094 0 103.5195040889094 9.7549115010740479 0 0 0 0 88.733297915037838 105.11116626854636 0 105.11116626854636 -39.786981479107517 0 0 0 0 55.995824769761384 24.619414591487953 0 24.619414591487953 -37.451195216383894 0 0 0 0 97.643226786065497 77.346594008972829 0 77.346594008972829 -31.386155731962049 0 0 0 0 159.13783540367035 85.414232506855086 0 85.414232506855086 -32.880293761736539 0 0 0 0 158.21995623782277 115.76226054914741 0 115.76226054914741 -7.684226708162214 0 0 0 0 102.50338852716231 76.964703040624727 0 76.964703040624727 73.470738440071045 0 0 0 0 110.6431352529471 98.176994172578475 0 98.176994172578475 121.25239506431399 0 0 0 0 39.911589339477359 -106.83644034447002 0 -106.83644034447002 -48.428459616292002 0 0 0 0 -17.587373851867596 -13.96381185339294 0 -13.96381185339294 -2.9235246095486218 0 0 0 0 75.073487417177603 74.301613373871987 0 74.301613373871987 58.415632984156446 0 0 0 0 8.773352085365218 -5.1689866001407729 0 -5.1689866001407729 0.26695959525833235 0 0 0 0 52.819536727600592 -25.252040846280394 0 -25.252040846280394 -6.0512380226341982 0 0 0 0 103.35271212278894 80.13949810672375 0 80.13949810672375 -2.5214720177681329 0 0 0 0 -741.7344534307922 -667.3027141427192 0 -667.3027141427192 -643.14860689485658 0 0 0 0 39.750986101549898 -136.10962379979574 0 -136.10962379979574 1.2736692165834356 0 0 0 0 -281.81362968117537 -98.088856078857589 0 -98.088856078857589 -218.09680176255279 0 0 0 0 299.41619546350557 -78.026096245580447 0 -78.026096245580447 17.314152634127822 0 0 0 0 -7.5339831008791549 -8.4463822072814594 0 -8.4463822072814594 -11.230961467968271 0 0 0 0 -359.05313555513567 -317.4392025637012 0 -317.4392025637012 -29.974933192675053 0 0 0 0 95.011855856973852 -63.52398119118476 0 -63.52398119118476 -12.904240212626746 0 0 0 0 11.237926071396686 -7.8935798710203642 0 -7.8935798710203642 -21.314807857495246 0 0 0 0 -406.89198030810803 -289.81887829674633 0 -289.81887829674633 -16.631371059011144 0 0 0 0 -12.3302509213799 -83.678342198005097 0 -83.678342198005097 -20.947077230953639 0 0 0 0 104.04117105755722 -45.84772487629624 0 -45.84772487629624 -44.340142240201942 0 0 0 0 110.62266576294496 -85.120561751725518 0 -85.120561751725518 10.207897568071758 0 0 0 0 80.047666518919868 -37.565626517846113 0 -37.565626517846113 9.3319548882236951 0 0 0 0 93.831906622130191 -49.129768413555055 0 -49.129768413555055 -51.735721306407982 0 0 0 0 3.4920284769323189 50.280625515315904 0 50.280625515315904 -12.146777264350717 0 0 0 0 112.40167034990702 23.309996782053808 0 23.309996782053808 -54.451897593606631 0 0 0 0 359.63916346828773 -134.31148372266836 0 -134.31148372266836 -2.1289393439491278 0 0 0 0 109.05329724226613 7.4349551790037225 0 7.4349551790037225 90.872767369022768 0 0 0 0 222.42642625336885 -93.410760317966719 0 -93.410760317966719 37.240203873952623 0 0 0 0 92.179718043684261 -81.999287818269394 0 -81.999287818269394 63.077781801060837 0 0 0 0 213.78756201799843 -113.24634113157953 0 -113.24634113157953 2.6896634815644802 0 0 0 0 207.59298560154457 -89.62165365609745 0 -89.62165365609745 76.665078319475469 0 0 0 0 306.10908112485049 7.4002622659459689 0 7.4002622659459689 74.331188781757191 0 0 0 0 481.15930986835883 -81.299465488982477 0 -81.299465488982477 10.841618414558042 0 0 0 0 473.36404344852781 -88.303333730306178 0 -88.303333730306178 91.538319125757425 0 0 0 0 551.29759849827678 151.33094369629623 0 151.33094369629623 226.10777770192766 0 0 0 0 1064.5383758639364 142.05763540546059 0 142.05763540546059 -106.15617549858916 0 0 0 0 855.67561094710982 -195.14949451805046 0 -195.14949451805046 -124.99950263580149 0 0 0 0 442.40099632499914 42.109096105891922 0 42.109096105891922 135.96870196719033 0 0 0 0 44.188206212726072 186.54414385814971 0 186.54414385814971 34.848893597220467 0 0 0 0 438.36658773003001 -246.38326699468166 0 -246.38326699468166 68.985129215982624 0 0 0 0 627.13922616763011 -200.57347340495539 0 -200.57347340495539 -402.11111599439346 0 0 0 0 -45.648679635007284 -201.8008149288853 0 -201.8008149288853 -107.95603162405587 0 0 0 0 148.68775576869666 -43.916696506096152 0 -43.916696506096152 7.5275636619814561 0 0 0 0 72.918396279324952 11.924489906034069 0 11.924489906034069 -208.66566929371947 0 0 0 0 275.64111306614359 7.5898935582845297 0 7.5898935582845297 -190.89509950581396 0 0 0 0 112.83717914427027 33.676692474841111 0 33.676692474841111 -38.515015888462827 0 0 0 0 206.0783252086112 66.415117185744748 0 66.415117185744748 -34.477703315183135 0 0 0 0 160.55498383111262 38.926681891207409 0 38.926681891207409 -46.158847017301014 0 0 0 0 17.853351521423107 22.493596656256578 0 22.493596656256578 -13.221787853481304 0 0 0 0 -56.035862823177013 -37.400229489010826 0 -37.400229489010826 146.96793075741812 0 0 0 0 -61.100865626372979 208.49013313135629 0 208.49013313135629 -31.95133548112338 0 0 0 0 248.02291339003932 -67.087146195504829 0 -67.087146195504829 15.547849742182734 0 0 0 0 201.48242934533664 -30.767629105028846 0 -30.767629105028846 -18.093839685083367 0 0 0 0 239.27615227517163 -43.182321799973579 0 -43.182321799973579 -16.725891100486479 0 0 0 0 94.39409813211816 37.277156728563376 0 37.277156728563376 -45.588332613315622 0 0 0 0 299.30039991719968 -73.377106312042088 0 -73.377106312042088 -80.386758300627662 0 0 0 0 287.75483517199245 -49.676063366111521 0 -49.676063366111521 -92.719620064788614 0 0 0 0 294.98266967758536 -83.301018037876929 0 -83.301018037876929 -59.139236789087136 0 0 0 0 287.47570905110399 -56.018376584013993 0 -56.018376584013993 -47.426614514808534 0 0 0 0 331.62134338936448 -70.346828804426877 0 -70.346828804426877 -45.336300826495062 0 0 0 0 40.769257268605884 -122.2763920049302 0 -122.2763920049302 -28.713511372539791 0 0 0 0 -661.7611985709591 421.3181434408225 0 421.3181434408225 2782.8084486026346 0 0 0 0 326.69586409107433 -140.98156292046588 0 -140.98156292046588 -237.03512333360777 0 0 0 0 261.5611901551456 -255.12908081662863 0 -255.12908081662863 -436.92135959418374 0 0 0 0 132.05851652480229 -115.77906377213176 0 -115.77906377213176 -83.953226549857717 0 0 0 0 294.57773683934283 -88.530949546554893 0 -88.530949546554893 -73.59916643456836 0 0 0 0 300.8813618070817 -83.294430208042741 0 -83.294430208042741 -79.363903729120466 0 0 0 0 242.23712232118055 -31.619556883800421 0 -31.619556883800421 -46.404135415235217 0 0 0 0 304.1619158219728 -80.073868412090633 0 -80.073868412090633 -78.742364977356942 0 0 0 0 293.54793353516106 -75.784324253540035 0 -75.784324253540035 -78.176028109529398 0 0 0 0 397.3836976171151 134.84395167752336 0 134.84395167752336 -525.51856957695964 0 0 0 0 337.02336095162173 -54.205933773535435 0 -54.205933773535435 -424.26409636236349 0 0 0 0 249.51508425299443 -4.0974691654228792 0 -4.0974691654228792 -33.105378946138025 0 0 0 0 284.45250282559573 -159.47294058939747 0 -159.47294058939747 126.14775609365279 0 0 0 0 380.27029352257887 -135.26005817727628 0 -135.26005817727628 -130.41723077750976 0 0 0 0 261.37807030639669 -70.8756777335675 0 -70.8756777335675 -65.258104739785267 0 0 0 0 306.31999591843669 -46.6168733902432 0 -46.6168733902432 -426.62304932944244 0 0 0 0 148.91939973661283 -269.60379152439509 0 -269.60379152439509 -166.60838170668103 0 0 0 0 225.51630894929713 88.429163191380212 0 88.429163191380212 -503.43381279501591 0 0 0 0 26.15331353915326 208.43545688614188 0 208.43545688614188 -424.19772249605921 0 0 0 0 29.091019129904538 -12.400377873152891 0 -12.400377873152891 -5.9491488955314011 0 0 0 0 278.22441359443832 -2.919751587100647 0 -2.919751587100647 -38.508735300368542 0 0 0 0 224.16408646176751 31.53500239413188 0 31.53500239413188 127.60107705102928 0 0 0 0 176.44392775775123 -156.66249949811731 0 -156.66249949811731 339.06564189458072 0 0 0 0 -51.597362137872551 537.06959168083085 0 537.06959168083085 -503.54388679566 0 0 0 0 210.79688315976364 215.69431108385572 0 215.69431108385572 -299.30081602643622 0 0 0 0 59.895689383195197 9.554266164686581 0 9.554266164686581 -20.849352346446388 0 0 0 0 159.96957818119699 -341.35215029697429 0 -341.35215029697429 -1249.0420521825581 0 0 0 0 166.84458611217269 726.65257896165895 0 726.65257896165895 -1092.3563220336796 0 0 0 0 -32.373561647240422 -456.9288141031675 0 -456.9288141031675 -593.36135195985844 0 0 0 0 577.49609928770224 254.61639255205409 0 254.61639255205409 -1157.9846034753082 0 0 0 0 211.53990316575437 217.05543075219884 0 217.05543075219884 -546.20518250913665 0 0 0 0 731.58113789573326 -61.456466448286392 0 -61.456466448286392 -635.77054634041997 0 0 0 0 837.89079938375653 -373.56104214722745 0 -373.56104214722745 -326.02067824798831 0 0 0 0 539.62900988946058 -87.413098904098661 0 -87.413098904098661 -342.25130074965637 0 0 0 0 419.20307783986937 -252.38278825552698 0 -252.38278825552698 -26.294983905254412 0 0 0 0 580.70624207973015 -459.98932215794321 0 -459.98932215794321 51.792573255218485 0 0 0 0 471.42832094233199 -391.53671874022939 0 -391.53671874022939 111.85400687170113 0 0 0 0 517.17685486594019 -136.36741876772021 0 -136.36741876772021 -475.80059529184655 0 0 0 0 467.96500956212549 -24.172161930162474 0 -24.172161930162474 -448.17556991855599 0 0 0 0 660.5749870951513 -248.23634236308681 0 -248.23634236308681 -316.67221403830627 0 0 0 0 163.8489536054476 19.178412495246903 0 19.178412495246903 -9.6258880105997378 0 0 0 0 156.03571180188192 38.407404467601282 0 38.407404467601282 -24.788206147716664 0 0 0 0 163.93417928905546 47.427037610921616 0 47.427037610921616 -32.597074847164549 0 0 0 0 147.02764996912447 81.496133829006112 0 81.496133829006112 9.998088904049041 0 0 0 0 101.0015243843936 55.291778504673644 0 55.291778504673644 -15.124686131181704 0 0 0 0 223.3664511259085 38.358692427844971 0 38.358692427844971 -74.1898439999228 0 0 0 0 149.98494950220629 74.298491829727709 0 74.298491829727709 -83.432643039041977 0 0 0 0 188.37565751369038 27.039596289178917 0 27.039596289178917 15.220528552031965 0 0 0 0 165.59426009951494 1.8607997078138396 0 1.8607997078138396 16.151688210862801 0 0 0 0 -119.25527990588489 253.83151552466461 0 253.83151552466461 124.16902803927405 0 0 0 0 530.63005425055053 -61.952361381603623 0 -61.952361381603623 -243.22597986101209 0 0 0 0 386.92887649278782 -229.48310779361736 0 -229.48310779361736 -236.55008094380446 0 0 0 0 102.41349169638632 -48.234408538606573 0 -48.234408538606573 -7.4481494548447387 0 0 0 0 467.08597541912604 215.26621479631217 0 215.26621479631217 73.048923213070339 0 0 0 0 195.18365172715676 4.5574590262403945 0 4.5574590262403945 -32.19029816055081 0 0 0 0 180.79872401225157 5.4837907640540351 0 5.4837907640540351 -25.879303670551053 0 0 0 0 180.03705721890327 23.826083582512702 0 23.826083582512702 -43.046505392522704 0 0 0 0 174.07116064446672 -5.3485119935814147 0 -5.3485119935814147 -12.729120347439483 0 0 0 0 277.88901585969143 -35.383821868130326 0 -35.383821868130326 -604.8974563656584 0 0 0 0 299.44097498116435 250.04647910325269 0 250.04647910325269 -322.59585933583548 0 0 0 0 286.31234774262703 499.17596457178843 0 499.17596457178843 -327.64948583399837 0 0 0 0 338.00258165609557 130.69882323519232 0 130.69882323519232 -796.33550543080855 0 0 0 0 152.23966742336052 305.38341084410422 0 305.38341084410422 -325.07243036738873 0 0 0 0 454.78373391834612 264.50718869830143 0 264.50718869830143 -326.60283974844106 0 0 0 0 266.03378383006202 417.37215913904856 0 417.37215913904856 -515.85679452421573 0 0 0 0 49.674155117172631 119.33440403810346 0 119.33440403810346 -326.59069849691514 0 0 0 0 281.09161628030415 329.26799001156814 0 329.26799001156814 -459.82255884290134 0 0 0 0 10.261065162459516 61.528374413881821 0 61.528374413881821 -75.148356881286389 0 0 0 0 189.71760493327383 13.262705627130345 0 13.262705627130345 -37.875143483574902 0 0 0 0 215.31290628441457 41.963029246676342 0 41.963029246676342 -29.769977374946393 0 0 0 0 194.97266197212528 20.710796856894301 0 20.710796856894301 -27.752286260802414 0 0 0 0 102.51604379308992 26.231825041731099 0 26.231825041731099 -42.367232558224714 0 0 0 0 12.903644660045757 84.572026567077046 0 84.572026567077046 9.3719732448862487 0 0 0 0 281.51058135533458 8.5396644554239174 0 8.5396644554239174 -144.56452926209113 0 0 0 0 216.56108834204497 -80.853386464637879 0 -80.853386464637879 22.543740615386923 0 0 0 0 59.182310249525472 72.03349334088125 0 72.03349334088125 -5.5003408619450056 0 0 0 0 4.9518222446866602 -3.9054285153147266 0 -3.9054285153147266 -7.3731766909437457 0 0 0 0 23.014763222140854 -3.6320168162730866 0 -3.6320168162730866 -12.757765536077374 0 0 0 0 63.788209031996601 53.283212298126713 0 53.283212298126713 -25.498468229440949 0 0 0 0 96.696543974288971 10.959395792968778 0 10.959395792968778 -33.53491632661742 0 0 0 0 209.26640756081906 40.788254796076217 0 40.788254796076217 -11.462681711913319 0 0 0 0 86.945876712816329 28.171590411267275 0 28.171590411267275 -24.899142227045459 0 0 0 0 97.684914414999454 32.680723819113545 0 32.680723819113545 -14.644458967457693 0 0 0 0 8.6212176279368578 246.75673268977766 0 246.75673268977766 -323.18890050251866 0 0 0 0 -34.583828113463824 218.06187200555905 0 218.06187200555905 -245.05719101316936 0 0 0 0 86.435266637257882 71.77090669336576 0 71.77090669336576 -77.752720557773955 0 0 0 0 62.558023797896851 34.658514247462712 0 34.658514247462712 8.4168155804969675 0 0 0 0 -88.999608606958645 129.27379291554826 0 129.27379291554826 -122.02217600660515 0 0 0 0 83.102081268050824 32.302760656300507 0 32.302760656300507 -74.017547944533817 0 0 0 0 -46.235687284090091 101.92532774290885 0 101.92532774290885 -91.984387905630683 0 0 0 0 80.436580971707144 20.376122194048591 0 20.376122194048591 -14.259841057056864 0 0 0 0 59.636238438304645 18.24529997084062 0 18.24529997084062 38.933185837306326 0 0 0 0 57.902447354736523 35.214743409952682 0 35.214743409952682 16.154864616410283 0 0 0 0 220.49637443312076 98.779043238755548 0 98.779043238755548 -92.638643430469529 0 0 0 0 70.525914122532413 256.435288299479 0 256.435288299479 -160.78274450820027 0 0 0 0 8.8296697473068981 -1.2542894331727545 0 -1.2542894331727545 -3.8491337370002405 0 0 0 0 86.006738682533978 32.442047060763798 0 32.442047060763798 28.139141486501558 0 0 0 0 83.274200774960264 25.450424613305131 0 25.450424613305131 23.042179140473309 0 0 0 0 70.59846319688404 14.204069675500136 0 14.204069675500136 16.189873824195274 0 0 0 0 9.6793183344813869 38.623637881641422 0 38.623637881641422 12.079520029878196 0 0 0 0 8.0882937836368001 68.073909304167728 0 68.073909304167728 -41.960217564988852 0 0 0 0 97.940565471186346 30.182325909994461 0 30.182325909994461 15.158980167650043 0 0 0 0 89.219588292412482 18.589333139931 0 18.589333139931 3.6228987974454867 0 0 0 0 98.47555122904123 21.327872637583823 0 21.327872637583823 -1.2799148816461638 0 0 0 0 59.699801085266813 25.451595632019263 0 25.451595632019263 -2.3824447334054 0 0 0 0 141.24750330726772 -113.09798469481149 0 -113.09798469481149 0.75260042999434518 0 0 0 0 83.541540079507442 -12.406185075522881 0 -12.406185075522881 -6.2426631330873539 0 0 0 0 87.664993219619646 3.7595407747548961 0 3.7595407747548961 -7.364051702035681 0 0 0 0 5.1521055744007924 -13.694236146924101 0 -13.694236146924101 -3.2074662753097312 0 0 0 0 87.898988105123863 72.092405459878137 0 72.092405459878137 31.581326271970283 0 0 0 0 63.073023826094868 -12.912497178459034 0 -12.912497178459034 -213.07525072241333 0 0 0 0 15.836235055481467 3.9518700542336873 0 3.9518700542336873 -5.1033634093856799 0 0 0 0 92.268699718206335 12.891873850507409 0 12.891873850507409 6.454312073993151 0 0 0 0 73.493388230609838 5.1235914799149009 0 5.1235914799149009 0.011017302387337669 0 0 0 0 -20.423062712761748 119.03951184199514 0 119.03951184199514 -175.4250971996056 0 0 0 0 32.6181498775004 103.54855888891677 0 103.54855888891677 -204.58313606452248 0 0 0 0 85.950070283763125 14.014843650274315 0 14.014843650274315 12.284551019783066 0 0 0 0 -138.27870304940006 41.924421914154948 0 41.924421914154948 -51.862497761416762 0 0 0 0 6.1242206051465473 4.8827483446857514 0 4.8827483446857514 -54.253987650588584 0 0 0 0 -24.198619813872938 33.700178741566106 0 33.700178741566106 -33.717299763820392 0 0 0 0 102.42950820866827 67.903037213899779 0 67.903037213899779 -100.39312095268633 0 0 0 0 64.025881995097734 92.879872017485695 0 92.879872017485695 -77.708393394889754 0 0 0 0 179.30713979547727 76.826087721587328 0 76.826087721587328 -81.123250659647965 0 0 0 0 198.21130242109029 123.30968054630864 0 123.30968054630864 -129.85766521225014 0 0 0 0 137.37654416495207 74.937193577947482 0 74.937193577947482 -99.439726377840543 0 0 0 0 14.218197107576998 49.838650368909839 0 49.838650368909839 -102.16290993053121 0 0 0 0 77.558486480309512 134.52645272282575 0 134.52645272282575 -144.03008007069343 0 0 0 0 1030.5411050218027 -202.79439475874568 0 -202.79439475874568 262.62894302512058 0 0 0 0 1.9365462191139571 2.8242799573744151 0 2.8242799573744151 4.188650133231409 0 0 0 0 938.81790030491175 -282.78970334955932 0 -282.78970334955932 523.77339812392438 0 0 0 0 -63.500466957410026 -21.008709266828305 0 -21.008709266828305 8.3582402922434085 0 0 0 0 -17.978501298206538 -79.346951842271096 0 -79.346951842271096 72.255221108452247 0 0 0 0 72.06097864848492 6.8495314805509091 0 6.8495314805509091 -0.54906217211596497 0 0 0 0 277.74984398150991 478.42206420281832 0 478.42206420281832 -715.37353953996694 0 0 0 0 -120.43683897005758 180.03951965358772 0 180.03951965358772 319.82196214107535 0 0 0 0 39.207167312291858 -15.148585763319034 0 -15.148585763319034 13.075662725370989 0 0 0 0 -76.833419036418491 18.729727550491134 0 18.729727550491134 -300.4144372609212 0 0 0 0 204.1551588854054 754.11220546623986 0 754.11220546623986 -199.98922154184925 0 0 0 0 -132.59455167942451 -433.34354479468112 0 -433.34354479468112 216.93821158204059 0 0 0 0 -19.343981306396017 -20.492010343204583 0 -20.492010343204583 39.765322001662753 0 0 0 0 8.514924552748198 -90.553666406611228 0 -90.553666406611228 23.122931489778921 0 0 0 0 74.088888566467631 7.5093428771193089 0 7.5093428771193089 17.705905198375149 0 0 0 0 26.181359819028785 7.0810268397659684 0 7.0810268397659684 46.918724153897529 0 0 0 0 37.034747718527797 -5.2494693321900741 0 -5.2494693321900741 27.508224876529539 0 0 0 0 22.834640289278923 136.42565029426942 0 136.42565029426942 -85.186972049660426 0 0 0 0 35.493403117548951 15.377541594899185 0 15.377541594899185 49.601912310954503 0 0 0 0 33.438392098441476 19.053785342270501 0 19.053785342270501 10.580008882089693 0 0 0 0 -119.04168212642708 78.556731574057153 0 78.556731574057153 24.336823085600827 0 0 0 0 47.605666620172997 4.2969699199293245 0 4.2969699199293245 33.295707777337839 0 0 0 0 -209.67075495825702 -38.247780073937861 0 -38.247780073937861 232.91737062231721 0 0 0 0 -88.340750447480559 -147.16837418150689 0 -147.16837418150689 77.139486150336779 0 0 0 0 -48.784279192577742 -132.09562471742208 0 -132.09562471742208 57.749320015076364 0 0 0 0 324.52471585530657 127.65423923298442 0 127.65423923298442 226.68947884290969 0 0 0 0 -99.178259418964899 -112.00967646240284 0 -112.00967646240284 416.84467141349978 0 0 0 0 302.74520904276596 157.6923781920126 0 157.6923781920126 267.41431578551192 0 0 0 0 1679.772208284412 -461.60675349163341 0 -461.60675349163341 711.61531071338709 0 0 0 0 944.19322940347138 648.75680017447303 0 648.75680017447303 485.11840636679813 0 0 0 0 1595.3879993721648 1034.1641367287084 0 1034.1641367287084 144.24064574465365 0 0 0 0 27.845898504091828 -1.2342072638323942 0 -1.2342072638323942 0.54586869490079071 0 0 0 0 -3.423097422475621 -359.96344895564368 0 -359.96344895564368 14.900474395438323 0 0 0 0 101.51172343589951 -148.89588579220026 0 -148.89588579220026 -338.5043855236313 0 0 0 0 -162.7056092003404 8.9693808647184596 0 8.9693808647184596 733.80694022132911 0 0 0 0 63.42509971767825 1.8667314052630315 0 1.8667314052630315 -1.3934469276216075 0 0 0 0 4213.441226713956 -2198.3630521824671 0 -2198.3630521824671 354.38438505397556 0 0 0 0 4090.5746855114003 -2605.8217969593306 0 -2605.8217969593306 578.32991882214094 0 0 0 0 4248.6456951604305 156.81829759619893 0 156.81829759619893 -410.95053304414819 0 0 0 0 5499.6110531811191 -1662.0410071434287 0 -1662.0410071434287 1208.1270933803746 0 0 0 0 5001.5043580812899 -1542.5681501086003 0 -1542.5681501086003 110.33923075894921 0 0 0 0 4686.0760058446904 -824.75246383673903 0 -824.75246383673903 663.49320235636674 0 0 0 0 4457.08262046036 -1015.9907022731682 0 -1015.9907022731682 -220.98176533469314 0 0 0 0 4347.6513749768055 -579.2685180160106 0 -579.2685180160106 -622.20777192713172 0 0 0 0 5499.7072246577973 -1207.4174006660558 0 -1207.4174006660558 -281.37581709025181 0 0 0 0 909.83383006802615 -269.02891498466693 0 -269.02891498466693 -629.66599597555773 0 0 0 0 323.44254342664317 -175.30134736219452 0 -175.30134736219452 510.3176523998419 0 0 0 0 2232.8306801149301 -2599.6477257449596 0 -2599.6477257449596 2094.9684240154188 0 0 0 0 2689.580665441903 -1413.2665768679365 0 -1413.2665768679365 207.44750895990495 0 0 0 0 2627.4914071608109 -941.96479924211576 0 -941.96479924211576 234.31280649697374 0 0 0 0 968.36258471364636 -1126.8407457070025 0 -1126.8407457070025 828.90311478166871 0 0 0 0 1817.5181453199439 -999.97837240650858 0 -999.97837240650858 366.17568907736012 0 0 0 0 2785.9838891016407 -596.22135095507394 0 -596.22135095507394 33.346716284183458 0 0 0 0 5499.3219106679553 -635.81725031638598 0 -635.81725031638598 -863.33714765294314 0 0 0 0 3043.8161512660881 -858.76588783435216 0 -858.76588783435216 -215.48229093567272 0 0 0 0 4479.3484996559528 -78.197346715054195 0 -78.197346715054195 -896.24355711806334 0 0 0 0 5498.5176109916065 700.27394499076297 0 700.27394499076297 -1074.5056845465824 0 0 0 0 3857.4255020358287 15.019421142986857 0 15.019421142986857 -905.55794919675407 0 0 0 0 3717.4612284649993 1269.6066675945096 0 1269.6066675945096 -54.855619301868046 0 0 0 0 4012.6632516310165 747.43893425280191 0 747.43893425280191 -950.02285703325595 0 0 0 0 2131.4353890527491 -1392.7733664161976 0 -1392.7733664161976 363.60901895066729 0 0 0 0 3279.5550476820281 592.71783809865474 0 592.71783809865474 -411.07876709702794 0 0 0 0 1366.0189915627816 -593.20281467515372 0 -593.20281467515372 43.375678031209389 0 0 0 0 2166.8971614752736 206.92651645702858 0 206.92651645702858 -369.52732680333327 0 0 0 0 -3.3619102162766481 7.397046267091639 0 7.397046267091639 -7.9418724722773986 0 0 0 0 195.64312832622454 -263.06012467206915 0 -263.06012467206915 551.8636722879628 0 0 0 0 766.3883159866873 453.78776025702336 0 453.78776025702336 531.69316163208828 0 0 0 0 2900.7247853228291 -11.335217393777157 0 -11.335217393777157 -5.6025226529083625 0 0 0 0 3519.6586055218213 -1912.6281336128191 0 -1912.6281336128191 -7.8772052749804971 0 0 0 0 3069.8132591607755 -591.25776042271559 0 -591.25776042271559 -465.37842030251522 0 0 0 0 15.576616540008278 11.194696973891368 0 11.194696973891368 8.5267688811549434 0 0 0 0 -103.17674640401219 136.14000570503418 0 136.14000570503418 88.303206616784337 0 0 0 0 628.34866216060254 485.92018818621983 0 485.92018818621983 381.92462207652557 0 0 0 0 3252.3229122105877 -2114.2542039310811 0 -2114.2542039310811 435.02180890631826 0 0 0 0 21.299101772248449 6.7155063244934681 0 6.7155063244934681 -0.18694494184793964 0 0 0 0 105.7887123629589 32.34402589978481 0 32.34402589978481 -81.489354779751352 0 0 0 0 19.273661934174015 62.244095331000722 0 62.244095331000722 -13.027509581781715 0 0 0 0 57.007226598670968 141.3456461975278 0 141.3456461975278 -67.96412585746998 0 0 0 0 187.19641876073729 -37.91536439505569 0 -37.91536439505569 -80.989714192612496 0 0 0 0 123.22970898226413 52.031733367852496 0 52.031733367852496 -61.742902640902003 0 0 0 0 392.34426864988927 63.738790032761699 0 63.738790032761699 -68.063290927133551 0 0 0 0 277.66385469933448 -132.81438176553877 0 -132.81438176553877 13.121226075388222 0 0 0 0 40.556367574175965 -31.089586633210843 0 -31.089586633210843 261.26909435140351 0 0 0 0 140.0002298977779 210.46399826184847 0 210.46399826184847 155.83815463373753 0 0 0 0 36.243263095395378 5.828165234284711 0 5.828165234284711 -22.808185514495563 0 0 0 0 113.94656864139688 -40.88254937621241 0 -40.88254937621241 42.137680801746612 0 0 0 0 316.98429047298123 262.17386753177823 0 262.17386753177823 213.71939771993266 0 0 0 0 350.32555817105458 -26.387362587215193 0 -26.387362587215193 42.844791045803959 0 0 0 0 226.36527909641882 162.12430311505545 0 162.12430311505545 53.535233117207781 0 0 0 0 264.18797650173292 33.220884799899636 0 33.220884799899636 -33.48695003174771 0 0 0 0 83.88618984579989 53.103938057609724 0 53.103938057609724 -31.168486027085237 0 0 0 0 163.25817240728065 98.708496849014296 0 98.708496849014296 -38.628894901477906 0 0 0 0 23.261753815248085 20.520650688048704 0 20.520650688048704 25.47769014782898 0 0 0 0 97.227686683973843 6.3870052578040202 0 6.3870052578040202 -28.1130402517947 0 0 0 0 9.9634027623333168 -31.247693583920295 0 -31.247693583920295 7.4908962009012612 0 0 0 0 1746.3787454746971 -481.3994574910285 0 -481.3994574910285 -58.117251813888856 0 0 0 0 1520.8735620408333 -383.56256578498409 0 -383.56256578498409 -70.571524800828769 0 0 0 0 1.9430366547906388 6.3221834819890077 0 6.3221834819890077 11.214420752000837 0 0 0 0 -142.84838095688974 -6.7245888912487999 0 -6.7245888912487999 86.539846467172765 0 0 0 0 175.96709274126988 121.77203452514141 0 121.77203452514141 -188.57749088964192 0 0 0 0 -95.175252946501132 225.01499077432163 0 225.01499077432163 -154.6206334056551 0 0 0 0 140.42650519935432 50.670727773665021 0 50.670727773665021 -40.642304676372078 0 0 0 0 72.199819015436731 39.225272805377976 0 39.225272805377976 14.221016544325177 0 0 0 0 13.022838456287669 3.5537903633649144 0 3.5537903633649144 -4.8061849094436155 0 0 0 0 -306.0748395899227 297.54215705262141 0 297.54215705262141 16.911465154646066 0 0 0 0 -77.137140574282512 185.78182641890999 0 185.78182641890999 -286.69156499337441 0 0 0 0 -46.072439214069163 310.19025984600194 0 310.19025984600194 -16.912851382124927 0 0 0 0 56.065136489266479 145.66384585107153 0 145.66384585107153 272.10946298311683 0 0 0 0 55.852662789218812 53.277990867618428 0 53.277990867618428 -49.792794810015266 0 0 0 0 -139.32108945068603 179.38697680274345 0 179.38697680274345 74.434556728832831 0 0 0 0 -6.895846689643804 49.444967525621905 0 49.444967525621905 336.7386900315214 0 0 0 0 -132.71473034278824 23.203373902455496 0 23.203373902455496 185.18773223321114 0 0 0 0 253.96517174087785 -78.808421129921044 0 -78.808421129921044 96.168906512852118 0 0 0 0 -0.36910817198343437 -0.49052386459843689 0 -0.49052386459843689 -1.28495968613678 0 0 0 0 55.763159246098439 52.671407217941123 0 52.671407217941123 189.34213748310867 0 0 0 0 9.4400262240878874 -30.114174900900707 0 -30.114174900900707 332.47139929770856 0 0 0 0 188.93678676013769 -12.371528596298958 0 -12.371528596298958 201.89909808648736 0 0 0 0 255.77513591670322 -114.82478459631966 0 -114.82478459631966 281.58976102997258 0 0 0 0 238.74019600284737 -144.22820672644593 0 -144.22820672644593 317.72516047376303 0 0 0 0 -95.682762086195908 -140.28104943393987 0 -140.28104943393987 408.32242544991277 0 0 0 0 -233.48328108179703 45.995351980089254 0 45.995351980089254 341.40599169888446 0 0 0 0 -213.10524252967298 -158.51218477652583 0 -158.51218477652583 236.7094053225519 0 0 0 0 -88.679857680697751 57.510261096707836 0 57.510261096707836 -135.80758202516563 0 0 0 0 57.278499999475066 -15.065700735190617 0 -15.065700735190617 2.6152641804002812 0 0 0 0 90.910159250195193 0.7267616748886212 0 0.7267616748886212 26.539481202268689 0 0 0 0 96.050376584305923 -58.392195695822011 0 -58.392195695822011 53.974474609318804 0 0 0 0 99.881681343375021 362.0200137320669 0 362.0200137320669 131.78652284989585 0 0 0 0 71.295573455428098 141.76586704547077 0 141.76586704547077 75.422747010887178 0 0 0 0 141.03352651084151 52.763354935344978 0 52.763354935344978 52.986855729692252 0 0 0 0 52.524812658957835 11.057079720519923 0 11.057079720519923 10.156016980248047 0 0 0 0 151.73946564536891 75.138397680279013 0 75.138397680279013 62.859223715891858 0 0 0 0 67.5848052327201 78.521874927605495 0 78.521874927605495 -0.19296537972877559 0 0 0 0 74.191199735488908 33.122918999751995 0 33.122918999751995 16.799184997181449 0 0 0 0 88.064285236330761 57.861462151477099 0 57.861462151477099 -18.894124258924421 0 0 0 0 53.492285944751373 45.131986052723079 0 45.131986052723079 12.094756518905221 0 0 0 0 44.232381627036375 42.501210915464981 0 42.501210915464981 47.010755668962702 0 0 0 0 73.428250661479979 162.42230779194688 0 162.42230779194688 104.94295252718439 0 0 0 0 9.7793361152746137 12.236730401343234 0 12.236730401343234 4.9495058454951746 0 0 0 0 83.252969225761319 30.673074211087041 0 30.673074211087041 13.334166675014956 0 0 0 0 84.558448529955058 23.59459389181302 0 23.59459389181302 -5.4592717902196455 0 0 0 0 66.576861104150566 42.391038368844221 0 42.391038368844221 18.498440197530172 0 0 0 0 73.853347520118405 63.032534388098611 0 63.032534388098611 0.56569459643287701 0 0 0 0 48.073190081777284 55.068599953166085 0 55.068599953166085 8.8836695824757044 0 0 0 0 94.020015966125356 66.875575336963266 0 66.875575336963266 6.0699321186220914 0 0 0 0 63.748817709972968 36.492315763938969 0 36.492315763938969 15.484829651738934 0 0 0 0 49.159532506579126 53.255905755353069 0 53.255905755353069 10.57584166230663 0 0 0 0 46.795707906316693 6.7984132841506835 0 6.7984132841506835 29.160092937418085 0 0 0 0 26.710587027074308 39.486812884905603 0 39.486812884905603 18.231955853826875 0 0 0 0 59.063951578864362 81.060825786653368 0 81.060825786653368 -6.435773641034757 0 0 0 0 129.55418639116397 20.755552557620831 0 20.755552557620831 1.8931607142421853 0 0 0 0 75.69759809194511 28.977368444911008 0 28.977368444911008 65.714256572624436 0 0 0 0 -3.8902551903515565 8.0187665942629067 0 8.0187665942629067 7.4468500038590904 0 0 0 0 -60.64294224207606 29.582350826707625 0 29.582350826707625 57.140627390456757 0 0 0 0 47.393188622017512 33.096388750705884 0 33.096388750705884 4.7683428696432557 0 0 0 0 7.0960880716356769 157.66981653277617 0 157.66981653277617 60.243701571524753 0 0 0 0 97.162823812104762 43.047564736834829 0 43.047564736834829 -11.269039304768739 0 0 0 0 6.8909352277069047 -1.5542211096535539 0 -1.5542211096535539 34.999720138619523 0 0 0 0 316.21651340487733 204.28568281889966 0 204.28568281889966 34.361795047514534 0 0 0 0 362.12761589718184 -66.40546482181162 0 -66.40546482181162 18.061203949635456 0 0 0 0 561.70245918029741 -64.373893509742629 0 -64.373893509742629 88.185573266147912 0 0 0 0 340.16405930111614 -36.493892309689727 0 -36.493892309689727 98.175162102221293 0 0 0 0 475.37466130520443 40.462989779665804 0 40.462989779665804 -452.66616057417832 0 0 0 0 503.86422241971832 120.32921311262817 0 120.32921311262817 -257.49528000882128 0 0 0 0 54.796224197520587 123.59679322848888 0 123.59679322848888 294.34407109452513 0 0 0 0 2.1956598945566554 -0.32358400118135577 0 -0.32358400118135577 -0.69244998099382116 0 0 0 0 282.35295005173975 -143.71442964425842 0 -143.71442964425842 -293.25872749325026 0 0 0 0 -38.140790182270393 -202.56722689658818 0 -202.56722689658818 94.366646834436779 0 0 0 0 472.57448819595993 -288.96787099687117 0 -288.96787099687117 108.20806162596909 0 0 0 0 687.03635918641749 -187.25148580297855 0 -187.25148580297855 28.293938213168076 0 0 0 0 572.30536283068363 -22.255381337253539 0 -22.255381337253539 35.231967283360063 0 0 0 0 605.36579679128317 -194.07103998964794 0 -194.07103998964794 47.84529175118405 0 0 0 0 391.60859068742866 -89.856789636579833 0 -89.856789636579833 226.85057624151159 0 0 0 0 509.45232004852278 -63.044777374340811 0 -63.044777374340811 193.62694562881916 0 0 0 0 385.93606274713875 -44.422046017911271 0 -44.422046017911271 299.59117168022021 0 0 0 0 363.94138312169616 66.502777111061732 0 66.502777111061732 36.605237447176478 0 0 0 0 415.82374409484828 -87.154394729728892 0 -87.154394729728892 102.00582609845151 0 0 0 0 406.25756400213322 18.256302965314717 0 18.256302965314717 90.635857509181733 0 0 0 0 324.40232723673034 63.13027484857048 0 63.13027484857048 26.524555473351938 0 0 0 0 285.15213663491704 53.71069237859956 0 53.71069237859956 263.81436819860392 0 0 0 0 -93.615866702113181 92.064438302794315 0 92.064438302794315 63.998940986417438 0 0 0 0 328.88267346926659 -25.471311771510955 0 -25.471311771510955 -11.168813733482239 0 0 0 0 771.39755962371873 -26.475903366097555 0 -26.475903366097555 -36.573783794679912 0 0 0 0 581.04159137067472 -201.63076565098527 0 -201.63076565098527 188.20443295029463 0 0 0 0 619.19484765330958 -119.67096501520791 0 -119.67096501520791 1.1022044710480259 0 0 0 0 506.48495482334965 -87.246540114882919 0 -87.246540114882919 653.98813089128635 0 0 0 0 1082.154490876952 -237.61137580906143 0 -237.61137580906143 190.67071603707359 0 0 0 0 1040.1694713588909 56.747642859257439 0 56.747642859257439 182.2095936479891 0 0 0 0 15.397911814754401 -12.395614691946477 0 -12.395614691946477 5.9489648732634777 0 0 0 0 896.43232240920042 -445.14954527303053 0 -445.14954527303053 218.18519584831665 0 0 0 0 141.32985991983332 175.73282042290521 0 175.73282042290521 656.49650791039312 0 0 0 0 574.83080194169088 15.82646262205526 0 15.82646262205526 255.54026018943614 0 0 0 0 634.28186408438614 194.92278466194239 0 194.92278466194239 594.55980412108329 0 0 0 0 167.20672847740116 42.577396741075063 0 42.577396741075063 609.75322702716949 0 0 0 0 19.833881391081821 -7.5149578457912103 0 -7.5149578457912103 3.2937871362252906 0 0 0 0 240.7933733832615 -156.40857998411957 0 -156.40857998411957 233.26364520130664 0 0 0 0 405.73141187164583 -340.27576137621509 0 -340.27576137621509 434.4740425189766 0 0 0 0 257.20192276359012 -114.91362592979203 0 -114.91362592979203 208.2328081821197 0 0 0 0 231.93978271909145 -38.564822410744455 0 -38.564822410744455 71.007587474901811 0 0 0 0 542.42564431933329 -268.27780937601938 0 -268.27780937601938 104.92860036535785 0 0 0 0 -8.6609840592735488 -46.450474710079128 0 -46.450474710079128 19.303122676653658 0 0 0 0 575.43966022691666 -331.49257042963745 0 -331.49257042963745 199.68208109922489 0 0 0 0 348.88394995819544 62.959697542413778 0 62.959697542413778 -63.969655082451936 0 0 0 0 503.64302508662695 -126.08231155320482 0 -126.08231155320482 62.921731972084672 0 0 0 0 578.88376582857745 -36.095576629002608 0 -36.095576629002608 163.53405181521839 0 0 0 0 746.03866686686933 -186.89781116032918 0 -186.89781116032918 48.175223195856233 0 0 0 0 69.340899678200003 -165.51738171413763 0 -165.51738171413763 -10.754145972617152 0 0 0 0 568.61616640491093 -60.060150732078455 0 -60.060150732078455 1.967183669536098 0 0 0 0 464.18271201766265 -139.84364787896448 0 -139.84364787896448 40.768499355202948 0 0 0 0 565.0667013697439 -95.516548532948946 0 -95.516548532948946 -19.396068178033147 0 0 0 0 527.31783154139885 -300.69772596237272 0 -300.69772596237272 56.115425227293599 0 0 0 0 345.67048706049354 92.845879275883817 0 92.845879275883817 11.633366384332476 0 0 0 0 348.8952437212738 134.29588713684279 0 134.29588713684279 144.07139551725822 0 0 0 0 385.43202126380856 140.58955572314335 0 140.58955572314335 176.12367379852549 0 0 0 0 397.14853320008751 96.829693985211634 0 96.829693985211634 21.24676160776653 0 0 0 0 309.4613102767189 209.03948521004168 0 209.03948521004168 -165.64962667455984 0 0 0 0 336.42604880420276 111.03212199604332 0 111.03212199604332 27.796052517167482 0 0 0 0 386.93186915165188 154.13179301256378 0 154.13179301256378 -124.31479638200835 0 0 0 0 375.66886420765786 78.57486378268004 0 78.57486378268004 -27.075481817857508 0 0 0 0 392.54250652417613 109.17447969950172 0 109.17447969950172 13.690016691647543 0 0 0 0 471.83794369874613 126.58952904428997 0 126.58952904428997 -159.44493400481224 0 0 0 0 375.16942924387968 37.143855285992686 0 37.143855285992686 -102.90921211266163 0 0 0 0 556.14038285985271 -25.711159661369493 0 -25.711159661369493 -88.555740493200574 0 0 0 0 398.94099576719464 32.487984705328472 0 32.487984705328472 -314.45841295464561 0 0 0 0 11.452259357281871 0.17154770866816005 0 0.17154770866816005 -5.4708153727074347 0 0 0 0 303.59530654121374 -77.776987732526891 0 -77.776987732526891 32.936692761104496 0 0 0 0 21.153035987996645 -51.551611805493394 0 -51.551611805493394 -69.299789979908383 0 0 0 0 10.615713023414687 -6.391959858873058 0 -6.391959858873058 -1.0144580581930676 0 0 0 0 309.12132750150295 -14.154201121690676 0 -14.154201121690676 702.1185012010792 0 0 0 0 839.57811943401884 -92.767527141791106 0 -92.767527141791106 -254.86584420205645 0 0 0 0 718.22992615606267 -169.6849626961789 0 -169.6849626961789 -155.11580803232755 0 0 0 0 568.63295297293212 -123.73017975201719 0 -123.73017975201719 -269.35649049125095 0 0 0 0 375.99284383481654 88.078176126654853 0 88.078176126654853 -183.65157496479992 0 0 0 0 191.86096615028328 13.177333659072929 0 13.177333659072929 -12.348473642904537 0 0 0 0 438.00251539687707 -133.88187280710122 0 -133.88187280710122 34.882661155148526 0 0 0 0 461.68356908916326 -35.715673604550375 0 -35.715673604550375 -58.903426141039972 0 0 0 0 285.49247093448503 150.74528377641582 0 150.74528377641582 -50.190474842399112 0 0 0 0 263.80098588562396 -100.92147161986054 0 -100.92147161986054 -58.555385951773587 0 0 0 0 160.93843011048011 313.34220859908373 0 313.34220859908373 995.06431610376421 0 0 0 0 1130.8398860627058 248.46792629261108 0 248.46792629261108 -112.63782492800419 0 0 0 0 -136.67667823018292 -119.18929820033691 0 -119.18929820033691 150.63824186613783 0 0 0 0 -25.385716958691319 -47.806901558132694 0 -47.806901558132694 -7.3201140369812023 0 0 0 0 -72.978500471381267 -182.98219365302612 0 -182.98219365302612 171.58440945617849 0 0 0 0 83.713203216371767 -338.35408634719806 0 -338.35408634719806 71.928374247485408 0 0 0 0 207.07736187900673 -200.59535965244345 0 -200.59535965244345 -189.13640120210039 0 0 0 0 282.83514583755095 -392.57508986837911 0 -392.57508986837911 -743.75870453535754 0 0 0 0 2.7667803598815226 -1116.97857448593 0 -1116.97857448593 346.64086793297793 0 0 0 0 188.80226762488564 75.341721239931758 0 75.341721239931758 -712.54711187260727 0 0 0 0 71.822371512898826 -21.58306959474794 0 -21.58306959474794 36.701129229355502 0 0 0 0 74.151620261384849 21.838727963557787 0 21.838727963557787 12.851264010987901 0 0 0 0 85.464549038850308 -7.4257488093366888 0 -7.4257488093366888 1.921550159523278 0 0 0 0 121.8013336202186 -0.65795053389539859 0 -0.65795053389539859 -7.3875808242534617 0 0 0 0 -33.428811975405551 -138.84872991638258 0 -138.84872991638258 219.20592391682294 0 0 0 0 13.181030180784333 18.542106124727624 0 18.542106124727624 -7.2398158044394521 0 0 0 0 -14.314302816783311 -82.760367752838647 0 -82.760367752838647 70.610637865185709 0 0 0 0 97.366032908057463 48.69726832914273 0 48.69726832914273 64.64488631648419 0 0 0 0 171.9514794968461 61.595820182281386 0 61.595820182281386 65.476063678499486 0 0 0 0 112.17557876110732 39.037027882615803 0 39.037027882615803 59.108416507122456 0 0 0 0 737.86535961816116 1726.8673034256717 0 1726.8673034256717 -101.53701599124906 0 0 0 0 -229.70008767442778 675.98847640038002 0 675.98847640038002 -1017.4652956748832 0 0 0 0 121.71902578840954 57.435542342751724 0 57.435542342751724 19.944976068452853 0 0 0 0 119.45334259650178 20.453787138192638 0 20.453787138192638 78.216658522520447 0 0 0 0 20.539294191382822 29.899697158404585 0 29.899697158404585 -6.733168790594819 0 0 0 0 21.030913942066832 4.9520593198692442 0 4.9520593198692442 0.92878197716547284 0 0 0 0 132.99495680253312 574.74446906511366 0 574.74446906511366 -1934.237837500059 0 0 0 0 -420.10017008648992 -918.33062831606173 0 -918.33062831606173 153.83175693763769 0 0 0 0 316.01049258303829 -640.86662724376174 0 -640.86662724376174 -292.4654444806763 0 0 0 0 830.15249992253666 -436.97567296725538 0 -436.97567296725538 -404.16676915743028 0 0 0 0 1182.7171367742485 -114.41261657596624 0 -114.41261657596624 -249.96390097472795 0 0 0 0 571.74965334641456 -370.54781508663245 0 -370.54781508663245 -259.3181248176902 0 0 0 0 773.40935147552227 59.732573526579472 0 59.732573526579472 -40.626063568620793 0 0 0 0 663.5432679267542 -453.71469779872791 0 -453.71469779872791 -218.5481798293149 0 0 0 0 425.32711529948574 -681.67965088627784 0 -681.67965088627784 -132.17750059879606 0 0 0 0 298.27301637628989 -428.89237491369158 0 -428.89237491369158 265.35707196253588 0 0 0 0 349.59882511015257 -127.9095774436876 0 -127.9095774436876 -71.819561427847702 0 0 0 0 -400.95331007081404 -51.523578207890978 0 -51.523578207890978 -326.42489844355396 0 0 0 0 900.01985439777491 -355.20245223833717 0 -355.20245223833717 -537.64032445049361 0 0 0 0 376.72106428512052 -403.43262613336725 0 -403.43262613336725 -24.121422818229803 0 0 0 0 636.02552091966209 -628.67409936867409 0 -628.67409936867409 170.27521738939805 0 0 0 0 1350.30444980436 -671.41517486081375 0 -671.41517486081375 -338.61151170208268 0 0 0 0 937.89547593239695 548.8521485037345 0 548.8521485037345 -513.52706831789953 0 0 0 0 697.11355243212165 770.36234888164256 0 770.36234888164256 -1399.0531281947219 0 0 0 0 567.84391059521295 71.618103042743314 0 71.618103042743314 -1025.3081519351053 0 0 0 0 -48.49902220077638 923.57045066502474 0 923.57045066502474 -197.64522163796209 0 0 0 0 38.822247928827011 1.4745962465503659 0 1.4745962465503659 -4.9730746042420897 0 0 0 0 57.349906170723187 24.802386535121151 0 24.802386535121151 8.7932413781765035 0 0 0 0 -247.86646605547139 335.56305141995472 0 335.56305141995472 -20.354640949306486 0 0 0 0 -508.04948777299614 -213.43779920842894 0 -213.43779920842894 -22.668058548699264 0 0 0 0 528.77723208107636 -266.96389557215662 0 -266.96389557215662 183.61323736434042 0 0 0 0 6.2060238158724701 6.001118319384048 0 6.001118319384048 4.3288976986047416 0 0 0 0 86.145115894153292 39.275575705801735 0 39.275575705801735 15.605179298014766 0 0 0 0 -549.44662397264619 580.15069158443828 0 580.15069158443828 -389.95476539222875 0 0 0 0 1208.3595763366466 912.64422744981312 0 912.64422744981312 -642.35144188531922 0 0 0 0 -544.44155076392053 773.2990808558252 0 773.2990808558252 303.13247020560448 0 0 0 0 -581.54511884497333 -221.05143480911374 0 -221.05143480911374 405.46767946326327 0 0 0 0 334.27964376535965 185.14210682528574 0 185.14210682528574 -374.46979858409031 0 0 0 0 212.94325738644147 -7.6313280562640102 0 -7.6313280562640102 -87.732845154245297 0 0 0 0 160.60033663640206 -200.51010782634694 0 -200.51010782634694 -547.23019528983241 0 0 0 0 23.078164341379306 -21.021334490550089 0 -21.021334490550089 45.943695492722327 0 0 0 0 -43.575820851328899 56.52152672583361 0 56.52152672583361 115.60451885558359 0 0 0 0 272.84266810159897 378.42843708048531 0 378.42843708048531 404.19821272807883 0 0 0 0 840.91931973965438 173.00059222883783 0 173.00059222883783 -47.359799577952799 0 0 0 0 270.31307184970501 82.417911820634799 0 82.417911820634799 -56.577993116686343 0 0 0 0 287.40838400365828 212.09388938144639 0 212.09388938144639 -7.6302284600269559 0 0 0 0 203.43211608973832 44.600500458750275 0 44.600500458750275 2.8258176787639968 0 0 0 0 193.93787969406412 -37.452142213048091 0 -37.452142213048091 27.251974352526304 0 0 0 0 145.23978354964885 43.004813224617223 0 43.004813224617223 12.392142493227077 0 0 0 0 365.55826489758329 -751.43733099143356 0 -751.43733099143356 -777.12256944306864 0 0 0 0 232.95352519795426 -27.36054567992494 0 -27.36054567992494 20.26987487859698 0 0 0 0 247.80595312476362 -119.00927720228356 0 -119.00927720228356 -260.15064204479495 0 0 0 0 52.708581728977151 -247.87263348739361 0 -247.87263348739361 -366.06822249045609 0 0 0 0 -546.8019752925029 -423.69770899659488 0 -423.69770899659488 -365.72058072943764 0 0 0 0 74.215760007360586 -8.2441308901032926 0 -8.2441308901032926 -25.015300167273708 0 0 0 0 382.3526638938929 -1019.0152907314805 0 -1019.0152907314805 -69.125705820486473 0 0 0 0 1566.4766013873013 1749.7564147532976 0 1749.7564147532976 -919.6268792611445 0 0 0 0 197.63092735577388 58.883131668236672 0 58.883131668236672 15.181769882818614 0 0 0 0 172.94372695389939 53.069910390104269 0 53.069910390104269 52.324302352113591 0 0 0 0 186.26504039392967 45.520822427215535 0 45.520822427215535 10.882162424022681 0 0 0 0 177.08225168599711 60.591922144963974 0 60.591922144963974 57.075997799320248 0 0 0 0 160.4388015892182 64.584277268237201 0 64.584277268237201 56.204918272584109 0 0 0 0 168.70769143990742 69.662441025630415 0 69.662441025630415 73.174095318176114 0 0 0 0 71.663037569684093 -102.75844482289176 0 -102.75844482289176 -65.227783714034558 0 0 0 0 131.5140841617895 10.559568049997146 0 10.559568049997146 -10.695773685486806 0 0 0 0 442.56621131010252 14.446067768299145 0 14.446067768299145 -234.7048957139923 0 0 0 0 179.78077782244659 10.642387937668822 0 10.642387937668822 -9.7428170343993905 0 0 0 0 47.906666348026192 -78.40661791715138 0 -78.40661791715138 109.68231537436532 0 0 0 0 352.39786304499285 -347.28500495482149 0 -347.28500495482149 52.12982429809017 0 0 0 0 312.7061316105428 -133.06421750253503 0 -133.06421750253503 -149.46737836632383 0 0 0 0 393.78374817288022 -427.32907209284349 0 -427.32907209284349 336.07012927829055 0 0 0 0 422.39489927948307 -382.97748568179213 0 -382.97748568179213 139.75703486487964 0 0 0 0 428.9812441288741 -425.32464642668128 0 -425.32464642668128 203.88684601495879 0 0 0 0 461.09464063338964 -281.65877611951692 0 -281.65877611951692 91.540100533173245 0 0 0 0 450.99019706036779 -317.95120731525458 0 -317.95120731525458 265.36552865772592 0 0 0 0 435.13050275735441 -387.17102184758824 0 -387.17102184758824 333.83148772450659 0 0 0 0 492.00781148018723 -418.90336302049764 0 -418.90336302049764 240.17556657608293 0 0 0 0 -9.0776171371485574 3.175650133111672 0 3.175650133111672 5.0338496745583434 0 0 0 0 785.30862470206921 -581.22952662152602 0 -581.22952662152602 430.73460914273892 0 0 0 0 617.97164506271656 -308.854525906856 0 -308.854525906856 293.53516565600876 0 0 0 0 606.46320044406093 -339.47589101653739 0 -339.47589101653739 264.07271014453363 0 0 0 0 600.14318582113265 -387.88045708249501 0 -387.88045708249501 75.354912979491928 0 0 0 0 513.74025623986381 -207.23601466503351 0 -207.23601466503351 53.642144997746755 0 0 0 0 543.11089316199468 -251.76885909595876 0 -251.76885909595876 -344.97379846556942 0 0 0 0 541.69094044424492 -297.26083730446589 0 -297.26083730446589 198.8717009658094 0 0 0 0 73.708099244264304 -75.343681341408228 0 -75.343681341408228 29.42054369894754 0 0 0 0 636.89447655475306 -393.12251502415347 0 -393.12251502415347 136.76774884408496 0 0 0 0 54.982738729122218 18.781786631566487 0 18.781786631566487 -17.150751091116415 0 0 0 0 26.418223880243236 14.875014375355917 0 14.875014375355917 17.898507908055926 0 0 0 0 -16.668623626304907 -122.22993578952992 0 -122.22993578952992 176.53106907816255 0 0 0 0 62.356785949923506 27.972214232798251 0 27.972214232798251 35.870509548960399 0 0 0 0 81.27586344932206 54.10859726572744 0 54.10859726572744 -39.377878587576561 0 0 0 0 114.24833489435696 -30.705471559320358 0 -30.705471559320358 -42.856576718290853 0 0 0 0 49.906763803766808 55.171012946713745 0 55.171012946713745 -34.88441759951229 0 0 0 0 79.248498912063951 120.06798126421018 0 120.06798126421018 -199.74130196614169 0 0 0 0 0.80307343568711076 12.064362008650278 0 12.064362008650278 -61.343198234691954 0 0 0 0 82.300629569050898 38.481103085885692 0 38.481103085885692 0.51497160169505207 0 0 0 0 16.682846064939508 19.570636696147144 0 19.570636696147144 15.12699880304227 0 0 0 0 76.536284397872805 -116.77889663068709 0 -116.77889663068709 136.0441520362001 0 0 0 0 231.67851827917912 85.556646758206625 0 85.556646758206625 -6.092888584071261 0 0 0 0 342.39172586538098 -99.722044017284134 0 -99.722044017284134 9.1960264252338675 0 0 0 0 61.041738900999647 4.0755090534567984 0 4.0755090534567984 12.656210055663266 0 0 0 0 393.93439146238052 -93.708227525472466 0 -93.708227525472466 7.8308982704420487 0 0 0 0 228.60848211573898 -47.229516952332986 0 -47.229516952332986 12.554620001594877 0 0 0 0 381.15971321937104 -20.370534158264491 0 -20.370534158264491 -47.236565269147832 0 0 0 0 504.37363084893241 -230.63306506470508 0 -230.63306506470508 108.68055521573478 0 0 0 0 482.39456924501565 -112.02747211833071 0 -112.02747211833071 -58.362439222277317 0 0 0 0 417.05139221269201 39.98528408996026 0 39.98528408996026 -143.28030401537399 0 0 0 0 467.04921334183382 -81.935716446358128 0 -81.935716446358128 -5.3186862514303357 0 0 0 0 324.64289625035133 16.048096048991326 0 16.048096048991326 -6.174988558875576 0 0 0 0 957.88036406086758 146.70197197754896 0 146.70197197754896 -503.83748720546646 0 0 0 0 411.95730377464429 53.983315188795459 0 53.983315188795459 -29.317056482026494 0 0 0 0 412.44874273333699 56.522227414323424 0 56.522227414323424 -62.688072937402467 0 0 0 0 466.05430480008363 82.387077603480066 0 82.387077603480066 -226.55267863786139 0 0 0 0 93.447927067093957 0.2746589302644793 0 0.2746589302644793 -6.4725451472784385 0 0 0 0 462.29117197162122 106.31446120872897 0 106.31446120872897 -144.49370779298624 0 0 0 0 487.22342109571036 -623.05391635029446 0 -623.05391635029446 148.21294074602338 0 0 0 0 1416.1956552101765 -416.23010781692938 0 -416.23010781692938 -480.57445705329155 0 0 0 0 588.03668341838056 -17.842524789557501 0 -17.842524789557501 -660.609214208911 0 0 0 0 1024.3785325305435 -858.08600337046391 0 -858.08600337046391 -159.63490940002521 0 0 0 0 908.0586101723311 -848.3909619130427 0 -848.3909619130427 -159.79458317197805 0 0 0 0 3245.0179435011669 885.39865398889197 0 885.39865398889197 -2005.9708235584658 0 0 0 0 22.338420926174251 -7.0097252978022908 0 -7.0097252978022908 2.988257892179341 0 0 0 0 327.82366445877778 -510.04485148971708 0 -510.04485148971708 -493.60723986922676 0 0 0 0 1076.9130665502016 1509.6929726286417 0 1509.6929726286417 1214.8704421131297 0 0 0 0 97.473261088385243 17.62689298023896 0 17.62689298023896 -17.210929199404319 0 0 0 0 252.15999334183607 375.02394069590309 0 375.02394069590309 -101.57695707206949 0 0 0 0 220.18920748663368 -33.199719244106745 0 -33.199719244106745 338.41466955386568 0 0 0 0 457.22504136589123 -140.02162850642162 0 -140.02162850642162 -102.44169369050769 0 0 0 0 -63.112317287741462 38.171619394785921 0 38.171619394785921 -147.48917554808577 0 0 0 0 210.68557459948352 175.92149155775223 0 175.92149155775223 61.675676752569416 0 0 0 0 250.28777317500862 64.125648555935641 0 64.125648555935641 -172.89439119604504 0 0 0 0 305.24333816159924 -36.980737119583864 0 -36.980737119583864 -377.76455664895002 0 0 0 0 170.70108807223733 -116.68123732399181 0 -116.68123732399181 -96.660278814477351 0 0 0 0 133.96725361544236 -35.847730628327469 0 -35.847730628327469 -10.209375651193682 0 0 0 0 132.56342600865901 40.776439825091984 0 40.776439825091984 -121.1458673874431 0 0 0 0 121.17106439364034 90.35619816434064 0 90.35619816434064 -64.1693798926608 0 0 0 0 219.68411236714019 263.79482449884836 0 263.79482449884836 6.9048022343522462 0 0 0 0 82.243308531720686 -36.990170816116006 0 -36.990170816116006 -295.48744972689201 0 0 0 0 316.00471087034384 218.4114036752635 0 218.4114036752635 -328.25479040867481 0 0 0 0 427.7434623609588 108.27528492749116 0 108.27528492749116 57.40064056207666 0 0 0 0 4.5588556588235747 6.990388499684812 0 6.990388499684812 -20.12684781466757 0 0 0 0 415.87169111309413 69.538900108674397 0 69.538900108674397 36.517347683373373 0 0 0 0 957.11892050466849 75.864214363116844 0 75.864214363116844 -69.540251439895655 0 0 0 0 1327.0836229719716 482.42568785496042 0 482.42568785496042 120.00636446944145 0 0 0 0 945.20561360499414 -210.46013776813925 0 -210.46013776813925 95.00093941931118 0 0 0 0 1257.5570695007482 -188.40564503019414 0 -188.40564503019414 -63.711450085889737 0 0 0 0 1.5660717105917712 -4.0947419847730089 0 -4.0947419847730089 -4.2255747704631474 0 0 0 0 1709.8086454918193 -27.719248934579355 0 -27.719248934579355 -273.52448100856054 0 0 0 0 937.49534360978578 -547.56551134410074 0 -547.56551134410074 -592.9729515033614 0 0 0 0 111.93104198013316 39.146904468670982 0 39.146904468670982 -107.50665833873791 0 0 0 0 -494.0156822904828 -29.157485263771378 0 -29.157485263771378 50.342931421608228 0 0 0 0 -20.047665808531747 22.320053752995591 0 22.320053752995591 111.45550251004533 0 0 0 0 12.288533169612066 23.004811417961491 0 23.004811417961491 8.5060682698304078 0 0 0 0 146.2110203984339 139.47215487037101 0 139.47215487037101 -53.027910516655538 0 0 0 0 53.788476255096612 79.26393523022125 0 79.26393523022125 78.320468832470397 0 0 0 0 79.212511882637045 176.9448738207393 0 176.9448738207393 95.376528788232463 0 0 0 0 82.166831957001705 52.838506511019659 0 52.838506511019659 -20.176569361094153 0 0 0 0 74.607454806563865 47.212608183503534 0 47.212608183503534 23.839851484715922 0 0 0 0 36.579991387436166 90.236913575339713 0 90.236913575339713 -88.617798872946878 0 0 0 0 201.22649363814264 86.7072008825171 0 86.7072008825171 62.493919956788886 0 0 0 0 8.6278399082366377 65.152806123136543 0 65.152806123136543 67.870912399397639 0 0 0 0 150.30477503473412 88.139596957931644 0 88.139596957931644 103.3470452568472 0 0 0 0 97.828951318861982 69.981657146184375 0 69.981657146184375 22.53714642621707 0 0 0 0 100.75442082026854 30.760468809561957 0 30.760468809561957 16.291411741844939 0 0 0 0 71.41385937412997 121.76512803120788 0 121.76512803120788 32.966339358228957 0 0 0 0 199.71038504972239 54.825434609965669 0 54.825434609965669 49.392383506789884 0 0 0 0 -619.48693786555668 893.03439259660081 0 893.03439259660081 -618.03770134763909 0 0 0 0 166.21851897963904 92.465285434202954 0 92.465285434202954 42.697960314430794 0 0 0 0 -390.18009069049731 107.96953149256296 0 107.96953149256296 78.105535672148108 0 0 0 0 -37.960661005319878 47.512108614886003 0 47.512108614886003 36.600301295400833 0 0 0 0 -670.40090343239717 395.87493760709185 0 395.87493760709185 -181.62561581631599 0 0 0 0 -959.95965014350077 459.41722082318665 0 459.41722082318665 790.68362877078471 0 0 0 0 -625.8451689867361 -34.012591069640621 0 -34.012591069640621 486.21238620189251 0 0 0 0 -914.26203170380904 1036.7976306575292 0 1036.7976306575292 115.02329643511621 0 0 0 0 -1039.4585673622059 898.49248447672653 0 898.49248447672653 445.36121174333675 0 0 0 0 2179.3780889627651 166.98846711571468 0 166.98846711571468 -363.89978914085077 0 0 0 0 -14.31781055200554 -912.20395548988017 0 -912.20395548988017 387.60248402053912 0 0 0 0 19.095657265846967 204.90087695916009 0 204.90087695916009 627.02593083951433 0 0 0 0 33.080924459500238 -242.37625299695355 0 -242.37625299695355 848.51418562403705 0 0 0 0 17.531137748025742 -9.8037160478230163 0 -9.8037160478230163 0.80035751930606125 0 0 0 0 2219.3508310652905 -53.797284619156926 0 -53.797284619156926 -35.726787389277888 0 0 0 0 2283.8564959758078 -315.20855115229642 0 -315.20855115229642 95.24244854671997 0 0 0 0 2402.0139377342421 -170.46461909955542 0 -170.46461909955542 -303.13815061566038 0 0 0 0 76.809545073151469 -13.011645266461684 0 -13.011645266461684 -17.709085481131794 0 0 0 0 117.86478919733781 -40.393098745691532 0 -40.393098745691532 164.10481970333785 0 0 0 0 -186.24022125225747 -195.11653695172936 0 -195.11653695172936 253.74327754202386 0 0 0 0 81.262256360510946 98.738675244963815 0 98.738675244963815 275.26997381942056 0 0 0 0 4.4611787057361312 19.293131924304021 0 19.293131924304021 -34.42183177398573 0 0 0 0 3.1091432732164321 0.50004549394395958 0 0.50004549394395958 -1.174933802084773 0 0 0 0 2587.6669950016076 -264.92002017551204 0 -264.92002017551204 -36.741778547886497 0 0 0 0 287.06095478931093 -288.70754029710952 0 -288.70754029710952 85.184493264632692 0 0 0 0 285.23970331453165 1005.5500825271029 0 1005.5500825271029 600.36530056197807 0 0 0 0 8.4111721228359215 4.1875081026033314 0 4.1875081026033314 -3.9421471673603889 0 0 0 0 635.66892237981665 649.27009907471074 0 649.27009907471074 494.37644195549728 0 0 0 0 889.62897050549509 -240.32984686069176 0 -240.32984686069176 -52.165006879451539 0 0 0 0 372.58335958329553 -100.03599746699001 0 -100.03599746699001 -54.270735491867526 0 0 0 0 578.19530732967542 395.92144685574385 0 395.92144685574385 55.595104488966172 0 0 0 0 1005.5048651644393 177.20313380082371 0 177.20313380082371 -173.38811190924025 0 0 0 0 542.63013748181402 193.50407366715262 0 193.50407366715262 -162.72090989920798 0 0 0 0 552.64612217998365 189.09971061509714 0 189.09971061509714 -218.95307146651248 0 0 0 0 426.24284922472725 270.88067505933759 0 270.88067505933759 -228.76838884360313 0 0 0 0 493.86058462153596 199.5771628776547 0 199.5771628776547 -169.75762632217447 0 0 0 0 413.46114245753415 139.79563947047154 0 139.79563947047154 -98.188376198988408 0 0 0 0 446.65383570452104 128.40451971230868 0 128.40451971230868 -185.43908676682804 0 0 0 0 664.37998215686821 48.187410697813903 0 48.187410697813903 -156.05087724538316 0 0 0 0 329.85892619201331 35.105057330909403 0 35.105057330909403 -40.378490138367852 0 0 0 0 184.56943171330204 44.443393197210753 0 44.443393197210753 -8.2605760796886898 0 0 0 0 349.99670804417838 -49.16371186288643 0 -49.16371186288643 43.780373588077055 0 0 0 0 89.301078733216855 29.115591949122972 0 29.115591949122972 -31.10476959036896 0 0 0 0 16.305711523895241 16.499468045575323 0 16.499468045575323 1.9203143346226383 0 0 0 0 98.694176778721157 58.375898391738701 0 58.375898391738701 6.9401537032390479 0 0 0 0 183.5269244667611 73.155201509203664 0 73.155201509203664 -14.739232741121668 0 0 0 0 86.452834379797423 106.37785804999339 0 106.37785804999339 -9.8930669883338851 0 0 0 0 49.963151229367213 148.2804519311112 0 148.2804519311112 17.886012741628292 0 0 0 0 259.1466272876205 226.42231973799721 0 226.42231973799721 33.905924522194255 0 0 0 0 183.82780849041592 116.30632294910993 0 116.30632294910993 -33.281904872830637 0 0 0 0 268.30140736483736 140.31063455980075 0 140.31063455980075 -26.463757217841703 0 0 0 0 378.28459302414558 248.5575386016817 0 248.5575386016817 -38.928133136747419 0 0 0 0 266.41365077739829 156.83337441018762 0 156.83337441018762 -95.607173419837636 0 0 0 0 388.72509061406163 273.71070414961378 0 273.71070414961378 -82.931067943325615 0 0 0 0 391.74253395947744 246.99835770058326 0 246.99835770058326 -179.97972213790626 0 0 0 0 400.55483738624025 271.00902533046201 0 271.00902533046201 -83.841266480429113 0 0 0 0 302.04722612020851 210.7213061095913 0 210.7213061095913 -42.049339878118388 0 0 0 0 230.86686136972276 227.15070668095677 0 227.15070668095677 162.6858721769122 0 0 0 0 342.22696018125862 311.77618667054003 0 311.77618667054003 148.52200150521821 0 0 0 0 329.34575142758695 275.4351041929167 0 275.4351041929167 106.91704791749726 0 0 0 0 378.38915796085348 273.17124850471191 0 273.17124850471191 72.421943944307714 0 0 0 0 279.85347206435108 179.29970999176771 0 179.29970999176771 12.930821267214128 0 0 0 0 346.33962611931202 346.45016576211799 0 346.45016576211799 265.20651134388299 0 0 0 0 184.35980426240712 111.24070453194702 0 111.24070453194702 271.93092702421802 0 0 0 0 206.92008035878825 257.09307080746953 0 257.09307080746953 126.10238065947885 0 0 0 0 -0.57743671399293817 -8.2882486405821396 0 -8.2882486405821396 -78.852730822905301 0 0 0 0 15.535245621693321 -31.901864419771982 0 -31.901864419771982 -48.567848013113235 0 0 0 0 0.83900268584639548 6.3941252785463618 0 6.3941252785463618 2.4306387691844469 0 0 0 0 57.075427564064739 13.898787099890228 0 13.898787099890228 -152.08948817651026 0 0 0 0 -5.6340597543403419 3.2478486647930254 0 3.2478486647930254 -32.336610881212437 0 0 0 0 16.6365410315193 179.86158647421985 0 179.86158647421985 122.76381189578888 0 0 0 0 -0.80721470681942264 5.5086713726816257 0 5.5086713726816257 2.424214356268271 0 0 0 0 667.48329365259269 -390.26726604408304 0 -390.26726604408304 65.349848733083491 0 0 0 0 1543.5278509205673 -174.49668499732979 0 -174.49668499732979 -336.66636577855434 0 0 0 0 1257.3604586097936 198.07764901734299 0 198.07764901734299 -265.28945195594497 0 0 0 0 1875.1802103703085 184.42805405879335 0 184.42805405879335 -326.331052151927 0 0 0 0 2208.1951438047545 -501.15722561842722 0 -501.15722561842722 -212.41105401093228 0 0 0 0 2055.661774951237 512.71700847472903 0 512.71700847472903 254.62352004557033 0 0 0 0 526.9187961773132 -142.80190692757606 0 -142.80190692757606 -176.44245860629962 0 0 0 0 701.61605628984398 385.70420843122338 0 385.70420843122338 -146.27599365947026 0 0 0 0 150.77773920624168 221.1161381972106 0 221.1161381972106 -195.21130054603418 0 0 0 0 2174.184163997852 -297.53124338207817 0 -297.53124338207817 70.640910762421299 0 0 0 0 2209.7133282307186 -342.52198731485987 0 -342.52198731485987 7.7512437719851732 0 0 0 0 2176.8772422791517 -299.3057138131262 0 -299.3057138131262 67.309593028126983 0 0 0 0 18.459998050487087 2.399990324475425 0 2.399990324475425 1.323574484475273 0 0 0 0 2238.7452305681654 -350.34403853740514 0 -350.34403853740514 -407.12278112431522 0 0 0 0 1963.9480856250157 582.33206940594118 0 582.33206940594118 72.969287700567293 0 0 0 0 7.0858459105712939 1.4322296877363812 0 1.4322296877363812 -9.5763785918367645 0 0 0 0 -105.46496487199329 -436.04034741242685 0 -436.04034741242685 -233.24222982514766 0 0 0 0 497.26604293068522 -950.83384893539915 0 -950.83384893539915 -900.03551964619328 0 0 0 0 1850.5240960669471 -7.7941982221309445 0 -7.7941982221309445 -592.53911045475979 0 0 0 0 851.4768238554243 -279.51529141493029 0 -279.51529141493029 -256.18440862150965 0 0 0 0 893.84606715719565 -215.85941471551268 0 -215.85941471551268 -177.21760770752007 0 0 0 0 1224.7247506012209 -642.80276516324011 0 -642.80276516324011 -24.026076690475747 0 0 0 0 1533.9791971832165 -465.93049019011596 0 -465.93049019011596 490.8292357571072 0 0 0 0 1529.3802213545423 -576.41423913571271 0 -576.41423913571271 -338.22010708631569 0 0 0 0 1643.4347141621402 -203.82742520019929 0 -203.82742520019929 -348.13791432993821 0 0 0 0 1151.1101122408872 -384.99912231615053 0 -384.99912231615053 -106.60446175634297 0 0 0 0 981.37531657217187 -99.721605717694729 0 -99.721605717694729 -118.94121669771721 0 0 0 0 605.67285188124515 84.858731230097874 0 84.858731230097874 -52.086174418222981 0 0 0 0 550.68700570157671 -179.3873030804898 0 -179.3873030804898 -76.350076017009997 0 0 0 0 555.30095540120965 159.96241192127673 0 159.96241192127673 -121.48713872547705 0 0 0 0 -31.079716612606717 155.34159779797392 0 155.34159779797392 -170.94407066356871 0 0 0 0 479.22638386311883 67.294624151771131 0 67.294624151771131 -211.06791256038377 0 0 0 0 448.94171237829141 263.45963646486416 0 263.45963646486416 -228.97426364701505 0 0 0 0 314.8833967417886 185.98259971436892 0 185.98259971436892 -206.12816395172922 0 0 0 0 354.90242029578803 271.4312902929878 0 271.4312902929878 -95.121221175621031 0 0 0 0 562.55884988003527 308.31649419688074 0 308.31649419688074 28.660994100051539 0 0 0 0 486.32132738642395 217.92064267785554 0 217.92064267785554 -75.012714339569357 0 0 0 0 418.03792642176268 337.08566405131933 0 337.08566405131933 72.450724014026491 0 0 0 0 629.88469957794587 236.34663952244682 0 236.34663952244682 49.846107592664339 0 0 0 0 445.64307955256663 298.43197198202915 0 298.43197198202915 176.5242365209786 0 0 0 0 484.94192465180822 378.99127108247467 0 378.99127108247467 173.44545683833712 0 0 0 0 337.97060772354598 378.93936761585121 0 378.93936761585121 640.34698797874785 0 0 0 0 562.8236109460704 314.50018378450034 0 314.50018378450034 372.72393167876783 0 0 0 0 601.18851256325433 480.80246263303138 0 480.80246263303138 376.62062930037155 0 0 0 0 768.50145124542178 344.24220199846604 0 344.24220199846604 62.379760874933709 0 0 0 0 1814.0115906524152 698.04401849727037 0 698.04401849727037 142.40606632206186 0 0 0 0 1049.0585773548464 207.29396524569847 0 207.29396524569847 -61.033748455412933 0 0 0 0 747.39115486765513 327.25794520926229 0 327.25794520926229 69.48848465887022 0 0 0 0 1269.9970971300645 -81.637839455578728 0 -81.637839455578728 -128.06306576331895 0 0 0 0 1406.118508809348 -219.74501980567175 0 -219.74501980567175 -209.13319765655615 0 0 0 0 1099.9178920036065 -164.29329790122569 0 -164.29329790122569 -84.140338587543738 0 0 0 0 1369.7646583658061 -224.17825873443235 0 -224.17825873443235 -209.64470588944641 0 0 0 0 2191.1429710219236 -179.96682373782971 0 -179.96682373782971 -203.36711526825434 0 0 0 0 416.50121734337881 -406.51274862822629 0 -406.51274862822629 101.88400652640848 0 0 0 0 1.9945895165303682 -30.783186885673253 0 -30.783186885673253 -7.8304370822669256 0 0 0 0 1241.5744871444913 -461.51160269991442 0 -461.51160269991442 -171.26168164150477 0 0 0 0 576.23968996034819 177.85731809703339 0 177.85731809703339 -307.03946520763566 0 0 0 0 830.52247127299779 202.9047837973153 0 202.9047837973153 58.509729315885579 0 0 0 0 806.21228925178002 74.924871822025466 0 74.924871822025466 -103.38984750766593 0 0 0 0 1088.873190602877 -524.87781378917248 0 -524.87781378917248 1144.5464108052447 0 0 0 0 2539.3725408942191 -88.4690948049805 0 -88.4690948049805 -315.62432169479871 0 0 0 0 1616.4704411516577 820.10650767527022 0 820.10650767527022 526.31648368841252 0 0 0 0 1152.2921395770172 -762.81935402551471 0 -762.81935402551471 254.97510947537558 0 0 0 0 24.121327377640455 6.8188200512398538 0 6.8188200512398538 2.2375207392707601 0 0 0 0 367.24422921348014 690.93729160954945 0 690.93729160954945 902.39574769207024 0 0 0 0 872.61199830178521 920.1111762890007 0 920.1111762890007 685.25094346671631 0 0 0 0 -206.22252968358225 153.33791785636896 0 153.33791785636896 678.66574755229317 0 0 0 0 -148.22073143805028 -128.96499922844873 0 -128.96499922844873 135.63660293426801 0 0 0 0 397.65396729068016 -221.85000827422027 0 -221.85000827422027 80.395667992193012 0 0 0 0 1030.0097990002687 -299.74912223263118 0 -299.74912223263118 -88.257496846145841 0 0 0 0 509.12889916564745 -403.68246021081427 0 -403.68246021081427 82.821044252223146 0 0 0 0 459.24522529373644 -150.29292114825944 0 -150.29292114825944 7.9865277466533371 0 0 0 0 729.04997999413172 -62.739783204594914 0 -62.739783204594914 33.342317308775364 0 0 0 0 1199.1274188451935 -29.030863598681208 0 -29.030863598681208 -211.53519851280225 0 0 0 0 830.52776410862498 91.552087656124741 0 91.552087656124741 -95.316540254651954 0 0 0 0 1100.9684877274958 -64.176495386305248 0 -64.176495386305248 -223.96000303251276 0 0 0 0 1280.8135810530512 -153.13134912811347 0 -153.13134912811347 -304.7569119398263 0 0 0 0 1553.2253745135531 10.189995220029687 0 10.189995220029687 -347.35843677335015 0 0 0 0 1302.7881749010849 140.6215816712338 0 140.6215816712338 -330.78673518941287 0 0 0 0 1202.4286859105009 86.870598678136716 0 86.870598678136716 -347.68150924842757 0 0 0 0 876.56808609059954 -98.69356653641421 0 -98.69356653641421 -262.59578875791158 0 0 0 0 1323.0518376428226 95.725035107469921 0 95.725035107469921 -272.31883565817907 0 0 0 0 813.80280362082704 124.29462235684559 0 124.29462235684559 -236.4895878066684 0 0 0 0 1393.4583460056383 387.36523178753782 0 387.36523178753782 -180.24502430205666 0 0 0 0 -104.02803293335091 268.29572785776173 0 268.29572785776173 85.302373280157553 0 0 0 0 83.705023218293093 19.906820553047197 0 19.906820553047197 3.0337276136395905 0 0 0 0 895.35315621813061 -95.519147207012338 0 -95.519147207012338 -971.12294802923952 0 0 0 0 127.91801895220487 -52.600196545420289 0 -52.600196545420289 -122.06549796607442 0 0 0 0 -41.650669671376818 130.25726808431943 0 130.25726808431943 74.111495209642271 0 0 0 0 3.3623894382201343 6.0710473316861453 0 6.0710473316861453 0.11553993718512737 0 0 0 0 -43.496861679683207 -0.93850919106762376 0 -0.93850919106762376 105.9263291494326 0 0 0 0 48.928264122019755 -100.32564308900328 0 -100.32564308900328 20.291421682196187 0 0 0 0 255.32512546308135 -209.95964026842876 0 -209.95964026842876 -236.69400172826545 0 0 0 0 1.867698395322293 5.5559090394893751 0 5.5559090394893751 0.25844460003941583 0 0 0 0 62.341523128289793 13.544355322939657 0 13.544355322939657 2.0077202087801975 0 0 0 0 -2.7563675897545181 -198.7829958498337 0 -198.7829958498337 -234.56669815784153 0 0 0 0 241.14827587150285 103.71568757325406 0 103.71568757325406 -613.8446276675088 0 0 0 0 -246.06551752802625 -57.249787783628221 0 -57.249787783628221 52.011900686955414 0 0 0 0 72.289555437717354 103.7941142165796 0 103.7941142165796 100.00177624491084 0 0 0 0 102.92151043767399 76.766984383063118 0 76.766984383063118 123.56497031381696 0 0 0 0 125.18873885544599 9.428716717649877 0 9.428716717649877 -81.783888445067532 0 0 0 0 24.706720976479119 -140.12550463740308 0 -140.12550463740308 147.85749047882928 0 0 0 0 36.002377507902565 -80.221118976776324 0 -80.221118976776324 128.94589310707306 0 0 0 0 202.59647865592706 -13.487163290268654 0 -13.487163290268654 146.63553918736488 0 0 0 0 223.13228012289619 -56.012239630141721 0 -56.012239630141721 177.99810092043799 0 0 0 0 272.15346526965732 -60.67531542488905 0 -60.67531542488905 165.87469371524048 0 0 0 0 250.72968031764321 45.316337184918211 0 45.316337184918211 119.31790036913731 0 0 0 0 168.00814590290975 -1.5221763673939677 0 -1.5221763673939677 191.36733360952167 0 0 0 0 272.1927607646503 30.697636494540347 0 30.697636494540347 -20.571752640783416 0 0 0 0 279.32391651584476 134.28263912696048 0 134.28263912696048 84.535430429806183 0 0 0 0 230.72641060025489 155.77210549985602 0 155.77210549985602 97.031986296214654 0 0 0 0 360.93589764571516 303.87787552853752 0 303.87787552853752 44.301423003414584 0 0 0 0 108.10121880969791 179.39007124442384 0 179.39007124442384 109.47860387881883 0 0 0 0 52.338603351105121 -129.27106136200359 0 -129.27106136200359 170.58899221713637 0 0 0 0 -448.978491101283 282.44066435197965 0 282.44066435197965 455.10105540248014 0 0 0 0 -0.56989135283498626 2.1254326192183441 0 2.1254326192183441 11.707414376191156 0 0 0 0 471.76404931921206 86.709910404594098 0 86.709910404594098 -10.963606813937986 0 0 0 0 -63.351995297023677 67.842082254133402 0 67.842082254133402 30.684430496303094 0 0 0 0 23.518836900140741 28.709977501564936 0 28.709977501564936 43.772391032186533 0 0 0 0 58.66646898262843 55.223648533124106 0 55.223648533124106 -6.5533684745763594 0 0 0 0 28.078098720317939 74.274432932138552 0 74.274432932138552 -16.157320877661505 0 0 0 0 26.311871298588812 63.344757553404747 0 63.344757553404747 -23.624932648166578 0 0 0 0 83.745066261304601 13.715338515065923 0 13.715338515065923 -3.4469550291887572 0 0 0 0 79.923494549380848 46.788072774398643 0 46.788072774398643 -10.212545215695172 0 0 0 0 -2.0531672865828412 29.026449327753511 0 29.026449327753511 -4.0005715930621975 0 0 0 0 78.774642546661198 1.8080542193567908 0 1.8080542193567908 21.256720734739702 0 0 0 0 176.39322705908125 62.830383983914544 0 62.830383983914544 20.675903184808703 0 0 0 0 148.44734966517717 80.556149472724883 0 80.556149472724883 21.69223440956921 0 0 0 0 16.012580946630685 -8.1749344960915522 0 -8.1749344960915522 -7.4967974604756193 0 0 0 0 61.244661035845638 57.001213918134908 0 57.001213918134908 -15.732587956889802 0 0 0 0 52.328789773091557 58.359436735725467 0 58.359436735725467 -5.7823809168978642 0 0 0 0 126.8588852276589 40.524127580713184 0 40.524127580713184 -35.222098298245555 0 0 0 0 73.06398283103772 77.295679557452786 0 77.295679557452786 -59.205039969433301 0 0 0 0 31.044969564035149 30.719910550194854 0 30.719910550194854 -26.336966042719595 0 0 0 0 88.480323002142541 17.266436399512713 0 17.266436399512713 -94.990154691080534 0 0 0 0 16.300383160391277 42.048504949715429 0 42.048504949715429 3.7010879176845073 0 0 0 0 -61.765090072760358 45.107679331522377 0 45.107679331522377 -70.624158601547606 0 0 0 0 -56.267611651557672 74.360134939815111 0 74.360134939815111 -16.974652456376134 0 0 0 0 4.6767569785847485 -7.2377330062356151 0 -7.2377330062356151 -5.0075756831598897 0 0 0 0 71.404343862566748 -7.5840741330871424 0 -7.5840741330871424 -13.615726425576668 0 0 0 0 22.228802080662717 60.474478115223064 0 60.474478115223064 -18.550060921566001 0 0 0 0 8.0299243847766775 78.929646732363381 0 78.929646732363381 -39.354029039565376 0 0 0 0 98.557724079897156 30.849134215522994 0 30.849134215522994 0.042872404065867009 0 0 0 0 96.269600237916165 41.865347654857374 0 41.865347654857374 -14.084681356309375 0 0 0 0 18.772677095351263 1.8040182740364088 0 1.8040182740364088 -5.6997575655571673 0 0 0 0 164.08131894665712 53.560101747065346 0 53.560101747065346 -47.131821661080266 0 0 0 0 -1.968206527471601 -6.4461734611149097 0 -6.4461734611149097 0.90714276479565292 0 0 0 0 -173.2914024717029 210.60907641975453 0 210.60907641975453 -99.53638345592492 0 0 0 0 287.78855570717133 19.379139263532238 0 19.379139263532238 -48.701350091464235 0 0 0 0 158.80304976846674 48.338078699184393 0 48.338078699184393 6.2075356463965363 0 0 0 0 210.20499004793237 9.9272345840163325 0 9.9272345840163325 -8.7216330885639763 0 0 0 0 231.3353963541158 72.439221866312906 0 72.439221866312906 -73.268378646950168 0 0 0 0 214.88095010430698 62.086947056972349 0 62.086947056972349 8.1706440404159366 0 0 0 0 31.233543264977925 56.271857568966539 0 56.271857568966539 -57.844008675869986 0 0 0 0 -87.674258403309068 102.51761531822132 0 102.51761531822132 -69.043652875211137 0 0 0 0 52.740454299884732 63.868346947230748 0 63.868346947230748 -112.97595228297519 0 0 0 0 48.947902520390926 61.813037793754575 0 61.813037793754575 116.27397337128559 0 0 0 0 -38.621060685429256 313.93838705238937 0 313.93838705238937 -347.76187176802887 0 0 0 0 94.676351294699259 23.981303367733886 0 23.981303367733886 5.4683835000446823 0 0 0 0 81.590783835243201 65.8723944753051 0 65.8723944753051 -7.9247154423428583 0 0 0 0 181.87371818072279 83.286491944377417 0 83.286491944377417 -4.9092966807183984 0 0 0 0 1.2440704698505272 5.8840008763180398 0 5.8840008763180398 0.21207854089235348 0 0 0 0 100.81317348626908 112.61689375425885 0 112.61689375425885 -10.967346915830234 0 0 0 0 -120.91285767460067 9.2751212955322444 0 9.2751212955322444 -36.465074570609886 0 0 0 0 -53.238559464345599 -0.39550287556266994 0 -0.39550287556266994 -71.572497562594435 0 0 0 0 19.157395440306573 79.541610962842242 0 79.541610962842242 -166.92097693235269 0 0 0 0 23.998910433685523 48.261469458551801 0 48.261469458551801 -40.958972278946021 0 0 0 0 11.352391021486255 19.948954712624982 0 19.948954712624982 -43.255705033176127 0 0 0 0 78.032172997758607 13.63546664955993 0 13.63546664955993 -150.78593382816689 0 0 0 0 -0.46932563327237631 5.4807416515139948 0 5.4807416515139948 2.1167922215811115 0 0 0 0 292.13716876748367 127.67876786304828 0 127.67876786304828 -129.92136279938143 0 0 0 0 298.23928029477975 165.88344901653977 0 165.88344901653977 -94.897233592596422 0 0 0 0 106.16018379462912 13.035795498003353 0 13.035795498003353 -204.37921554878506 0 0 0 0 164.92461216230004 82.725252708268272 0 82.725252708268272 -126.2142198274787 0 0 0 0 102.5623083942919 198.30663042111928 0 198.30663042111928 -139.47554128936781 0 0 0 0 33.762611155863851 138.06702451639512 0 138.06702451639512 -166.36396831661705 0 0 0 0 -178.68804946457385 186.47232553782715 0 186.47232553782715 124.9214319753728 0 0 0 0 12.702172836492537 72.873985994198847 0 72.873985994198847 -112.7810010507942 0 0 0 0 35.562248414964415 154.93069774208561 0 154.93069774208561 -58.80525748187074 0 0 0 0 124.83531415669131 252.76784920082082 0 252.76784920082082 -35.495579258371436 0 0 0 0 91.802577313093934 147.78062932037756 0 147.78062932037756 -61.670858915969802 0 0 0 0 128.38622360902082 123.53937497201423 0 123.53937497201423 -98.301212574892816 0 0 0 0 206.98010123537097 156.33794752073595 0 156.33794752073595 -102.83639215120274 0 0 0 0 76.050156113189587 137.77248421343711 0 137.77248421343711 -64.811518629241618 0 0 0 0 57.05381132056209 75.741662237781043 0 75.741662237781043 -85.841075146197454 0 0 0 0 -28.41349323290342 104.53716986505515 0 104.53716986505515 -80.469911345185665 0 0 0 0 35.88708391005639 86.486384429349528 0 86.486384429349528 -77.317654842959655 0 0 0 0 66.151438063083333 105.88478310960636 0 105.88478310960636 -64.886667039448184 0 0 0 0 82.224580321853864 101.81404634318278 0 101.81404634318278 -66.863674313312004 0 0 0 0 72.60157427212016 48.333659658088507 0 48.333659658088507 -72.295339334966684 0 0 0 0 117.66395997929067 62.900475728836227 0 62.900475728836227 -73.060775210742577 0 0 0 0 108.97551743987242 60.917146861651645 0 60.917146861651645 -62.699724214022353 0 0 0 0 122.66738292692753 101.00950632645925 0 101.00950632645925 -73.389485316831269 0 0 0 0 94.549445209682744 91.721759682306583 0 91.721759682306583 -27.735027712500596 0 0 0 0 117.54684041985456 112.67885152253621 0 112.67885152253621 -8.6816322337781457 0 0 0 0 202.64876673959952 80.202794647610972 0 80.202794647610972 -58.979095265338401 0 0 0 0 93.079645570338471 82.137435623764759 0 82.137435623764759 -81.246182923022843 0 0 0 0 102.62269535021915 66.906845367402866 0 66.906845367402866 -57.455631175034796 0 0 0 0 52.423696045540055 31.130930476185767 0 31.130930476185767 -44.812343466403036 0 0 0 0 60.402776382172306 48.199655095215803 0 48.199655095215803 -10.550424212036887 0 0 0 0 27.107941945150401 -5.3862792209992421 0 -5.3862792209992421 2.0565463253949829 0 0 0 0 46.948192643809307 63.133551627754059 0 63.133551627754059 -5.6124518446779916 0 0 0 0 256.52810508655421 64.577765460787759 0 64.577765460787759 -53.19100232909841 0 0 0 0 48.769379679910799 34.158182284205168 0 34.158182284205168 0.73239437125630502 0 0 0 0 51.462452954623245 34.980017999832604 0 34.980017999832604 12.916932475881094 0 0 0 0 36.602389851293992 42.152902492112844 0 42.152902492112844 12.378409007584878 0 0 0 0 47.036466464936893 44.65870196295441 0 44.65870196295441 -0.48873904508400301 0 0 0 0 47.272923606811673 72.910569108971686 0 72.910569108971686 17.891785142386652 0 0 0 0 36.377604548601084 39.337215247274798 0 39.337215247274798 -36.422408745014764 0 0 0 0 8.5117738963199372 47.078825148281794 0 47.078825148281794 14.256313423551546 0 0 0 0 47.426369916138356 41.534416657479369 0 41.534416657479369 -30.907577766673057 0 0 0 0 32.318725869612535 30.101759062999918 0 30.101759062999918 -5.5754651071106309 0 0 0 0 21.393677045353087 -2.4335711751093534 0 -2.4335711751093534 6.37928248374525 0 0 0 0 630.39636306023021 5.5316456154005209 0 5.5316456154005209 -52.585051437347374 0 0 0 0 650.07554189925077 -37.405418258601912 0 -37.405418258601912 19.794225700388779 0 0 0 0 776.74637242654853 -207.32549671720881 0 -207.32549671720881 8.2209627739648568 0 0 0 0 1036.5424022555912 63.951798557993925 0 63.951798557993925 -45.094356480487477 0 0 0 0 -0.93566436304431733 -2.3188364627365292 0 -2.3188364627365292 2.4447545731015978 0 0 0 0 161.61633422749219 13.60098717312394 0 13.60098717312394 -69.047957039566427 0 0 0 0 180.2786730889311 41.743217334186738 0 41.743217334186738 -44.367486818771795 0 0 0 0 135.9637586206477 70.749953900833134 0 70.749953900833134 -28.248692996186946 0 0 0 0 131.08201414965697 118.9499569943564 0 118.9499569943564 -53.806113664443274 0 0 0 0 99.134688113815145 49.486163515250261 0 49.486163515250261 -2.0898383132433906 0 0 0 0 114.07759643074496 -10.008672285692228 0 -10.008672285692228 -45.483749067393546 0 0 0 0 89.339446643198002 34.774664844706209 0 34.774664844706209 -19.243582490919465 0 0 0 0 70.64713551915338 66.797873619550046 0 66.797873619550046 -64.340754064945941 0 0 0 0 63.901802147993294 40.975997814812445 0 40.975997814812445 -20.030135520195472 0 0 0 0 118.20017287727387 -18.355420618489916 0 -18.355420618489916 29.273079737989519 0 0 0 0 102.92035386449061 36.30001393114469 0 36.30001393114469 -75.422499232753125 0 0 0 0 106.42721152830927 20.175545593148399 0 20.175545593148399 -51.233947612917518 0 0 0 0 109.93222591451922 49.851247260420678 0 49.851247260420678 -57.764979327113224 0 0 0 0 16.287537378508961 18.647392286405797 0 18.647392286405797 -68.807987475630043 0 0 0 0 41.590689265656941 36.183795051713901 0 36.183795051713901 22.367384832467565 0 0 0 0 676.7266303281167 -110.7724209863818 0 -110.7724209863818 45.793700812542056 0 0 0 0 101.13191874683253 77.475246472003164 0 77.475246472003164 -195.62077605246031 0 0 0 0 485.34572256871752 -73.215899503947185 0 -73.215899503947185 38.562710377726034 0 0 0 0 665.85997591376008 3.368224734943368 0 3.368224734943368 44.385506967902984 0 0 0 0 -100.31043986036093 288.46391135128761 0 288.46391135128761 518.71943125723919 0 0 0 0 33.003916216233847 550.85485775917732 0 550.85485775917732 1030.9027457750981 0 0 0 0 11.871862317110839 10.741573180191345 0 10.741573180191345 14.102162493077543 0 0 0 0 -67.006877614236146 34.482910454968078 0 34.482910454968078 166.93156212886606 0 0 0 0 177.57894736270464 -15.677409365528092 0 -15.677409365528092 -151.99877686261789 0 0 0 0 331.16152054452323 401.21967717857115 0 401.21967717857115 223.23977724068573 0 0 0 0 311.80928635220062 343.76771011724571 0 343.76771011724571 89.75903147911049 0 0 0 0 362.51444196853026 30.359455690398875 0 30.359455690398875 -67.97696092867227 0 0 0 0 220.87127138787764 554.41709060466201 0 554.41709060466201 161.0641896520292 0 0 0 0 554.89123793163526 744.63897098411235 0 744.63897098411235 -154.8087722474138 0 0 0 0 344.5228349702993 762.26519335363628 0 762.26519335363628 510.29482907562488 0 0 0 0 86.912606367930493 35.475365661442254 0 35.475365661442254 -66.013526407719382 0 0 0 0 31.377515913531354 82.515544597656572 0 82.515544597656572 -55.793798084897844 0 0 0 0 89.712196903623408 93.50272540206106 0 93.50272540206106 37.611904810408305 0 0 0 0 -1.928842573054645 14.424791313646168 0 14.424791313646168 -55.759497280084446 0 0 0 0 -27.706544731954637 -95.169771796241548 0 -95.169771796241548 41.032401376833604 0 0 0 0 70.306486127672542 68.761734548195818 0 68.761734548195818 -52.897061296251195 0 0 0 0 -28.842126626685058 141.42892697232753 0 141.42892697232753 -77.881122138305557 0 0 0 0 -18.919385162400431 149.79288812163335 0 149.79288812163335 -70.949926661807723 0 0 0 0 6.334190225834547 3.0913980678878943 0 3.0913980678878943 0.40633940231257348 0 0 0 0 16.256591693589144 -67.609725647066284 0 -67.609725647066284 -110.41576076863112 0 0 0 0 147.94985577304033 389.57330442949069 0 389.57330442949069 668.71193676412031 0 0 0 0 301.10491366921269 -10.778665801542502 0 -10.778665801542502 -116.68035838970513 0 0 0 0 8.3064635035611047 12.26024161077817 0 12.26024161077817 -4.1184875009740676 0 0 0 0 83.678458337508346 104.90078448113229 0 104.90078448113229 330.85784172800572 0 0 0 0 339.19222819288552 412.30413238898018 0 412.30413238898018 169.34932245674736 0 0 0 0 621.02662524403058 447.72740066897643 0 447.72740066897643 -172.47938081955635 0 0 0 0 547.25930047792281 280.61202713749776 0 280.61202713749776 17.206191081535508 0 0 0 0 546.60377462247743 197.29968063518868 0 197.29968063518868 -66.522329657767841 0 0 0 0 505.40832891827995 21.623683645286064 0 21.623683645286064 -71.603730844195525 0 0 0 0 333.76608818991917 304.796007332611 0 304.796007332611 22.42294955685793 0 0 0 0 221.08325136102212 235.93614030812387 0 235.93614030812387 -15.772755338723073 0 0 0 0 326.55978694978694 281.17412199576847 0 281.17412199576847 32.341820494251806 0 0 0 0 147.23781875067652 239.5066471496084 0 239.5066471496084 92.161602431628125 0 0 0 0 -47.908679015163216 151.67703329332426 0 151.67703329332426 85.767985145343118 0 0 0 0 89.957619399094256 335.13921094771558 0 335.13921094771558 140.2860585849885 0 0 0 0 140.47565385280177 228.39030083479975 0 228.39030083479975 105.49832861051073 0 0 0 0 215.05085996324487 212.5972521431795 0 212.5972521431795 21.109047569403629 0 0 0 0 149.6294143248233 87.067579062005279 0 87.067579062005279 53.611174188277801 0 0 0 0 89.740703171526548 147.69458802079407 0 147.69458802079407 56.216929392899146 0 0 0 0 22.608016913727624 77.481913029284442 0 77.481913029284442 -34.151778173531056 0 0 0 0 20.954540159233147 98.255105214174364 0 98.255105214174364 59.369940426757239 0 0 0 0 106.51586918794783 56.044638491202022 0 56.044638491202022 199.18608129268659 0 0 0 0 151.00076824672124 -202.42648407812862 0 -202.42648407812862 -128.58686883959308 0 0 0 0 398.4308401697308 -201.31578646062781 0 -201.31578646062781 -375.19566090476474 0 0 0 0 389.80021843641225 10.051839585527205 0 10.051839585527205 33.522421902879614 0 0 0 0 428.09039212602511 -305.44932741246157 0 -305.44932741246157 -149.13169314345032 0 0 0 0 877.40555415220297 147.57315390303393 0 147.57315390303393 -344.46163975176842 0 0 0 0 525.22196998373875 289.7139429027643 0 289.7139429027643 -290.7092829859248 0 0 0 0 495.29375355252341 -176.57447313369948 0 -176.57447313369948 -530.7540629064797 0 0 0 0 294.30670453824132 304.59570004788497 0 304.59570004788497 275.6794916634675 0 0 0 0 440.95566461061389 193.81049939143873 0 193.81049939143873 -192.20941680077522 0 0 0 0 730.2319020496725 574.56504959818494 0 574.56504959818494 187.3201998845027 0 0 0 0 128.66084305813274 371.36613819138302 0 371.36613819138302 1065.8264529678397 0 0 0 0 186.82653844463493 161.93725004145867 0 161.93725004145867 87.028506736879024 0 0 0 0 626.45451838661393 197.93686735439132 0 197.93686735439132 -27.07052202364423 0 0 0 0 864.71577597377473 -160.99533488921634 0 -160.99533488921634 -229.20807144731452 0 0 0 0 497.08708011406998 801.20149689918117 0 801.20149689918117 248.29445609440108 0 0 0 0 263.94701250085336 537.77542867570878 0 537.77542867570878 -901.07159735243476 0 0 0 0 -6.287052062838157 -4.9745299725333609 0 -4.9745299725333609 1.3411740077646073 0 0 0 0 -1206.5439052338334 718.08528762607784 0 718.08528762607784 -255.51613166133393 0 0 0 0 1437.6186456350879 -337.54082943406138 0 -337.54082943406138 -310.25606952228918 0 0 0 0 847.99592049453349 -1256.1546441967876 0 -1256.1546441967876 -422.58914009016007 0 0 0 0 -294.05824603103974 875.61303638342724 0 875.61303638342724 -765.56321239657154 0 0 0 0 317.91188248167464 -64.788972294904397 0 -64.788972294904397 -529.58683109078265 0 0 0 0 -478.8853995342688 254.82738510564354 0 254.82738510564354 -295.77643278420328 0 0 0 0 1223.1380773618293 261.18315530534528 0 261.18315530534528 -197.33093422726051 0 0 0 0 921.90373804335832 -8.2057456534166704 0 -8.2057456534166704 -188.89118788022097 0 0 0 0 -1046.0942854136665 -67.357622529897526 0 -67.357622529897526 -320.30146496505768 0 0 0 0 -772.54181613342371 265.52081839053699 0 265.52081839053699 -303.23122735608558 0 0 0 0 -304.58380052194116 -9.0651705076252256 0 -9.0651705076252256 -493.19911897552811 0 0 0 0 -203.37948673772917 168.35063044180424 0 168.35063044180424 -241.02481359801686 0 0 0 0 -92.139630891008892 -131.62945707430049 0 -131.62945707430049 -265.02084808436484 0 0 0 0 -170.68633169202803 185.34430313534722 0 185.34430313534722 -417.08343709112478 0 0 0 0 151.91114621339511 -23.780788059257247 0 -23.780788059257247 -328.85363121103001 0 0 0 0 191.79818936865922 -224.24714261394547 0 -224.24714261394547 41.842988030859487 0 0 0 0 345.8247307102356 -213.69080006838203 0 -213.69080006838203 -143.15014747871737 0 0 0 0 308.42009481175046 -15.1847331387753 0 -15.1847331387753 -221.23872610590843 0 0 0 0 264.4743179980178 350.64375607313377 0 350.64375607313377 -9.2059809614256665 0 0 0 0 -1283.7317027026293 654.01927377309403 0 654.01927377309403 551.44324335066995 0 0 0 0 162.7401372169079 162.42133871997248 0 162.42133871997248 -356.19707971269963 0 0 0 0 28.311255735197371 -8.0240310456201449 0 -8.0240310456201449 -10.481005820292076 0 0 0 0 250.14163953332172 525.50534866909948 0 525.50534866909948 -319.59878487670676 0 0 0 0 142.41692056044121 228.5810373422064 0 228.5810373422064 -539.38940554888541 0 0 0 0 -106.52164466333488 238.12165542255934 0 238.12165542255934 -816.36805901962362 0 0 0 0 -114.22872510393427 99.461491360646505 0 99.461491360646505 -511.82388256600825 0 0 0 0 -110.2028740443202 145.8375029377894 0 145.8375029377894 -727.5310215952486 0 0 0 0 -574.58172981865937 58.934690704172681 0 58.934690704172681 -471.14434115733729 0 0 0 0 46.809930699673714 451.77707751956405 0 451.77707751956405 -585.47500590100299 0 0 0 0 73.356490862195642 373.37388268764153 0 373.37388268764153 -358.63010043413669 0 0 0 0 394.0532847154318 562.38982964710522 0 562.38982964710522 -445.64957350393706 0 0 0 0 350.40438814098525 609.32665574724888 0 609.32665574724888 -359.60570554102742 0 0 0 0 418.52407015570498 453.76028829295137 0 453.76028829295137 -372.28371439763941 0 0 0 0 287.59619712175481 519.71491505656741 0 519.71491505656741 -302.70692130976386 0 0 0 0 330.37513970585132 463.70054757680191 0 463.70054757680191 -508.97257364711913 0 0 0 0 765.26018846894658 535.88998231067671 0 535.88998231067671 549.16134012454495 0 0 0 0 32.689370947154785 -9.301922182891694 0 -9.301922182891694 -2.7409131956140769 0 0 0 0 446.82452266251858 -6.3929527007594515 0 -6.3929527007594515 -76.889684796173242 0 0 0 0 611.68460770270303 46.781384387405978 0 46.781384387405978 -589.72520054679626 0 0 0 0 726.60063292384075 -495.09420008880579 0 -495.09420008880579 32.222608887546812 0 0 0 0 430.70680113135313 -133.17525646743161 0 -133.17525646743161 157.33894571336714 0 0 0 0 567.02957867977966 -152.7929887152095 0 -152.7929887152095 -40.258347772884008 0 0 0 0 445.36975047960004 -6.9388166257958801 0 -6.9388166257958801 -18.987714351213071 0 0 0 0 -615.54671974353005 -225.19292633132795 0 -225.19292633132795 -727.37293805996887 0 0 0 0 -455.8776041502133 -102.6903526682072 0 -102.6903526682072 -874.16177615053311 0 0 0 0 410.59723237553681 89.539714547731023 0 89.539714547731023 -149.13006782036973 0 0 0 0 198.82028095162241 257.2648503660057 0 257.2648503660057 -8.7341708566164016 0 0 0 0 341.72830946261456 375.74879997757944 0 375.74879997757944 -458.99340333727014 0 0 0 0 547.16953604515584 0.1118032662634505 0 0.1118032662634505 -287.50317305875069 0 0 0 0 430.64906701883592 118.81183367875201 0 118.81183367875201 -187.43113612329034 0 0 0 0 425.63481930257694 128.13113266793516 0 128.13113266793516 -149.19753721667803 0 0 0 0 404.13245537613693 99.442495104864065 0 99.442495104864065 -115.72295455230051 0 0 0 0 183.72893952982849 28.290157852830816 0 28.290157852830816 12.995215790881048 0 0 0 0 148.83674876844418 25.407337009174459 0 25.407337009174459 2.5229998436994157 0 0 0 0 197.17135555396089 22.84819723954206 0 22.84819723954206 17.963622282830329 0 0 0 0 483.49419083155226 -443.14103155106568 0 -443.14103155106568 -454.46953850067075 0 0 0 0 11.699399090195556 -13.433676682710949 0 -13.433676682710949 -4.5320269864027338 0 0 0 0 310.57169217177579 100.85051178387766 0 100.85051178387766 108.84209422662752 0 0 0 0 6.7916038522671442 -122.91146322969871 0 -122.91146322969871 78.948007211001823 0 0 0 0 413.2024412880636 -9.3397441276815698 0 -9.3397441276815698 -22.956760480061348 0 0 0 0 194.05853822111385 15.299549505180039 0 15.299549505180039 28.521072532996186 0 0 0 0 127.58790383057203 25.595838499993988 0 25.595838499993988 28.963075112359775 0 0 0 0 50.98833904995081 13.139586964048249 0 13.139586964048249 -72.261596495975027 0 0 0 0 1360.3892290320109 -1743.1328408484069 0 -1743.1328408484069 -816.91894240040165 0 0 0 0 343.26099700616032 -171.72457886247867 0 -171.72457886247867 23.243104408029467 0 0 0 0 355.27577389588987 -131.46927821191275 0 -131.46927821191275 64.320055929336377 0 0 0 0 -1019.2809835486514 -1679.9687679734461 0 -1679.9687679734461 3716.339801129463 0 0 0 0 55.6090066970702 13.837383907262485 0 13.837383907262485 -9.1936038949541299 0 0 0 0 6.7917578840861097 51.545140502901631 0 51.545140502901631 -56.965423787536338 0 0 0 0 65.310084643760149 64.061975548584698 0 64.061975548584698 2.1785814677620281 0 0 0 0 177.9612193364826 -8.0725706053258293 0 -8.0725706053258293 -19.998076257781182 0 0 0 0 138.81993624896501 -19.910392241876082 0 -19.910392241876082 -30.941067118567226 0 0 0 0 193.76145218404417 -3.7895913849333738 0 -3.7895913849333738 3.363955094549965 0 0 0 0 293.64211601857096 -214.94781805100502 0 -214.94781805100502 -27.491850210208213 0 0 0 0 59.082052038593524 22.818393696192842 0 22.818393696192842 -3.2192515417601157 0 0 0 0 27.581772043382585 -3.2909643069443746 0 -3.2909643069443746 -3.38385081790328 0 0 0 0 212.10740414188331 3.8819474386673392 0 3.8819474386673392 6.5639602605406253 0 0 0 0 28.37062535212317 -41.510701024758418 0 -41.510701024758418 38.408838090821519 0 0 0 0 35.999774725789834 44.425819082906074 0 44.425819082906074 11.460549821220702 0 0 0 0 185.15396023430367 5.6273665280482419 0 5.6273665280482419 19.367158357075823 0 0 0 0 188.34364943516994 13.872528697389498 0 13.872528697389498 29.598939502320718 0 0 0 0 492.54774482151697 86.867319347854391 0 86.867319347854391 -56.251834871969095 0 0 0 0 2.8365780103358418 2.8210133047767414 0 2.8210133047767414 -3.0956556393101238 0 0 0 0 364.71103182501247 54.265735880311695 0 54.265735880311695 172.51802583449535 0 0 0 0 147.1638742358482 -2.7166097736492247 0 -2.7166097736492247 13.00413364850283 0 0 0 0 154.16053170806845 -14.79543234871835 0 -14.79543234871835 20.620707806340761 0 0 0 0 290.17887978089857 87.160072573933576 0 87.160072573933576 -80.902859561184869 0 0 0 0 227.87291181766341 127.00057836704946 0 127.00057836704946 -94.349515809222794 0 0 0 0 204.50585473154206 101.80285471602701 0 101.80285471602701 -72.082212956982403 0 0 0 0 188.24448831260088 123.1513508361013 0 123.1513508361013 -88.541272999180819 0 0 0 0 186.33807626797352 108.68212024834725 0 108.68212024834725 -67.856843635196128 0 0 0 0 26.9226329259007 3.3972312945194858 0 3.3972312945194858 6.7362218608590254 0 0 0 0 138.04539959954855 115.92136006994451 0 115.92136006994451 -40.165284478399371 0 0 0 0 163.29760889623867 73.427826027062338 0 73.427826027062338 0.16427412129633012 0 0 0 0 203.69346619016142 71.961586918280773 0 71.961586918280773 -4.3011441501594163 0 0 0 0 202.31680369648529 60.765622771301537 0 60.765622771301537 -88.8225207363339 0 0 0 0 147.40967859283955 29.277597156272805 0 29.277597156272805 -36.504755709655001 0 0 0 0 207.62451043458626 38.303837224308644 0 38.303837224308644 1.9297110861008544 0 0 0 0 191.92379765026271 78.814569748788017 0 78.814569748788017 15.018680756970753 0 0 0 0 -320.1911367352659 -55.191062360893739 0 -55.191062360893739 779.10553028872528 0 0 0 0 257.49733281372755 12.976643776833953 0 12.976643776833953 -112.82926157111987 0 0 0 0 267.34003627448692 27.187414708765573 0 27.187414708765573 20.506461389573815 0 0 0 0 115.78296930514352 57.335186087549673 0 57.335186087549673 16.444586607039568 0 0 0 0 136.84468152059708 11.375622777981334 0 11.375622777981334 -3.7542022374400403 0 0 0 0 117.92465092609552 14.276662387671038 0 14.276662387671038 1.5685388663171196 0 0 0 0 266.11278004211636 15.805693483243886 0 15.805693483243886 -113.18623221211601 0 0 0 0 450.42893028148683 -74.391746159424656 0 -74.391746159424656 92.187374653191767 0 0 0 0 60.494685709796485 5.478626360471786 0 5.478626360471786 -10.100946496115043 0 0 0 0 119.61087091752665 64.927633266841781 0 64.927633266841781 31.344694970366497 0 0 0 0 50.195625734904503 -2.6089673091606045 0 -2.6089673091606045 -3.6723902503521231 0 0 0 0 550.48126605260768 -39.8882542318388 0 -39.8882542318388 -148.8330479333672 0 0 0 0 476.17798859336472 82.005187173073864 0 82.005187173073864 -220.07579745297699 0 0 0 0 62.675289988532313 418.65171305739932 0 418.65171305739932 -160.49336088551354 0 0 0 0 322.76547046552878 32.80639193222305 0 32.80639193222305 -111.30196627696569 0 0 0 0 327.08038856077474 242.63851007720768 0 242.63851007720768 -239.5771588401949 0 0 0 0 310.99144753339351 233.59169603326154 0 233.59169603326154 -22.847110776376212 0 0 0 0 191.12674455805973 207.13750002492816 0 207.13750002492816 -50.845860890924996 0 0 0 0 326.43477547318616 -201.78691871367482 0 -201.78691871367482 -229.72435003635474 0 0 0 0 176.71343898685882 110.99730861894795 0 110.99730861894795 48.723189482348971 0 0 0 0 245.63184049043048 101.45080355418668 0 101.45080355418668 -76.618040307381307 0 0 0 0 226.3579750097706 108.03213222830163 0 108.03213222830163 1.3969858760792704 0 0 0 0 255.96112069762603 178.90766518579039 0 178.90766518579039 -52.889466675479525 0 0 0 0 209.70293477019732 190.55242336213269 0 190.55242336213269 8.8696024788805516 0 0 0 0 178.9162986863812 158.46239066801354 0 158.46239066801354 54.990348543793971 0 0 0 0 189.28837390738772 160.300112133933 0 160.300112133933 25.72339938445657 0 0 0 0 183.99662723371875 124.11440521816621 0 124.11440521816621 2.2052597735237214 0 0 0 0 183.26683196772683 129.55005555259186 0 129.55005555259186 52.872554866669816 0 0 0 0 177.51480590447318 152.46780770853729 0 152.46780770853729 39.85913404810708 0 0 0 0 58.952252949566173 129.19477860500501 0 129.19477860500501 97.05789978861867 0 0 0 0 21.251768613640792 38.480376356277191 0 38.480376356277191 9.5150556967102631 0 0 0 0 397.84206681948854 94.021577795349003 0 94.021577795349003 -5.5880827073415276 0 0 0 0 234.10693277076643 80.680303016732978 0 80.680303016732978 7.3413939477977692 0 0 0 0 255.11456455943699 155.39938439707839 0 155.39938439707839 37.157219697652181 0 0 0 0 -12.555508397295476 -5.4865193199995019 0 -5.4865193199995019 2.8415701572933969 0 0 0 0 57.660684947040863 48.112599346451134 0 48.112599346451134 1.3549673413344863 0 0 0 0 67.098473784877569 40.024185718437366 0 40.024185718437366 4.3097841414523828 0 0 0 0 63.453484119884479 24.805439757115924 0 24.805439757115924 3.3139821517245305 0 0 0 0 64.081351264743716 57.16566851054813 0 57.16566851054813 23.344917569464926 0 0 0 0 50.001520322606666 36.118020527400404 0 36.118020527400404 17.222684326046874 0 0 0 0 165.99782256000833 40.656926638250319 0 40.656926638250319 0.87988773381442076 0 0 0 0 191.07653871440561 51.091916514214972 0 51.091916514214972 -31.09012735108838 0 0 0 0 226.86455020922585 59.088240220753505 0 59.088240220753505 -59.754863159356319 0 0 0 0 6.7587402334208377 11.318958189602171 0 11.318958189602171 27.101858328441693 0 0 0 0 28.500400226999773 23.070083135613459 0 23.070083135613459 36.879623759536116 0 0 0 0 15.481812282770989 48.190905213433325 0 48.190905213433325 22.424563920130822 0 0 0 0 52.811839815971325 31.323230385272836 0 31.323230385272836 24.31008923276363 0 0 0 0 42.594231936030667 19.569510220589123 0 19.569510220589123 4.3218990982373544 0 0 0 0 29.890860427287407 21.212579955573347 0 21.212579955573347 39.329349568073667 0 0 0 0 97.668245242603007 20.687931674696301 0 20.687931674696301 -15.498727464308555 0 0 0 0 74.089249789241876 -76.908003531022587 0 -76.908003531022587 106.58106449488514 0 0 0 0 8.168760469520322 1.1831628580794415 0 1.1831628580794415 -2.2406728109987739 0 0 0 0 124.37120056719476 -34.583611538359364 0 -34.583611538359364 98.393354967291089 0 0 0 0 124.06187933067849 -74.175378463655761 0 -74.175378463655761 69.769687630980343 0 0 0 0 56.730484160245396 25.14876741255739 0 25.14876741255739 49.37345908091811 0 0 0 0 109.11146567486867 -6.6490191166744808 0 -6.6490191166744808 -65.49482662572791 0 0 0 0 160.6331674229732 -83.404209934157734 0 -83.404209934157734 -49.72943592573688 0 0 0 0 97.911194779531797 -55.166645626026366 0 -55.166645626026366 -25.16769854364793 0 0 0 0 124.33442420705978 -114.71923820547818 0 -114.71923820547818 -8.2992851856479319 0 0 0 0 119.88914184832538 -20.258643979619592 0 -20.258643979619592 -59.519163381320141 0 0 0 0 118.79251409278368 35.137685721726029 0 35.137685721726029 22.548863044807149 0 0 0 0 22.270908367493917 8.6445738553810259 0 8.6445738553810259 1.1979596691330983 0 0 0 0 268.90462504629977 -31.980251851192406 0 -31.980251851192406 -111.89428901157498 0 0 0 0 198.66960637424199 54.700168230649979 0 54.700168230649979 -47.687768504119504 0 0 0 0 353.92363357198337 -110.37461646189422 0 -110.37461646189422 126.42466475265428 0 0 0 0 139.83392298966646 -99.696141543272233 0 -99.696141543272233 15.476322566642921 0 0 0 0 227.72147689765552 52.573577903751357 0 52.573577903751357 -0.68439265817869455 0 0 0 0 169.85438013308158 31.957873890093651 0 31.957873890093651 78.405698937985107 0 0 0 0 266.33260448907458 164.83928962500386 0 164.83928962500386 259.41687735458436 0 0 0 0 158.60519987504813 -84.147950511619911 0 -84.147950511619911 -45.988784801547808 0 0 0 0 121.89923780047684 -25.825990966799509 0 -25.825990966799509 -29.429059339618107 0 0 0 0 106.51684977475088 -62.017022436746629 0 -62.017022436746629 -103.43205162070262 0 0 0 0 135.88147609595035 5.033682495890389 0 5.033682495890389 -33.753797160261456 0 0 0 0 161.813604158202 -14.286355279180043 0 -14.286355279180043 -81.510168477809202 0 0 0 0 51.653420911854482 26.979413468186976 0 26.979413468186976 -75.11647886773244 0 0 0 0 129.8336398178908 31.008781690727801 0 31.008781690727801 -144.4896388899142 0 0 0 0 -18.332511355503812 63.169155158691865 0 63.169155158691865 -32.705958208142874 0 0 0 0 149.37954493828875 42.31886983733466 0 42.31886983733466 -118.5129103991203 0 0 0 0 177.34969172965793 98.902890622146515 0 98.902890622146515 -58.875674064252962 0 0 0 0 194.29126784316031 71.58354768999925 0 71.58354768999925 -15.145347116633275 0 0 0 0 214.40863930287014 134.02034210014972 0 134.02034210014972 -7.0473014067883923 0 0 0 0 192.34094280439604 186.74347748999844 0 186.74347748999844 163.778860374141 0 0 0 0 233.09269514214247 74.246841721018427 0 74.246841721018427 -101.48344115589134 0 0 0 0 -25.522643732947472 103.22283664619818 0 103.22283664619818 402.38074547610086 0 0 0 0 2.0945972691173438 0.74835148694603504 0 0.74835148694603504 -0.15374092396506711 0 0 0 0 314.96604292248958 90.976775770968743 0 90.976775770968743 -27.706997374778439 0 0 0 0 217.94899215892656 117.0584260745145 0 117.0584260745145 38.810087510792528 0 0 0 0 315.63682265793614 121.56593807152831 0 121.56593807152831 -7.8950874797701545 0 0 0 0 231.83619674923466 105.65901159005739 0 105.65901159005739 11.609988377098489 0 0 0 0 317.2482887396468 83.193915346685543 0 83.193915346685543 -44.876831452182159 0 0 0 0 289.25108792130777 80.111124826952619 0 80.111124826952619 -33.563921846298399 0 0 0 0 161.96644025277055 9.632437198632033 0 9.632437198632033 -32.689933011462017 0 0 0 0 278.1146352578362 40.931013667528532 0 40.931013667528532 -33.667533670400189 0 0 0 0 393.88057446840685 -9.0204084841825534 0 -9.0204084841825534 -48.741262901126902 0 0 0 0 104.22386274021119 -77.028510757520053 0 -77.028510757520053 16.726683533921459 0 0 0 0 -21.449022351400345 11.011906420249488 0 11.011906420249488 33.80782757606903 0 0 0 0 93.74441849727009 -26.492727747963727 0 -26.492727747963727 23.038989665394183 0 0 0 0 163.90580893591687 -1.1963181908686238 0 -1.1963181908686238 -14.745967664495765 0 0 0 0 102.27945598310907 15.93617057292613 0 15.93617057292613 -0.33234531488778885 0 0 0 0 70.503792728457483 -21.313284313332588 0 -21.313284313332588 12.996921083889902 0 0 0 0 19.968680527817924 14.483085167726131 0 14.483085167726131 -21.101220473472495 0 0 0 0 36.356846714625135 -13.053944419618347 0 -13.053944419618347 5.2060351448136544 0 0 0 0 33.583357425231952 4.2540990269317263 0 4.2540990269317263 6.3713626075758611 0 0 0 0 28.581639157768223 -1.796107759944789 0 -1.796107759944789 -0.92339450974759529 0 0 0 0 21.367117911111563 25.055894556699059 0 25.055894556699059 -9.2911221499189196 0 0 0 0 25.188439585879678 0.9435941410392843 0 0.9435941410392843 18.862905642299665 0 0 0 0 16.855486914137146 13.148498674713665 0 13.148498674713665 -17.652957159551079 0 0 0 0 -1.1910881745861843 17.605261224707647 0 17.605261224707647 -14.410179600310585 0 0 0 0 54.333416191344043 15.1437052252261 0 15.1437052252261 -23.955948834683529 0 0 0 0 32.006337687693303 13.242979848935192 0 13.242979848935192 -24.583904166282082 0 0 0 0 28.702611014252057 7.734247182010904 0 7.734247182010904 -16.509087374689965 0 0 0 0 36.12338783417195 10.999862989812911 0 10.999862989812911 -18.571255466144038 0 0 0 0 -122.19553775513486 36.244535073396037 0 36.244535073396037 -6.3979840124284237 0 0 0 0 35.204301945047916 31.497789307255417 0 31.497789307255417 -25.978725482137456 0 0 0 0 114.85083986893005 10.417748563016971 0 10.417748563016971 -2.1198550762829882 0 0 0 0 154.53397760770895 -21.859520577018657 0 -21.859520577018657 -17.707971478964282 0 0 0 0 -8.0684525677643251 52.824051334913747 0 52.824051334913747 -122.82270811207673 0 0 0 0 20.628370912803803 52.701220926962378 0 52.701220926962378 -29.311685500903877 0 0 0 0 8.2440475245778089 11.04898926504039 0 11.04898926504039 -0.1633968553471874 0 0 0 0 211.48519245567149 -56.212341750984706 0 -56.212341750984706 -138.61036016305138 0 0 0 0 -100.96209709843606 -46.401972465253948 0 -46.401972465253948 148.80106353234441 0 0 0 0 130.02260065203882 -23.602653228294912 0 -23.602653228294912 2.4593706404348268 0 0 0 0 160.45413334979821 2.2902399771367072 0 2.2902399771367072 6.1894856954213537 0 0 0 0 94.518134340745746 -94.481263272592059 0 -94.481263272592059 150.2541696251842 0 0 0 0 186.70393025204248 -28.364457263036002 0 -28.364457263036002 0.84277658970313496 0 0 0 0 475.87957671772165 144.89601155587025 0 144.89601155587025 -93.735215676248117 0 0 0 0 26.256920610562858 42.135638616043053 0 42.135638616043053 -7.0167551624466746 0 0 0 0 -3.7516194873573525 0.23658861846411128 0 0.23658861846411128 2.3619599496011361 0 0 0 0 -189.98288073510048 209.41809441053374 0 209.41809441053374 222.90772932896289 0 0 0 0 -264.63182000210873 128.7098112969436 0 128.7098112969436 185.48154434124081 0 0 0 0 40.408168100839248 97.650038571542609 0 97.650038571542609 28.038449468687759 0 0 0 0 -106.53711976250634 -1.5024005286577449 0 -1.5024005286577449 -24.788039692199163 0 0 0 0 169.94977788136384 310.02866664295311 0 310.02866664295311 151.74311187118838 0 0 0 0 512.89338423870504 127.1381377509897 0 127.1381377509897 -98.779478018779173 0 0 0 0 540.9027364479989 140.72675850290943 0 140.72675850290943 -26.216850736376983 0 0 0 0 400.18545044999337 -105.59939272580232 0 -105.59939272580232 13.496434850278092 0 0 0 0 -67.894692254383699 148.73910405915285 0 148.73910405915285 231.2199810142738 0 0 0 0 5.5197857458861108 1.6769802009897461 0 1.6769802009897461 1.8755536319184003 0 0 0 0 -63.297714292944875 106.12917257766276 0 106.12917257766276 2.47980933366307 0 0 0 0 3810.5170221378212 -214.07353086840158 0 -214.07353086840158 -321.29226951968542 0 0 0 0 2375.3474275952904 1307.5502005125768 0 1307.5502005125768 651.00479557356175 0 0 0 0 9.738028754614561 -3.2573826942509498 0 -3.2573826942509498 2.3619920246156969 0 0 0 0 2128.4817151867028 -186.19102794872242 0 -186.19102794872242 -321.73931949190558 0 0 0 0 411.87091619374041 600.63152193685528 0 600.63152193685528 407.40655084639548 0 0 0 0 2971.3072668417954 -757.89432823147627 0 -757.89432823147627 313.38754072321444 0 0 0 0 19.805174435324489 9.6023573313850505 0 9.6023573313850505 4.5002164136958527 0 0 0 0 3670.4964033346187 294.40151382557997 0 294.40151382557997 737.17660986737246 0 0 0 0 2370.4968648424292 1441.3385613990608 0 1441.3385613990608 115.15893979489283 0 0 0 0 3011.0814575426193 689.70953113043515 0 689.70953113043515 1596.8967741430679 0 0 0 0 179.04427987840609 -469.60247275818983 0 -469.60247275818983 866.6202389799073 0 0 0 0 2332.058162858506 -725.88866996268916 0 -725.88866996268916 -298.2323801471166 0 0 0 0 173.02531256452494 -535.65165469850604 0 -535.65165469850604 675.59537968289624 0 0 0 0 3352.364953036973 -755.96425520953471 0 -755.96425520953471 -338.09886320307669 0 0 0 0 1675.380108594808 -176.75793428290024 0 -176.75793428290024 -440.40796187454907 0 0 0 0 1707.2316908698122 -598.29833619093461 0 -598.29833619093461 -29.455751009248161 0 0 0 0 1361.9303891218005 -107.32544202563304 0 -107.32544202563304 -272.67449718931221 0 0 0 0 1290.4453248132049 28.425983928045298 0 28.425983928045298 -362.37775945570684 0 0 0 0 1525.2071392378712 175.55574322555185 0 175.55574322555185 -343.54860229239944 0 0 0 0 1085.9387116988073 393.15751583572273 0 393.15751583572273 -245.42878219588692 0 0 0 0 1876.5665300367527 652.60557164993247 0 652.60557164993247 -174.78764035770109 0 0 0 0 712.59913912850607 782.76647220909445 0 782.76647220909445 54.387530371091088 0 0 0 0 1975.1394348237664 -49.986520228434529 0 -49.986520228434529 -400.28340176733127 0 0 0 0 504.75540144616389 304.58230441532487 0 304.58230441532487 101.06661875431553 0 0 0 0 857.77321490072063 169.792823133007 0 169.792823133007 -87.067193286948964 0 0 0 0 571.65908469847636 208.93185052102672 0 208.93185052102672 86.564141451386604 0 0 0 0 1074.1520748345738 283.5405504315446 0 283.5405504315446 -81.756862513595479 0 0 0 0 788.05161822232185 339.95009860771233 0 339.95009860771233 101.45860778044425 0 0 0 0 591.0687444924115 111.18523812257581 0 111.18523812257581 120.71763736948378 0 0 0 0 362.29850606343825 -19.502871736228371 0 -19.502871736228371 88.506663533171377 0 0 0 0 239.89418152714643 203.88388570271445 0 203.88388570271445 182.62411299540508 0 0 0 0 489.1321682453854 296.65530155723127 0 296.65530155723127 171.92502975069419 0 0 0 0 -0.13640426774509251 351.66645493426131 0 351.66645493426131 186.62891765840232 0 0 0 0 -388.81230419578787 -161.80202200615327 0 -161.80202200615327 -277.02340911334613 0 0 0 0 200.51572180421499 1069.8836470350052 0 1069.8836470350052 158.45195087178251 0 0 0 0 19.474320812747465 504.89774319431672 0 504.89774319431672 -604.28168595983516 0 0 0 0 -138.27347611021833 111.66526690356932 0 111.66526690356932 -244.46723593205115 0 0 0 0 201.85370025760494 188.36534356494667 0 188.36534356494667 -261.2948214931439 0 0 0 0 148.18874786170454 -72.576903690572863 0 -72.576903690572863 -128.01409991794389 0 0 0 0 511.6319689829761 -152.89637091110762 0 -152.89637091110762 37.552636042419181 0 0 0 0 28.742675155559027 -104.71076827945849 0 -104.71076827945849 -4.062312797692357 0 0 0 0 182.15901203971589 103.77286347562767 0 103.77286347562767 202.94378884565231 0 0 0 0 206.74845834635198 -47.087346020827681 0 -47.087346020827681 294.16533300557421 0 0 0 0 170.28690439296406 9.6005547043342858 0 9.6005547043342858 216.74507632737004 0 0 0 0 239.89680063838387 -0.032456803511536236 0 -0.032456803511536236 180.25963622837844 0 0 0 0 333.64883382721746 12.779025717459717 0 12.779025717459717 216.72157053584851 0 0 0 0 244.34824002437381 -31.339572740364247 0 -31.339572740364247 195.28454012317525 0 0 0 0 155.23083412850247 78.203686231391885 0 78.203686231391885 375.72282552042816 0 0 0 0 350.11575851101952 -166.61352093468622 0 -166.61352093468622 360.70762288103288 0 0 0 0 3.8607817306535139 0.092883255188404235 0 0.092883255188404235 0.084935318701245377 0 0 0 0 219.13761813171004 169.96962588205724 0 169.96962588205724 91.605022931536951 0 0 0 0 146.15268680409645 -253.93852005235567 0 -253.93852005235567 476.43745209587888 0 0 0 0 422.11600302684747 43.575347000312149 0 43.575347000312149 33.796099855433567 0 0 0 0 9.9516788655237178 9.0622689915967385 0 9.0622689915967385 30.981557780885851 0 0 0 0 9.5913052719843108 -3.6401066233615893 0 -3.6401066233615893 124.61066598068919 0 0 0 0 10.54759462308067 2.5789279614944896 0 2.5789279614944896 5.7383080942574693 0 0 0 0 52.744171991420444 -69.226926772961633 0 -69.226926772961633 142.09270327648395 0 0 0 0 45.161221383408702 -71.51549859162651 0 -71.51549859162651 166.21345746741281 0 0 0 0 184.62297005022992 16.204346021362653 0 16.204346021362653 -19.325178509410307 0 0 0 0 175.50219860509969 -188.18483600619038 0 -188.18483600619038 97.480105787841239 0 0 0 0 112.09968806324468 -59.180935165784831 0 -59.180935165784831 -58.399214565806687 0 0 0 0 69.326731657783967 -43.875275460280136 0 -43.875275460280136 -53.473453905848601 0 0 0 0 72.28377452857967 -2.1585012338064189 0 -2.1585012338064189 -111.98845922577539 0 0 0 0 106.13221631389752 -81.424070479634793 0 -81.424070479634793 -83.427124269517662 0 0 0 0 -22.311536272085505 80.860996428842554 0 80.860996428842554 -175.7105285684197 0 0 0 0 117.54088454095472 108.07449296431514 0 108.07449296431514 -259.49305638113674 0 0 0 0 148.7980468092137 -22.660496830848388 0 -22.660496830848388 -144.40495961418492 0 0 0 0 48.693960983371653 113.48237870912999 0 113.48237870912999 -238.07053740931769 0 0 0 0 35.151034932900075 -49.926231761376357 0 -49.926231761376357 -171.92776720045549 0 0 0 0 42.38420388312079 111.47101430901967 0 111.47101430901967 -269.17195673755305 0 0 0 0 -170.18046468090324 150.06668010356589 0 150.06668010356589 -70.930151263673906 0 0 0 0 -16.666679117261083 84.971571173498887 0 84.971571173498887 -49.362039638147508 0 0 0 0 11.337314955948514 3.6666343756819231 0 3.6666343756819231 -2.486020726950116 0 0 0 0 -4.954112731182704 6.230378392290902 0 6.230378392290902 7.9638714943499522 0 0 0 0 -73.501894900982734 55.91627024110403 0 55.91627024110403 73.629626535293028 0 0 0 0 45.821632674774506 36.998403262459988 0 36.998403262459988 22.54460780472288 0 0 0 0 48.616274029176566 -1.4993085869474498 0 -1.4993085869474498 82.856227564588153 0 0 0 0 142.38323930813931 -132.88930445833466 0 -132.88930445833466 -239.41149169522942 0 0 0 0 95.726610857920605 14.603327966991401 0 14.603327966991401 3.5204293411338767 0 0 0 0 0.50171951101947343 -36.24797130290267 0 -36.24797130290267 -130.17452228745242 0 0 0 0 54.056293771663263 28.32242409404796 0 28.32242409404796 -5.2882478760659275 0 0 0 0 32.5243169096575 74.356932372444248 0 74.356932372444248 -63.411677557012808 0 0 0 0 22.63664819217496 10.882469483502376 0 10.882469483502376 -12.426021223980248 0 0 0 0 125.59388791432139 71.136893960268935 0 71.136893960268935 193.68189312970571 0 0 0 0 111.1219923812896 5.6633254416574346 0 5.6633254416574346 167.36515285122641 0 0 0 0 100.09424728038721 -23.754417171686327 0 -23.754417171686327 101.61602290118799 0 0 0 0 82.050703486194834 8.6231840318059767 0 8.6231840318059767 79.305639512277594 0 0 0 0 89.593869050149806 -4.9637248114668182 0 -4.9637248114668182 68.009053473634594 0 0 0 0 119.23263861937448 46.405867448185745 0 46.405867448185745 133.19392185975084 0 0 0 0 96.350235400139354 8.9564961364831106 0 8.9564961364831106 78.209052165548201 0 0 0 0 74.311516876216047 18.906446707116174 0 18.906446707116174 95.33375382988288 0 0 0 0 99.765987241218681 53.300891224525003 0 53.300891224525003 3.3818943187972081 0 0 0 0 77.88179710559416 48.122342890820732 0 48.122342890820732 -230.58951019510641 0 0 0 0 56.339898131426708 36.217433293700182 0 36.217433293700182 15.575856655180226 0 0 0 0 184.92050800935249 -31.182200740987355 0 -31.182200740987355 23.637396011409692 0 0 0 0 25.457088063834817 -9.5749164176916111 0 -9.5749164176916111 78.09057918442997 0 0 0 0 35.710319517180324 20.099315246775404 0 20.099315246775404 66.83906803081625 0 0 0 0 75.829205927497242 12.676949510937902 0 12.676949510937902 77.908525734524687 0 0 0 0 66.239848110927483 -32.579807922708 0 -32.579807922708 6.5691142806907212 0 0 0 0 63.192320100701181 -7.6256281519217737 0 -7.6256281519217737 78.135802024944851 0 0 0 0 56.174058054835768 6.3658402596724954 0 6.3658402596724954 90.658449904438385 0 0 0 0 62.417114500101889 -12.162096906775787 0 -12.162096906775787 70.29953503434399 0 0 0 0 88.920488539763028 5.4410033155791098 0 5.4410033155791098 61.035110901677626 0 0 0 0 74.349299266410526 -12.374497755009088 0 -12.374497755009088 50.758473385128752 0 0 0 0 65.811864694434917 -24.423259582182709 0 -24.423259582182709 49.550443086433916 0 0 0 0 55.414908543927595 -31.80935022496692 0 -31.80935022496692 66.802003272764068 0 0 0 0 41.058217537007295 -27.153862711639022 0 -27.153862711639022 85.166005799304003 0 0 0 0 56.367565754969633 29.535675062267472 0 29.535675062267472 12.88370695825015 0 0 0 0 -49.787710029180744 77.271888163456651 0 77.271888163456651 27.622235324552094 0 0 0 0 67.751469901562814 255.54553066826782 0 255.54553066826782 -428.39208742797928 0 0 0 0 18.913956938195042 118.83099275703262 0 118.83099275703262 -196.37688988646551 0 0 0 0 45.12605991902916 24.470981966797012 0 24.470981966797012 10.262055841099507 0 0 0 0 501.16557705515879 184.44150983075951 0 184.44150983075951 -127.69158135380439 0 0 0 0 228.05332042049849 -672.33435801458154 0 -672.33435801458154 371.31320550759511 0 0 0 0 2136.0020129021141 287.6302512642992 0 287.6302512642992 -74.937178925612443 0 0 0 0 63.174359433971404 78.997597801899815 0 78.997597801899815 88.328150073589313 0 0 0 0 -56.087203978979687 -67.289474192947253 0 -67.289474192947253 284.00172829742996 0 0 0 0 58.160795258032522 -48.354897577073899 0 -48.354897577073899 26.257452943411408 0 0 0 0 158.37975639886281 -123.62431834023346 0 -123.62431834023346 82.276228944316017 0 0 0 0 98.201672437746311 -25.957461714751389 0 -25.957461714751389 36.122438644430758 0 0 0 0 6.4329497781655505 13.542238326862559 0 13.542238326862559 18.307039550459315 0 0 0 0 67.445402817145805 17.324998073013944 0 17.324998073013944 -1.1089237968165762 0 0 0 0 191.09741783035861 -37.253802829882545 0 -37.253802829882545 -3.0890101018057976 0 0 0 0 5.2884126421507176 6.4196364961409813 0 6.4196364961409813 6.0815365168390407 0 0 0 0 2670.3077911708242 331.39504034484025 0 331.39504034484025 -82.300549353518221 0 0 0 0 768.25858984156366 373.84027745939011 0 373.84027745939011 107.39264324555916 0 0 0 0 1249.1540331200813 -21.525649645492877 0 -21.525649645492877 -16.809082130280956 0 0 0 0 1947.3646722879239 773.9402373625154 0 773.9402373625154 381.9531483350604 0 0 0 0 1584.364142095932 452.42673322298901 0 452.42673322298901 393.2132862905446 0 0 0 0 1749.0718876204337 108.23552318313432 0 108.23552318313432 1109.4723058173372 0 0 0 0 1551.8771227779216 606.20249814259887 0 606.20249814259887 314.76017767936173 0 0 0 0 1985.5515733760913 1045.2848314883795 0 1045.2848314883795 -196.9414204841446 0 0 0 0 1833.2728473938914 282.80682752069833 0 282.80682752069833 192.23701938227805 0 0 0 0 1818.6688674110919 502.64654027258666 0 502.64654027258666 -1435.1094401350101 0 0 0 0 2121.6576836665899 -54.213114017275004 0 -54.213114017275004 -577.56937155822015 0 0 0 0 2266.0233581346401 436.78057904977368 0 436.78057904977368 -308.21716316615675 0 0 0 0 5149.2656071352831 634.26832118879884 0 634.26832118879884 -83.321156995050842 0 0 0 0 5005.3752446028229 -953.50620346716141 0 -953.50620346716141 -127.5605402354131 0 0 0 0 -815.13381150635541 168.59331779432387 0 168.59331779432387 923.24775959356703 0 0 0 0 17.982883374753783 -9.5541472400393559 0 -9.5541472400393559 4.823355447170421 0 0 0 0 3580.4355263599427 1540.8874548094332 0 1540.8874548094332 669.84797500929562 0 0 0 0 3.7565896856324166 -4.791208838564387 0 -4.791208838564387 15.816944989988951 0 0 0 0 624.3390408467385 -644.16224444112231 0 -644.16224444112231 -522.15818272990134 0 0 0 0 -123.45773951127194 -360.91456456235392 0 -360.91456456235392 -606.8876559600958 0 0 0 0 -216.55251692625461 302.39037249002831 0 302.39037249002831 -755.93928984045488 0 0 0 0 -201.80963073065504 -65.287606985024468 0 -65.287606985024468 32.894442525895101 0 0 0 0 -0.91899780612624227 1.0578776293355503 0 1.0578776293355503 1.5406295373270691 0 0 0 0 1599.8711473263975 1440.2201325817023 0 1440.2201325817023 797.82634940953176 0 0 0 0 3337.6543142560404 907.42225087584666 0 907.42225087584666 51.196072048016504 0 0 0 0 1829.4922810049029 814.85153344141872 0 814.85153344141872 55.943829256448225 0 0 0 0 -213.68248455860885 -255.18484110639565 0 -255.18484110639565 -888.16808196655438 0 0 0 0 -628.67270374821965 485.26645719480712 0 485.26645719480712 917.52786920403742 0 0 0 0 30.045292386298453 0.17896403047637932 0 0.17896403047637932 2.7757776384389388 0 0 0 0 -92.345868069911376 60.519974616326181 0 60.519974616326181 -41.432846143175993 0 0 0 0 30.42908295918221 -23.28716006587976 0 -23.28716006587976 11.461182352534033 0 0 0 0 39.710725795710459 1078.4295763464088 0 1078.4295763464088 791.61652395969941 0 0 0 0 1210.2361267193919 523.0248879851697 0 523.0248879851697 153.04693792304079 0 0 0 0 427.00062965869438 361.03135963313616 0 361.03135963313616 233.24931416401341 0 0 0 0 1836.421852163272 850.39877700163925 0 850.39877700163925 232.10169515329108 0 0 0 0 3068.4223456564359 -227.71620477283477 0 -227.71620477283477 -326.56999009149877 0 0 0 0 2924.2570764487027 297.50780339385074 0 297.50780339385074 -169.32766088521203 0 0 0 0 2407.8157161863637 471.27824705105559 0 471.27824705105559 -210.75834306526485 0 0 0 0 3406.9219333914225 404.62268738012517 0 404.62268738012517 -216.68189699186405 0 0 0 0 3334.6129453995918 349.52395166946627 0 349.52395166946627 -120.84691148468482 0 0 0 0 3190.8821988366544 -865.62585935198013 0 -865.62585935198013 -112.74319072337676 0 0 0 0 4059.6812754361308 -505.23515308117294 0 -505.23515308117294 -244.29559247140014 0 0 0 0 3460.8094297480857 -527.49378844941566 0 -527.49378844941566 -412.39909115946102 0 0 0 0 3101.7153623604681 -206.25196718053849 0 -206.25196718053849 -329.63746566964346 0 0 0 0 2951.4332612074504 -469.96282917359144 0 -469.96282917359144 -410.20988177507024 0 0 0 0 2842.3014433862991 -497.67070878510685 0 -497.67070878510685 -292.73015688486339 0 0 0 0 2601.2076472100453 -38.691300429685725 0 -38.691300429685725 -385.68462770800124 0 0 0 0 2130.5632082539087 -260.38940467618932 0 -260.38940467618932 -97.99373352855946 0 0 0 0 2133.3785623442527 -93.904003603388901 0 -93.904003603388901 -170.66014285311212 0 0 0 0 2792.4587178411311 -542.63391364523432 0 -542.63391364523432 -272.70380673958789 0 0 0 0 2298.3520646274847 -469.47245002618729 0 -469.47245002618729 214.6318311105515 0 0 0 0 2070.2276596251468 -212.42635830620657 0 -212.42635830620657 144.8823485450614 0 0 0 0 1911.5152420638187 -295.10150521820765 0 -295.10150521820765 275.55171281469302 0 0 0 0 872.01155041473976 -215.90189855457675 0 -215.90189855457675 -58.115762494293449 0 0 0 0 1331.7963147368573 208.3592013907105 0 208.3592013907105 -29.473596547259149 0 0 0 0 1485.8678559400141 -135.19783632033523 0 -135.19783632033523 260.48775748200933 0 0 0 0 877.34829972372972 229.03324417070507 0 229.03324417070507 37.179742590587921 0 0 0 0 1096.8385739117512 -131.15944128985211 0 -131.15944128985211 103.34331959631368 0 0 0 0 1665.1060145929805 75.225466342674736 0 75.225466342674736 -61.010214381154583 0 0 0 0 1811.6693790084828 277.28011726413865 0 277.28011726413865 -123.49308983119408 0 0 0 0 259.02966639623628 -44.633419316017807 0 -44.633419316017807 186.2031954175709 0 0 0 0 16.519779489525803 12.573106277709769 0 12.573106277709769 25.128762927252641 0 0 0 0 21.102936207913444 -118.85244964594062 0 -118.85244964594062 287.89125047080506 0 0 0 0 -160.56807378871599 263.66742432571755 0 263.66742432571755 158.59613780959444 0 0 0 0 325.05414886691142 6.5142005199181767 0 6.5142005199181767 -171.22904036476575 0 0 0 0 76.726697411111672 -7.5862490878913604 0 -7.5862490878913604 23.049554628206238 0 0 0 0 74.443613098366768 2.6696518257340358 0 2.6696518257340358 31.437914289981791 0 0 0 0 1.3366082951979479 -39.340894698394095 0 -39.340894698394095 12.658694637039844 0 0 0 0 52.451776030826466 -20.491012573904328 0 -20.491012573904328 9.0713653387349638 0 0 0 0 49.38353957678919 -8.7475574095947195 0 -8.7475574095947195 9.0820898585493524 0 0 0 0 33.557812302460661 -23.064475030631456 0 -23.064475030631456 13.354212644644122 0 0 0 0 15.701529200643478 -3.9120519038232828 0 -3.9120519038232828 6.2991196657732367 0 0 0 0 33.417130800746293 -12.684059025753953 0 -12.684059025753953 13.21601155128165 0 0 0 0 46.17024394904729 -4.9464251613921988 0 -4.9464251613921988 11.909750191819967 0 0 0 0 -177.5388915114163 -497.6902053090306 0 -497.6902053090306 93.188476784262093 0 0 0 0 17.190391950045523 -6.0449229154379367 0 -6.0449229154379367 12.202072130688975 0 0 0 0 39.762673085482675 -2.00057872319735 0 -2.00057872319735 10.28160516483058 0 0 0 0 45.150986270920839 -9.0023577930592182 0 -9.0023577930592182 11.612572233299034 0 0 0 0 25.359758257254725 -9.032114005188987 0 -9.032114005188987 10.63545549503533 0 0 0 0 25.998804905608608 -2.0197305795775407 0 -2.0197305795775407 0.45007924340451688 0 0 0 0 11.270038940943778 0.0064154497704294045 0 0.0064154497704294045 5.6571074438943469 0 0 0 0 42.963074015348383 -16.786926865108427 0 -16.786926865108427 4.7043811979411725 0 0 0 0 40.214583792367193 10.689093413810944 0 10.689093413810944 -37.29776547153358 0 0 0 0 41.316996685025515 5.5589234280623714 0 5.5589234280623714 14.353328423425182 0 0 0 0 49.453584398463136 -3.0653719634042318 0 -3.0653719634042318 18.47675972118418 0 0 0 0 25.791657460851127 2.0417477735101812 0 2.0417477735101812 3.5883873182057711 0 0 0 0 114.5304472623975 -83.284998172390843 0 -83.284998172390843 67.769608459024539 0 0 0 0 29.469556930474937 -7.2358657583615127 0 -7.2358657583615127 29.916385802116963 0 0 0 0 220.23920948425075 18.862221829686405 0 18.862221829686405 4.3355527332003021 0 0 0 0 47.927025062963367 -17.997539938496175 0 -17.997539938496175 31.330740207215911 0 0 0 0 114.63462850028009 3.3359487994587198 0 3.3359487994587198 2.1395250758023394 0 0 0 0 -11.422013103481731 -2.4986727436712499 0 -2.4986727436712499 20.229428971466632 0 0 0 0 25.775266476019169 -13.778861151788504 0 -13.778861151788504 20.625253793066349 0 0 0 0 7.2059129893971772 -5.8806165881739503 0 -5.8806165881739503 11.799232086114163 0 0 0 0 1.5560077969930717 22.475514525603899 0 22.475514525603899 64.968154981471343 0 0 0 0 75.452768745926733 -13.290423740100664 0 -13.290423740100664 47.553271973087249 0 0 0 0 59.945369080079558 -27.612068706980892 0 -27.612068706980892 8.1192040223655653 0 0 0 0 75.543841380320373 -13.057503790780515 0 -13.057503790780515 46.146301919807229 0 0 0 0 73.632849509478547 -10.201711540612678 0 -10.201711540612678 46.121726808830772 0 0 0 0 -84.060988567594904 -291.46335515902274 0 -291.46335515902274 118.65399369147144 0 0 0 0 218.43262943834998 -87.230780293450152 0 -87.230780293450152 -270.08583629265195 0 0 0 0 453.53633996371354 121.76325523677951 0 121.76325523677951 -215.25877598758052 0 0 0 0 343.62118552494212 -29.394142658176634 0 -29.394142658176634 21.785960895972494 0 0 0 0 -0.46309433946726131 -2.1199293789041747 0 -2.1199293789041747 5.4956410102570707 0 0 0 0 96.295571180991828 -34.084188158513371 0 -34.084188158513371 118.09641706826915 0 0 0 0 136.74526046845131 -95.486357262371257 0 -95.486357262371257 321.36430132298119 0 0 0 0 117.33913895452861 -27.967305462241711 0 -27.967305462241711 100.12810507748964 0 0 0 0 137.65741707879351 153.31829209943317 0 153.31829209943317 251.52115073169307 0 0 0 0 132.21148648177041 109.98078126011205 0 109.98078126011205 -6.9972579900513665 0 0 0 0 55.892211106543982 32.516576719770796 0 32.516576719770796 -7.6800688306557277 0 0 0 0 53.56226114340825 34.155873130644977 0 34.155873130644977 189.75954433275001 0 0 0 0 96.71090442519926 107.86194084165595 0 107.86194084165595 -47.949291562435974 0 0 0 0 70.788083147082943 62.934732480031926 0 62.934732480031926 -27.287378184206318 0 0 0 0 234.6155591547722 69.438934523692296 0 69.438934523692296 -107.16747673070813 0 0 0 0 105.80079947825348 71.052927592446153 0 71.052927592446153 15.853632537834141 0 0 0 0 -19.65425309719285 53.380655950370965 0 53.380655950370965 -46.457658981840723 0 0 0 0 21.674700987030519 23.375631767920936 0 23.375631767920936 86.304376111818328 0 0 0 0 27.724867218968342 2.2311994345407129 0 2.2311994345407129 -2.3840500440353356 0 0 0 0 304.73997439336017 60.85772499033601 0 60.85772499033601 -74.70331035225081 0 0 0 0 91.919653571641902 14.380172698337006 0 14.380172698337006 -7.5706423761002952 0 0 0 0 -2.4443500104192566 1.43008494146369 0 1.43008494146369 -1.0659112031062206 0 0 0 0 571.39424456850247 -20.286566438682826 0 -20.286566438682826 -136.53375491159886 0 0 0 0 88.457384624955012 -43.514642670027797 0 -43.514642670027797 1.8202042011913591 0 0 0 0 132.79641940575675 -66.809732894720355 0 -66.809732894720355 -7.2136999905214729 0 0 0 0 145.31290227042336 -49.380138027528574 0 -49.380138027528574 -10.443042620365304 0 0 0 0 210.55569907964673 -90.678866833411803 0 -90.678866833411803 10.870256456445077 0 0 0 0 160.98787283347338 -62.750019388344299 0 -62.750019388344299 -16.959019484863688 0 0 0 0 188.30377012882673 -40.108265993928967 0 -40.108265993928967 -15.616861028276389 0 0 0 0 175.25838141929125 -63.497648222230524 0 -63.497648222230524 -18.6781964850055 0 0 0 0 168.25332927986165 -47.242076938600817 0 -47.242076938600817 -32.446394992532021 0 0 0 0 131.97324441422097 -29.046933771501301 0 -29.046933771501301 -22.70848061472816 0 0 0 0 558.267499303828 -329.66703587196162 0 -329.66703587196162 171.65130557131698 0 0 0 0 6.2586645976255113 0.82792400644530062 0 0.82792400644530062 0.21917471512756145 0 0 0 0 -5.9029011882958002 201.00036145825015 0 201.00036145825015 143.01518082835713 0 0 0 0 412.93076434309478 260.23009220625534 0 260.23009220625534 43.540774149182745 0 0 0 0 646.74593195839589 112.7932735191193 0 112.7932735191193 -66.358189794526496 0 0 0 0 593.32296867417244 144.96429925299208 0 144.96429925299208 -69.753660791532624 0 0 0 0 365.12819860960735 4.8717376200519622 0 4.8717376200519622 0.34875704038128086 0 0 0 0 140.41250537346059 17.687038602843256 0 17.687038602843256 30.159099222359579 0 0 0 0 219.48664660926443 100.58774314318896 0 100.58774314318896 58.246034304880645 0 0 0 0 148.94020388420176 -4.4726652386406212 0 -4.4726652386406212 -0.7515812208881627 0 0 0 0 88.409926774824271 -24.89412082078525 0 -24.89412082078525 -0.12288012386629424 0 0 0 0 58.400600757493521 -3.8713812608667268 0 -3.8713812608667268 28.22554696270425 0 0 0 0 43.87328316840285 -30.767261577541149 0 -30.767261577541149 -11.310740895779446 0 0 0 0 58.84794408848029 -47.384631066212293 0 -47.384631066212293 0.34710064239783378 0 0 0 0 121.79115023976556 -65.647630646356518 0 -65.647630646356518 -46.475543946479462 0 0 0 0 85.150501806492684 36.936948584667491 0 36.936948584667491 32.894647087015073 0 0 0 0 51.055204971868079 46.892434998616551 0 46.892434998616551 -132.30510278416489 0 0 0 0 15.944853034852088 3.8332094949486475 0 3.8332094949486475 0.3849562465220347 0 0 0 0 55.360508725483669 -24.158056633307069 0 -24.158056633307069 -56.023395824845494 0 0 0 0 49.05817295920906 -52.062179671947547 0 -52.062179671947547 -34.128663278137594 0 0 0 0 18.302719271809565 -12.575071441034424 0 -12.575071441034424 5.9666400485337476 0 0 0 0 34.47552988913958 -27.677604509502842 0 -27.677604509502842 -27.121678628908029 0 0 0 0 13.839360618003411 -15.4741889875379 0 -15.4741889875379 14.022050513939121 0 0 0 0 10.576332176269119 -2.8819959396429908 0 -2.8819959396429908 0.78683762724148876 0 0 0 0 14.375477083416172 -2.2213189626734362 0 -2.2213189626734362 21.772786520001773 0 0 0 0 15.009855441045318 -14.641173711451387 0 -14.641173711451387 8.8701358687006735 0 0 0 0 36.232623804433388 -19.430706189761622 0 -19.430706189761622 6.3704525131665832 0 0 0 0 -8.8294861485919682 -54.970923073888684 0 -54.970923073888684 -10.850021812571143 0 0 0 0 45.271558517939411 -32.7788684993385 0 -32.7788684993385 -25.099626203919769 0 0 0 0 26.845154705108143 -33.31207685013915 0 -33.31207685013915 21.741984000570724 0 0 0 0 49.06087143222976 -33.564034935899038 0 -33.564034935899038 0.5472168030660316 0 0 0 0 81.814157062712184 -11.339513374433489 0 -11.339513374433489 13.935436987496452 0 0 0 0 653.74907031125622 -479.380911468487 0 -479.380911468487 247.77106912645189 0 0 0 0 -100.15299738041358 -62.600545378641201 0 -62.600545378641201 46.053339108016566 0 0 0 0 30.706311398396792 -26.808006786991211 0 -26.808006786991211 -18.27622289346688 0 0 0 0 15.386274862073378 -13.968366661246989 0 -13.968366661246989 11.324439453790855 0 0 0 0 7.8838811388996728 -2.5985309023308787 0 -2.5985309023308787 -4.6426092747733261 0 0 0 0 4915.3409397073265 149.09681355352961 0 149.09681355352961 -858.86400290464826 0 0 0 0 132.89892853178026 -243.1236913499622 0 -243.1236913499622 520.39372626881152 0 0 0 0 1317.9701490871666 -273.39295470453646 0 -273.39295470453646 -0.32337351786164126 0 0 0 0 5207.3683374157408 -231.17425549027629 0 -231.17425549027629 -48.534584235663004 0 0 0 0 2960.4380559787969 403.79899693851348 0 403.79899693851348 788.54538055487205 0 0 0 0 4125.2527916122635 -1012.7980225055546 0 -1012.7980225055546 60.881236502734282 0 0 0 0 4529.2490380194213 674.72399236242018 0 674.72399236242018 -886.81564081269062 0 0 0 0 4921.675586011188 -345.53284943072049 0 -345.53284943072049 -694.85147733050894 0 0 0 0 8.5594591581897426 -12.181252221743932 0 -12.181252221743932 17.695850003322171 0 0 0 0 15.11585632707056 -964.40771104401995 0 -964.40771104401995 1778.6144526831686 0 0 0 0 1939.2375511067221 1575.5563740764946 0 1575.5563740764946 -129.40347512012795 0 0 0 0 5534.8652078783052 -761.48844068684593 0 -761.48844068684593 230.24968588767751 0 0 0 0 5453.4709955168073 -1093.1509929673712 0 -1093.1509929673712 -701.94426816067767 0 0 0 0 0.39314390724757686 -16.934213981459379 0 -16.934213981459379 -21.520067834923793 0 0 0 0 -0.72670265477063367 -17.902833387680403 0 -17.902833387680403 -14.211833063236554 0 0 0 0 14.222389749262732 -2.696461674123384 0 -2.696461674123384 -7.226215751296504 0 0 0 0 -3.9443134402858959 -15.368999654408057 0 -15.368999654408057 -10.989615749409516 0 0 0 0 1.7722127954912139 -34.649353667320611 0 -34.649353667320611 66.830741277786728 0 0 0 0 -32.467701806453988 -59.922095911973884 0 -59.922095911973884 222.42865289729707 0 0 0 0 2.331050861911649 -0.12439831877858865 0 -0.12439831877858865 -3.2223531684213178 0 0 0 0 24.068699313800607 -75.145476340465848 0 -75.145476340465848 5.7080102893542062 0 0 0 0 209.8364160998899 -120.67288103860847 0 -120.67288103860847 -24.153775884766219 0 0 0 0 38.407427717989776 -74.235358897162769 0 -74.235358897162769 -36.652566381756969 0 0 0 0 190.45850560747203 -38.720732360140573 0 -38.720732360140573 -134.00524541879167 0 0 0 0 38.766603610216407 -121.04875663941039 0 -121.04875663941039 -155.2246572981494 0 0 0 0 70.94464084967035 -24.836480073301544 0 -24.836480073301544 -8.7400274709672328 0 0 0 0 3.7399185943213524 -89.119054049740043 0 -89.119054049740043 6.8181201490788226 0 0 0 0 43.543332748580724 74.57900467534364 0 74.57900467534364 -78.991066408555128 0 0 0 0 61.970611184663255 5.6872632089872681 0 5.6872632089872681 -1.2050746374227326 0 0 0 0 52.457124209235189 5.5728735110278649 0 5.5728735110278649 -69.870959841704007 0 0 0 0 41.656065046452341 8.0287180562666975 0 8.0287180562666975 -8.1051840069497523 0 0 0 0 -18.706231883217697 10.95544028423592 0 10.95544028423592 90.901959827535393 0 0 0 0 -104.34044807020109 141.86552580797115 0 141.86552580797115 66.265212816207168 0 0 0 0 12.987914531199976 -1.5453112048683764 0 -1.5453112048683764 -2.9288454106832669 0 0 0 0 113.35840482774074 18.206472290115926 0 18.206472290115926 33.262492996936999 0 0 0 0 134.77009440487018 -21.66076198763767 0 -21.66076198763767 -55.003691197487569 0 0 0 0 11.941635601979215 -263.67615555206339 0 -263.67615555206339 240.41892657839026 0 0 0 0 3.3805544564534671 -0.0066121146222144489 0 -0.0066121146222144489 -0.15253550955070683 0 0 0 0 9.1360794249630999 -152.22357197808378 0 -152.22357197808378 -68.471179786548873 0 0 0 0 90.186552818428027 96.791084606458753 0 96.791084606458753 -322.37065057600648 0 0 0 0 64.095464196201647 -356.10179473190692 0 -356.10179473190692 -38.111587958339442 0 0 0 0 9.7965107260111211 4.2595369990293364 0 4.2595369990293364 -1.3990963543967432 0 0 0 0 -88.960624124418246 -80.408240124935446 0 -80.408240124935446 36.525480288541075 0 0 0 0 228.2428899770166 37.778855860525482 0 37.778855860525482 -120.8834612600358 0 0 0 0 133.20872678978776 -13.560564521155129 0 -13.560564521155129 -40.892913029638294 0 0 0 0 45.535108724456222 -139.49998452492673 0 -139.49998452492673 44.981427771524977 0 0 0 0 158.07297421057592 76.136846915635033 0 76.136846915635033 11.72374432828201 0 0 0 0 -0.033080043646066315 -3.5906735470869506 0 -3.5906735470869506 2.3875936135419522 0 0 0 0 3.7094835862517357 -35.569441098776224 0 -35.569441098776224 41.851151249969007 0 0 0 0 39.934782047886983 -24.921076259248366 0 -24.921076259248366 -93.49551232212616 0 0 0 0 73.335087029787246 -118.23571026635 0 -118.23571026635 -24.09520591618184 0 0 0 0 31.041199472233245 -0.24331735184746606 0 -0.24331735184746606 -11.816329103108906 0 0 0 0 49.231390880246181 1.8096655100280259 0 1.8096655100280259 -16.236120984635818 0 0 0 0 42.30527888474171 9.353955051673438 0 9.353955051673438 -13.913346901218574 0 0 0 0 89.765805955547876 237.48679888458457 0 237.48679888458457 -9.9439936079797917 0 0 0 0 33.888081460204148 8.8118329125549195 0 8.8118329125549195 -6.8720381760671359 0 0 0 0 29.47187741388916 10.907167699665479 0 10.907167699665479 -13.447210544107747 0 0 0 0 39.247741385697736 -0.35494466107866174 0 -0.35494466107866174 -10.916864296405038 0 0 0 0 13.555434756225978 13.022555734819065 0 13.022555734819065 -13.059903711648577 0 0 0 0 18.785899651834711 0.61519576100940299 0 0.61519576100940299 -10.846641192531568 0 0 0 0 25.444322397495853 -3.1389086233903072 0 -3.1389086233903072 -9.8583731674898445 0 0 0 0 36.743307962315157 1.449324922863525 0 1.449324922863525 -40.154017614899203 0 0 0 0 11.45326764200064 -5.343381932023533 0 -5.343381932023533 -7.5645064816792633 0 0 0 0 25.746013747775578 -4.8354668730107733 0 -4.8354668730107733 -0.80701627048256341 0 0 0 0 71.769313404642162 17.540831726437318 0 17.540831726437318 -4.3782809215408633 0 0 0 0 94.492707461031387 0.17663352851741365 0 0.17663352851741365 -1.3961541221523248 0 0 0 0 30.867061383076361 15.838340641080322 0 15.838340641080322 -2.6290703280756134 0 0 0 0 121.33907805128547 15.973791808286478 0 15.973791808286478 -22.017359463920002 0 0 0 0 96.580128382542171 22.279325616953429 0 22.279325616953429 -9.9322287942432013 0 0 0 0 40.23348919354612 -11.048651378094291 0 -11.048651378094291 -6.4244294141662976 0 0 0 0 44.601335405895952 -18.91360203142176 0 -18.91360203142176 7.0659361147104391 0 0 0 0 40.850062004942629 -38.297698436115837 0 -38.297698436115837 -18.541840280942779 0 0 0 0 25.643080530004454 -12.523031230874068 0 -12.523031230874068 -0.5859005409073319 0 0 0 0 72.028465564908402 70.95341005012699 0 70.95341005012699 21.523096674165572 0 0 0 0 222.77187362170662 115.33352725447821 0 115.33352725447821 27.632388961722427 0 0 0 0 259.66168159758672 100.97489037221294 0 100.97489037221294 -5.0706396762097938 0 0 0 0 117.06941888506481 40.837186620463854 0 40.837186620463854 -9.8320701697612094 0 0 0 0 298.46458741903189 61.535593772482571 0 61.535593772482571 -45.082472097660684 0 0 0 0 292.45648200120195 57.697326641348809 0 57.697326641348809 -41.863834407301511 0 0 0 0 290.70735013605736 39.515999697927327 0 39.515999697927327 26.794446887971162 0 0 0 0 263.8049107808838 -53.641054800362781 0 -53.641054800362781 16.612845610785371 0 0 0 0 224.44705851799154 17.531732133412106 0 17.531732133412106 -14.220605163196524 0 0 0 0 674.63928916442092 -136.62654327792734 0 -136.62654327792734 33.184782809011722 0 0 0 0 682.24022747352137 240.126423531402 0 240.126423531402 35.651568714736641 0 0 0 0 491.18975133176718 65.625543718405879 0 65.625543718405879 -46.224308049249885 0 0 0 0 223.32469408673933 109.71649460177468 0 109.71649460177468 13.515717287137704 0 0 0 0 -57.866962170955958 64.562914860940509 0 64.562914860940509 12.169930841634596 0 0 0 0 2.0654469504079316 336.7172262509639 0 336.7172262509639 65.688810930315867 0 0 0 0 309.29264857461385 131.42087470908746 0 131.42087470908746 -4.7601155459597067 0 0 0 0 116.73312200119835 8.0326119478713736 0 8.0326119478713736 172.13270725486069 0 0 0 0 173.51940230117179 -29.190287115976389 0 -29.190287115976389 2.0423114224377059 0 0 0 0 -7.4499693783000112 237.82634489370275 0 237.82634489370275 -145.76710913804072 0 0 0 0 -20.013338947028387 1.7619347164259125 0 1.7619347164259125 87.508047815819737 0 0 0 0 129.41383237813716 -18.265227874955599 0 -18.265227874955599 121.6248464529715 0 0 0 0 119.70859735100788 72.679847611245435 0 72.679847611245435 17.081488439465943 0 0 0 0 139.44396593944248 226.20685099014213 0 226.20685099014213 -100.51481691948948 0 0 0 0 179.44360983572551 34.675243203199784 0 34.675243203199784 -69.424848061009925 0 0 0 0 118.50440937004191 74.766696915210844 0 74.766696915210844 20.01887032270918 0 0 0 0 211.86064309754875 194.61766307323512 0 194.61766307323512 -61.573110176158934 0 0 0 0 -35.705869788675045 241.78876314369742 0 241.78876314369742 -38.250428257733915 0 0 0 0 195.73411098885117 91.575368293433485 0 91.575368293433485 -31.209595693453821 0 0 0 0 347.15143204618653 151.06080462900184 0 151.06080462900184 -65.372745136401363 0 0 0 0 658.45191738419817 -340.34305046411282 0 -340.34305046411282 127.73949144079597 0 0 0 0 170.34366061634501 -264.90487473621852 0 -264.90487473621852 409.37523068774499 0 0 0 0 5.9335216390056758 0.34811481074497408 0 0.34811481074497408 -3.9531195596424844 0 0 0 0 177.59206161701877 240.23748622156381 0 240.23748622156381 232.7819673337126 0 0 0 0 -1.1543272708368022 465.72664424649975 0 465.72664424649975 -50.338560253409696 0 0 0 0 145.72288584004855 -52.865804946093704 0 -52.865804946093704 408.61449002285735 0 0 0 0 153.27596677884867 70.594706326241067 0 70.594706326241067 -137.20016410243443 0 0 0 0 710.29286527875229 344.60662559747288 0 344.60662559747288 100.11092889859447 0 0 0 0 -9.3522827038068499 62.34061712536986 0 62.34061712536986 3.3490397652494721 0 0 0 0 508.5547630690271 104.61111892689041 0 104.61111892689041 -220.52820768986476 0 0 0 0 165.38121249371034 165.19315118727945 0 165.19315118727945 -201.34854046557473 0 0 0 0 280.77307092794217 -121.4346323077898 0 -121.4346323077898 -63.406409368357345 0 0 0 0 208.84421534424769 -59.52734156516707 0 -59.52734156516707 -2.295643511472008 0 0 0 0 101.90048747869935 -4.7349149933694434 0 -4.7349149933694434 -12.576526628304615 0 0 0 0 71.930142292258097 16.980321551754656 0 16.980321551754656 -10.571328373857796 0 0 0 0 232.71833876337041 -45.057221609097269 0 -45.057221609097269 -138.49034312992535 0 0 0 0 -47.725523848232115 178.8159226570817 0 178.8159226570817 39.939417110487966 0 0 0 0 127.98953391034331 69.752959075793029 0 69.752959075793029 15.192147514886507 0 0 0 0 20.997892383660655 90.353275071250323 0 90.353275071250323 26.007349080395009 0 0 0 0 -4.679458717466332 46.96925555908274 0 46.96925555908274 70.23441443217061 0 0 0 0 97.004100008278328 25.323449418477971 0 25.323449418477971 8.212386384389573 0 0 0 0 69.094100813323166 26.138843757816918 0 26.138843757816918 8.1886120060762924 0 0 0 0 15.788109616186773 11.78298048801588 0 11.78298048801588 1.8398844659805611 0 0 0 0 5.6721294684589907 1.4355113890344455 0 1.4355113890344455 -1.789514885781166 0 0 0 0 91.637247697944986 3.4074159172185468 0 3.4074159172185468 5.1636549126626328 0 0 0 0 83.171018294873647 -2.3178773249434812 0 -2.3178773249434812 4.5770656988860603 0 0 0 0 103.61525391162286 -3.6949953924693388 0 -3.6949953924693388 4.6698275305436958 0 0 0 0 59.993926335056642 21.642639008214474 0 21.642639008214474 -4.4756601145574502 0 0 0 0 551.54393177328495 288.77394754289821 0 288.77394754289821 78.057980501986776 0 0 0 0 126.52062945417129 178.60563883217031 0 178.60563883217031 346.30851101967676 0 0 0 0 -3.3353204711020226 88.37634866271739 0 88.37634866271739 151.11550067424673 0 0 0 0 94.277686861489201 87.845395234499776 0 87.845395234499776 93.129019472405759 0 0 0 0 -2.2357667632895755 92.759651086326897 0 92.759651086326897 102.66995147181774 0 0 0 0 7.3223194759630132 46.516227654910779 0 46.516227654910779 153.36291875464721 0 0 0 0 8.4661307476344518 -10.833178611423747 0 -10.833178611423747 71.559942995333842 0 0 0 0 -5.7407164912777944 -3.1234872965710565 0 -3.1234872965710565 3.2075920406691867 0 0 0 0 76.04237682610983 112.19739380189712 0 112.19739380189712 83.118095731850417 0 0 0 0 280.54793246241752 -90.264728420242136 0 -90.264728420242136 283.55714369636763 0 0 0 0 627.47951610225209 -29.459117208932224 0 -29.459117208932224 8.4654583278760356 0 0 0 0 267.54082034534076 142.99016267778171 0 142.99016267778171 7.6553462783160988 0 0 0 0 140.25455076413346 -106.17826187202768 0 -106.17826187202768 88.046671536272726 0 0 0 0 31.596077360154595 -1.1827403658621023 0 -1.1827403658621023 8.4299289609279811 0 0 0 0 -0.19127490860802254 -2.2974888445353372 0 -2.2974888445353372 0.66066188963540662 0 0 0 0 30.776681446732255 6.1586158021128066 0 6.1586158021128066 5.8255229134483368 0 0 0 0 25.984411319310311 17.299363727732569 0 17.299363727732569 8.3341914004471231 0 0 0 0 579.10162690445941 210.64164777144538 0 210.64164777144538 20.893583636020708 0 0 0 0 2.1793701782938797 -0.42235464365643338 0 -0.42235464365643338 -0.17361046019069248 0 0 0 0 11.635855491316761 0.48928333818615444 0 0.48928333818615444 0.018451417089069132 0 0 0 0 79.674933354595851 13.382777115672445 0 13.382777115672445 22.655341806749863 0 0 0 0 79.476282338000601 15.636206193997563 0 15.636206193997563 1.6181774884122087 0 0 0 0 71.940876975160791 10.63195704164286 0 10.63195704164286 0.58483089641790809 0 0 0 0 36.331374925510318 20.847782829298911 0 20.847782829298911 13.865682759932149 0 0 0 0 67.140331677263021 17.864518395105847 0 17.864518395105847 1.6446933108336506 0 0 0 0 47.355384306385531 5.5258267908354251 0 5.5258267908354251 0.0011532832205435224 0 0 0 0 80.428497185042943 6.6757076815712884 0 6.6757076815712884 -0.0093977520548461108 0 0 0 0 79.63271802093368 3.2743812711890916 0 3.2743812711890916 -5.2308168768181389 0 0 0 0 80.012100423329684 5.1049388364373138 0 5.1049388364373138 -2.6206773303337165 0 0 0 0 82.160660477587953 2.7137128490973694 0 2.7137128490973694 -0.0062526036368603117 0 0 0 0 73.199483942313236 7.9341576509229981 0 7.9341576509229981 10.442649654633101 0 0 0 0 101.52339826259413 -10.177751157462801 0 -10.177751157462801 -26.480041250406334 0 0 0 0 63.747662053011027 -0.76279073259350128 0 -0.76279073259350128 -1.51794140395989 0 0 0 0 11.536724890987102 -3.661835923640524 0 -3.661835923640524 -2.8298695119048873 0 0 0 0 42.608031712996308 17.571788903677881 0 17.571788903677881 -3.5370363578847304 0 0 0 0 110.15773420143523 12.303262044502468 0 12.303262044502468 -5.193456220801254 0 0 0 0 72.606218648521462 -28.640031227041103 0 -28.640031227041103 3.0016450912190393 0 0 0 0 1.6705723337531708 12.106939256636872 0 12.106939256636872 0.38513564809870721 0 0 0 0 98.157378977863118 41.301191028224544 0 41.301191028224544 -1.4784132591955308 0 0 0 0 76.948532553622499 -0.7077311930194935 0 -0.7077311930194935 12.129372065555209 0 0 0 0 82.368494836555328 -2.5519015672947525 0 -2.5519015672947525 6.620426220379322 0 0 0 0 78.497885202959878 4.9272601304680279 0 4.9272601304680279 0.68759594649850442 0 0 0 0 49.384265561643019 20.63089067581285 0 20.63089067581285 0.45895818473457872 0 0 0 0 68.394030463568924 6.0140714667182777 0 6.0140714667182777 9.7784685594432403 0 0 0 0 82.959297988800245 4.3596909688682643 0 4.3596909688682643 3.8205437470476227 0 0 0 0 73.790773505927064 -2.3869793534400259 0 -2.3869793534400259 -0.13332693780824911 0 0 0 0 76.844603787438245 -5.9265409646371268 0 -5.9265409646371268 -11.073540540529962 0 0 0 0 73.402091543073766 -7.8054433792357827 0 -7.8054433792357827 -5.0430582914813158 0 0 0 0 83.850838207348716 -0.99692162097119308 0 -0.99692162097119308 -1.4288773512263049 0 0 0 0 70.086472169852641 -1.7524789911220182 0 -1.7524789911220182 8.0791770660854638 0 0 0 0 84.814630590990419 0.45421752231283108 0 0.45421752231283108 -5.981507631827867 0 0 0 0 86.218964640283957 8.2678182085320486 0 8.2678182085320486 -12.00428587329634 0 0 0 0 90.11924487943179 -2.6991629214660975 0 -2.6991629214660975 -6.014076764523395 0 0 0 0 85.91373177972855 5.7791541105975739 0 5.7791541105975739 18.678965483721925 0 0 0 0 83.02611765643087 1.7990845566003486 0 1.7990845566003486 -8.6641927309467519 0 0 0 0 415.86726076237392 132.01844205421276 0 132.01844205421276 -135.08644966497195 0 0 0 0 109.82478687676485 26.787205691512412 0 26.787205691512412 -29.949552287191125 0 0 0 0 61.33445844076266 8.3638859313928435 0 8.3638859313928435 -0.37524612473596242 0 0 0 0 53.433987766329665 -14.537268946586991 0 -14.537268946586991 -1.6708055436846507 0 0 0 0 40.827842424099799 10.536795901081561 0 10.536795901081561 11.031167954988177 0 0 0 0 82.141055614018114 11.664028049923587 0 11.664028049923587 9.2355163904930038 0 0 0 0 57.591939436664688 -0.53922449527851768 0 -0.53922449527851768 11.669433097021965 0 0 0 0 58.233475341257872 -3.141868486328292 0 -3.141868486328292 7.9827599806031202 0 0 0 0 81.179986665199976 -6.1335385512103358 0 -6.1335385512103358 1.1743642562347532 0 0 0 0 16.551567067450989 -0.84420141435518303 0 -0.84420141435518303 0.013314905769381657 0 0 0 0 102.34588219026045 -1.2513981542389558 0 -1.2513981542389558 -3.1375955499277097 0 0 0 0 112.23401002605533 16.303655772424499 0 16.303655772424499 -49.869243702835377 0 0 0 0 59.570364690537019 -4.5388538675782932 0 -4.5388538675782932 0.28406070807504125 0 0 0 0 62.925501420744695 6.2309469284265901 0 6.2309469284265901 -10.808012882942666 0 0 0 0 50.078273506427649 2.7991853288272561 0 2.7991853288272561 2.9595787031968772 0 0 0 0 67.833996585250134 -4.2675173678480487 0 -4.2675173678480487 2.3508756484952875 0 0 0 0 59.220933111784689 4.3849420431013435 0 4.3849420431013435 0.011915485427030375 0 0 0 0 9.2136673787848196 -1.1868266616865526 0 -1.1868266616865526 0.07249116539135167 0 0 0 0 61.648865023162216 3.6661790535878689 0 3.6661790535878689 -2.6894550177343048 0 0 0 0 57.125458233465906 -7.9657923359980369 0 -7.9657923359980369 0.013187864239539488 0 0 0 0 86.997498196345987 -17.956090426373489 0 -17.956090426373489 -12.039310854759487 0 0 0 0 35.139847325539449 -19.540257369728657 0 -19.540257369728657 1.8129507622237675 0 0 0 0 27.246918166683599 -6.8889729511679594 0 -6.8889729511679594 0.35132518301506893 0 0 0 0 39.615069816383766 -17.385128410935042 0 -17.385128410935042 -14.396894381491911 0 0 0 0 53.283395543490769 -8.3958928977591452 0 -8.3958928977591452 -8.4879831330786892 0 0 0 0 36.419068761635572 -31.930631362638849 0 -31.930631362638849 16.82619169110913 0 0 0 0 85.854049433037289 -12.846287382089869 0 -12.846287382089869 -4.2268211394974884 0 0 0 0 12.740061825858845 8.2067483023495811 0 8.2067483023495811 -8.0465133876801271 0 0 0 0 56.807838679921929 -4.0926992732029213 0 -4.0926992732029213 -1.3726463562769047 0 0 0 0 108.4637042748509 -22.542756511385637 0 -22.542756511385637 -12.319705774906179 0 0 0 0 32.779016056414548 -3.7868076641833093 0 -3.7868076641833093 -7.405560196580689 0 0 0 0 26.482087269308977 -10.392321832412245 0 -10.392321832412245 0.0065359921296124068 0 0 0 0 35.870768484074688 -11.536141221223957 0 -11.536141221223957 -5.5497229023402674 0 0 0 0 21.364378618134651 -4.5429196225228328 0 -4.5429196225228328 -4.7985988853223773 0 0 0 0 33.040576776853413 -6.9094089596313895 0 -6.9094089596313895 -22.996074777601866 0 0 0 0 16.849262983509107 -9.479709365245526 0 -9.479709365245526 -1.2070542319499964 0 0 0 0 16.56221480621025 9.2923471320832505 0 9.2923471320832505 7.0256100549158873 0 0 0 0 25.454648639138952 -2.6412917658847732 0 -2.6412917658847732 -5.0288486772821219 0 0 0 0 45.085252578574 -10.135308085493989 0 -10.135308085493989 -35.212106655728462 0 0 0 0 27.881229614661493 -4.7454401546884704 0 -4.7454401546884704 0.89174118417640003 0 0 0 0 61.771598364357487 -26.697489220739499 0 -26.697489220739499 -60.20068805740766 0 0 0 0 36.502324593777303 -31.163226316450846 0 -31.163226316450846 -8.4873464995724817 0 0 0 0 33.117594929380289 -10.684079911762296 0 -10.684079911762296 -3.6134926290300307 0 0 0 0 33.854660348180914 -8.2747620657927961 0 -8.2747620657927961 -27.026032094282186 0 0 0 0 33.044414477481041 -20.528668893964095 0 -20.528668893964095 -4.473646125599771 0 0 0 0 9.3023850456229411 -3.0257038579109121 0 -3.0257038579109121 -10.991253081638206 0 0 0 0 19.551261093603273 -2.6654612634440085 0 -2.6654612634440085 -3.6826682053142266 0 0 0 0 19.892632306199289 -5.3338080048469294 0 -5.3338080048469294 -4.2655541109445618 0 0 0 0 10.577346203356967 -3.7763272754207264 0 -3.7763272754207264 -3.6019797621241416 0 0 0 0 15.456894616012804 1.4745156000677184 0 1.4745156000677184 -0.81115642925209153 0 0 0 0 47.641968934098259 -20.520866691857961 0 -20.520866691857961 -24.492013049692474 0 0 0 0 88.271035285783 -23.517006891830192 0 -23.517006891830192 -49.986384954957657 0 0 0 0 -40.857100265973713 -9.9836058254920204 0 -9.9836058254920204 81.828830495221553 0 0 0 0 110.42710667627398 -3.9685289584912766 0 -3.9685289584912766 -58.544936377400688 0 0 0 0 38.003218281141017 0.4180395630583007 0 0.4180395630583007 -36.796185266390637 0 0 0 0 94.568231694633141 31.086144555848531 0 31.086144555848531 -14.636268828590005 0 0 0 0 29.888979880223417 -0.19496327171856365 0 -0.19496327171856365 -3.8715298185963087 0 0 0 0 35.026102408388397 -2.8498830358766702 0 -2.8498830358766702 -12.569974486247876 0 0 0 0 60.63582459816098 8.8836899664876938 0 8.8836899664876938 -7.2565097176517952 0 0 0 0 48.574751206933286 -1.6574199739220674 0 -1.6574199739220674 -5.1150817166145712 0 0 0 0 91.76191463691066 50.068762612397734 0 50.068762612397734 -60.726783944983765 0 0 0 0 57.143537246331107 -67.318464696626734 0 -67.318464696626734 -12.087628575733902 0 0 0 0 58.2767926286906 -9.5433279563010771 0 -9.5433279563010771 -15.763156353622733 0 0 0 0 24.075074018532177 2.8162500433760442 0 2.8162500433760442 8.1042145710531486 0 0 0 0 224.71816698968541 30.083439943113831 0 30.083439943113831 -218.97841579305532 0 0 0 0 45.578142674188712 -7.3715921078349496 0 -7.3715921078349496 20.182449615663018 0 0 0 0 18.536862656073808 1.9237668519186855 0 1.9237668519186855 -4.7221898776533155 0 0 0 0 -88.53778483797214 170.60607444180346 0 170.60607444180346 194.52718792408859 0 0 0 0 23.208101098163752 -28.22248980769109 0 -28.22248980769109 -49.166678567002236 0 0 0 0 80.945302451567841 12.035143543865843 0 12.035143543865843 -14.425748011399264 0 0 0 0 34.794723086357067 13.253583124888465 0 13.253583124888465 -4.6427213982294937 0 0 0 0 72.706591753740213 -1.0795860208290833 0 -1.0795860208290833 -12.937416607923296 0 0 0 0 61.862412608633576 13.9418565264737 0 13.9418565264737 -10.34221066425798 0 0 0 0 50.877364303960348 11.120355271282165 0 11.120355271282165 -8.4701007155501316 0 0 0 0 78.824773289408768 31.02865931067015 0 31.02865931067015 -21.792876339352006 0 0 0 0 89.02035750853247 16.41686164104749 0 16.41686164104749 -18.440943180083195 0 0 0 0 9.6147544982706563 6.9034050419146382 0 6.9034050419146382 -4.7994266114238648 0 0 0 0 44.234253527247347 -7.7788810046924937 0 -7.7788810046924937 57.893319497962693 0 0 0 0 83.053788474911755 -24.671649922257217 0 -24.671649922257217 -6.6566675352875251 0 0 0 0 136.72813428676454 -44.717388767710474 0 -44.717388767710474 2.2416701863894559 0 0 0 0 -9.8030276284844149 -86.884947972908321 0 -86.884947972908321 -6.9120527995032717 0 0 0 0 7.710371586055885 -14.541511240969527 0 -14.541511240969527 -12.018426274310659 0 0 0 0 19.655964246473303 1.8516619599735122 0 1.8516619599735122 -0.73105398237034702 0 0 0 0 -223.65068017714657 -131.47896659247067 0 -131.47896659247067 26.33497515339991 0 0 0 0 -58.030829446768621 47.706619741231066 0 47.706619741231066 216.81410951350017 0 0 0 0 -165.62993121449836 -182.99527950352547 0 -182.99527950352547 69.021211358480514 0 0 0 0 86.634600355231669 -37.934872776978978 0 -37.934872776978978 -46.733304231547208 0 0 0 0 -22.114004309871234 -60.759559551526962 0 -60.759559551526962 -43.814277102261542 0 0 0 0 33.920566400700295 -33.604929593822646 0 -33.604929593822646 -7.8567167241303366 0 0 0 0 39.109394905157387 -29.121906542570059 0 -29.121906542570059 -3.8147734466357974 0 0 0 0 29.707835269371571 -157.93241420279998 0 -157.93241420279998 276.01568219057503 0 0 0 0 -157.2347642285531 -102.47323579103875 0 -102.47323579103875 -13.170089820497822 0 0 0 0 -123.94072997364856 -179.58360369934601 0 -179.58360369934601 -142.87011000473387 0 0 0 0 2.5152515951090209 -34.86692188528184 0 -34.86692188528184 2.3372275762158736 0 0 0 0 86.063688421883853 43.216269287160458 0 43.216269287160458 -44.011613376945661 0 0 0 0 160.5105902395153 108.18934312151907 0 108.18934312151907 5.5642993639976339 0 0 0 0 161.52106657516561 -20.890381126238253 0 -20.890381126238253 -144.32814105868283 0 0 0 0 255.88831559781102 46.539441674724458 0 46.539441674724458 -110.62201471938306 0 0 0 0 1.1238383606136608 1.7295992856760449 0 1.7295992856760449 2.1934513460502805 0 0 0 0 45.88246871859883 63.685077645258048 0 63.685077645258048 43.87767572425247 0 0 0 0 -24.402000350004528 31.407982992374571 0 31.407982992374571 29.081744866379267 0 0 0 0 39.943356551484612 -25.426568593096405 0 -25.426568593096405 4.4211526987201069 0 0 0 0 6.2296758888479502 -35.15833080866733 0 -35.15833080866733 -7.3054580136926974 0 0 0 0 321.6384575470147 147.29451808956856 0 147.29451808956856 -212.12904542171054 0 0 0 0 27.810954332337744 -32.565945903160667 0 -32.565945903160667 -7.8740518670181823 0 0 0 0 2.6034364226427158 -38.881212941718474 0 -38.881212941718474 -8.342570292140449 0 0 0 0 27.429752349118644 -99.678098013614544 0 -99.678098013614544 72.924520869658409 0 0 0 0 76.012476528660045 -19.485110723025706 0 -19.485110723025706 -13.533345115780667 0 0 0 0 207.69806829002482 -58.071142306754382 0 -58.071142306754382 -104.59074348687773 0 0 0 0 489.16422491885169 -203.1612745646018 0 -203.1612745646018 -31.081560471154717 0 0 0 0 251.0357751227275 14.538157392541507 0 14.538157392541507 3.3745001170506157 0 0 0 0 30.79799223288137 17.066379687960705 0 17.066379687960705 -9.3110377252372825 0 0 0 0 34.075529409019509 -4.3551239079978359 0 -4.3551239079978359 -7.2137783714051125 0 0 0 0 8.0058230740137049 2.4472655649874469 0 2.4472655649874469 0.39627720258035204 0 0 0 0 55.33343232126208 7.8508048529620282 0 7.8508048529620282 -21.086540907669587 0 0 0 0 64.763475329309586 -1.5607555390520247 0 -1.5607555390520247 -7.7230661205379647 0 0 0 0 54.302755042666831 -13.79524744361845 0 -13.79524744361845 -35.874337505855692 0 0 0 0 58.910403365560342 0.96467394887349656 0 0.96467394887349656 -8.0347734724472843 0 0 0 0 8.6292372708451524 3.1335094383721867 0 3.1335094383721867 -3.9245345091044457 0 0 0 0 13.450046499376612 13.06279797609227 0 13.06279797609227 -8.398008784188173 0 0 0 0 78.036565629219695 8.5982983456885904 0 8.5982983456885904 -4.7296680173476489 0 0 0 0 18.210875783683264 -12.865575451743666 0 -12.865575451743666 -7.5536220586273082 0 0 0 0 21.425603049661731 20.976524927976243 0 20.976524927976243 -9.4292096477629457 0 0 0 0 4.6965948811844953 -0.066481605557527246 0 -0.066481605557527246 -0.48936425649638338 0 0 0 0 31.301499434468781 4.8731330978540939 0 4.8731330978540939 -9.4467572140321359 0 0 0 0 15.878672156964896 0.60151722915472305 0 0.60151722915472305 -11.987206310811324 0 0 0 0 87.159901351624285 1.0218243988690574 0 1.0218243988690574 -1.1138584322361567 0 0 0 0 41.089118623232935 9.4637182451053832 0 9.4637182451053832 -5.8562340365199361 0 0 0 0 53.109091849903052 6.2035546114561981 0 6.2035546114561981 -5.0031539998940389 0 0 0 0 8.8846572778711561 -5.5553134881161554 0 -5.5553134881161554 -53.344550231455912 0 0 0 0 0.34654238488109002 -1.2959973084777516 0 -1.2959973084777516 -13.527893957843036 0 0 0 0 -87.845953178955824 -28.754158546218072 0 -28.754158546218072 197.51918278230312 0 0 0 0 331.5369234643731 -17.809487990987918 0 -17.809487990987918 -204.18123197202624 0 0 0 0 -0.23992551349994073 -1.4726950707629811 0 -1.4726950707629811 -2.9114059880076182 0 0 0 0 15.111698786822672 -157.90854788680218 0 -157.90854788680218 1071.2610398699107 0 0 0 0 -0.94994906197904072 -5.2928638556086867 0 -5.2928638556086867 0.29383848789730838 0 0 0 0 128.07179891254054 291.9799872825655 0 291.9799872825655 436.61628350303226 0 0 0 0 -45.635324663744541 85.149125940808062 0 85.149125940808062 261.62325794371964 0 0 0 0 -9.3362011418258817 -10.705903421906598 0 -10.705903421906598 13.003958746964786 0 0 0 0 -13.471937936992617 -5.1445195539690758 0 -5.1445195539690758 118.01235184819029 0 0 0 0 -216.35246841714252 -78.716963787325085 0 -78.716963787325085 218.5022011552287 0 0 0 0 -10.272120068693766 -122.84302846138621 0 -122.84302846138621 60.640019277008378 0 0 0 0 -69.206281136321195 -35.748580585027213 0 -35.748580585027213 37.436582136550896 0 0 0 0 -51.599651897646254 -56.105266172926122 0 -56.105266172926122 3.7343025121856499 0 0 0 0 -65.629318860857893 -0.51062260254829539 0 -0.51062260254829539 146.07774888247604 0 0 0 0 -0.42597704840591177 -22.602325943004075 0 -22.602325943004075 -139.49689266405051 0 0 0 0 -17.985348346654916 -5.7698904996738634 0 -5.7698904996738634 12.029212393344302 0 0 0 0 -6.1675370777957141 39.282114342897728 0 39.282114342897728 -17.081206073508326 0 0 0 0 50.606514740269631 -147.23454352948562 0 -147.23454352948562 -214.75258642529826 0 0 0 0 -31.589283020752248 -4.7272534929139027 0 -4.7272534929139027 11.935651021395396 0 0 0 0 -36.379654617216147 -105.55792516870255 0 -105.55792516870255 -69.920542837353651 0 0 0 0 30.782101983990287 -176.03444247670723 0 -176.03444247670723 167.51241548043436 0 0 0 0 262.00151195112267 -24.042794365141162 0 -24.042794365141162 -69.56786651906657 0 0 0 0 -20.647972672930337 40.665485307795848 0 40.665485307795848 70.783072575138704 0 0 0 0 3.685282219434157 17.642694340584967 0 17.642694340584967 -1.6315775928835592 0 0 0 0 80.822998575720703 128.73820023685153 0 128.73820023685153 155.33781794370589 0 0 0 0 -48.661309174378403 -5.1135773401470033 0 -5.1135773401470033 174.39744217081784 0 0 0 0 -59.63941139774397 -41.998644331903506 0 -41.998644331903506 94.768489854369477 0 0 0 0 -5.3871782566275215 -0.41178670312910981 0 -0.41178670312910981 25.594377482888376 0 0 0 0 0.50365116354393535 -1.4531964965374868 0 -1.4531964965374868 4.1196365573493727 0 0 0 0 -19.894848729883961 25.417024500283787 0 25.417024500283787 -15.032484504985973 0 0 0 0 -13.849513215707702 -5.4457860336448505 0 -5.4457860336448505 -6.5804716430124017 0 0 0 0 256.82151984079974 -86.575498253823696 0 -86.575498253823696 -48.551637757939147 0 0 0 0 170.78318324411521 89.579962174662825 0 89.579962174662825 -70.914645146291633 0 0 0 0 -64.178688919593696 25.41084827866564 0 25.41084827866564 28.015050330628014 0 0 0 0 5.6609722872842667 -0.64909137622504609 0 -0.64909137622504609 2.1451781714739666 0 0 0 0 63.796166928426828 12.596459527780269 0 12.596459527780269 -38.014000224893266 0 0 0 0 9.2550751145144545 -5.5195264555927963 0 -5.5195264555927963 4.3979897982959191 0 0 0 0 7.0319118913903367 -5.8337335766719889 0 -5.8337335766719889 9.6095073116055119 0 0 0 0 2.3881259468543021 -5.4025149644402859 0 -5.4025149644402859 10.657202851327455 0 0 0 0 -27.90637029595382 -33.490209620360702 0 -33.490209620360702 -22.98851497394844 0 0 0 0 -36.087601104867645 15.376672100532801 0 15.376672100532801 8.3475210986434831 0 0 0 0 -0.36541921832179014 -5.1941900576430697 0 -5.1941900576430697 2.6372839207872234 0 0 0 0 12.456181347661186 -12.70239479899351 0 -12.70239479899351 6.227029810051306 0 0 0 0 14.374990063573932 -0.20676300405401093 0 -0.20676300405401093 7.6451096388727819 0 0 0 0 -28.421803680626908 -131.34202423199986 0 -131.34202423199986 233.21415069498653 0 0 0 0 9.7191456857531762 -11.45328237925051 0 -11.45328237925051 15.123387872530069 0 0 0 0 205.34368580020964 -58.61099024281657 0 -58.61099024281657 -158.70211521492638 0 0 0 0 -93.876101675792597 -156.16705994075869 0 -156.16705994075869 6.2386552056852338 0 0 0 0 37.415753711436992 75.71946261881854 0 75.71946261881854 9.2459739004482913 0 0 0 0 0.17390611101609466 -2.3410537314369932 0 -2.3410537314369932 -0.14278407474455812 0 0 0 0 40.781704695982626 -87.498727281405081 0 -87.498727281405081 120.62083203184102 0 0 0 0 219.66327556003671 -91.996084071620658 0 -91.996084071620658 -150.54353829225147 0 0 0 0 110.59459459950449 24.903896403161525 0 24.903896403161525 4.2539047639374985 0 0 0 0 0.90163859788577838 -2.4514155515599896 0 -2.4514155515599896 2.6104210651168493 0 0 0 0 73.960492889746092 29.231326151883877 0 29.231326151883877 3.8109422526526942 0 0 0 0 89.848515824094648 -114.4586394872772 0 -114.4586394872772 35.247473762114168 0 0 0 0 33.014578596950741 -5.7145228111894539 0 -5.7145228111894539 -4.3014950336414586 0 0 0 0 -4.2352364143007435 -35.266519486618563 0 -35.266519486618563 60.71828059948075 0 0 0 0 43.065381018590415 -97.15971105990684 0 -97.15971105990684 154.0858802242692 0 0 0 0 1.8065733979690322 4.1298671893371841 0 4.1298671893371841 -6.2962962716940272 0 0 0 0 46.662103952068719 -48.550221482088034 0 -48.550221482088034 34.023640503039132 0 0 0 0 45.261948904604651 -59.081776750618701 0 -59.081776750618701 42.036364820991366 0 0 0 0 49.306218874175102 -63.110681753352765 0 -63.110681753352765 43.937676671241206 0 0 0 0 67.677006657409947 -55.039693396463008 0 -55.039693396463008 32.715852690775137 0 0 0 0 31.117527594877174 -6.4678847386055622 0 -6.4678847386055622 -31.528372533302644 0 0 0 0 28.05607861469025 -2.4805319934042362 0 -2.4805319934042362 -4.3158087913427385 0 0 0 0 84.177746800589375 -36.478978184737571 0 -36.478978184737571 15.664207280278788 0 0 0 0 111.0526612692629 -63.847439142991789 0 -63.847439142991789 -1.3107378391996463 0 0 0 0 17.367748522767329 -4.7679931889981617 0 -4.7679931889981617 -8.4362408464913337 0 0 0 0 -1.2719191476367655 3.7821102350050495 0 3.7821102350050495 -1.903050056289787 0 0 0 0 23.673378783423686 -6.1982721486634933 0 -6.1982721486634933 -7.4619755402560664 0 0 0 0 45.104180732072564 -10.915586453241126 0 -10.915586453241126 -24.200462265935371 0 0 0 0 31.611245274310534 -5.1210485454144816 0 -5.1210485454144816 -12.887187026337246 0 0 0 0 31.198885635851184 44.343054313229914 0 44.343054313229914 -41.23650098355813 0 0 0 0 41.344736463832305 10.57332420448031 0 10.57332420448031 -8.2437802358753487 0 0 0 0 14.133640195475891 -1.5855274106741604 0 -1.5855274106741604 3.4128232260996327 0 0 0 0 1.3298178158047449 0.19858081113173398 0 0.19858081113173398 -0.27658486573003116 0 0 0 0 12.720622802240541 -7.4326148594698536 0 -7.4326148594698536 -0.030520623623094812 0 0 0 0 55.398506712049311 20.269113877622967 0 20.269113877622967 -8.0218596713135071 0 0 0 0 57.703038693754934 -17.540920178498109 0 -17.540920178498109 -0.0010696349415012579 0 0 0 0 6.2020674258528743 -11.637477763594246 0 -11.637477763594246 23.68574121423077 0 0 0 0 -17.850232542376034 32.125018035592525 0 32.125018035592525 19.522528089801469 0 0 0 0 -73.933865287341177 -40.610584347765936 0 -40.610584347765936 35.739936742056273 0 0 0 0 8.1478307205496776 -8.247606583822062 0 -8.247606583822062 7.7308718530076597 0 0 0 0 3.0673347790415733 -3.2284236650035609 0 -3.2284236650035609 3.2434205196751269 0 0 0 0 19.289148111747636 -3.0629830566400176 0 -3.0629830566400176 -0.79827860336082246 0 0 0 0 23.960266517540447 -13.121600853622169 0 -13.121600853622169 -3.8726801087704388 0 0 0 0 12.798042602997157 -8.7372411396560068 0 -8.7372411396560068 4.5201569871323537 0 0 0 0 12.208185705108917 -5.0992930376551033 0 -5.0992930376551033 -0.002558803582461717 0 0 0 0 1.9703044845540347 -0.18253224841879501 0 -0.18253224841879501 -0.080918747587735346 0 0 0 0 13.663714728827472 -6.8290881778072023 0 -6.8290881778072023 2.051662358162357 0 0 0 0 7.1955313242215198 -6.4194674089073533 0 -6.4194674089073533 4.3918406616437782 0 0 0 0 6.0457670902615064 -2.9268739526695535 0 -2.9268739526695535 0.0094932319560393063 0 0 0 0 0.058619489485693066 0.28636614124255289 0 0.28636614124255289 -0.047426208667336101 0 0 0 0 345.81971710771904 25.781866346792516 0 25.781866346792516 -39.845258875009947 0 0 0 0 346.46371679652714 115.6376435129704 0 115.6376435129704 5.1286944616749901 0 0 0 0 394.67173248955805 20.558159091161635 0 20.558159091161635 11.029866661090793 0 0 0 0 308.25821453559911 101.14814588678996 0 101.14814588678996 20.372513111359794 0 0 0 0 623.39058217889396 181.58895856638765 0 181.58895856638765 -2.9915179297194072 0 0 0 0 567.27511920576217 3.8853079950130311 0 3.8853079950130311 -0.053361789288775822 0 0 0 0 789.50611872854643 -27.035684254693525 0 -27.035684254693525 -0.1843693093641417 0 0 0 0 685.17274891986017 85.158213597947665 0 85.158213597947665 -54.576350476889544 0 0 0 0 716.08754901023349 -94.538264908279189 0 -94.538264908279189 -13.283975878473875 0 0 0 0 881.07721398094145 43.863571832676691 0 43.863571832676691 3.2784720845729733 0 0 0 0 749.16140306554735 -9.8677033038759419 0 -9.8677033038759419 -2.6165113239893998 0 0 0 0 836.10939649264765 24.601440055687565 0 24.601440055687565 4.0645412703023851 0 0 0 0 996.11499431880657 -273.59978377356958 0 -273.59978377356958 345.79663683400599 0 0 0 0 793.67401848301233 -55.282462611761865 0 -55.282462611761865 423.93652610653726 0 0 0 0 817.55604336621764 -154.12680191653911 0 -154.12680191653911 248.10909045464729 0 0 0 0 709.36782345775282 -108.48283902034424 0 -108.48283902034424 431.99235355864244 0 0 0 0 1259.399252100091 -10.674887070156629 0 -10.674887070156629 158.44680719233708 0 0 0 0 716.4035210100119 -162.59623851427511 0 -162.59623851427511 662.23818982064165 0 0 0 0 8.633145014338993 -0.74972075039696939 0 -0.74972075039696939 0.37739970320690636 0 0 0 0 892.92623613259639 -491.38064928232438 0 -491.38064928232438 101.56705933919119 0 0 0 0 407.57992694497807 238.1948078986016 0 238.1948078986016 118.87452345351571 0 0 0 0 142.37047112151049 -254.291070449568 0 -254.291070449568 513.02241606413872 0 0 0 0 2.9121209559264685 1.8972179163880298 0 1.8972179163880298 -0.81539160242907682 0 0 0 0 63.559803897660458 34.943207301656116 0 34.943207301656116 72.765797062816645 0 0 0 0 -73.234388660319382 69.384233323010733 0 69.384233323010733 178.40583946116499 0 0 0 0 429.97639281068405 149.94927181646074 0 149.94927181646074 32.484521710496949 0 0 0 0 447.20417543852818 85.402267531128132 0 85.402267531128132 81.996122062251516 0 0 0 0 968.28377289025229 138.35789348646242 0 138.35789348646242 -43.655235874394947 0 0 0 0 -0.36327912682151009 1.1939786392306644 0 1.1939786392306644 -2.3298151295875043 0 0 0 0 369.45893719460582 81.588339892249209 0 81.588339892249209 -52.257408411268585 0 0 0 0 22.550369003176456 58.654099196046289 0 58.654099196046289 68.148945226720571 0 0 0 0 -22.329980419191997 -43.701631554535652 0 -43.701631554535652 -5.0151405520705907 0 0 0 0 94.629758681112435 -94.405261851745195 0 -94.405261851745195 -26.579331880916186 0 0 0 0 1.4243270664446754 26.324299257260215 0 26.324299257260215 0.00032070831969373167 0 0 0 0 51.56343045149697 -138.52650771280582 0 -138.52650771280582 -31.866675211281347 0 0 0 0 -95.949438104988076 98.019231758150454 0 98.019231758150454 120.20282205703245 0 0 0 0 -43.659191940329038 -120.16296136555101 0 -120.16296136555101 13.785670892172448 0 0 0 0 187.35019952710718 -14.628107091733426 0 -14.628107091733426 33.307021208171705 0 0 0 0 185.87655718147289 226.90380815884706 0 226.90380815884706 161.72232237091526 0 0 0 0 349.47959332482424 11.029728768451491 0 11.029728768451491 0.0056458973088807981 0 0 0 0 -23.436043388559483 215.22675992296362 0 215.22675992296362 396.29733396296001 0 0 0 0 11.382264698197105 -29.83220430502298 0 -29.83220430502298 9.4916967676517032 0 0 0 0 1.1143371106722952 0.26983664064364632 0 0.26983664064364632 0.085343057594218036 0 0 0 0 54.343424349441193 116.55653830275899 0 116.55653830275899 59.821277171499318 0 0 0 0 10.483317685924703 206.0762830911097 0 206.0762830911097 166.71163935877456 0 0 0 0 -94.986002660822123 74.65302750062618 0 74.65302750062618 189.52089350464823 0 0 0 0 -62.259455903316848 -13.433267916521036 0 -13.433267916521036 92.246240984230639 0 0 0 0 225.3395745207963 61.713101827623987 0 61.713101827623987 72.236703362066379 0 0 0 0 224.73221032891888 17.937576029988648 0 17.937576029988648 49.042156426876502 0 0 0 0 58.439739492823719 11.131454903100126 0 11.131454903100126 80.745224260652051 0 0 0 0 -355.6901532599004 -52.025913836477997 0 -52.025913836477997 312.93928293887052 0 0 0 0 55.857374055194668 -16.583298503627645 0 -16.583298503627645 -101.74944764425967 0 0 0 0 348.3080384034256 -164.73434580498929 0 -164.73434580498929 37.290042662070618 0 0 0 0 313.54882027907297 -11.523957578671375 0 -11.523957578671375 21.958655548702012 0 0 0 0 230.76427103506285 -59.99714770192039 0 -59.99714770192039 63.444179337457314 0 0 0 0 215.72987391293282 -17.065181092715555 0 -17.065181092715555 48.830574749082956 0 0 0 0 479.13752665038919 -38.367835433243123 0 -38.367835433243123 13.136369099311333 0 0 0 0 364.29700127678734 -76.210520556080269 0 -76.210520556080269 96.499988534936847 0 0 0 0 408.62387227996078 -132.66416003081909 0 -132.66416003081909 83.253139445958183 0 0 0 0 565.31829333445057 -51.407698042216289 0 -51.407698042216289 0.11879578563178846 0 0 0 0 705.11552643810865 -75.144985032585666 0 -75.144985032585666 -31.644150496141371 0 0 0 0 583.08314931040513 -172.50850587000321 0 -172.50850587000321 16.767482125116516 0 0 0 0 777.52005344722056 -220.75380391127916 0 -220.75380391127916 -49.957472641323022 0 0 0 0 6.4959288932949448 -0.52786751974626611 0 -0.52786751974626611 0.1831550179197407 0 0 0 0 522.94515827714349 402.26308426858094 0 402.26308426858094 514.78932650076024 0 0 0 0 2.1503079046815401 92.4882146671344 0 92.4882146671344 12.196859051973945 0 0 0 0 171.0409929836751 -278.45008745139336 0 -278.45008745139336 72.024707009790063 0 0 0 0 23.612954283403269 85.722360298302988 0 85.722360298302988 41.323346813799446 0 0 0 0 32.424094405403594 -6.8779556113371143 0 -6.8779556113371143 117.0697334108732 0 0 0 0 71.998813589394558 81.412037546165024 0 81.412037546165024 -135.88860356238013 0 0 0 0 16.773271228919896 -1.1955237200643438 0 -1.1955237200643438 -0.14108403466607744 0 0 0 0 83.352853465155931 -31.104758159394009 0 -31.104758159394009 -185.5527727528663 0 0 0 0 -50.007419550878694 14.565778403011635 0 14.565778403011635 -4.0870565798138045 0 0 0 0 92.004823105162359 59.463819099698526 0 59.463819099698526 -30.586239806544512 0 0 0 0 -3.6368046363641042 27.544886859859517 0 27.544886859859517 23.62921926203208 0 0 0 0 61.054721973450796 164.97244183507232 0 164.97244183507232 130.98262877089974 0 0 0 0 152.13813715685683 107.46884147458485 0 107.46884147458485 144.58728475303593 0 0 0 0 46.199310832307674 154.29282594605314 0 154.29282594605314 440.41186260996176 0 0 0 0 121.72192094799539 211.06470587678291 0 211.06470587678291 212.44586830654268 0 0 0 0 126.83282008588139 60.385630139333443 0 60.385630139333443 51.202352827182381 0 0 0 0 130.65849548774258 99.398048824565095 0 99.398048824565095 285.12936829361524 0 0 0 0 368.73907895288721 262.23922815250552 0 262.23922815250552 48.034920219691969 0 0 0 0 167.36731014962425 -141.89873208762151 0 -141.89873208762151 -354.28283738635844 0 0 0 0 37.390218618776998 201.99399719258517 0 201.99399719258517 -273.28321732318227 0 0 0 0 211.38257363587036 162.78144750988088 0 162.78144750988088 -652.1582133802699 0 0 0 0 96.59403973963316 15.384806121094142 0 15.384806121094142 -0.14336666192603231 0 0 0 0 41.044560775073478 24.856185800864409 0 24.856185800864409 -101.59731989899728 0 0 0 0 30.608868862007512 70.645297257385721 0 70.645297257385721 -233.01198151455844 0 0 0 0 203.76445361453079 243.59756204782465 0 243.59756204782465 -163.78162557349719 0 0 0 0 183.8595736532734 121.80484637274708 0 121.80484637274708 -358.42624403779638 0 0 0 0 367.01379288936732 316.2482766986052 0 316.2482766986052 -1023.0713107712525 0 0 0 0 122.85269871245049 16.678343160789879 0 16.678343160789879 0.23610892463248706 0 0 0 0 125.4333275675599 134.46740350152646 0 134.46740350152646 -124.42826127472927 0 0 0 0 646.66511575787445 -250.27463493446672 0 -250.27463493446672 -191.32233013705496 0 0 0 0 788.46051113800786 -359.30115210872566 0 -359.30115210872566 -127.32927462670608 0 0 0 0 697.98330536013236 -104.12881320791021 0 -104.12881320791021 -89.005880412186031 0 0 0 0 270.17079582904262 -138.72992833267836 0 -138.72992833267836 15.942097716353089 0 0 0 0 244.44734276336385 -86.099093831589244 0 -86.099093831589244 -28.094775252518104 0 0 0 0 -10.977751605954836 -88.1265879122179 0 -88.1265879122179 45.685820297533837 0 0 0 0 420.0213914937558 -455.54751266505627 0 -455.54751266505627 106.67786564644007 0 0 0 0 927.69641675028834 -309.56663790014767 0 -309.56663790014767 -121.50162874684148 0 0 0 0 776.488886251449 -245.23346571868092 0 -245.23346571868092 102.77528530120753 0 0 0 0 735.15825889688858 -335.28661278644836 0 -335.28661278644836 -36.20978593413929 0 0 0 0 674.25644829982775 30.893794025000318 0 30.893794025000318 132.23232164846965 0 0 0 0 321.45456997141173 -169.24248240796376 0 -169.24248240796376 18.718329319227053 0 0 0 0 849.85566385548009 -289.60584850353882 0 -289.60584850353882 -150.98731333190852 0 0 0 0 594.75369076112111 -413.63818166416218 0 -413.63818166416218 -117.62160769574018 0 0 0 0 737.03860930213705 -316.08082810315494 0 -316.08082810315494 -157.06885491468972 0 0 0 0 216.90914115533815 42.259960362042364 0 42.259960362042364 -132.1496992918685 0 0 0 0 61.800215990275376 12.111062933596521 0 12.111062933596521 0.54256709820171167 0 0 0 0 273.30348949844483 122.74779629217313 0 122.74779629217313 -798.70993482387144 0 0 0 0 795.67629952733114 -622.09371902685871 0 -622.09371902685871 -173.70595409416319 0 0 0 0 -70.596614119014703 -118.65648588069253 0 -118.65648588069253 -133.16258041140296 0 0 0 0 21.588802249616265 5.2808848052561155 0 5.2808848052561155 1.4052823114393327 0 0 0 0 1619.3726809345535 -122.27895077227178 0 -122.27895077227178 -236.27300670067743 0 0 0 0 886.87835368023661 -398.930975923669 0 -398.930975923669 -264.25304947891811 0 0 0 0 1110.3651157201384 -200.56708725430207 0 -200.56708725430207 -187.67897283322478 0 0 0 0 781.3057561837777 194.94752869483594 0 194.94752869483594 59.414571241337612 0 0 0 0 272.42877188992861 0.56799706566861374 0 0.56799706566861374 25.894456604716083 0 0 0 0 344.65480561411823 -108.4121469780207 0 -108.4121469780207 298.36940712945375 0 0 0 0 900.1717305072234 584.63907302223924 0 584.63907302223924 1147.0988906582402 0 0 0 0 1229.1039261014084 -812.25103571337308 0 -812.25103571337308 247.61916232181056 0 0 0 0 251.22696698925574 -292.01218867702585 0 -292.01218867702585 457.53392832768441 0 0 0 0 382.25557708731503 -611.05158335211013 0 -611.05158335211013 1188.1506540132784 0 0 0 0 -67.068571134514059 -248.53005348767806 0 -248.53005348767806 -399.31927051929006 0 0 0 0 797.61993589540361 -247.91507982339704 0 -247.91507982339704 -407.29796187574311 0 0 0 0 -85.171021963615203 -104.95054107067153 0 -104.95054107067153 -393.11920125127153 0 0 0 0 837.03240680214367 185.18270065051593 0 185.18270065051593 -1447.0722727263906 0 0 0 0 264.65787433640799 -187.81688467364529 0 -187.81688467364529 -373.83929076099366 0 0 0 0 1635.9438806135622 661.90791102178946 0 661.90791102178946 71.579522706167609 0 0 0 0 187.97179749642964 200.30256183324684 0 200.30256183324684 387.8355731468173 0 0 0 0 -0.50607719484833069 629.69927784034985 0 629.69927784034985 1799.2816763037558 0 0 0 0 29.226360280852532 392.00718427757192 0 392.00718427757192 381.73734180394644 0 0 0 0 233.13746164995246 308.01877848989352 0 308.01877848989352 -474.598332978293 0 0 0 0 244.44657951774207 406.24914962388448 0 406.24914962388448 -117.32220651086936 0 0 0 0 53.261037113989005 806.35572661434344 0 806.35572661434344 190.88606460199753 0 0 0 0 666.84654089304968 431.55154424597504 0 431.55154424597504 -535.77146562621419 0 0 0 0 348.52461468369802 467.89685554731636 0 467.89685554731636 -746.08393081735994 0 0 0 0 351.8285942284565 521.40705365613212 0 521.40705365613212 -1942.9270340819512 0 0 0 0 -402.15607371093938 645.26292070323325 0 645.26292070323325 -577.69763830287593 0 0 0 0 153.46135231490189 184.43094597332879 0 184.43094597332879 -56.577832094695623 0 0 0 0 13.719839165045414 -557.08468887478375 0 -557.08468887478375 -1469.0326829322494 0 0 0 0 60.441430436816887 9.1878248344966664 0 9.1878248344966664 -14.772654456577198 0 0 0 0 313.8349322920476 -250.01426884564626 0 -250.01426884564626 -917.47822289072792 0 0 0 0 218.55875770992134 -62.289975932249035 0 -62.289975932249035 -283.64383388518763 0 0 0 0 7.7420655330340651 -51.253858740936124 0 -51.253858740936124 -9.0127987325325254 0 0 0 0 261.26417932764161 18.304209189196627 0 18.304209189196627 130.04295112414593 0 0 0 0 246.90241400217303 25.231125160450347 0 25.231125160450347 -43.463214342797222 0 0 0 0 133.24477031991296 -5.2450769537183906 0 -5.2450769537183906 -5.9907287272046155 0 0 0 0 205.85946494265227 -73.754598797404469 0 -73.754598797404469 -421.98954398410206 0 0 0 0 305.88339036570687 27.735236586564497 0 27.735236586564497 -466.29308181865781 0 0 0 0 229.06496130730375 34.665068170063023 0 34.665068170063023 -75.350764183596539 0 0 0 0 86.232135248783379 -20.386704349930852 0 -20.386704349930852 -33.493935848646707 0 0 0 0 352.73564683343193 143.33277473579483 0 143.33277473579483 2.9025744656969437 0 0 0 0 338.55358957484714 22.783587026183284 0 22.783587026183284 -5.3647096404768035 0 0 0 0 228.76013535151833 87.162509122111942 0 87.162509122111942 83.165568013190295 0 0 0 0 199.21863441576716 95.767911012400191 0 95.767911012400191 -18.991683418906405 0 0 0 0 104.97955537239613 -31.024011409502464 0 -31.024011409502464 27.710759676010312 0 0 0 0 254.6494175999178 -9.9551479749309806 0 -9.9551479749309806 25.379187078374343 0 0 0 0 124.88876519630867 -35.015066817535853 0 -35.015066817535853 -39.84079565532852 0 0 0 0 89.257652647938812 2.7919744713385626 0 2.7919744713385626 -4.5480597361374748 0 0 0 0 83.331743026588811 -16.983097775070291 0 -16.983097775070291 12.400774451584766 0 0 0 0 84.202576270741702 -3.7724061610605304 0 -3.7724061610605304 22.845000941789294 0 0 0 0 83.939501956148888 -0.30011142693001602 0 -0.30011142693001602 24.082229940112484 0 0 0 0 83.236947913566837 -0.29512563240405143 0 -0.29512563240405143 27.280661709262404 0 0 0 0 83.860753880217089 -4.0091182894217354 0 -4.0091182894217354 28.426533144278437 0 0 0 0 79.788162321783602 3.8324327251984869 0 3.8324327251984869 45.817833006803198 0 0 0 0 79.437517715618014 -14.675533563119643 0 -14.675533563119643 43.38075544874755 0 0 0 0 92.131931684212759 37.960338906434117 0 37.960338906434117 -222.5267206806011 0 0 0 0 116.62908965357605 -3.040628601664908 0 -3.040628601664908 -7.0942177502904791 0 0 0 0 195.7978341561211 281.38800602241952 0 281.38800602241952 -1374.0597659233417 0 0 0 0 124.92247552463613 24.599959599777282 0 24.599959599777282 -2.3881778391618216 0 0 0 0 115.09471680491697 -27.478064465716216 0 -27.478064465716216 70.123435533287193 0 0 0 0 1601.2052232568967 165.74056020492071 0 165.74056020492071 -162.35292873229537 0 0 0 0 89.454629463012679 135.35617875351272 0 135.35617875351272 571.08851360346307 0 0 0 0 1276.1791452360776 -362.47094009235417 0 -362.47094009235417 -558.02254701004995 0 0 0 0 -82.919874062310555 447.89578095791671 0 447.89578095791671 354.36333381272243 0 0 0 0 -71.127450377476634 6.0466724826537757 0 6.0466724826537757 403.62789339237349 0 0 0 0 -1.3042213015224604 2.8412728313816729 0 2.8412728313816729 11.212588671819942 0 0 0 0 -11.431574392598122 185.37318958616652 0 185.37318958616652 -31.621873059822065 0 0 0 0 -85.85846478073654 121.95296414549057 0 121.95296414549057 8.8156530271535303 0 0 0 0 34.09484683892515 259.94534447419937 0 259.94534447419937 15.782993312793224 0 0 0 0 -18.641469681082526 475.52290653138448 0 475.52290653138448 -351.01806873802815 0 0 0 0 35.0515942464408 237.96477440150511 0 237.96477440150511 49.642642167099439 0 0 0 0 111.29000166940386 86.498077544413718 0 86.498077544413718 -378.00950126856242 0 0 0 0 131.22138266760157 166.1395174719828 0 166.1395174719828 -97.074950425349016 0 0 0 0 168.11464724312827 -51.522238309552449 0 -51.522238309552449 -51.668338388594748 0 0 0 0 102.02916136628482 -15.13518241134534 0 -15.13518241134534 26.224018606158097 0 0 0 0 226.18927395455103 -343.37093059265476 0 -343.37093059265476 254.67080622023423 0 0 0 0 7.0349117275644062 -2.2070672292834104 0 -2.2070672292834104 1.0146572236673563 0 0 0 0 64.778967279009521 92.289139257796705 0 92.289139257796705 -161.9473997359953 0 0 0 0 58.964553966252424 64.928240278236444 0 64.928240278236444 5.8508207649483666 0 0 0 0 100.72571207544149 8.1349701459642461 0 8.1349701459642461 0.360371685838488 0 0 0 0 395.41406934434053 341.75078258773897 0 341.75078258773897 367.79237055682279 0 0 0 0 21.733059266828604 6.6723895645240816 0 6.6723895645240816 17.847471295767043 0 0 0 0 26.003424524879563 -3.3811113971206215 0 -3.3811113971206215 2.6770267269630788 0 0 0 0 168.28533262292331 -416.09806813770729 0 -416.09806813770729 1038.1713831086649 0 0 0 0 1090.7560650298992 -780.97511839150184 0 -780.97511839150184 37.368119821521759 0 0 0 0 1570.1277824279969 58.01647618563652 0 58.01647618563652 -188.01395866226949 0 0 0 0 231.55219002157293 -31.888089210078533 0 -31.888089210078533 -1.0598775137669119 0 0 0 0 -238.41678604082517 -1345.0482315374916 0 -1345.0482315374916 1094.9586849306233 0 0 0 0 763.05399939600466 81.780771903719938 0 81.780771903719938 -837.61558740254327 0 0 0 0 188.69755048307707 -230.30501296416332 0 -230.30501296416332 -348.13620704536447 0 0 0 0 62.4911613255681 -88.141578805822519 0 -88.141578805822519 -165.5741876217927 0 0 0 0 432.01820921916806 -470.17475799987972 0 -470.17475799987972 -241.81012327256303 0 0 0 0 485.698828929314 1885.3027921974092 0 1885.3027921974092 1207.5087690566324 0 0 0 0 452.64600422911462 -159.57865728010756 0 -159.57865728010756 -541.3860562856504 0 0 0 0 241.71676569919856 -30.74775572329899 0 -30.74775572329899 6.2105609944639752 0 0 0 0 505.73964712351517 430.21986450299119 0 430.21986450299119 -715.8690653520207 0 0 0 0 -83.066587740540854 -297.65398813132424 0 -297.65398813132424 -19.253482544818326 0 0 0 0 167.79759661431308 -215.92392448205919 0 -215.92392448205919 248.9330803118155 0 0 0 0 531.31216664027306 -291.91851185701762 0 -291.91851185701762 -34.333274031722567 0 0 0 0 308.99737743029254 -23.501137386949267 0 -23.501137386949267 25.557037054255488 0 0 0 0 68.077353596526507 -14.365020248121539 0 -14.365020248121539 21.302978646915744 0 0 0 0 505.06082046695519 -318.17096533473307 0 -318.17096533473307 28.99950825067117 0 0 0 0 69.91574360214409 5.9022442754194362 0 5.9022442754194362 -10.971085322281809 0 0 0 0 517.34388553399549 124.17115548678157 0 124.17115548678157 -149.22582755959377 0 0 0 0 277.46371542215041 -38.767262109086715 0 -38.767262109086715 0.5607033956103451 0 0 0 0 684.64734403965122 -217.08654332937556 0 -217.08654332937556 71.866610343901584 0 0 0 0 94.502577889993859 -1.3154881204005164 0 -1.3154881204005164 -34.444034243219733 0 0 0 0 205.48148846718505 -99.456785827649583 0 -99.456785827649583 61.648142215297412 0 0 0 0 362.93602505902527 -174.63145656460802 0 -174.63145656460802 47.833078201498665 0 0 0 0 483.83759764508704 -170.71403612423592 0 -170.71403612423592 -133.83051305915797 0 0 0 0 441.44922620143188 -33.010146219905437 0 -33.010146219905437 -228.56312497617091 0 0 0 0 308.81882787424274 62.455889011198906 0 62.455889011198906 -107.63024301907717 0 0 0 0 -151.1968924830544 -202.73078861766362 0 -202.73078861766362 -132.80664956121382 0 0 0 0 -76.087034246593248 -151.25521719064454 0 -151.25521719064454 -1.6222028365145889 0 0 0 0 65.002779041455796 -16.947738894538098 0 -16.947738894538098 22.415136727333106 0 0 0 0 184.8627695400437 -277.44261549769635 0 -277.44261549769635 106.51771523187745 0 0 0 0 571.05733052219512 42.890096958686627 0 42.890096958686627 -106.20622913010993 0 0 0 0 -22.492819800201687 -4.0093547534979734 0 -4.0093547534979734 353.68647946958663 0 0 0 0 304.55202984325297 -367.94021232835803 0 -367.94021232835803 684.57312483366786 0 0 0 0 1141.6907531676479 -276.1978011193869 0 -276.1978011193869 -15.404986323479534 0 0 0 0 783.67387248404702 -65.479749643325704 0 -65.479749643325704 -71.187269915214983 0 0 0 0 10.319455323917218 -20.830673778701872 0 -20.830673778701872 24.485527473444584 0 0 0 0 498.15463008965526 97.090781128235903 0 97.090781128235903 -123.39452976838061 0 0 0 0 483.28110351436044 133.09288322641714 0 133.09288322641714 100.41801550280707 0 0 0 0 14.555203658647613 -8.6635131824520517 0 -8.6635131824520517 3.4135659610058262 0 0 0 0 543.29852391891654 292.13016709870044 0 292.13016709870044 -120.4890933538627 0 0 0 0 869.0948378373123 171.95662330781602 0 171.95662330781602 -202.39568181290451 0 0 0 0 117.04345234176435 -23.555025837922472 0 -23.555025837922472 -68.583004596166688 0 0 0 0 117.55265964148717 21.014306556126613 0 21.014306556126613 -3.3921083821251674 0 0 0 0 146.27478805404826 -14.911868440913281 0 -14.911868440913281 -82.593569705507093 0 0 0 0 96.968444506739615 65.582307327885701 0 65.582307327885701 -60.02592726485598 0 0 0 0 116.07062889259396 36.597008247107169 0 36.597008247107169 -90.877773735361643 0 0 0 0 83.634763450587343 29.313792622918697 0 29.313792622918697 36.707808932191256 0 0 0 0 84.653173176135169 28.910208962407523 0 28.910208962407523 11.69868884352536 0 0 0 0 211.43436570397535 -29.627727257036668 0 -29.627727257036668 -83.165081530780299 0 0 0 0 28.579855822117139 -3.4191931986854627 0 -3.4191931986854627 -0.90802022527568838 0 0 0 0 75.604937199394044 75.129018565500928 0 75.129018565500928 -62.266775131609393 0 0 0 0 223.16891717226827 -32.036987273537306 0 -32.036987273537306 -94.635315844732077 0 0 0 0 251.08625590906013 37.398456964062461 0 37.398456964062461 -118.23093452943476 0 0 0 0 208.49496238969732 -59.012711486570083 0 -59.012711486570083 5.2207400008951481 0 0 0 0 152.03487088398833 62.216126247500142 0 62.216126247500142 -123.31525361098988 0 0 0 0 262.94059288808785 -9.0657032322797022 0 -9.0657032322797022 -139.80608992506131 0 0 0 0 313.23553527254262 24.64885055133982 0 24.64885055133982 -114.45651910651941 0 0 0 0 94.878855633421665 -43.355831070438924 0 -43.355831070438924 -18.752821664443658 0 0 0 0 476.15619005024382 -195.69477886686582 0 -195.69477886686582 -11.862253989933379 0 0 0 0 236.55641524818202 -19.105251062733259 0 -19.105251062733259 -8.9541891353128449 0 0 0 0 194.45578520791736 -34.908000582080277 0 -34.908000582080277 -2.1590658548747599 0 0 0 0 124.87117839193891 15.715657997828821 0 15.715657997828821 -10.940080193730106 0 0 0 0 146.85105080222638 14.807004294937542 0 14.807004294937542 -26.96369819204989 0 0 0 0 191.73020831290341 -1.0546517120983481 0 -1.0546517120983481 -22.560838709659947 0 0 0 0 53.973150861806317 -13.175525324825131 0 -13.175525324825131 0.53522098619751901 0 0 0 0 77.805638577043197 35.559482107449156 0 35.559482107449156 -40.995665243143932 0 0 0 0 322.15223102739856 81.93380380468534 0 81.93380380468534 -6.837629508547252 0 0 0 0 476.15619005027838 -195.69477886684581 0 -195.69477886684581 -11.862253989924284 0 0 0 0 55.535429394510139 -20.584806861716746 0 -20.584806861716746 4.8063024569453461 0 0 0 0 230.66589904945431 -7.3215901861276507 0 -7.3215901861276507 12.153001535261865 0 0 0 0 476.15619005026565 -195.69477886686127 0 -195.69477886686127 -11.862253989941564 0 0 0 0 351.8938634624792 -58.26049447917103 0 -58.26049447917103 -51.211572280108157 0 0 0 0 444.79840492239236 -71.513612134052892 0 -71.513612134052892 -120.63477736462664 0 0 0 0 526.21355506444888 -34.151084134411576 0 -34.151084134411576 -107.19545637696683 0 0 0 0 356.15964884117056 -178.97505140232352 0 -178.97505140232352 11.900193881634664 0 0 0 0 547.37491674976377 -126.06454980173453 0 -126.06454980173453 -96.2826887033807 0 0 0 0 387.05695085865773 -122.8297655912047 0 -122.8297655912047 -81.867735834464838 0 0 0 0 185.30289560755773 -3.5593741943939676 0 -3.5593741943939676 -26.13906128124961 0 0 0 0 46.155574234642785 53.323083063899084 0 53.323083063899084 -34.098534472782262 0 0 0 0 15.68485453741215 33.16244419063424 0 33.16244419063424 -13.228444308935568 0 0 0 0 154.56753761125583 -12.126406616619306 0 -12.126406616619306 0.65265179611560598 0 0 0 0 38.212499066250189 -16.123067064573753 0 -16.123067064573753 -12.145109053647415 0 0 0 0 87.122693210496891 65.1949845357708 0 65.1949845357708 32.5926120282802 0 0 0 0 151.19196247589935 7.9873207341704529 0 7.9873207341704529 -19.702954638674782 0 0 0 0 36.464507854991211 14.798692696238987 0 14.798692696238987 -32.661213207166824 0 0 0 0 102.79661584865971 -41.064727911560681 0 -41.064727911560681 -84.792586876795326 0 0 0 0 16.734819849615555 -1.4151157408191466 0 -1.4151157408191466 -1.6379310058896381 0 0 0 0 152.14757083449149 6.9326584252669079 0 6.9326584252669079 -43.807295997353322 0 0 0 0 140.14090712205507 -11.72109114892163 0 -11.72109114892163 -20.919204539765133 0 0 0 0 148.55460912253693 -24.730589779682816 0 -24.730589779682816 -56.45038800751604 0 0 0 0 178.14900151293841 -110.52216582679483 0 -110.52216582679483 -77.16509436088586 0 0 0 0 -10.033820146134531 -32.376967678694086 0 -32.376967678694086 -0.13783291670222297 0 0 0 0 187.43825037185889 32.508062078340345 0 32.508062078340345 -39.226405149835387 0 0 0 0 308.71863118094916 5.7844259643575242 0 5.7844259643575242 -77.146278114978116 0 0 0 0 257.24830020442459 94.369920832737876 0 94.369920832737876 5.2126084489492541 0 0 0 0 180.72008214089146 82.733598267058568 0 82.733598267058568 21.620020047207845 0 0 0 0 212.1543119411217 93.104459804946956 0 93.104459804946956 -5.3271508418820304 0 0 0 0 155.05346375449881 38.581537239589579 0 38.581537239589579 -26.843533772709975 0 0 0 0 139.31814714811298 19.934754520584832 0 19.934754520584832 -58.567333820069507 0 0 0 0 211.37855346452852 21.138652307817608 0 21.138652307817608 -58.621262419761706 0 0 0 0 188.37676980390097 20.22350290174893 0 20.22350290174893 -124.85504512345381 0 0 0 0 216.06344191776589 134.44403523073379 0 134.44403523073379 -295.95878842466573 0 0 0 0 142.46860662803417 19.490382522100802 0 19.490382522100802 0.20275138955634375 0 0 0 0 411.53479165502358 -211.39910835387798 0 -211.39910835387798 -246.55216006817409 0 0 0 0 111.07073854267219 248.14636343241341 0 248.14636343241341 48.942808094131578 0 0 0 0 469.11184467546991 88.221609103668925 0 88.221609103668925 -225.95616676750114 0 0 0 0 457.1885222629644 -41.919936081897731 0 -41.919936081897731 51.350381280357851 0 0 0 0 147.05193145986414 -26.109689593919938 0 -26.109689593919938 169.57468870442153 0 0 0 0 76.429190543894947 78.646575207863577 0 78.646575207863577 106.36385866853516 0 0 0 0 101.93118693050928 62.893449563378795 0 62.893449563378795 -41.630353503682784 0 0 0 0 79.651206274451397 41.868337863922193 0 41.868337863922193 -48.248241875934582 0 0 0 0 82.750821769644972 -6.9439636773876146 0 -6.9439636773876146 -14.491201594237054 0 0 0 0 24.840497014496023 10.159113059594716 0 10.159113059594716 -7.448463060738935 0 0 0 0 22.716092473217373 -9.5179852353039678 0 -9.5179852353039678 -13.331026572128437 0 0 0 0 20.734952728511416 55.801678484785043 0 55.801678484785043 -17.174034036833518 0 0 0 0 19.439596198061469 -0.89085636477136632 0 -0.89085636477136632 -2.7459348181680614 0 0 0 0 202.98226834491652 -9.4368643504215015 0 -9.4368643504215015 -5.3655996617269466 0 0 0 0 48.199346915242927 7.9128354517119845 0 7.9128354517119845 -12.926639353769144 0 0 0 0 5.8973415339496569 -2.9941823089311796 0 -2.9941823089311796 -4.5399661482173563 0 0 0 0 205.14351793171954 118.34202450321663 0 118.34202450321663 -142.25782094913848 0 0 0 0 -321.19747087277938 -486.83125254105983 0 -486.83125254105983 -391.54633043569584 0 0 0 0 26.76017117741867 -101.28927414983809 0 -101.28927414983809 103.07544297477853 0 0 0 0 -38.386226277449168 13.763725970086739 0 13.763725970086739 -117.14462371814375 0 0 0 0 101.27919034623815 -3.3495913711608694 0 -3.3495913711608694 -26.094518377486224 0 0 0 0 208.82774060082738 62.328389733851225 0 62.328389733851225 -62.259472629900358 0 0 0 0 163.92412593605115 16.808514163751465 0 16.808514163751465 -9.9562959071556865 0 0 0 0 123.94168341228215 22.431483076192308 0 22.431483076192308 -9.2367236400548336 0 0 0 0 55.449621447944082 17.816993606267715 0 17.816993606267715 -19.403885897312193 0 0 0 0 76.365864318759037 17.320639611528591 0 17.320639611528591 -9.0342603463694164 0 0 0 0 69.069790308520169 18.113304747374627 0 18.113304747374627 -21.566057382070539 0 0 0 0 104.71931515203323 20.854172578729049 0 20.854172578729049 -9.3620533210411168 0 0 0 0 1.8343579991451406 -15.390498167213991 0 -15.390498167213991 -68.710774760267668 0 0 0 0 87.84563383605564 13.851407889449547 0 13.851407889449547 -6.3514912439686668 0 0 0 0 91.383160776064273 3.9849305070788716 0 3.9849305070788716 -9.3285259434772527 0 0 0 0 115.69949975627196 22.682514912580558 0 22.682514912580558 -10.145399806932275 0 0 0 0 61.565713802498124 30.664811763265796 0 30.664811763265796 -27.277198068215217 0 0 0 0 116.9105331971775 16.378954300071968 0 16.378954300071968 -11.093909458106026 0 0 0 0 101.73660548687985 28.73970069129291 0 28.73970069129291 7.7492602829006501 0 0 0 0 110.86542646352609 29.888702406470827 0 29.888702406470827 -9.8169189279960847 0 0 0 0 18.011144293530357 4.5359198695179401 0 4.5359198695179401 -10.356246532540705 0 0 0 0 13.693392798563799 0.49339536194422351 0 0.49339536194422351 -1.3144869879682304 0 0 0 0 127.2066644061415 34.793048885166399 0 34.793048885166399 -17.168865578299574 0 0 0 0 173.25439717045811 5.2498027914739396 0 5.2498027914739396 120.10551559946543 0 0 0 0 20.84473371943448 21.845189425719568 0 21.845189425719568 -14.321994775102098 0 0 0 0 134.76698632634725 31.232590538018258 0 31.232590538018258 -19.227251584343776 0 0 0 0 -3.1183232199959434 12.646557454682352 0 12.646557454682352 0.90390765710738541 0 0 0 0 56.717060667244482 -13.886648067999673 0 -13.886648067999673 -11.634756981742967 0 0 0 0 96.845378993100894 13.983291829966561 0 13.983291829966561 -18.598375027445854 0 0 0 0 129.08797334232804 -1.4357079081310076 0 -1.4357079081310076 -89.720943932401497 0 0 0 0 23.465915509279338 7.612184651070308 0 7.612184651070308 -27.475124785293005 0 0 0 0 86.654222898519947 19.420512092524476 0 19.420512092524476 -5.6051732684409767 0 0 0 0 57.204726677525741 7.2175570591384144 0 7.2175570591384144 -70.977498005678939 0 0 0 0 97.049610735288297 -14.190015415810194 0 -14.190015415810194 -148.1094461148241 0 0 0 0 61.064044182872749 -67.376257862611965 0 -67.376257862611965 -159.22719340081858 0 0 0 0 148.15582390848431 6.6214406612343737 0 6.6214406612343737 -158.8277390214862 0 0 0 0 81.762986226371737 -14.090218037085997 0 -14.090218037085997 -22.269788647490877 0 0 0 0 -17.146174396049901 -45.050360624988571 0 -45.050360624988571 -51.470293427521028 0 0 0 0 51.968590009404579 -112.66576239093365 0 -112.66576239093365 -159.43834279998009 0 0 0 0 0.045118723566133667 -29.003388373763595 0 -29.003388373763595 -4.4444493286026683 0 0 0 0 93.258597549773981 -15.488540495058864 0 -15.488540495058864 -5.4687479575072917 0 0 0 0 102.88241492005181 -140.14247271536078 0 -140.14247271536078 -157.64287695139137 0 0 0 0 55.355595217653899 -27.939437848714988 0 -27.939437848714988 -29.842695426756109 0 0 0 0 111.27315684856148 -61.71455545569097 0 -61.71455545569097 -13.776438430388225 0 0 0 0 87.995964468136663 -15.447914079146358 0 -15.447914079146358 -68.324955578522761 0 0 0 0 78.724159328310634 -92.944625464398086 0 -92.944625464398086 -41.511885831867403 0 0 0 0 49.953703769133426 -94.555110054432589 0 -94.555110054432589 76.842236989614321 0 0 0 0 159.17356611520518 -6.8822290270800295 0 -6.8822290270800295 -165.88562345813807 0 0 0 0 267.0232718338666 -65.402929781284001 0 -65.402929781284001 -134.25858592127042 0 0 0 0 154.01014525718347 -156.67709862694755 0 -156.67709862694755 9.6728986074886052 0 0 0 0 3.3571130013006041 -67.17277114132412 0 -67.17277114132412 -43.463141574589827 0 0 0 0 16.24819646216929 -161.37726081629989 0 -161.37726081629989 -35.005922590258706 0 0 0 0 560.18109439830914 494.60900081512227 0 494.60900081512227 -326.09774325995932 0 0 0 0 22.786634123593259 -7.0290212058431329 0 -7.0290212058431329 -1.4877685020927949 0 0 0 0 829.49291268397064 419.12546579410446 0 419.12546579410446 -329.54332475022238 0 0 0 0 432.72847097013437 287.71404960359541 0 287.71404960359541 -162.20098314905113 0 0 0 0 474.54765206508455 561.16688803756006 0 561.16688803756006 -194.96083076750074 0 0 0 0 1048.0363855306423 579.29371124062072 0 579.29371124062072 -216.69257846011897 0 0 0 0 24.180335787902592 -23.122692260493245 0 -23.122692260493245 11.986959205744249 0 0 0 0 28.764960598637117 -42.833007919478405 0 -42.833007919478405 -40.508696645861164 0 0 0 0 -125.58564279589882 -981.17079452810913 0 -981.17079452810913 70.898797495136023 0 0 0 0 34.902318767866781 -13.830270056101671 0 -13.830270056101671 -6.9139173280751898 0 0 0 0 75.087493886006996 -4.5769104121609416 0 -4.5769104121609416 -74.690682143088324 0 0 0 0 4.1301767113582173 -239.82418017367672 0 -239.82418017367672 -297.3143019422514 0 0 0 0 50.737465403612077 6.3334556697125635 0 6.3334556697125635 -10.998967526490558 0 0 0 0 48.974967612157343 -10.18878180431966 0 -10.18878180431966 -60.872845212634275 0 0 0 0 73.907253409893571 -13.879108892277202 0 -13.879108892277202 -4.0942888111611158 0 0 0 0 941.35765146583435 143.27349746751861 0 143.27349746751861 -1226.1011396651752 0 0 0 0 39.705006666838017 16.457691477546177 0 16.457691477546177 -518.09621096771843 0 0 0 0 79.712934785892145 5.9619629874788984 0 5.9619629874788984 -6.5284019038002459 0 0 0 0 70.577961780080642 -6.0966391009921592 0 -6.0966391009921592 -8.4597236930414574 0 0 0 0 72.921712312774616 -5.1378148786006932 0 -5.1378148786006932 -69.764512200552417 0 0 0 0 -850.72762231407978 597.54727734088374 0 597.54727734088374 317.90444310002931 0 0 0 0 9.4594637812551241 -1.3443705252251945 0 -1.3443705252251945 -3.8873082523219011 0 0 0 0 167.52240183839604 -4.035070800129688 0 -4.035070800129688 -39.484971652476816 0 0 0 0 248.3021296623192 8.5755925456160185 0 8.5755925456160185 -3.9419256917881285 0 0 0 0 6.5347698369289446 4.3301165624675946 0 4.3301165624675946 -5.0382002637918575 0 0 0 0 69.751366938347928 -69.710175335356325 0 -69.710175335356325 5.3384233346887413 0 0 0 0 158.59198941875366 -93.479456563203712 0 -93.479456563203712 -9.4607031802361234 0 0 0 0 84.79552805799176 -56.197708343578597 0 -56.197708343578597 -11.933448699506698 0 0 0 0 39.366898071573161 -15.106511347679326 0 -15.106511347679326 -10.511323269391118 0 0 0 0 62.779814409354003 10.50141219928355 0 10.50141219928355 -67.048767634907563 0 0 0 0 100.48136496194638 -43.101820795074673 0 -43.101820795074673 -11.428864876150328 0 0 0 0 20.838771421200363 -1.5947514373219747 0 -1.5947514373219747 -19.800038301891618 0 0 0 0 45.448009373896639 -11.05980886764155 0 -11.05980886764155 -2.4712211372025195 0 0 0 0 47.81656654116523 -22.714172056292227 0 -22.714172056292227 -34.419060751413781 0 0 0 0 102.85524985951633 -11.156829771447747 0 -11.156829771447747 -4.4853650738041324 0 0 0 0 51.936610413482413 -28.177548899826434 0 -28.177548899826434 17.5743415036427 0 0 0 0 197.62514171167277 -148.90546714792254 0 -148.90546714792254 -6.5117920110496925 0 0 0 0 141.35316870825773 -38.175198437154904 0 -38.175198437154904 -19.115392778134265 0 0 0 0 20.09152202642548 25.991238112141104 0 25.991238112141104 -11.025201727110719 0 0 0 0 123.95810088717553 -64.393297799985476 0 -64.393297799985476 -11.795922358600365 0 0 0 0 152.78419940567983 -53.235742268319882 0 -53.235742268319882 -19.021435807259195 0 0 0 0 254.4444514952047 -60.594526702818257 0 -60.594526702818257 -18.578873918165471 0 0 0 0 134.14445860646083 59.052439690974097 0 59.052439690974097 -98.470907580626317 0 0 0 0 -5.4406405182671733 13.245377656399796 0 13.245377656399796 20.740595881370609 0 0 0 0 144.30149131957285 9.0869611527708756 0 9.0869611527708756 -28.789275121821575 0 0 0 0 115.40449804000673 53.803309763945435 0 53.803309763945435 -48.856232660999922 0 0 0 0 66.241898934273252 6.1440154039011059 0 6.1440154039011059 -5.9589040202557708 0 0 0 0 242.36332854238572 32.774024548576563 0 32.774024548576563 -70.802843897730554 0 0 0 0 37.647618132044954 5.9505772565571533 0 5.9505772565571533 -38.511843450898596 0 0 0 0 74.940103453932238 5.0083343784696872 0 5.0083343784696872 -7.9830369835669588 0 0 0 0 250.46864183551224 28.722094358165123 0 28.722094358165123 -62.670774936821545 0 0 0 0 247.11093716113828 74.719224170879897 0 74.719224170879897 -38.687353347671888 0 0 0 0 77.878225625594496 -27.618021242735267 0 -27.618021242735267 27.241668145029053 0 0 0 0 26.792274068328908 4.242400356224465 0 4.242400356224465 -4.3321759838995213 0 0 0 0 77.800379652166157 -25.066648114983764 0 -25.066648114983764 -34.58472188613905 0 0 0 0 78.155775244202232 -26.824460838684899 0 -26.824460838684899 -39.833358361383944 0 0 0 0 29.788794082065579 -2.6418520750285097 0 -2.6418520750285097 -17.439423129975694 0 0 0 0 40.228862639865838 -9.8435580333898542 0 -9.8435580333898542 -61.294000330639392 0 0 0 0 54.37624039119396 -16.174748437162044 0 -16.174748437162044 -8.7156203118081734 0 0 0 0 43.134232845230144 7.4861889217536373 0 7.4861889217536373 -44.361172901759346 0 0 0 0 0.091768085970670654 -0.078460674434616351 0 -0.078460674434616351 -5.2834308868623703 0 0 0 0 63.848234268428399 -25.525881862442503 0 -25.525881862442503 -13.540346735352806 0 0 0 0 207.10489007516298 -213.7893270019614 0 -213.7893270019614 -140.44653338518037 0 0 0 0 52.231000538464286 -13.880496280785337 0 -13.880496280785337 -12.092337228879842 0 0 0 0 200.25263516634004 35.320407515854185 0 35.320407515854185 -104.85603044526579 0 0 0 0 99.573895937050111 161.88317810532146 0 161.88317810532146 41.857424146660378 0 0 0 0 175.24915263897856 -20.445925680665368 0 -20.445925680665368 -106.73686185817678 0 0 0 0 97.237508026330033 -1.4339588384204944 0 -1.4339588384204944 -75.163250296094702 0 0 0 0 106.26887942178291 46.151112954891914 0 46.151112954891914 -83.426435379584291 0 0 0 0 214.65072818321278 -1.9408869643536377 0 -1.9408869643536377 -124.60715494963733 0 0 0 0 215.85419934851234 41.06814218414911 0 41.06814218414911 375.61975330992664 0 0 0 0 573.59020734895603 126.85527304932202 0 126.85527304932202 -52.48474550301853 0 0 0 0 550.43247158787563 -200.67927416880866 0 -200.67927416880866 -195.14307774011013 0 0 0 0 -176.16939217082108 -13.212157158707669 0 -13.212157158707669 228.99665681089982 0 0 0 0 652.11508597085776 51.242327090174058 0 51.242327090174058 -183.54083436913788 0 0 0 0 1.3366494143184298 -2.0439602782893473 0 -2.0439602782893473 4.2854739142651948 0 0 0 0 -25.991123940242687 49.862264323374347 0 49.862264323374347 106.9354504243986 0 0 0 0 -56.264380956723471 -60.403412482071928 0 -60.403412482071928 -20.220777645200542 0 0 0 0 533.73443076066906 309.43630650902287 0 309.43630650902287 -360.56372718793727 0 0 0 0 397.96282263445028 214.5842321410264 0 214.5842321410264 52.543446180780847 0 0 0 0 127.12689730337297 108.57762515401964 0 108.57762515401964 14.665883222659886 0 0 0 0 -110.95236074960121 -78.62847330725117 0 -78.62847330725117 192.98895743690173 0 0 0 0 570.56218632393575 -144.66998853465157 0 -144.66998853465157 23.746550831959212 0 0 0 0 126.55871294360259 -32.255158041509731 0 -32.255158041509731 -3.9607004886684081 0 0 0 0 -187.12312960976669 -135.40181678961775 0 -135.40181678961775 84.415642178896178 0 0 0 0 109.73361199801002 -53.427352395342041 0 -53.427352395342041 27.310866817143975 0 0 0 0 125.57676961620746 -8.0829942000768824 0 -8.0829942000768824 19.374647021999863 0 0 0 0 50.002928020837118 -46.931461852470903 0 -46.931461852470903 2.8855391409573752 0 0 0 0 -19.504598965708283 -76.939059860239922 0 -76.939059860239922 -66.179232855323335 0 0 0 0 -32.045876387972385 -29.675500499541158 0 -29.675500499541158 2.0324973341112127 0 0 0 0 8.127289161682711 -46.735025539131357 0 -46.735025539131357 -75.218725613670813 0 0 0 0 -52.725398005102761 -6.0320649567720466 0 -6.0320649567720466 -38.016419884500692 0 0 0 0 26.257271538959259 -38.601122076444142 0 -38.601122076444142 -11.853102789765346 0 0 0 0 32.619502229836442 19.141722428804329 0 19.141722428804329 -19.062945980219801 0 0 0 0 108.32664888967702 -3.7572080988989001 0 -3.7572080988989001 5.706751129910117 0 0 0 0 116.62653610529378 -22.150728329223966 0 -22.150728329223966 -14.353381458945478 0 0 0 0 1.5984995691133008 -1.3676573376039585 0 -1.3676573376039585 -2.5064992267241983 0 0 0 0 126.32164382508563 -14.810521701151742 0 -14.810521701151742 -10.624170542038883 0 0 0 0 95.400078786144149 -28.646883141170861 0 -28.646883141170861 -13.49801248485889 0 0 0 0 46.73091400522901 -24.707460181383382 0 -24.707460181383382 -1.9845801831879548 0 0 0 0 58.987978753706557 -33.017058567369304 0 -33.017058567369304 -8.6450246345566484 0 0 0 0 96.779529769803048 -31.124154084426493 0 -31.124154084426493 -9.0612329633240947 0 0 0 0 3.0013274518172182 -4.621758172350809 0 -4.621758172350809 10.436302542666583 0 0 0 0 -0.59081171128491405 -27.272317929908311 0 -27.272317929908311 0.96581461851354788 0 0 0 0 33.048363776644692 -1.7775464666573271 0 -1.7775464666573271 -1.1846224083083143 0 0 0 0 0.31221618977724575 -16.87812153117963 0 -16.87812153117963 1.3276395742760201 0 0 0 0 15.076390245797143 -8.831884801107293 0 -8.831884801107293 -3.8246397477091869 0 0 0 0 11.678951072259224 -33.469325730325636 0 -33.469325730325636 -8.7906039265153595 0 0 0 0 -14.103447705480562 -4.7853598928476089 0 -4.7853598928476089 7.4639644164985661 0 0 0 0 37.834711748961126 -9.7077741712218995 0 -9.7077741712218995 -17.203178978406868 0 0 0 0 11.683450828749955 -9.5327474135225145 0 -9.5327474135225145 -8.0888917225121162 0 0 0 0 6.7086513152695204 4.370112956329308 0 4.370112956329308 7.4359725876966856 0 0 0 0 35.894069049914833 -20.83797644241713 0 -20.83797644241713 15.928036075684759 0 0 0 0 96.226219002870494 6.3700958499673561 0 6.3700958499673561 -35.3239799042085 0 0 0 0 60.211435689023347 18.752219626418537 0 18.752219626418537 -17.15089698825841 0 0 0 0 49.379799621325219 1.4528776648135135 0 1.4528776648135135 -26.184084507855005 0 0 0 0 12.46980594641991 -10.360979294168672 0 -10.360979294168672 -5.3380428052294029 0 0 0 0 0.2908830805827165 -73.889148846362332 0 -73.889148846362332 87.414761072938745 0 0 0 0 5.4396077529946183 -4.2192725069087693 0 -4.2192725069087693 0.78044088572369663 0 0 0 0 165.22923279622046 -156.39517057814965 0 -156.39517057814965 107.0807780694804 0 0 0 0 -13.520321970776422 -105.00976173973277 0 -105.00976173973277 664.04179857254167 0 0 0 0 452.38107172457967 10.852969576460055 0 10.852969576460055 -104.50758782793037 0 0 0 0 459.98826213736902 -121.54557731193063 0 -121.54557731193063 -35.314139178179175 0 0 0 0 390.39656317365007 33.793468781962019 0 33.793468781962019 -111.01347993400111 0 0 0 0 273.66535535862204 25.025292430987065 0 25.025292430987065 -95.022099308400357 0 0 0 0 250.29894974618219 -73.401790380716648 0 -73.401790380716648 -43.253867080896384 0 0 0 0 25.389167727356373 -24.395431182043779 0 -24.395431182043779 -7.0701364747930526 0 0 0 0 181.13101472761628 -1.1965697827075701 0 -1.1965697827075701 -67.085788562937068 0 0 0 0 208.25969009426626 -140.16640165294291 0 -140.16640165294291 -188.2868347425333 0 0 0 0 -149.58069005348079 -235.04923104316742 0 -235.04923104316742 -26.026409614570412 0 0 0 0 115.07616580386821 -3.5162374774222371 0 -3.5162374774222371 -1.7438254587459596 0 0 0 0 1.6213355053737359 -45.760066897806411 0 -45.760066897806411 -12.761908910454235 0 0 0 0 48.277215142256125 -35.591671232846835 0 -35.591671232846835 -10.775081835293822 0 0 0 0 215.28636806670693 1.7227381235117036 0 1.7227381235117036 -8.6223451385758381 0 0 0 0 184.84510206535924 45.701937770260088 0 45.701937770260088 -70.634219235084174 0 0 0 0 109.04006637588668 -8.7981040319528034 0 -8.7981040319528034 -10.46953107770587 0 0 0 0 112.45938681341067 -16.851242845449974 0 -16.851242845449974 -5.3297581145188815 0 0 0 0 53.360711289383062 -47.292000716636885 0 -47.292000716636885 -8.5878660130374982 0 0 0 0 38.477285546062035 0.51120217009002999 0 0.51120217009002999 -4.9484400539938633 0 0 0 0 -15.101856409237371 -348.35703189667788 0 -348.35703189667788 -416.70286613659573 0 0 0 0 -223.27000057957775 -269.29061421314759 0 -269.29061421314759 -228.41129670134387 0 0 0 0 -150.75145765002526 -378.32262028240143 0 -378.32262028240143 -70.902885402740139 0 0 0 0 -36.553705730650108 -196.63794974134885 0 -196.63794974134885 -121.26081081687289 0 0 0 0 -72.459179835743271 -321.11384383576956 0 -321.11384383576956 555.22310792946371 0 0 0 0 229.32276580971666 -579.55923929467804 0 -579.55923929467804 -98.967404993373975 0 0 0 0 43.35910200024955 -283.3975819471284 0 -283.3975819471284 1036.8152851840186 0 0 0 0 303.35632730889483 -133.33628284267331 0 -133.33628284267331 198.80908191583012 0 0 0 0 66.321210903377505 -280.93167686031529 0 -280.93167686031529 457.16942262970804 0 0 0 0 481.5327693408326 -532.67572471864128 0 -532.67572471864128 -1274.8595519775945 0 0 0 0 35.765074989685672 -165.09526973060588 0 -165.09526973060588 -398.78595220874922 0 0 0 0 51.097221631440334 -443.4520676753782 0 -443.4520676753782 -294.05716968085153 0 0 0 0 44.631105062266215 423.22197945717971 0 423.22197945717971 -24.700005893888374 0 0 0 0 149.3016775834916 -0.20369011776837453 0 -0.20369011776837453 -3.8920384891754463 0 0 0 0 109.44534033196396 -12.967806677176213 0 -12.967806677176213 -10.169402513698344 0 0 0 0 100.86951755653854 -43.665139240429625 0 -43.665139240429625 -65.359294974113709 0 0 0 0 66.298462906447639 9.9505651949382745 0 9.9505651949382745 1.9070873000694617 0 0 0 0 115.17286379795405 -196.41607406326148 0 -196.41607406326148 -146.26886927752287 0 0 0 0 101.86032569248346 -51.041857157164372 0 -51.041857157164372 26.165069936601299 0 0 0 0 188.7336255479895 16.499110973970346 0 16.499110973970346 50.013332016888 0 0 0 0 87.677685241135805 6.1632024824370113 0 6.1632024824370113 77.190450500794213 0 0 0 0 86.902476416522404 -4.1466304945819275 0 -4.1466304945819275 22.500918041162436 0 0 0 0 88.566489823682787 2.144949441978298 0 2.144949441978298 32.47710373233167 0 0 0 0 85.634296877855377 305.79850810128812 0 305.79850810128812 797.72176065926533 0 0 0 0 46.691462249524193 52.44617901759608 0 52.44617901759608 223.267815916004 0 0 0 0 335.50157888059039 140.8722199217317 0 140.8722199217317 66.837787884287764 0 0 0 0 174.04474360270251 54.151441535245084 0 54.151441535245084 20.28386253883491 0 0 0 0 325.58251292500063 203.64872308306212 0 203.64872308306212 13.916852097539049 0 0 0 0 436.48852826381335 240.7253494723775 0 240.7253494723775 -76.409672903764545 0 0 0 0 405.43716124369894 74.633023042710633 0 74.633023042710633 -349.74397702848887 0 0 0 0 326.59296338525019 713.25246041511309 0 713.25246041511309 545.01184054939858 0 0 0 0 1007.6798309376172 1095.7482354044309 0 1095.7482354044309 -384.06477385902258 0 0 0 0 812.43114846565732 -273.53030362613322 0 -273.53030362613322 -1390.0061528166125 0 0 0 0 392.39372626668774 298.51570238268675 0 298.51570238268675 -57.636799296979802 0 0 0 0 194.62176072220973 20.224197482432373 0 20.224197482432373 3.8646457625472976 0 0 0 0 1647.8024297621741 610.23648006810072 0 610.23648006810072 -1616.9402967351334 0 0 0 0 5.573550102219599 -2.090221391955879 0 -2.090221391955879 3.9876482417753678 0 0 0 0 -15.988455822473043 945.22261986505828 0 945.22261986505828 2202.0807543072096 0 0 0 0 38.412671910778343 -19.390806843000632 0 -19.390806843000632 -8.3490913099402846 0 0 0 0 119.43114830346894 -7.0962871988542702 0 -7.0962871988542702 -7.7958705387482041 0 0 0 0 155.52733464365156 -21.167628039016108 0 -21.167628039016108 -11.476433288740736 0 0 0 0 160.78538775372726 -0.51139520929223181 0 -0.51139520929223181 -3.3770429966674556 0 0 0 0 49.423038860714911 24.940545701283838 0 24.940545701283838 -2.1155014350934085 0 0 0 0 398.55463136528851 -365.26609708650722 0 -365.26609708650722 -674.48520646359918 0 0 0 0 167.28575357403099 3.3574389615785343 0 3.3574389615785343 -5.9824520618774262 0 0 0 0 -153.52837674066541 -330.29612710682795 0 -330.29612710682795 544.08542643582268 0 0 0 0 21.245364018702674 2.8863347411609315 0 2.8863347411609315 1.1274172237890954 0 0 0 0 191.48421314280131 -822.88323658299623 0 -822.88323658299623 -75.071512791212399 0 0 0 0 2396.7245715346362 1498.6418448030277 0 1498.6418448030277 791.26526114308206 0 0 0 0 2842.6099270257109 1138.9948814461118 0 1138.9948814461118 -416.98930613182119 0 0 0 0 3218.1509555018565 1119.9897243964065 0 1119.9897243964065 -416.07864738141376 0 0 0 0 1537.4344875851966 2228.7651488366696 0 2228.7651488366696 2545.5974533330918 0 0 0 0 5488.2325255281903 2725.0186955623872 0 2725.0186955623872 302.00140204176898 0 0 0 0 -412.98148128377215 340.09501341291116 0 340.09501341291116 1450.78284951151 0 0 0 0 314.41630943614291 -124.42799705761786 0 -124.42799705761786 -134.38957795194938 0 0 0 0 -177.08880167307507 -72.136726162684909 0 -72.136726162684909 889.83227958352199 0 0 0 0 127.26248351216782 -221.8896682556524 0 -221.8896682556524 1015.6964959096922 0 0 0 0 332.93111568858149 240.48020083856272 0 240.48020083856272 277.69351941838477 0 0 0 0 277.19311237762304 276.74822005452938 0 276.74822005452938 364.12450586697059 0 0 0 0 212.10309281334048 41.648812069431187 0 41.648812069431187 -7.5034263490821331 0 0 0 0 -61.498444835830014 -5.638284534887589 0 -5.638284534887589 917.70421525323411 0 0 0 0 -0.9756434634367821 -0.9428767110568117 0 -0.9428767110568117 4.8365495251693611 0 0 0 0 813.42080681578955 580.90246620579535 0 580.90246620579535 362.88460314809993 0 0 0 0 847.50651492837278 -137.34437624007353 0 -137.34437624007353 -179.75762146386182 0 0 0 0 224.5141255852941 362.07391206545185 0 362.07391206545185 164.81488484859938 0 0 0 0 5.6718856527920849 0.86087941055512829 0 0.86087941055512829 5.8225751973827933 0 0 0 0 96.581639693846228 -69.833006400665568 0 -69.833006400665568 18.042992691215659 0 0 0 0 26.041574963863241 -11.209084067306925 0 -11.209084067306925 -8.8722982113903299 0 0 0 0 39.181980658084001 2.0228293103857737 0 2.0228293103857737 -2.5460488904182652 0 0 0 0 64.977026006934466 4.6789344696163653 0 4.6789344696163653 -2.4192202175973989 0 0 0 0 1241.286213334839 -523.93428181816671 0 -523.93428181816671 -278.16154953950218 0 0 0 0 4.6825661426893816 5.1048640910123169 0 5.1048640910123169 1.5986873358506504 0 0 0 0 1716.7565149351722 99.180386604668684 0 99.180386604668684 -270.34805660010727 0 0 0 0 1696.1622238187992 -163.24288369228429 0 -163.24288369228429 -227.97404018766122 0 0 0 0 3203.8710314355267 -0.40641081605247109 0 -0.40641081605247109 -421.78977867243304 0 0 0 0 2769.3848692536121 278.87796105805864 0 278.87796105805864 -395.2946538116305 0 0 0 0 1565.6467243942789 341.63276148665113 0 341.63276148665113 -261.15870530620418 0 0 0 0 5500.9978769487352 446.12804392492217 0 446.12804392492217 -1223.6121738873373 0 0 0 0 5499.1864666497713 -511.34375640806184 0 -511.34375640806184 -1221.2492824649917 0 0 0 0 3227.4985216774694 -57.040718521456768 0 -57.040718521456768 -1223.7031709137095 0 0 0 0 3032.9609165322618 -1208.8530399756082 0 -1208.8530399756082 -551.75390001656933 0 0 0 0 2646.7769550167213 -186.21381638628705 0 -186.21381638628705 -441.62183819200891 0 0 0 0 1496.4191860126666 -1537.3676312874509 0 -1537.3676312874509 1199.4075908304339 0 0 0 0 3491.0130642026779 -1427.9372030575776 0 -1427.9372030575776 -526.38238082892099 0 0 0 0 5491.2809634404839 -2648.1918269922753 0 -2648.1918269922753 -169.19867174632381 0 0 0 0 25.294403323647089 -7.6273710805525852 0 -7.6273710805525852 5.0268890619177595 0 0 0 0 1138.3242726172903 -21.270179916647908 0 -21.270179916647908 2.3704101400346049 0 0 0 0 1928.5181697988737 -2904.9602080172745 0 -2904.9602080172745 3219.7539982528192 0 0 0 0 62.422349425525056 -12.7194064170979 0 -12.7194064170979 -0.4379261725639515 0 0 0 0 625.00313047341479 -257.94561823068034 0 -257.94561823068034 -191.78109694416253 0 0 0 0 243.59521357750054 -287.7764062031606 0 -287.7764062031606 636.68959980503905 0 0 0 0 1028.9305243444833 343.39972252128746 0 343.39972252128746 179.58788003045453 0 0 0 0 5479.0165973859257 2091.7318443442341 0 2091.7318443442341 182.35275615513183 0 0 0 0 1399.6743480894438 -82.304779810468304 0 -82.304779810468304 -79.575182493025949 0 0 0 0 33.82921647556941 2.1132355528627191 0 2.1132355528627191 -0.0044440334376224643 0 0 0 0 36.97019253243343 2.4064622458031546 0 2.4064622458031546 -8.1293578827293018 0 0 0 0 37.390206968255939 2.4213436552753791 0 2.4213436552753791 -1.9924977645316502 0 0 0 0 38.205058345221914 0.13984760175354935 0 0.13984760175354935 -4.818904273213092 0 0 0 0 40.306340836119489 6.9846614853005207 0 6.9846614853005207 1.4787774943149372 0 0 0 0 66.688359925057739 1.4686646893467317 0 1.4686646893467317 -5.9832731988294601 0 0 0 0 54.124779180012411 -0.17686645129014308 0 -0.17686645129014308 0.0028819552179788466 0 0 0 0 18.863991602808028 -2.0497351556581975 0 -2.0497351556581975 -0.43315718655769209 0 0 0 0 190.84213188558351 174.38587276623556 0 174.38587276623556 198.83753142367431 0 0 0 0 55.610175460635219 7.2702046451215736 0 7.2702046451215736 -3.1525922278670713 0 0 0 0 40.535981852830844 2.0766655688692666 0 2.0766655688692666 -3.3638412839883332 0 0 0 0 54.122700017192983 3.9021224199901425 0 3.9021224199901425 -9.5596324118090745 0 0 0 0 17.541916679846906 14.883815287445003 0 14.883815287445003 -10.087667789275347 0 0 0 0 41.074442907789489 -6.9561870732603737 0 -6.9561870732603737 393.60914698412887 0 0 0 0 47.961164210108109 10.641822316433718 0 10.641822316433718 2.0115982939421144 0 0 0 0 54.196791016405768 11.694080109146348 0 11.694080109146348 3.4078050275949181 0 0 0 0 985.52299174898144 -181.02273311828304 0 -181.02273311828304 -221.28125272670792 0 0 0 0 348.21567311006947 72.178687546792872 0 72.178687546792872 252.74654399459882 0 0 0 0 9.3738950969856489 19.454772979990139 0 19.454772979990139 6.3669800615700556 0 0 0 0 1254.4597212444933 -822.6849721196869 0 -822.6849721196869 121.26762989673284 0 0 0 0 49.983890099858399 9.6499217241435531 0 9.6499217241435531 2.4159913889937457 0 0 0 0 83.064167752978392 10.493378467672642 0 10.493378467672642 -32.652578900234857 0 0 0 0 -141.3946060762828 -54.367765509782885 0 -54.367765509782885 51.221590251462089 0 0 0 0 62.253545267238792 -14.984449427027499 0 -14.984449427027499 3.8876217276050653 0 0 0 0 72.010657125967555 31.288635702729152 0 31.288635702729152 -0.069392676704580936 0 0 0 0 71.133039662832743 50.87525041884895 0 50.87525041884895 -100.93986844659025 0 0 0 0 111.97033612217638 -10.76026147480448 0 -10.76026147480448 -42.435127474117508 0 0 0 0 16.023228425661799 15.43170812189652 0 15.43170812189652 -3.2594373135104284 0 0 0 0 55.853943039153819 12.654485228649946 0 12.654485228649946 -3.5811419851181654 0 0 0 0 77.437045701022726 32.795542232579137 0 32.795542232579137 11.596481210210527 0 0 0 0 7.6507575178785174 17.276032637982951 0 17.276032637982951 2.2548046468224201 0 0 0 0 73.029640224267496 43.884835993289897 0 43.884835993289897 -15.013719245798939 0 0 0 0 41.561056782782543 85.818014718880249 0 85.818014718880249 -8.8697013568607872 0 0 0 0 23.634745989944349 89.668019618135645 0 89.668019618135645 -6.6180176951472731 0 0 0 0 27.102959034324158 64.721887748286093 0 64.721887748286093 24.967825297208435 0 0 0 0 0.42808757273701303 2.9479637594946411 0 2.9479637594946411 1.5071545053460342 0 0 0 0 -18.91151564673055 118.54283071146304 0 118.54283071146304 -88.372297299748723 0 0 0 0 -6.6098033265443519 85.349308373014466 0 85.349308373014466 79.428400627283722 0 0 0 0 -28.159230455406941 132.25197041578571 0 132.25197041578571 29.87285973882382 0 0 0 0 -58.980549015977886 138.17143361758326 0 138.17143361758326 29.183070641528275 0 0 0 0 46.531767951557413 36.986305342363835 0 36.986305342363835 56.413047883283383 0 0 0 0 -5.964121911150869 9.7796281639777227 0 9.7796281639777227 -0.34220672951891223 0 0 0 0 31.545420440670568 5.6383083228542894 0 5.6383083228542894 -4.3078309882769741 0 0 0 0 9.5844534329139179 1.4080388992331905 0 1.4080388992331905 -0.61413562637753494 0 0 0 0 112.10644895446603 166.8958368101153 0 166.8958368101153 -35.099191983551748 0 0 0 0 207.86869303601998 16.280716163492926 0 16.280716163492926 -21.554027751777198 0 0 0 0 31.02474077657098 164.3210324706283 0 164.3210324706283 0.31109549912910345 0 0 0 0 -36.934157740441151 180.30311121962529 0 180.30311121962529 5.9920702212863546 0 0 0 0 -55.528491183998995 101.52639076660464 0 101.52639076660464 -44.557702707666351 0 0 0 0 1.9419755859998986 170.41823377996104 0 170.41823377996104 7.740499116299361 0 0 0 0 42.874129793068278 137.18677333906231 0 137.18677333906231 -2.8037433974521946 0 0 0 0 18.801821862463839 149.47335829844775 0 149.47335829844775 -4.7127501975408563 0 0 0 0 37.560477896011434 106.90820896867388 0 106.90820896867388 -113.20576552954833 0 0 0 0 25.953686554334126 90.901962046756807 0 90.901962046756807 -147.0461071780945 0 0 0 0 -129.48142242481117 213.42391161844887 0 213.42391161844887 -132.12482511433279 0 0 0 0 -47.823771357652731 73.090660559361311 0 73.090660559361311 30.641807434131806 0 0 0 0 49.879294798476622 146.92059068666913 0 146.92059068666913 -131.75722322802477 0 0 0 0 52.8141709276764 -13.012820181629408 0 -13.012820181629408 1.3839010922274892 0 0 0 0 30.211692000491894 179.70016155385287 0 179.70016155385287 -340.15404692418724 0 0 0 0 88.989459526768769 2.5972130017102586 0 2.5972130017102586 -401.5318119501776 0 0 0 0 1914.3003901160264 -718.41267166863065 0 -718.41267166863065 -44.063560267033068 0 0 0 0 42.615189737378387 -36.294658316544485 0 -36.294658316544485 -163.31249580709903 0 0 0 0 50.038730703003239 129.17972799020458 0 129.17972799020458 -154.30163451896806 0 0 0 0 50.944082910573343 -1.5237744535571665 0 -1.5237744535571665 -36.334390709831325 0 0 0 0 -279.59297301646438 372.57707563192662 0 372.57707563192662 417.39305455053818 0 0 0 0 458.80203324006288 940.71273930188158 0 940.71273930188158 568.25586041256543 0 0 0 0 1431.8982366656928 428.88706318379582 0 428.88706318379582 -41.432216232424253 0 0 0 0 738.57645177721861 59.61185217002253 0 59.61185217002253 25.749654815190297 0 0 0 0 471.23346952878637 311.04963999290612 0 311.04963999290612 -46.482879561791037 0 0 0 0 374.27965162986948 140.93773766134149 0 140.93773766134149 88.081719803277792 0 0 0 0 347.52424800686822 303.73378421306882 0 303.73378421306882 167.30596785511807 0 0 0 0 122.69931115057989 35.121452663366654 0 35.121452663366654 99.25231573345809 0 0 0 0 256.25891113410762 365.57542651042161 0 365.57542651042161 132.07116294372986 0 0 0 0 544.23845778003306 468.33438928420406 0 468.33438928420406 166.80995768992216 0 0 0 0 121.14636563515523 127.02402686232199 0 127.02402686232199 170.60739443751936 0 0 0 0 13.33742729998346 2.0589868012839077 0 2.0589868012839077 12.453469235039954 0 0 0 0 33.076628056063782 41.475083938121756 0 41.475083938121756 -37.090592129148831 0 0 0 0 -88.921439408033621 29.42229620641217 0 29.42229620641217 183.60523828741111 0 0 0 0 140.38252783067583 19.908510680647709 0 19.908510680647709 -56.34074686032946 0 0 0 0 682.71356402923993 423.9730128542335 0 423.9730128542335 167.25934980417605 0 0 0 0 -0.71232982523508781 0.37913759521774182 0 0.37913759521774182 4.9472103755509149 0 0 0 0 193.43291862170008 204.00862388159501 0 204.00862388159501 70.088949683047304 0 0 0 0 466.03544322758898 63.191105525700515 0 63.191105525700515 111.98677104110766 0 0 0 0 205.1192139160994 375.32616394003912 0 375.32616394003912 536.69664046377261 0 0 0 0 428.75533851279761 536.32538195609868 0 536.32538195609868 386.35678805838393 0 0 0 0 487.5890602664731 -162.29107287711759 0 -162.29107287711759 991.97495125488604 0 0 0 0 452.10890267506329 230.66297308603518 0 230.66297308603518 1.4571376333797161 0 0 0 0 -243.78051683967351 90.182051781179325 0 90.182051781179325 116.94067520314479 0 0 0 0 476.62608717061812 405.32684515214441 0 405.32684515214441 -168.87035900923388 0 0 0 0 10.396600621013306 0.073851354001781999 0 0.073851354001781999 0.15992452621318032 0 0 0 0 151.00457415952405 -2.6504305155492602 0 -2.6504305155492602 -428.1249363055822 0 0 0 0 102.70387374563143 123.24793627165195 0 123.24793627165195 -6.7590046200981533 0 0 0 0 4.1938477763324045 33.209027487167987 0 33.209027487167987 -44.096630744867866 0 0 0 0 53.86214685352752 -75.158419384171566 0 -75.158419384171566 -229.58060614216947 0 0 0 0 126.64127945663495 -15.346225900575888 0 -15.346225900575888 -83.860772060278578 0 0 0 0 230.86422665734426 214.38329327605493 0 214.38329327605493 185.13680660820819 0 0 0 0 81.460476562097938 67.788619627302978 0 67.788619627302978 57.679428349227692 0 0 0 0 65.877001397733693 268.34294308237395 0 268.34294308237395 472.87903814277502 0 0 0 0 119.02487106370972 -101.2618317743827 0 -101.2618317743827 -2.5105217843672563 0 0 0 0 93.294983905827394 -111.43867106811331 0 -111.43867106811331 33.749860033183268 0 0 0 0 148.7531566141115 -79.856029621600101 0 -79.856029621600101 43.081672662051915 0 0 0 0 136.74891953733459 -52.646611877538589 0 -52.646611877538589 -0.49057551396072085 0 0 0 0 203.06468690594193 9.8087351748954461 0 9.8087351748954461 6.5881580720107635 0 0 0 0 73.269673387083458 3.7587559053527002 0 3.7587559053527002 6.6519140408608948 0 0 0 0 97.272074144973885 -89.511159290898377 0 -89.511159290898377 -19.046752814066849 0 0 0 0 74.011018407472875 -44.7938347044892 0 -44.7938347044892 -70.504274936911315 0 0 0 0 59.355265429097926 9.6527324117928401 0 9.6527324117928401 -90.522017673642608 0 0 0 0 76.013911917805672 -9.2151979433334645 0 -9.2151979433334645 -255.6450833167155 0 0 0 0 -48.93376403072034 -34.803792235926721 0 -34.803792235926721 -64.617417150973324 0 0 0 0 36.61646974919131 -126.52101259366327 0 -126.52101259366327 -100.94517323869832 0 0 0 0 62.580730155517813 -130.8492160151236 0 -130.8492160151236 -16.376522059535318 0 0 0 0 89.833548065304058 -94.334805285005132 0 -94.334805285005132 -83.256764336624656 0 0 0 0 202.54617451535887 -156.74710192917905 0 -156.74710192917905 -39.959685885822182 0 0 0 0 19.38835394999478 -103.00922597717181 0 -103.00922597717181 6.4933968309228476 0 0 0 0 211.4874762959771 -116.73561761911486 0 -116.73561761911486 -28.233763096558505 0 0 0 0 84.424477237527753 -133.69193629726379 0 -133.69193629726379 -5.0358215648093392 0 0 0 0 317.59882138564717 -79.084319447320013 0 -79.084319447320013 -38.726898402447659 0 0 0 0 204.27281520971155 14.245186173719503 0 14.245186173719503 13.625152556969169 0 0 0 0 461.67281814053422 -158.30702870244659 0 -158.30702870244659 -56.309359089421378 0 0 0 0 431.20721154566854 118.58890972901918 0 118.58890972901918 60.117326936427617 0 0 0 0 162.26118321323884 -90.441339551908186 0 -90.441339551908186 -31.651843011697679 0 0 0 0 166.22981697520299 -69.576447038948345 0 -69.576447038948345 9.1112783079352084 0 0 0 0 177.3133248964441 -118.39802069368625 0 -118.39802069368625 17.963160845210041 0 0 0 0 132.13152644497677 -159.50369399358422 0 -159.50369399358422 -12.06507641292319 0 0 0 0 119.27343844107236 -106.05127086425478 0 -106.05127086425478 20.305219545896136 0 0 0 0 144.4655484568284 -75.779544858151894 0 -75.779544858151894 27.327723654460897 0 0 0 0 14.411215509043899 18.44137709133048 0 18.44137709133048 2.6655191458761376 0 0 0 0 28.206994720239891 25.107924464422013 0 25.107924464422013 4.7252499312253349 0 0 0 0 66.331215989666816 -34.295021813551443 0 -34.295021813551443 35.037195040125425 0 0 0 0 95.59478682691406 -74.873051566091817 0 -74.873051566091817 81.781930573503132 0 0 0 0 76.438549408281688 -58.196724846129655 0 -58.196724846129655 130.20398930132836 0 0 0 0 166.37093661853578 -191.71192129917358 0 -191.71192129917358 244.58425182233259 0 0 0 0 159.19948983503855 -143.53745714430465 0 -143.53745714430465 138.96538809924132 0 0 0 0 122.8887982035958 -134.24255089797907 0 -134.24255089797907 74.060891023385921 0 0 0 0 97.4212331619201 -75.898960351543678 0 -75.898960351543678 75.293802784101445 0 0 0 0 187.73049751212238 -102.484699809821 0 -102.484699809821 34.241008338021459 0 0 0 0 344.89239357688348 -77.396166642384514 0 -77.396166642384514 57.565156062806409 0 0 0 0 130.14040389293223 -60.82099272266953 0 -60.82099272266953 69.849845206236751 0 0 0 0 265.81676308769966 61.543441726102856 0 61.543441726102856 34.722507617748306 0 0 0 0 179.28219747197727 -89.929111975101591 0 -89.929111975101591 108.07128274030492 0 0 0 0 368.53497646050528 -138.18614122628628 0 -138.18614122628628 106.40247880922493 0 0 0 0 365.45120209283778 -124.56753653756141 0 -124.56753653756141 50.124338109337714 0 0 0 0 1145.0325920970281 -253.48668736685488 0 -253.48668736685488 27.661565638106822 0 0 0 0 297.93170048120373 -338.08252393796033 0 -338.08252393796033 277.39471830684238 0 0 0 0 19.482018720443307 -1.4169539302437641 0 -1.4169539302437641 0.44673078160406909 0 0 0 0 71.750399983458919 -49.94001612742727 0 -49.94001612742727 154.7942671141659 0 0 0 0 -2.1805460273753852 -9.6202209753337229 0 -9.6202209753337229 222.03718271736747 0 0 0 0 49.326292259036563 74.100863115045968 0 74.100863115045968 3.9284176179053247 0 0 0 0 80.306962212693179 6.8164559424878917 0 6.8164559424878917 -93.833523987835179 0 0 0 0 48.641910329401583 -8.5342063352376982 0 -8.5342063352376982 -1.1826242367553865 0 0 0 0 1969.993977218488 -118.53813775776862 0 -118.53813775776862 -851.54085968610184 0 0 0 0 23.782712924630118 -3.3353665101281109 0 -3.3353665101281109 -0.29292669382120229 0 0 0 0 163.67819285957376 1154.0726936742305 0 1154.0726936742305 1106.8630312639521 0 0 0 0 -230.2870279069175 1353.5712694905685 0 1353.5712694905685 1295.6510242860722 0 0 0 0 595.84804707375588 -538.30569822657412 0 -538.30569822657412 -511.19694964655378 0 0 0 0 -188.77667281414688 -165.26389158286241 0 -165.26389158286241 -109.69279458676283 0 0 0 0 706.48214118657052 86.797618762475707 0 86.797618762475707 -46.235670794233002 0 0 0 0 1077.1931262350408 -820.3581027444061 0 -820.3581027444061 -1185.8762431276914 0 0 0 0 1215.8803154217021 -459.77001825400333 0 -459.77001825400333 -502.43867414089812 0 0 0 0 -224.23170557923731 27.432443092383995 0 27.432443092383995 179.31202728094777 0 0 0 0 555.568003797438 309.17803157110387 0 309.17803157110387 258.7530848993444 0 0 0 0 476.22818154786364 107.63326331360908 0 107.63326331360908 0.21519299806379091 0 0 0 0 5.268075803739066 0.15969291183611301 0 0.15969291183611301 0.36662537573151904 0 0 0 0 -310.17302212968934 -154.2987060505275 0 -154.2987060505275 62.234640083637657 0 0 0 0 2.9210547633054489 0.19919002360646232 0 0.19919002360646232 -1.0815437887818309 0 0 0 0 1060.9601916024403 333.28699907382077 0 333.28699907382077 -79.241547310322161 0 0 0 0 1081.4898316633189 61.467928656327729 0 61.467928656327729 -0.28794831202905874 0 0 0 0 137.49421160367638 -22.316747660855995 0 -22.316747660855995 186.76534608457999 0 0 0 0 4.8218944956170162 3.394501526444289 0 3.394501526444289 0.014584936799503026 0 0 0 0 36.814688854108681 5.6208050963145482 0 5.6208050963145482 -20.453520390910228 0 0 0 0 13.983554430225581 0.18416770078304712 0 0.18416770078304712 0.050289735852299622 0 0 0 0 -6.0612382397521287 29.052660418745148 0 29.052660418745148 10.469137771778371 0 0 0 0 -610.43421120812854 976.90865676044029 0 976.90865676044029 1301.1658478822189 0 0 0 0 23.677438637852902 -2.4500232205682835 0 -2.4500232205682835 -3.5519883261594254 0 0 0 0 5.2625750625594208 -5.4568097418047614 0 -5.4568097418047614 2.8697592674865442 0 0 0 0 13.170576793694636 3.3152858681639543 0 3.3152858681639543 2.2771514380028179 0 0 0 0 13.092599893857027 0.30776980247526353 0 0.30776980247526353 -0.36462866717417808 0 0 0 0 13.713284873694647 7.2589245132573978 0 7.2589245132573978 3.5573652022785041 0 0 0 0 20.692925609908826 12.558653332010806 0 12.558653332010806 -3.6117248083811413 0 0 0 0 53.76506721601254 14.520111939687467 0 14.520111939687467 22.261905069360182 0 0 0 0 45.211202252903604 11.839176026561745 0 11.839176026561745 21.516065362494828 0 0 0 0 14.490819739177823 10.138449773599632 0 10.138449773599632 6.2748141397296422 0 0 0 0 12.551647897947987 11.637934930861945 0 11.637934930861945 11.262055355879056 0 0 0 0 33.167334420722909 21.972012029591951 0 21.972012029591951 0.87806489392596632 0 0 0 0 32.689510135081946 22.005582347985865 0 22.005582347985865 4.1354223957732756 0 0 0 0 50.916383114701603 31.024553673368246 0 31.024553673368246 -2.4436431913020442 0 0 0 0 48.843220021459274 28.580190516442144 0 28.580190516442144 -1.2935102296059995 0 0 0 0 41.328524741838919 31.010322961593829 0 31.010322961593829 6.0944518156046712 0 0 0 0 31.70221266549197 24.708312512416683 0 24.708312512416683 5.9726223511651888 0 0 0 0 61.929247896419838 38.045119948529873 0 38.045119948529873 -0.19225376762051383 0 0 0 0 19.299767230695579 29.973483482170138 0 29.973483482170138 26.423316670839512 0 0 0 0 41.45874417538289 41.719706168267294 0 41.719706168267294 28.433960172501884 0 0 0 0 49.755316376569681 69.583532985451399 0 69.583532985451399 73.561826460878365 0 0 0 0 11.819773148745298 8.8040567663112768 0 8.8040567663112768 8.4283630120450681 0 0 0 0 23.466836857274757 26.17263740354317 0 26.17263740354317 26.480313058376055 0 0 0 0 21.103409905263106 24.382606651888281 0 24.382606651888281 25.124847696707548 0 0 0 0 7.0479999894580487 -0.43868282361134447 0 -0.43868282361134447 -0.79142344399293285 0 0 0 0 9.4349132130737416 1.0740825161040135 0 1.0740825161040135 -1.8896772841335263 0 0 0 0 12.104659099633864 0.7583078377777035 0 0.7583078377777035 -3.3159263397569063 0 0 0 0 7.9125684332684614 -9.4673595678999618 0 -9.4673595678999618 14.752744715753494 0 0 0 0 30.425283365650102 4.889329756662903 0 4.889329756662903 -7.2421286211051097 0 0 0 0 25.489366328751203 -23.63956476774149 0 -23.63956476774149 22.857779702152442 0 0 0 0 3.0407525468326639 20.645487289541318 0 20.645487289541318 81.966426922897881 0 0 0 0 -2.1910138294333592 -2.9579805478103935 0 -2.9579805478103935 -3.3360970334513809 0 0 0 0 -0.062525101874143729 -0.061117364508220362 0 -0.061117364508220362 0.085546528521038168 0 0 0 0 2.1412936535723475 -4.5677822265217571 0 -4.5677822265217571 -1.4592549537027559 0 0 0 0 -13.910504952189513 22.260833903804496 0 22.260833903804496 -50.115510597287297 0 0 0 0 -18.055439989155275 16.34025621159633 0 16.34025621159633 -0.15269594462483688 0 0 0 0 28.87919952563243 -12.856804878471326 0 -12.856804878471326 -12.465084749024399 0 0 0 0 12.044063870613172 0.42075935016103116 0 0.42075935016103116 0.063103343313967775 0 0 0 0 1.9627232394231555 -0.98649211241686885 0 -0.98649211241686885 -0.017014211239489777 0 0 0 0 81.922259485931136 -104.44868415349531 0 -104.44868415349531 -33.432034793211102 0 0 0 0 1.208232167265237 -0.0079571096664565744 0 -0.0079571096664565744 -0.04842664840609856 0 0 0 0 79.884238060418284 -114.94071029619754 0 -114.94071029619754 -52.001977591310357 0 0 0 0 85.883703467028681 -102.23989034233536 0 -102.23989034233536 -36.135873155510893 0 0 0 0 1.4045441345078871 70.215568403260207 0 70.215568403260207 0.24109033690001649 0 0 0 0 35.689994865591871 62.420351455478468 0 62.420351455478468 -97.691658224889494 0 0 0 0 12.758494885230562 1.1096373005493509 0 1.1096373005493509 -0.44575557421786099 0 0 0 0 43.693847369693685 95.860341728887789 0 95.860341728887789 -43.580420572667663 0 0 0 0 20.638210572331445 49.432965783963795 0 49.432965783963795 84.621125784555716 0 0 0 0 99.233902664360357 2.3216656456390865 0 2.3216656456390865 -11.544079297081623 0 0 0 0 -0.27614490202643083 0.20379301144100737 0 0.20379301144100737 1.3194227868383974 0 0 0 0 4.6780272791171456 0.90756761904180916 0 0.90756761904180916 0.18168137431333381 0 0 0 0 18.929535822942853 48.968014054409196 0 48.968014054409196 99.036366423622439 0 0 0 0 -7.4643699162988923 98.623688439644269 0 98.623688439644269 168.15083643216525 0 0 0 0 54.992500371707138 21.32923676230098 0 21.32923676230098 -16.070088946586679 0 0 0 0 58.292192391018034 83.534031276292353 0 83.534031276292353 43.027275034707145 0 0 0 0 42.678758701658808 17.29228818722936 0 17.29228818722936 83.398815619901498 0 0 0 0 98.012557591617224 39.074484266229376 0 39.074484266229376 8.7086952839008518 0 0 0 0 56.128967360855313 27.208042100541206 0 27.208042100541206 6.1001469486682254 0 0 0 0 53.764339361077873 33.335395426063428 0 33.335395426063428 -2.644247195281423 0 0 0 0 47.05557015753584 11.497162614661192 0 11.497162614661192 -17.447206750706641 0 0 0 0 55.104740432580002 29.801827197577268 0 29.801827197577268 -5.46814194637318 0 0 0 0 51.571916138695087 21.781112193707941 0 21.781112193707941 -10.239230003513967 0 0 0 0 -2.3749169495863498 3.7080033030061088 0 3.7080033030061088 -6.113107154996273 0 0 0 0 -0.1779738136974629 -6.1466738572580653 0 -6.1466738572580653 3.244497107688062 0 0 0 0 59.144376052907319 26.678129693677874 0 26.678129693677874 -20.79450892802106 0 0 0 0 -0.14979283583130609 8.000414638934501 0 8.000414638934501 -9.4973628796395619 0 0 0 0 70.611976381391287 -0.81441431432680389 0 -0.81441431432680389 -56.0113178530844 0 0 0 0 -9.0250681746983901 158.49270116736218 0 158.49270116736218 315.21181892393849 0 0 0 0 24.441633760218224 -2.4377739829774612 0 -2.4377739829774612 -3.3094859582377447 0 0 0 0 -42.090246479521738 110.92203265781438 0 110.92203265781438 180.13932384778241 0 0 0 0 67.979471030907007 35.559846655604133 0 35.559846655604133 221.08361850211327 0 0 0 0 88.374028978811111 77.83076652136134 0 77.83076652136134 -151.25793261655292 0 0 0 0 221.09883087142953 113.96256778742372 0 113.96256778742372 100.03684465480251 0 0 0 0 207.31785031354775 258.72157549952135 0 258.72157549952135 7.4936114033523609 0 0 0 0 57.47708230218268 34.819024854289182 0 34.819024854289182 3.0836200814544554 0 0 0 0 16.557079955811787 -3.4129428875009467 0 -3.4129428875009467 -13.945608570967712 0 0 0 0 20.183446167851798 268.32776843643921 0 268.32776843643921 -18.553732253998533 0 0 0 0 42.560887887317222 27.465404165550353 0 27.465404165550353 2.2898855429821197 0 0 0 0 33.773535726417322 10.589329538575839 0 10.589329538575839 -6.0740358466118778 0 0 0 0 34.141721892519854 22.554096000557365 0 22.554096000557365 0.0017524994036648422 0 0 0 0 34.141721893684007 22.554096001679682 0 22.554096001679682 0.001752499276335584 0 0 0 0 42.884186163253617 23.29895922727485 0 23.29895922727485 -3.5332752702852304 0 0 0 0 51.367521753185429 26.871364738713055 0 26.871364738713055 -6.1504126240306505 0 0 0 0 46.564636724942829 27.247151153443156 0 27.247151153443156 -3.8570930628338829 0 0 0 0 51.026504055073019 29.958391175623547 0 29.958391175623547 -2.3248901224123983 0 0 0 0 34.141721894207876 22.554096001026664 0 22.554096001026664 0.0017524993600090966 0 0 0 0 46.73664793901844 24.715739743551239 0 24.715739743551239 -4.4503796887256613 0 0 0 0 53.257763415633235 27.937056424282673 0 27.937056424282673 -5.7592633050089717 0 0 0 0 51.780250957148382 24.846757932141827 0 24.846757932141827 -2.3936680524348048 0 0 0 0 46.920059619849781 26.996924848129311 0 26.996924848129311 -1.1606656215070643 0 0 0 0 30.775134043360595 20.397367409823801 0 20.397367409823801 5.3762024418242618 0 0 0 0 45.483008351526223 20.921869557083539 0 20.921869557083539 2.5283626375448875 0 0 0 0 48.945051797461929 14.777859553942108 0 14.777859553942108 4.2912525475844632 0 0 0 0 61.014641307905549 26.3079200111506 0 26.3079200111506 -2.6696179214103495 0 0 0 0 210.74830280741298 21.451789852778234 0 21.451789852778234 -83.060977005083714 0 0 0 0 207.28604991198517 41.355255382192126 0 41.355255382192126 -2.950758411067909 0 0 0 0 23.108541429928948 -3.0282461814096848 0 -3.0282461814096848 -11.928638837456313 0 0 0 0 176.50737278809538 -20.662729372032572 0 -20.662729372032572 -24.518931976604108 0 0 0 0 59.08704202248191 24.552581163256491 0 24.552581163256491 8.5305484563423306 0 0 0 0 20.210692856597575 20.985163258117467 0 20.985163258117467 8.7733139460881766 0 0 0 0 119.02946390640864 10.02636938973319 0 10.02636938973319 12.175910191077946 0 0 0 0 199.02069296862464 5.804868325305506 0 5.804868325305506 9.6174686577495549 0 0 0 0 57.615325096157903 -11.496224844123503 0 -11.496224844123503 -86.254056126502292 0 0 0 0 20.548287507808936 12.032775787893456 0 12.032775787893456 -1.5820200308486587 0 0 0 0 15.745806673196967 -3.0512567040167085 0 -3.0512567040167085 6.2507465114134932 0 0 0 0 121.49796218669508 27.203141914304069 0 27.203141914304069 -0.096998404284022399 0 0 0 0 158.96852923886036 -25.232506593065636 0 -25.232506593065636 36.849315408149778 0 0 0 0 221.62327686313074 -20.947892433657216 0 -20.947892433657216 -27.989788750019216 0 0 0 0 1.8608687560187036 -23.699283575131698 0 -23.699283575131698 -1.8600587039222696 0 0 0 0 250.73809827840887 119.39663310442847 0 119.39663310442847 11.132656389974443 0 0 0 0 131.62854678023723 28.87464035066364 0 28.87464035066364 5.8356853417662933 0 0 0 0 253.93027201117366 -287.2352449922152 0 -287.2352449922152 -696.72643238844296 0 0 0 0 138.59396078969519 7.6517950210430161 0 7.6517950210430161 -4.8703810252389612 0 0 0 0 73.274680423404789 109.66593981831465 0 109.66593981831465 -82.030636013966472 0 0 0 0 91.228778299468104 152.291559905501 0 152.291559905501 -133.6601305795507 0 0 0 0 50.113894524431089 121.37394477208534 0 121.37394477208534 -87.87852541034863 0 0 0 0 185.92814673963585 118.40939093974885 0 118.40939093974885 -303.01015704065912 0 0 0 0 20.518890197264426 4.9851116293957318 0 4.9851116293957318 -4.5954934507965746 0 0 0 0 116.89246955249109 -52.065536310718699 0 -52.065536310718699 -88.128878174390593 0 0 0 0 179.35265189578058 68.189006763355792 0 68.189006763355792 87.406737758196869 0 0 0 0 -376.78505803151347 -330.06417766599679 0 -330.06417766599679 217.01310022990174 0 0 0 0 -532.11386280744046 -33.36335040222184 0 -33.36335040222184 128.91974428783624 0 0 0 0 -230.22176603847765 -133.80791677166778 0 -133.80791677166778 -38.074530365571263 0 0 0 0 320.83535265541286 -250.29280907995633 0 -250.29280907995633 -37.172391618636993 0 0 0 0 62.362171012588078 -424.64972339492715 0 -424.64972339492715 85.202476636285155 0 0 0 0 20.476854144275421 -283.23045703262227 0 -283.23045703262227 29.567632083989039 0 0 0 0 357.3450456399338 -653.53188019554136 0 -653.53188019554136 -260.4711835937631 0 0 0 0 -121.6379174546455 -247.8486507046099 0 -247.8486507046099 -188.36710395998864 0 0 0 0 222.90383986952656 -16.377277937180679 0 -16.377277937180679 4.4577293486651115 0 0 0 0 -53.434172948502237 -170.20887464888671 0 -170.20887464888671 -199.18879589714965 0 0 0 0 -51.259203072253513 -141.32298873971547 0 -141.32298873971547 -112.03158148270359 0 0 0 0 -0.36237970619549742 -388.19617163449448 0 -388.19617163449448 -40.499264109736032 0 0 0 0 -241.36178116174415 -280.68987789305038 0 -280.68987789305038 56.587864582641942 0 0 0 0 -93.302829615939118 -178.19125570603507 0 -178.19125570603507 -24.243882545732504 0 0 0 0 87.522182640970414 -51.968563754820508 0 -51.968563754820508 -15.991089990957787 0 0 0 0 204.3259437509987 10.974490150467773 0 10.974490150467773 -8.659581290432925 0 0 0 0 56.349812753943468 13.202180740408522 0 13.202180740408522 4.869843761886063 0 0 0 0 -36.082430748298066 85.532056634715673 0 85.532056634715673 54.84614328234602 0 0 0 0 167.87498486420373 120.75471531314543 0 120.75471531314543 -94.120175757466313 0 0 0 0 -16.859418440726586 51.636803595607944 0 51.636803595607944 70.738433199294377 0 0 0 0 91.031383445835672 22.401844115391668 0 22.401844115391668 25.360549756775526 0 0 0 0 0.47344997638720088 61.252679591523702 0 61.252679591523702 582.90626894266734 0 0 0 0 234.11061939629872 -364.35389022600862 0 -364.35389022600862 388.57658489801452 0 0 0 0 -117.81880217287107 -44.365085011178508 0 -44.365085011178508 311.01535110480881 0 0 0 0 116.03380136223132 -30.417667403650626 0 -30.417667403650626 28.53259641211298 0 0 0 0 796.77998767528334 -210.49700197463312 0 -210.49700197463312 -70.704359491059677 0 0 0 0 36.808749235548873 7.3709764138726257 0 7.3709764138726257 -0.54138943303330933 0 0 0 0 189.36165491362772 -29.083568821369568 0 -29.083568821369568 22.959007079899493 0 0 0 0 -150.094066429534 -159.35591468669691 0 -159.35591468669691 22.956842000906448 0 0 0 0 68.539219757385723 -55.925205541136222 0 -55.925205541136222 7.1463773101121051 0 0 0 0 143.28574044276684 -31.168113279766544 0 -31.168113279766544 32.596275126024011 0 0 0 0 138.49507790078496 -22.152631764798571 0 -22.152631764798571 26.653946898454706 0 0 0 0 99.615150971454568 -270.02352556781216 0 -270.02352556781216 -122.83841424073887 0 0 0 0 147.35085867201633 -44.63406526863082 0 -44.63406526863082 -60.585455308630117 0 0 0 0 69.966645137650744 -55.663562293282268 0 -55.663562293282268 10.464248408952296 0 0 0 0 147.18358690883906 -23.867645929775904 0 -23.867645929775904 1.7416087220817644 0 0 0 0 122.75635185244028 17.441567794827279 0 17.441567794827279 6.7503882264245476 0 0 0 0 106.5136815031874 21.699792408654503 0 21.699792408654503 29.706127247009135 0 0 0 0 106.51368150266353 21.699792408338908 0 21.699792408338908 29.706127247147379 0 0 0 0 111.01134902510967 -2.6334913201689005 0 -2.6334913201689005 98.614984747129711 0 0 0 0 23.935756647144217 2.4187689183598025 0 2.4187689183598025 -0.7771478084754726 0 0 0 0 273.75928601942724 31.249684959091383 0 31.249684959091383 -19.799627480005256 0 0 0 0 102.13339734834153 16.752134701159321 0 16.752134701159321 64.311928114053444 0 0 0 0 105.65749077028886 16.826736131673556 0 16.826736131673556 48.023989718298253 0 0 0 0 106.51368150337657 21.699792408351641 0 21.699792408351641 29.706127247110999 0 0 0 0 108.47967040893855 3.9413995346903903 0 3.9413995346903903 54.599405345556988 0 0 0 0 109.34631122820429 -14.808561669444316 0 -14.808561669444316 81.133014056210413 0 0 0 0 100.92942971136654 -14.717280007873796 0 -14.717280007873796 88.182871880062066 0 0 0 0 109.67046349381576 -37.207298961304886 0 -37.207298961304886 162.02434109491242 0 0 0 0 119.58901579526719 3.1821535834942551 0 3.1821535834942551 21.311847779328673 0 0 0 0 132.26132802358188 -17.411960786754662 0 -17.411960786754662 51.214587883448985 0 0 0 0 100.11156553612091 -22.234908701497716 0 -22.234908701497716 50.506116276780517 0 0 0 0 164.07884597766679 -49.406496105889801 0 -49.406496105889801 36.741399940555311 0 0 0 0 113.41228919802234 -43.926858436817383 0 -43.926858436817383 50.414763061286067 0 0 0 0 -1272.6895736749284 666.50041799720611 0 666.50041799720611 629.20083446785065 0 0 0 0 8.8502544692817935 21.631171454025576 0 21.631171454025576 8.1966361035822892 0 0 0 0 670.29621383619087 -890.13303818808527 0 -890.13303818808527 503.62287460237167 0 0 0 0 67.848292148119071 -7.9935728697491868 0 -7.9935728697491868 -136.90188982669179 0 0 0 0 1315.5008419185851 770.22294101505634 0 770.22294101505634 -389.33016135745675 0 0 0 0 -767.72896735384711 -180.64683027032879 0 -180.64683027032879 1220.2184041665905 0 0 0 0 141.88979871445918 -67.709321024110977 0 -67.709321024110977 31.079814053289738 0 0 0 0 45.011016292690215 14.486623357944154 0 14.486623357944154 5.8201503055291557 0 0 0 0 -387.6261293880525 598.85050458782416 0 598.85050458782416 -288.85024092864091 0 0 0 0 163.51750315478421 -28.337791732836649 0 -28.337791732836649 7.3586705565994635 0 0 0 0 -16.552274776797276 20.178122627435187 0 20.178122627435187 116.82999174628094 0 0 0 0 136.76500171120011 -23.344620748538219 0 -23.344620748538219 -0.49242243808160174 0 0 0 0 138.320490509097 -58.455965624368673 0 -58.455965624368673 -24.831867598375084 0 0 0 0 5.2071697656501783 -82.233388285429101 0 -82.233388285429101 195.14837344394073 0 0 0 0 165.97404733086526 17.59145499437351 0 17.59145499437351 -2.1425900722891793 0 0 0 0 222.37000260097557 -102.64679528419401 0 -102.64679528419401 64.974937448905649 0 0 0 0 256.79262427455251 -121.57758501490639 0 -121.57758501490639 -32.735163382088103 0 0 0 0 45.382567378105904 -17.233902346934002 0 -17.233902346934002 5.2497262920180887 0 0 0 0 6.4112536517059198 38.638961773991014 0 38.638961773991014 -91.024321861405951 0 0 0 0 233.13795369807485 -82.531711423713205 0 -82.531711423713205 -413.79827952294636 0 0 0 0 138.55639398421044 -56.29497226897729 0 -56.29497226897729 -129.41953046849693 0 0 0 0 80.422292600731453 -209.71614672386204 0 -209.71614672386204 -284.75586263202058 0 0 0 0 178.45979129087209 -59.94519716330251 0 -59.94519716330251 -139.78850753721775 0 0 0 0 -29.455870175301243 -140.84741791443275 0 -140.84741791443275 -144.27349678567225 0 0 0 0 536.8673224189406 172.8196691493481 0 172.8196691493481 -151.64908345512026 0 0 0 0 30.492100047689746 -20.15927338588881 0 -20.15927338588881 17.918641297181239 0 0 0 0 52.136098422117357 -17.882168343582634 0 -17.882168343582634 9.2636247944774368 0 0 0 0 41.623271833070916 -21.50655645613115 0 -21.50655645613115 10.915031484535362 0 0 0 0 -21.51762768401386 -153.53470994415511 0 -153.53470994415511 -184.40823123072005 0 0 0 0 114.53951650953968 -249.05502680624932 0 -249.05502680624932 -118.06960648070071 0 0 0 0 -59.876792481962184 -228.01316135715388 0 -228.01316135715388 -119.16692653410593 0 0 0 0 91.763767735683359 -45.188622266676248 0 -45.188622266676248 -129.5249485218983 0 0 0 0 70.319683056488344 -27.420216293206636 0 -27.420216293206636 7.768566022859388 0 0 0 0 19.507811529739456 0.5816920650340478 0 0.5816920650340478 -9.921693999070337 0 0 0 0 38.323520316756913 -77.920394327544273 0 -77.920394327544273 18.241509220744774 0 0 0 0 81.711737680903752 -92.510637275920089 0 -92.510637275920089 -190.97842921320625 0 0 0 0 75.702432090906314 10.74798118972106 0 10.74798118972106 29.848663351651339 0 0 0 0 49.274436026662073 -17.955350402639105 0 -17.955350402639105 9.1075329633539237 0 0 0 0 110.48784678937227 -0.50903096453623675 0 -0.50903096453623675 -32.348084530607593 0 0 0 0 88.764373245226153 -21.203316776337772 0 -21.203316776337772 5.5958910105089466 0 0 0 0 62.491415788899758 40.262701396009106 0 40.262701396009106 132.06984694924722 0 0 0 0 162.69350777902582 -22.479672306471912 0 -22.479672306471912 -68.893885125617089 0 0 0 0 229.54326664208202 -75.719849689941839 0 -75.719849689941839 11.29440021182927 0 0 0 0 142.94741851802974 88.032657962050507 0 88.032657962050507 46.836279520197422 0 0 0 0 124.48442252215318 -29.893372951749484 0 -29.893372951749484 40.452549073484988 0 0 0 0 91.447099731667549 -41.326645092721265 0 -41.326645092721265 36.501574059887844 0 0 0 0 112.90729287799331 -13.919069366177723 0 -13.919069366177723 -28.650331768590149 0 0 0 0 132.54201377980644 -86.951424180634604 0 -86.951424180634604 77.895233156758877 0 0 0 0 135.30022082746291 -111.01667707768081 0 -111.01667707768081 153.74308002199814 0 0 0 0 46.264135140816506 168.72160709408308 0 168.72160709408308 95.397909692243047 0 0 0 0 326.4454346356797 -122.42859026132965 0 -122.42859026132965 -102.9840858966636 0 0 0 0 48.512264793738723 59.504968309060587 0 59.504968309060587 -113.5548637070317 0 0 0 0 125.5811199851596 22.793231163200062 0 22.793231163200062 -83.748315368636668 0 0 0 0 91.627698342024814 30.479770025780454 0 30.479770025780454 10.646153752048122 0 0 0 0 83.571400449953217 30.603292909966967 0 30.603292909966967 22.701732584521778 0 0 0 0 90.660169459384633 28.195274058644827 0 28.195274058644827 12.171008094529043 0 0 0 0 86.914291260225582 34.136989863534183 0 34.136989863534183 10.271121112997351 0 0 0 0 88.220771561349949 8.1677500755465502 0 8.1677500755465502 4.871451594897386 0 0 0 0 98.931626943609444 -15.515008686607416 0 -15.515008686607416 -25.347654288362264 0 0 0 0 25.618258821700664 -2.4207043929343683 0 -2.4207043929343683 -0.87776234712153567 0 0 0 0 83.583672637199925 23.115262046703464 0 23.115262046703464 37.593925750370317 0 0 0 0 86.818543264162145 -17.118673807072014 0 -17.118673807072014 59.172302867844451 0 0 0 0 26.908654389618764 12.988171079650883 0 12.988171079650883 26.559532019384132 0 0 0 0 72.330822971387533 76.379631387955612 0 76.379631387955612 26.151851941095487 0 0 0 0 79.919370652281941 21.217764404581075 0 21.217764404581075 -7.8218909273361987 0 0 0 0 74.030158392961312 38.797676930204517 0 38.797676930204517 54.275678572713218 0 0 0 0 38.804392367575502 -9.5622440714959716 0 -9.5622440714959716 4.7344128072952252 0 0 0 0 66.30369818343388 43.471694694770974 0 43.471694694770974 67.164263911761878 0 0 0 0 -143.07448631587613 17.22965771977897 0 17.22965771977897 -38.723905952210714 0 0 0 0 20.26670716059899 -3.5490995301815929 0 -3.5490995301815929 14.824076699776345 0 0 0 0 636.6250830340141 -524.11076206753887 0 -524.11076206753887 -257.4814462850361 0 0 0 0 -318.93741670867894 -323.79139962024431 0 -323.79139962024431 800.14763591716439 0 0 0 0 54.199993888298195 81.443145564485718 0 81.443145564485718 131.34554719577926 0 0 0 0 50.422868617315544 153.894413123595 0 153.894413123595 184.13580999536521 0 0 0 0 34.963661369496549 39.541431230515286 0 39.541431230515286 256.0801172524155 0 0 0 0 58.560048051964259 29.040272677456869 0 29.040272677456869 101.22379241225158 0 0 0 0 14.161304732653662 97.096487136566438 0 97.096487136566438 203.08421550550483 0 0 0 0 19.142342753071006 -7.9546484253138914 0 -7.9546484253138914 2.905742713299666 0 0 0 0 -89.13409290855634 -199.85877800572484 0 -199.85877800572484 342.9097968226643 0 0 0 0 54.156797863426618 72.614433195177469 0 72.614433195177469 92.136892264220293 0 0 0 0 62.239899906053324 102.57214737601572 0 102.57214737601572 -22.206293861814743 0 0 0 0 44.812446829775581 85.644031627270351 0 85.644031627270351 -17.129701494484351 0 0 0 0 30.204206953960238 53.512082542902476 0 53.512082542902476 -73.827735809155115 0 0 0 0 71.716523916169535 97.221278969003038 0 97.221278969003038 -70.332065873282318 0 0 0 0 31.775119393074419 106.80105441200323 0 106.80105441200323 -9.3231774015705469 0 0 0 0 26.494385359022999 124.10074817675283 0 124.10074817675283 109.62206011157005 0 0 0 0 58.234690340892485 77.704788983658005 0 77.704788983658005 7.3925930419666201 0 0 0 0 55.830746801955684 78.310608792247621 0 78.310608792247621 25.266896586423741 0 0 0 0 79.885770287466585 147.55856011499122 0 147.55856011499122 -42.171293489068262 0 0 0 0 84.222910941665759 57.124004976265837 0 57.124004976265837 -198.68549698985407 0 0 0 0 68.180853770146598 0.74220708385293299 0 0.74220708385293299 2.1650157340597675 0 0 0 0 64.380739219661336 -30.900232398724143 0 -30.900232398724143 -32.378477232592786 0 0 0 0 150.70488815112913 110.69531521636816 0 110.69531521636816 -320.5845523384877 0 0 0 0 39.350551726995036 15.601368066472446 0 15.601368066472446 -198.48270120164909 0 0 0 0 -54.379231799044646 100.80882955089874 0 100.80882955089874 -221.23239915983891 0 0 0 0 54.451816497487016 32.60406636343123 0 32.60406636343123 -179.17404466650351 0 0 0 0 15.774097229969168 2.8245840728303762 0 2.8245840728303762 -0.16615772887718583 0 0 0 0 89.887922268753755 25.868734899582705 0 25.868734899582705 -1.408883640286426 0 0 0 0 101.35971017499105 39.066847345396269 0 39.066847345396269 -65.90387611564978 0 0 0 0 85.154579234852406 6.5505886729646088 0 6.5505886729646088 0.74011025961404431 0 0 0 0 123.80200465989765 7.2556416255511067 0 7.2556416255511067 -159.20623197677037 0 0 0 0 84.73221978014044 21.19731126419947 0 21.19731126419947 10.421932651216139 0 0 0 0 76.945309339644155 20.690664143291997 0 20.690664143291997 10.589530071994886 0 0 0 0 18.698913947282033 7.5385063200330649 0 7.5385063200330649 14.758095992937934 0 0 0 0 33.227164588941378 -14.747216784158724 0 -14.747216784158724 31.802654586678869 0 0 0 0 18.078157413940062 6.2327479243998027 0 6.2327479243998027 16.438598037801626 0 0 0 0 3.3529428257167804 8.0526810110941369 0 8.0526810110941369 12.336678975425157 0 0 0 0 50.744749028090155 57.286326142124437 0 57.286326142124437 47.992719579979166 0 0 0 0 24.436157734075096 12.251300036909569 0 12.251300036909569 21.786453417227591 0 0 0 0 6.8933618559969432 3.4862375722897099 0 3.4862375722897099 5.2230618190470075 0 0 0 0 72.36099339692737 25.600833400021543 0 25.600833400021543 -20.544289553827298 0 0 0 0 25.94982737749207 18.902680768469168 0 18.902680768469168 11.013402601544726 0 0 0 0 65.031604987278115 30.672922921727604 0 30.672922921727604 -4.4504954161710657 0 0 0 0 4.7461519734061994 12.119261367606235 0 12.119261367606235 -2.6579915198754245 0 0 0 0 34.868632459663786 27.87925252686955 0 27.87925252686955 29.653237026597708 0 0 0 0 111.79311576917826 0.41343973401922085 0 0.41343973401922085 20.499454397789165 0 0 0 0 76.743082951870747 14.410433465844108 0 14.410433465844108 22.468274147712691 0 0 0 0 49.251809186927858 17.941261402833447 0 17.941261402833447 10.236501840334199 0 0 0 0 45.763469936871502 15.619344334633631 0 15.619344334633631 7.7095549099372525 0 0 0 0 50.298071994528243 -0.73814415861740201 0 -0.73814415861740201 0.31866644128856603 0 0 0 0 74.137655155020184 23.535905847037611 0 23.535905847037611 19.040392431180408 0 0 0 0 59.041844399803722 19.675973783026599 0 19.675973783026599 23.314205896066596 0 0 0 0 87.54634094730136 16.208217246625736 0 16.208217246625736 21.048012960103961 0 0 0 0 133.4327660073177 -47.362443000364692 0 -47.362443000364692 32.229220004020362 0 0 0 0 79.915311051707249 3.1572824674324238 0 3.1572824674324238 74.991935871747046 0 0 0 0 70.01009471125144 34.52177859538574 0 34.52177859538574 44.709679315484664 0 0 0 0 114.107441606262 -14.00547871830554 0 -14.00547871830554 34.199664104665544 0 0 0 0 250.39019823944545 -75.522092230427006 0 -75.522092230427006 61.922942894929292 0 0 0 0 102.90009626623942 -43.848588357812332 0 -43.848588357812332 212.31762106335577 0 0 0 0 198.82281303415948 71.459195813805081 0 71.459195813805081 -41.15176514934501 0 0 0 0 128.40215551185821 6.5166120430915555 0 6.5166120430915555 -2.1104092910837511 0 0 0 0 343.93014937499538 -1.7044497800975478 0 -1.7044497800975478 -289.27166116164744 0 0 0 0 51.634524090579362 38.516988141851243 0 38.516988141851243 50.100441870215036 0 0 0 0 112.14603486329725 -7.4796593118808232 0 -7.4796593118808232 -8.5213913738434712 0 0 0 0 128.81518129718302 13.260016118838415 0 13.260016118838415 -2.0317107219417743 0 0 0 0 176.28801740906783 195.45118985326485 0 195.45118985326485 -98.98494766052147 0 0 0 0 28.743826645758759 9.9508602886932778 0 9.9508602886932778 3.2816831981734604 0 0 0 0 67.887453493756766 34.46183956385903 0 34.46183956385903 3.8469879378615133 0 0 0 0 22.445119047464686 35.925097729264678 0 35.925097729264678 4.1462184134409199 0 0 0 0 44.175367937947158 0.058063845010451587 0 0.058063845010451587 10.680387542583048 0 0 0 0 2.3548397186451098 23.252112303757542 0 23.252112303757542 -7.0174332232836454 0 0 0 0 845.71802558249328 263.58976228884694 0 263.58976228884694 -39.643894253687364 0 0 0 0 32.327239881735295 25.687482780753356 0 25.687482780753356 -16.766639694684692 0 0 0 0 451.58789239043836 272.84275515720856 0 272.84275515720856 155.01321208480022 0 0 0 0 -10.899816910287541 3.5483915153612884 0 3.5483915153612884 3.9763284264404182 0 0 0 0 -1017.3105656775297 -363.05712494228919 0 -363.05712494228919 192.07539832239581 0 0 0 0 667.03292096755467 559.2995845557964 0 559.2995845557964 350.5093852224918 0 0 0 0 3.3669382166902437 0.61020341912492881 0 0.61020341912492881 1.7892462663761561 0 0 0 0 0.86396254288405316 -2.051146647535262 0 -2.051146647535262 3.9288531870249201 0 0 0 0 464.42391251062509 -331.44572450535634 0 -331.44572450535634 172.52722771572189 0 0 0 0 -132.45846685410652 -205.81361279279758 0 -205.81361279279758 170.28550695932745 0 0 0 0 831.41650899682645 -194.94913662331507 0 -194.94913662331507 -135.71160924649394 0 0 0 0 875.27294831015752 245.77092474096935 0 245.77092474096935 -30.953286387698427 0 0 0 0 -152.40817558272829 91.03421584649584 0 91.03421584649584 -48.00498306897407 0 0 0 0 -188.39445803198032 -141.95546807571827 0 -141.95546807571827 112.0309788849936 0 0 0 0 293.01426581799751 -367.01144815175439 0 -367.01144815175439 3.3583787988624749 0 0 0 0 276.67630088969599 -153.84464855514852 0 -153.84464855514852 5.650581769620203 0 0 0 0 268.30663636206373 -206.93108357943089 0 -206.93108357943089 2.8940981479372567 0 0 0 0 70.706823495100252 -72.242417971816622 0 -72.242417971816622 -23.147411723421101 0 0 0 0 -28.595893143530702 111.35919689621869 0 111.35919689621869 -130.1715883297984 0 0 0 0 55.130296442017197 15.963731011099497 0 15.963731011099497 1.2700520678286495 0 0 0 0 18.62360611720942 105.21651377982653 0 105.21651377982653 -135.87621875516629 0 0 0 0 36.232455470992136 17.145986106259556 0 17.145986106259556 -217.45140297149101 0 0 0 0 31.054640061076498 -70.070151606901618 0 -70.070151606901618 -268.23585243272748 0 0 0 0 19.845662543355004 2.3118640516172206 0 2.3118640516172206 -0.83225814457268221 0 0 0 0 52.998258064898096 3.1095839892407113 0 3.1095839892407113 -3.4655694843034492 0 0 0 0 88.255083860800369 -64.254210037835037 0 -64.254210037835037 61.644183230672752 0 0 0 0 84.622334604733624 -41.955363386485715 0 -41.955363386485715 -271.44234629390485 0 0 0 0 35.077024608330774 -1.0763324472225122 0 -1.0763324472225122 -2.3409266758994498 0 0 0 0 89.838380401804898 20.581607295727249 0 20.581607295727249 -10.454587197128603 0 0 0 0 106.4379378384765 -3.1631114665283349 0 -3.1631114665283349 -11.012789623121535 0 0 0 0 104.19226389924006 -0.28749841552314592 0 -0.28749841552314592 -12.28766312925336 0 0 0 0 101.13504916039528 1.2188422142980926 0 1.2188422142980926 -10.491741127691967 0 0 0 0 87.481115960865282 -12.924717893017259 0 -12.924717893017259 11.31397754741738 0 0 0 0 69.300351219124025 71.664032911781277 0 71.664032911781277 -1.8388504206779246 0 0 0 0 13.933615505022601 7.2268941441126913 0 7.2268941441126913 -5.1043029126353119 0 0 0 0 88.204566377797164 35.63848202020381 0 35.63848202020381 9.4430018517221583 0 0 0 0 115.99262081127381 -10.270374590049187 0 -10.270374590049187 17.084419348837628 0 0 0 0 86.574202537885867 15.219681559102586 0 15.219681559102586 -37.175302342212156 0 0 0 0 53.754168457526248 11.422069322758944 0 11.422069322758944 23.210248416410195 0 0 0 0 68.691577843099367 17.68285072652289 0 17.68285072652289 4.0739540716927163 0 0 0 0 47.814962967007887 -4.0515168659952598 0 -4.0515168659952598 -14.789510786935258 0 0 0 0 98.599397326179314 27.822929154338226 0 27.822929154338226 -24.518617534547502 0 0 0 0 67.381624060821196 12.847584586860535 0 12.847584586860535 -9.2455908852534776 0 0 0 0 134.96115737769162 13.195649877889913 0 13.195649877889913 -1.8228496751026033 0 0 0 0 260.92796741261554 170.51114193467515 0 170.51114193467515 -508.89825918438419 0 0 0 0 296.97084571303276 -17.731149374909023 0 -17.731149374909023 -485.36038845020198 0 0 0 0 113.29199638807665 5.2041904978121778 0 5.2041904978121778 -1.5190063861575991 0 0 0 0 123.44015927569126 -88.08132383809334 0 -88.08132383809334 -42.473259662156352 0 0 0 0 144.62729060169659 -20.215276276706675 0 -20.215276276706675 -96.052755627630432 0 0 0 0 34.192543708326411 61.613795463493148 0 61.613795463493148 41.767639736089677 0 0 0 0 31.771175615747154 0.47907423620954148 0 0.47907423620954148 -0.85687812994058454 0 0 0 0 14.561715379910311 -285.0000843368839 0 -285.0000843368839 332.49412712229923 0 0 0 0 -336.97122430655872 63.700566373293213 0 63.700566373293213 592.25667690662738 0 0 0 0 249.07438847589947 -348.94536869145099 0 -348.94536869145099 -246.12468253566635 0 0 0 0 957.07258068589726 126.32107985744187 0 126.32107985744187 -1399.2338883264661 0 0 0 0 -65.275020115484949 -620.35149566903647 0 -620.35149566903647 1000.0983518970547 0 0 0 0 1269.991598571567 265.34056206316785 0 265.34056206316785 101.74124107202897 0 0 0 0 1045.2829445942916 -725.45589727307708 0 -725.45589727307708 -60.946573671030819 0 0 0 0 65.919230345520191 397.3189667711199 0 397.3189667711199 -355.63469485690337 0 0 0 0 579.14391088089178 363.72179440647187 0 363.72179440647187 -610.15347755744324 0 0 0 0 142.40534883188383 15.523391245513707 0 15.523391245513707 -1.873263280824772 0 0 0 0 -30.546074670524831 -2.1342894619260164 0 -2.1342894619260164 277.6050243789926 0 0 0 0 180.51017546177172 346.77490283330519 0 346.77490283330519 -101.00581503225862 0 0 0 0 774.07500760373659 112.82732937624269 0 112.82732937624269 263.99093417055599 0 0 0 0 -0.66114399237125099 1.1466108445338676 0 1.1466108445338676 -0.26081301948308822 0 0 0 0 136.38867636040959 -116.17821596613996 0 -116.17821596613996 95.942722132744109 0 0 0 0 -22.621632657916052 10.259458675899914 0 10.259458675899914 131.59655159764912 0 0 0 0 -4.8454553509363905 25.402452245914162 0 25.402452245914162 32.968486427757917 0 0 0 0 40.523587429284817 -54.425418057020693 0 -54.425418057020693 -19.482806990449205 0 0 0 0 -3.1587828102059916 1.1722791970107309 0 1.1722791970107309 -0.57514435971067202 0 0 0 0 -63.506501831026981 339.63104988222011 0 339.63104988222011 436.01334812376388 0 0 0 0 -51.138893759984057 -70.99578130062946 0 -70.99578130062946 183.24602115369919 0 0 0 0 121.51970618261839 220.0947828317768 0 220.0947828317768 -83.69489095944607 0 0 0 0 0.26960929606866557 70.513117712502805 0 70.513117712502805 -0.14913789748673878 0 0 0 0 118.56921845175384 87.644275139241202 0 87.644275139241202 66.917253602309586 0 0 0 0 54.2051734718234 28.795246959883134 0 28.795246959883134 31.985711722464885 0 0 0 0 17.060961337432673 -9.4091782224699081 0 -9.4091782224699081 102.74960431443083 0 0 0 0 0.8607293520247481 -0.24823673454893935 0 -0.24823673454893935 0.69034004855974529 0 0 0 0 111.72407374593604 47.952993685406454 0 47.952993685406454 -16.917542547561624 0 0 0 0 89.053185079843388 -74.210395415646573 0 -74.210395415646573 33.903375944804893 0 0 0 0 3.4148740022064885 10.618481362540539 0 10.618481362540539 140.14571868083658 0 0 0 0 -19.958000961079961 -56.431065162202742 0 -56.431065162202742 17.996723798679113 0 0 0 0 52.181682917151193 -55.807431404636766 0 -55.807431404636766 130.83756462171283 0 0 0 0 64.465763197811555 -3.1347519980894294 0 -3.1347519980894294 -0.79434344808483948 0 0 0 0 147.82048902761017 -43.941675908166189 0 -43.941675908166189 -489.51504409892198 0 0 0 0 92.173011379753007 -17.658728208727183 0 -17.658728208727183 -111.62431351967334 0 0 0 0 36.208117203917936 191.60520622476034 0 191.60520622476034 -150.66950561118608 0 0 0 0 -3.9796973422344308 21.240108584187709 0 21.240108584187709 237.02668766300116 0 0 0 0 79.342810346219721 71.058102393532025 0 71.058102393532025 -43.165440229641604 0 0 0 0 130.67279722736566 138.70231580963852 0 138.70231580963852 7.3176049421717835 0 0 0 0 212.14476443705644 208.81381453623578 0 208.81381453623578 -210.7027043692475 0 0 0 0 174.70268464614492 -117.38500960917355 0 -117.38500960917355 619.55101054350837 0 0 0 0 350.13424221599416 -6.5956860063471368 0 -6.5956860063471368 192.96684069062937 0 0 0 0 74.610399912162393 132.93497796744015 0 132.93497796744015 355.89138064944621 0 0 0 0 1342.076908698582 -710.54445469428333 0 -710.54445469428333 470.52178503511698 0 0 0 0 354.17668456894171 -286.09368482654486 0 -286.09368482654486 459.01058907579511 0 0 0 0 435.99659361678641 77.081043113708859 0 77.081043113708859 223.37256744282948 0 0 0 0 -94.586105422422406 -137.96809040240976 0 -137.96809040240976 140.07545811920431 0 0 0 0 492.15315963476314 51.809263639937171 0 51.809263639937171 115.50897124151243 0 0 0 0 370.49385788959717 -455.63462915722806 0 -455.63462915722806 690.93815684410083 0 0 0 0 606.04324891004944 -210.14170809851635 0 -210.14170809851635 -563.33321290897607 0 0 0 0 54.090723192055293 -3.8208444960055949 0 -3.8208444960055949 -0.41598042873395596 0 0 0 0 304.37567209226836 -31.736307851192244 0 -31.736307851192244 -182.81077781427851 0 0 0 0 -23.274535618002119 -57.778715072922125 0 -57.778715072922125 150.6294673246542 0 0 0 0 554.61633513486595 318.0144346636377 0 318.0144346636377 516.49495479816642 0 0 0 0 358.85097877320004 -212.67265467505399 0 -212.67265467505399 344.2176017728724 0 0 0 0 4101.0855277258834 -1536.3201529617936 0 -1536.3201529617936 -31.293210570681936 0 0 0 0 3058.5319890004976 1107.6027918113912 0 1107.6027918113912 -129.1986918097133 0 0 0 0 23.24490436978698 -2.8642097006892175 0 -2.8642097006892175 0.60682959237199008 0 0 0 0 1605.3454590602851 -1907.8884121073213 0 -1907.8884121073213 1180.0695235255857 0 0 0 0 4504.3494936116622 -479.09093696303762 0 -479.09093696303762 -345.64743734257422 0 0 0 0 4151.3191387262086 -296.87350537078407 0 -296.87350537078407 449.53444727823808 0 0 0 0 2719.9791782326065 -550.54533632458993 0 -550.54533632458993 -243.21044533939755 0 0 0 0 4674.2704128664191 -30.396981671498423 0 -30.396981671498423 -686.6989189522136 0 0 0 0 5499.5133221285578 -696.52135204305694 0 -696.52135204305694 -209.26011592745706 0 0 0 0 4222.7902016731605 -982.96982141392721 0 -982.96982141392721 -269.64298106701068 0 0 0 0 4206.5861675339984 -974.28683570681801 0 -974.28683570681801 886.56590441369474 0 0 0 0 5498.0781900204456 -1403.5702417142772 0 -1403.5702417142772 -448.11836215437006 0 0 0 0 4232.4003086710727 -1654.4054459961176 0 -1654.4054459961176 -462.03508641976407 0 0 0 0 5501.9115253349592 -2220.7243753370162 0 -2220.7243753370162 -495.11097919382888 0 0 0 0 3870.5256179262069 -2597.611006798913 0 -2597.611006798913 385.36682999659695 0 0 0 0 3258.2240836083365 -1333.3372202540384 0 -1333.3372202540384 -227.48728423708323 0 0 0 0 4006.0560642974233 -1855.9655737844657 0 -1855.9655737844657 -68.151678031107679 0 0 0 0 3018.847102336098 -677.87374895269306 0 -677.87374895269306 -243.60040328966923 0 0 0 0 1134.92184552869 508.3771011729043 0 508.3771011729043 117.90059725585084 0 0 0 0 2115.8934731492664 -1209.5150922147805 0 -1209.5150922147805 558.8608107301983 0 0 0 0 961.6118967692455 -457.87314442617378 0 -457.87314442617378 -72.388376144144672 0 0 0 0 1918.4996219653476 -1562.036274472365 0 -1562.036274472365 642.17105737295219 0 0 0 0 398.31630177129409 -239.06971029639044 0 -239.06971029639044 193.59084534627766 0 0 0 0 -473.28608038078528 378.19621229282006 0 378.19621229282006 394.90659153621436 0 0 0 0 113.77333134779474 -606.12706319346898 0 -606.12706319346898 -530.00150342425104 0 0 0 0 262.04598965634068 607.02467310636484 0 607.02467310636484 -848.2618280007955 0 0 0 0 118.45339664608548 13.355392608390311 0 13.355392608390311 -0.042044460926992322 0 0 0 0 2837.9448416820378 -3650.2518906759801 0 -3650.2518906759801 3538.0816242455899 0 0 0 0 48.854822117871947 3.588275430451489 0 3.588275430451489 5.5882717753052482 0 0 0 0 5489.9881615249706 -3193.6092922434304 0 -3193.6092922434304 559.79600845700793 0 0 0 0 3765.2942378282023 1837.77890889845 0 1837.77890889845 559.40345689936487 0 0 0 0 5501.2159453511013 2162.2999254447682 0 2162.2999254447682 68.297741302760755 0 0 0 0 4315.9165019715001 2316.5047584260496 0 2316.5047584260496 361.56745798136802 0 0 0 0 5491.3546692626624 2996.8028665115921 0 2996.8028665115921 707.73902853259119 0 0 0 0 1341.7562890288609 1253.1917384249791 0 1253.1917384249791 1431.3258428923721 0 0 0 0 4384.7923508591512 2080.8772195645934 0 2080.8772195645934 295.17824874474513 0 0 0 0 167.34526566709246 49.901310152104998 0 49.901310152104998 19.340023309867806 0 0 0 0 183.62725671736553 82.839449173498451 0 82.839449173498451 -57.734100967095401 0 0 0 0 -4.8520224980033504 10.555698421795569 0 10.555698421795569 17.6491724670473 0 0 0 0 190.40385503214929 111.96941012503294 0 111.96941012503294 19.336866462699266 0 0 0 0 4899.7514819945573 1732.4562167831443 0 1732.4562167831443 247.43387487760188 0 0 0 0 -228.85373215975414 147.70206226108021 0 147.70206226108021 153.07580302910415 0 0 0 0 1.9954464572858086 3.3895319365170309 0 3.3895319365170309 5.0744865830320842 0 0 0 0 347.55013506970863 160.46221784881755 0 160.46221784881755 -24.149725837963615 0 0 0 0 471.54904336245818 683.25141023266758 0 683.25141023266758 468.31974701541412 0 0 0 0 891.95099731089067 99.359188841888681 0 99.359188841888681 -104.51342286690897 0 0 0 0 2641.3670067003623 1164.16486293561 0 1164.16486293561 12.063179554990143 0 0 0 0 4500.4322789433281 1676.48632077301 0 1676.48632077301 380.04729548360001 0 0 0 0 4590.6998833842226 1742.0534510159557 0 1742.0534510159557 546.35584923265037 0 0 0 0 4664.5232813802813 1729.9708969293954 0 1729.9708969293954 72.457326816028115 0 0 0 0 5498.470910588414 1204.4425257196492 0 1204.4425257196492 -715.47101919618319 0 0 0 0 4447.4770439735294 1327.9595672427768 0 1327.9595672427768 78.231850411179863 0 0 0 0 4724.5988879567522 905.18919477855559 0 905.18919477855559 -826.8635369253534 0 0 0 0 4484.5889401482782 577.82448789241755 0 577.82448789241755 -843.40177781010948 0 0 0 0 5500.0926530399083 693.78732081989313 0 693.78732081989313 -1188.2478771283354 0 0 0 0 4433.5814588717039 -16.120615384844996 0 -16.120615384844996 -687.50003923663814 0 0 0 0 4793.1351767656088 365.28203006956596 0 365.28203006956596 -1123.0148388604473 0 0 0 0 4351.8629463460675 718.76626885386258 0 718.76626885386258 -841.22247494620046 0 0 0 0 5499.1719942695709 249.08554271280019 0 249.08554271280019 -1107.7774449731739 0 0 0 0 2153.9922522207889 -38.272049282820433 0 -38.272049282820433 39.129373491426122 0 0 0 0 4403.8387146433251 36.655007629715755 0 36.655007629715755 -643.8315867443705 0 0 0 0 4061.412587346058 319.86554561907599 0 319.86554561907599 -618.63838118000206 0 0 0 0 2948.2748631752038 114.42832570424639 0 114.42832570424639 -546.43721732720769 0 0 0 0 2800.2671971104573 456.28756992689966 0 456.28756992689966 -346.76751507951894 0 0 0 0 1359.0276434799962 615.90013621714911 0 615.90013621714911 42.133015111543614 0 0 0 0 2579.9807732080881 208.01872183051978 0 208.01872183051978 -418.87227180359082 0 0 0 0 2647.8533524017985 647.54127257150981 0 647.54127257150981 -365.70417843214955 0 0 0 0 3973.3030810853161 1060.71748269311 0 1060.71748269311 -488.25494493100041 0 0 0 0 2810.403556051584 755.2854045890499 0 755.2854045890499 -111.06338456195851 0 0 0 0 1464.9826057085593 189.11941608172356 0 189.11941608172356 -150.47173288381737 0 0 0 0 1328.6081074567664 370.5167993964663 0 370.5167993964663 -2.836241368165588 0 0 0 0 263.11766899174836 -240.20038849128935 0 -240.20038849128935 -191.16317151068571 0 0 0 0 -1.2998781850432586 -2.1332028940993979 0 -2.1332028940993979 -8.2999340335557648 0 0 0 0 -277.8026416653247 73.345633500626832 0 73.345633500626832 61.592357157190179 0 0 0 0 365.23000336412952 403.73846607070141 0 403.73846607070141 64.445822441052314 0 0 0 0 1451.8289583967198 161.05509358097379 0 161.05509358097379 -565.3503042957766 0 0 0 0 1440.57609637321 156.93473386998062 0 156.93473386998062 28.434247040891933 0 0 0 0 33.526787415317813 -227.02097354731916 0 -227.02097354731916 305.69726148288873 0 0 0 0 451.39751996005361 9.3263579406966528 0 9.3263579406966528 294.65572931472207 0 0 0 0 549.42255078298695 -146.71572701599877 0 -146.71572701599877 477.50560721099419 0 0 0 0 656.96433273354342 -83.392722335343706 0 -83.392722335343706 461.37569441462347 0 0 0 0 1614.1952194410478 -173.39686505615146 0 -173.39686505615146 68.208199074121694 0 0 0 0 4.6183115269941766 -2.7455122493856798 0 -2.7455122493856798 1.9798605020833242 0 0 0 0 -299.57943001901731 383.51010307017384 0 383.51010307017384 676.58744969225313 0 0 0 0 195.31775427002867 -441.43132858318904 0 -441.43132858318904 242.99467066924569 0 0 0 0 564.60873657718184 -142.12106722630347 0 -142.12106722630347 133.86231869837457 0 0 0 0 309.02470636251383 -16.562071802066612 0 -16.562071802066612 621.30561880701111 0 0 0 0 -146.79358346061781 -370.66681539076325 0 -370.66681539076325 265.05839473716708 0 0 0 0 165.68410969209799 -273.50749756025868 0 -273.50749756025868 195.79150178067789 0 0 0 0 222.36247552757413 -338.28206258856369 0 -338.28206258856369 -18.775836350282589 0 0 0 0 92.271388268593 -288.33009851163683 0 -288.33009851163683 -37.801897241697588 0 0 0 0 297.36844435076 -270.4410506351993 0 -270.4410506351993 -118.11475214946768 0 0 0 0 270.77133044031507 -414.68757259800418 0 -414.68757259800418 -182.38543198901561 0 0 0 0 292.04370972371544 -219.67817389116362 0 -219.67817389116362 -436.19829870416379 0 0 0 0 124.69728717215185 76.845994344625524 0 76.845994344625524 -140.31748360340225 0 0 0 0 237.29200448314077 7.5219762199585603 0 7.5219762199585603 -403.41569736317354 0 0 0 0 208.40134690864943 -133.75309829687876 0 -133.75309829687876 -231.14110259466588 0 0 0 0 238.31186125474414 -49.310821751401818 0 -49.310821751401818 -92.208974971936186 0 0 0 0 164.18253950985672 13.964724501905948 0 13.964724501905948 -4.5252644064094056 0 0 0 0 184.96170412968786 -25.893836678383195 0 -25.893836678383195 -10.555973268861635 0 0 0 0 189.24523782207689 -22.84383083948569 0 -22.84383083948569 -101.88069502392455 0 0 0 0 191.5691636821357 -28.109901976139099 0 -28.109901976139099 16.911870260388241 0 0 0 0 159.40827632972287 -3.1784374171475065 0 -3.1784374171475065 16.777856104032253 0 0 0 0 160.40322109488625 -2.1436558800023704 0 -2.1436558800023704 13.590465205503278 0 0 0 0 189.17878650658531 -19.374550190830632 0 -19.374550190830632 4.9521205885298514 0 0 0 0 198.61038571120298 24.548262782162055 0 24.548262782162055 -13.251071121903806 0 0 0 0 292.85283178773534 13.197158437826147 0 13.197158437826147 -16.799000721202447 0 0 0 0 9.7805846855133041 -1.552578033366359 0 -1.552578033366359 -3.9724102272294566 0 0 0 0 8.8459720291242334 -3.743920866378005 0 -3.743920866378005 -26.716663698831915 0 0 0 0 123.43128759604224 -69.153181486902213 0 -69.153181486902213 1.6895993565194658 0 0 0 0 189.23539017613803 -50.884071817511995 0 -50.884071817511995 -25.002540401404076 0 0 0 0 -231.90167104009925 -45.431033477651042 0 -45.431033477651042 78.674769620399275 0 0 0 0 85.129837790314923 -214.0868266246988 0 -214.0868266246988 16.403783105643271 0 0 0 0 418.4842836788157 -109.70821182488839 0 -109.70821182488839 128.04778598575882 0 0 0 0 335.09333259444247 17.723063069119405 0 17.723063069119405 -35.294624961626141 0 0 0 0 372.52309189561493 -28.870075973603662 0 -28.870075973603662 -111.51354186048593 0 0 0 0 292.45054362094379 94.211676836769584 0 94.211676836769584 -70.429934074835955 0 0 0 0 124.05968134265277 -112.29794086627271 0 -112.29794086627271 4.532984778146556 0 0 0 0 97.197857135935919 -35.868294695814711 0 -35.868294695814711 -111.0666540066527 0 0 0 0 34.209328066153148 -23.395482682729607 0 -23.395482682729607 -35.375508419268911 0 0 0 0 44.364364655019017 -134.87817213862945 0 -134.87817213862945 -54.411670650309816 0 0 0 0 123.06859826096115 -6.3526684104436981 0 -6.3526684104436981 -66.444221417285007 0 0 0 0 179.44700749467302 -23.232602785954896 0 -23.232602785954896 -81.296744472871978 0 0 0 0 232.03057915934187 46.891895255027066 0 46.891895255027066 -33.367602787604483 0 0 0 0 108.15468237519235 18.468080313583641 0 18.468080313583641 -30.152751987957288 0 0 0 0 60.514110294321782 -10.457767614772152 0 -10.457767614772152 -29.613316644238616 0 0 0 0 113.0947983944825 13.899617336315245 0 13.899617336315245 -26.175805773762988 0 0 0 0 97.603676071630616 10.800477859768989 0 10.800477859768989 -4.6477910933181192 0 0 0 0 90.909607643436175 19.315859900888626 0 19.315859900888626 -15.211022878422682 0 0 0 0 39.643851193097447 22.160931361551363 0 22.160931361551363 -25.282207382515729 0 0 0 0 180.9894965946005 -2.2576870725424669 0 -2.2576870725424669 -32.314161934271397 0 0 0 0 114.13434826704906 11.568919284143249 0 11.568919284143249 -19.030617329458437 0 0 0 0 123.46805952000727 -0.76259503309364618 0 -0.76259503309364618 -7.6399132951600359 0 0 0 0 167.52298552054708 14.307401917581501 0 14.307401917581501 -52.647387875020286 0 0 0 0 168.06072658590665 -7.2296188059790154 0 -7.2296188059790154 -18.840314740369649 0 0 0 0 156.98391609652026 2.7361086769019494 0 2.7361086769019494 -8.6808469251882343 0 0 0 0 186.41581986285746 17.183266521633414 0 17.183266521633414 -17.567471380166353 0 0 0 0 142.88342498854036 31.433865760832532 0 31.433865760832532 -11.401153287154557 0 0 0 0 12.676385590691922 28.18621762704224 0 28.18621762704224 -9.677329159400248 0 0 0 0 170.68216427859306 24.076828414605615 0 24.076828414605615 -18.441838304572229 0 0 0 0 100.04869725488243 -46.505864670294613 0 -46.505864670294613 -12.731401532497785 0 0 0 0 96.187986068209284 -54.850880016550036 0 -54.850880016550036 -10.474444294330169 0 0 0 0 100.35578715307929 -43.517308005473751 0 -43.517308005473751 -11.346649468910073 0 0 0 0 109.78802963998169 -37.869686282323528 0 -37.869686282323528 -17.52646731889314 0 0 0 0 150.34618041299109 -22.996762914677674 0 -22.996762914677674 -17.97500081311685 0 0 0 0 85.253613087458689 -8.1019371922244545 0 -8.1019371922244545 3.4106000859822689 0 0 0 0 118.36550161269406 -35.913702363831362 0 -35.913702363831362 -36.357987348353163 0 0 0 0 97.182571706201998 -35.235201093520345 0 -35.235201093520345 -10.648329316143645 0 0 0 0 59.278682159844095 -24.778456992125662 0 -24.778456992125662 0.62647808695297869 0 0 0 0 10.87907204212388 -34.722678279727916 0 -34.722678279727916 -17.260718337694016 0 0 0 0 50.685731394165487 14.534400249102873 0 14.534400249102873 52.599267736429397 0 0 0 0 34.724620858378472 -28.160411302546255 0 -28.160411302546255 21.613302437077429 0 0 0 0 -553.92162591359374 19.132311063775489 0 19.132311063775489 802.71355230712857 0 0 0 0 15.359439251659524 -5.9228536167297392 0 -5.9228536167297392 2.8614758376067604 0 0 0 0 425.82945117475174 -105.85460141192289 0 -105.85460141192289 -491.51988568182196 0 0 0 0 27.40702518208127 -22.545928355728392 0 -22.545928355728392 -0.7455121991042688 0 0 0 0 36.590443606137683 -8.8753431966300411 0 -8.8753431966300411 -14.246827488767202 0 0 0 0 15.856744296338974 -13.708898088321504 0 -13.708898088321504 -0.14936543316842688 0 0 0 0 26.194958086707629 -21.820672632082278 0 -21.820672632082278 0.28952166808994662 0 0 0 0 27.207170900743222 -22.283482176606412 0 -22.283482176606412 -0.9046865695595443 0 0 0 0 37.772877396337691 -16.906477064759251 0 -16.906477064759251 1.8427450674364898 0 0 0 0 70.236306876038327 -14.559405359887478 0 -14.559405359887478 -12.915720725094923 0 0 0 0 24.464909249625634 -20.19154813237401 0 -20.19154813237401 -1.1547676928166766 0 0 0 0 58.465928425810759 -33.697098822651647 0 -33.697098822651647 5.2269580396152318 0 0 0 0 17.522708075681294 -41.406046996389705 0 -41.406046996389705 7.8527422759365777 0 0 0 0 74.138470523714204 -60.885327304834391 0 -60.885327304834391 18.796001036294911 0 0 0 0 101.13494299158629 -71.702233776610228 0 -71.702233776610228 18.154869579317165 0 0 0 0 106.63881077272526 -104.12512853764156 0 -104.12512853764156 10.595761460765061 0 0 0 0 141.12000550421362 -58.773108042068088 0 -58.773108042068088 6.8543366064805014 0 0 0 0 66.414106586627895 -62.553711679672233 0 -62.553711679672233 20.589625823103006 0 0 0 0 21.070663287586548 -23.242018157830273 0 -23.242018157830273 -5.0870651693270972 0 0 0 0 30.930287606672209 -1.8804136865319379 0 -1.8804136865319379 -4.4724038168405968 0 0 0 0 81.958452017584932 -49.711776523183744 0 -49.711776523183744 -6.2411066178337933 0 0 0 0 88.221098500172957 -58.903603247279534 0 -58.903603247279534 19.440329638309777 0 0 0 0 83.558657516696258 16.751522531283626 0 16.751522531283626 -26.468562936941453 0 0 0 0 110.11834861735406 -70.724523822510491 0 -70.724523822510491 36.697216577771542 0 0 0 0 6.2985037830429746 1.6117958579683886 0 1.6117958579683886 -6.1710732300561411 0 0 0 0 135.94976175924239 -56.472803923788888 0 -56.472803923788888 33.170948669965583 0 0 0 0 19.236141362969597 -2.2327599376818341 0 -2.2327599376818341 -8.0672606346716904 0 0 0 0 -81.374568936887954 -73.010612258480023 0 -73.010612258480023 -59.885516334094063 0 0 0 0 361.96157232325641 -56.1723098247287 0 -56.1723098247287 -76.928733611567168 0 0 0 0 -4.2104126316998247 -19.586789992638529 0 -19.586789992638529 -7.9790910436443099 0 0 0 0 -5.3218839108526339 1.8120786511194353 0 1.8120786511194353 2.3120773471754141 0 0 0 0 193.37587985250866 -13.202067190944945 0 -13.202067190944945 18.118996595429053 0 0 0 0 215.55527533592249 -82.525468999374425 0 -82.525468999374425 -30.6211383344571 0 0 0 0 73.690108238926769 -172.92186678903613 0 -172.92186678903613 -5.7658075632225518 0 0 0 0 221.04625875014608 -72.742280652273166 0 -72.742280652273166 26.56690945713126 0 0 0 0 204.49750291387136 -141.50555048519635 0 -141.50555048519635 19.01328154280236 0 0 0 0 202.49028870375423 -128.13295818732013 0 -128.13295818732013 -58.10293417824596 0 0 0 0 -11.851733312752913 -124.8174508830416 0 -124.8174508830416 -21.646711247201438 0 0 0 0 245.74667488412524 -181.76421134644715 0 -181.76421134644715 52.126539841342492 0 0 0 0 -37.460509387514321 -80.258374651386021 0 -80.258374651386021 -73.214849772092748 0 0 0 0 228.65193094116694 -249.09719324446166 0 -249.09719324446166 -183.89907898027809 0 0 0 0 155.74815396533813 -144.79127102516264 0 -144.79127102516264 -326.08594673340338 0 0 0 0 -59.916973721184149 666.3633714399698 0 666.3633714399698 -596.31783571310098 0 0 0 0 -17.773274255436263 -40.706105536274663 0 -40.706105536274663 55.549439585368873 0 0 0 0 -7.6728104014438827 -18.759154413658436 0 -18.759154413658436 5.7762111433731036 0 0 0 0 317.86061239327682 -3.8540499120224467 0 -3.8540499120224467 -7.5211195749252511 0 0 0 0 -7.3135606056757467 -1.4125801814026886 0 -1.4125801814026886 0.90245813339453207 0 0 0 0 134.97007392609612 -56.088800724835494 0 -56.088800724835494 -20.142545270105984 0 0 0 0 69.667598805237503 -42.287605120726312 0 -42.287605120726312 -2.2853486740841618 0 0 0 0 84.540241633352707 -68.982719829160487 0 -68.982719829160487 1.009238661411473 0 0 0 0 180.36637959851942 -79.028247362620277 0 -79.028247362620277 -22.333885403159911 0 0 0 0 167.96232352456718 -3.3494997828447595 0 -3.3494997828447595 5.9179838985746755 0 0 0 0 166.64644036097161 -29.856650559646368 0 -29.856650559646368 -14.530288903963537 0 0 0 0 132.04229455490622 -28.850843590584589 0 -28.850843590584589 -3.9492859809743095 0 0 0 0 149.29599099201369 -25.451524249261865 0 -25.451524249261865 -9.6489691240185493 0 0 0 0 181.76433943695156 -33.325504306236326 0 -33.325504306236326 2.102859355713008 0 0 0 0 171.90406421263287 -6.9012858027842867 0 -6.9012858027842867 28.43195406340601 0 0 0 0 252.81356011235766 -88.252350131228468 0 -88.252350131228468 59.482424495225132 0 0 0 0 188.24264356738422 -41.126320524060702 0 -41.126320524060702 39.486623322832202 0 0 0 0 187.48893952404615 -34.295587746106776 0 -34.295587746106776 -12.391795897112388 0 0 0 0 199.89004359161481 -99.005233786055214 0 -99.005233786055214 -74.882525142869099 0 0 0 0 198.97941426967009 -109.2577215488883 0 -109.2577215488883 -58.912686382885113 0 0 0 0 189.28448951792234 -24.975771522837249 0 -24.975771522837249 -26.496823337981368 0 0 0 0 253.56559198291507 -54.209134548070324 0 -54.209134548070324 -17.097899326163315 0 0 0 0 200.15819518981152 -80.295671493399823 0 -80.295671493399823 -12.595133442280712 0 0 0 0 204.86416023843049 -78.025527562013849 0 -78.025527562013849 -27.466089419072887 0 0 0 0 169.06341018364765 -67.949768577016584 0 -67.949768577016584 -19.940344561091024 0 0 0 0 3.4840123563272272 -18.219744984113987 0 -18.219744984113987 30.431148437436967 0 0 0 0 1.7053529499573727 -7.9152077260952609 0 -7.9152077260952609 -17.950080872928972 0 0 0 0 1312.1567942203837 -585.88607654779094 0 -585.88607654779094 886.50053057634113 0 0 0 0 2179.5432855550025 83.857979438454777 0 83.857979438454777 -1647.5290115457708 0 0 0 0 216.97467533315648 -30.05924367237003 0 -30.05924367237003 9.843049792214515 0 0 0 0 255.4873190651706 -1.6529819304450939 0 -1.6529819304450939 14.941403079981683 0 0 0 0 -35.468508440579171 3.7410297914784678 0 3.7410297914784678 45.339385150177804 0 0 0 0 28.492698347170517 -97.449597407892725 0 -97.449597407892725 -1.4791942528163418 0 0 0 0 169.73752577093546 -109.01339849722331 0 -109.01339849722331 -51.53134910972085 0 0 0 0 185.52239372987242 -119.82743682827254 0 -119.82743682827254 -65.76911004559679 0 0 0 0 72.764145308115985 -147.85720940902752 0 -147.85720940902752 -39.846935081920719 0 0 0 0 162.42818622911727 -85.72635957546774 0 -85.72635957546774 -101.18034226107193 0 0 0 0 0.2368706480562679 -0.19374594875402806 0 -0.19374594875402806 -8.0318841581574798 0 0 0 0 -302.9856434521862 -124.67633166601468 0 -124.67633166601468 146.10936154655678 0 0 0 0 136.84334857398062 -26.806314521434842 0 -26.806314521434842 -39.382164268499309 0 0 0 0 -15.513182853464969 -89.346715857647268 0 -89.346715857647268 -38.795331713301721 0 0 0 0 116.84694544468948 -168.1679740729183 0 -168.1679740729183 8.125041908896776 0 0 0 0 -127.69406013426124 -77.948712705074215 0 -77.948712705074215 154.69573881196141 0 0 0 0 172.14240417696419 -366.21726707359926 0 -366.21726707359926 -19.964633028361618 0 0 0 0 113.41275369782488 -139.12677617264461 0 -139.12677617264461 -147.77183060279981 0 0 0 0 751.80782597113648 394.46934219279092 0 394.46934219279092 -260.22496581086466 0 0 0 0 -163.54675762428815 10.115392609838551 0 10.115392609838551 22.387498887500499 0 0 0 0 0.6912421291869606 -1.6414257399838874 0 -1.6414257399838874 7.0072295418784156 0 0 0 0 -150.48030737883528 -14.253721523369222 0 -14.253721523369222 7.1843884926629471 0 0 0 0 -161.86069439865241 -31.061186239509425 0 -31.061186239509425 75.066898506358939 0 0 0 0 -123.37137359610642 -108.55666939306957 0 -108.55666939306957 25.098840928905702 0 0 0 0 5.5444363977812827 -8.9404276355900407 0 -8.9404276355900407 18.773996113881989 0 0 0 0 470.14393410897901 345.87568351165447 0 345.87568351165447 166.38139771800471 0 0 0 0 -18.464997696522914 -81.943634806826253 0 -81.943634806826253 -19.213356472313535 0 0 0 0 13.834002550329345 -19.550157109698986 0 -19.550157109698986 25.134495639376652 0 0 0 0 41.206799880544168 -86.997581201207936 0 -86.997581201207936 -52.930931313702786 0 0 0 0 9.2873752069155291 -4.2034700442956279 0 -4.2034700442956279 -10.374381323362861 0 0 0 0 403.27501087565179 -135.29982610409724 0 -135.29982610409724 90.410212927380456 0 0 0 0 -13.038728601983166 47.705435975136993 0 47.705435975136993 0.60899617636823677 0 0 0 0 155.75406980860862 -5.3794365911405464 0 -5.3794365911405464 -42.451710863919175 0 0 0 0 -0.72440188451064103 2.0027365586352062 0 2.0027365586352062 -5.6238636251560621 0 0 0 0 91.045157168635342 48.717064938900876 0 48.717064938900876 -71.420166139309003 0 0 0 0 704.24031885324803 450.53808175733292 0 450.53808175733292 39.398697072595922 0 0 0 0 4.6341624528119212 -6.1638198154643078 0 -6.1638198154643078 10.191527948392787 0 0 0 0 -17.673560084222117 -235.71372249813027 0 -235.71372249813027 277.33598033344288 0 0 0 0 -76.314171763300692 -53.535277909261737 0 -53.535277909261737 92.048290204852492 0 0 0 0 63.278028886314132 -145.46611018020349 0 -145.46611018020349 150.47183255384402 0 0 0 0 681.60929144746478 -751.65090210635617 0 -751.65090210635617 228.95517694084788 0 0 0 0 70.838677844680205 -23.906994770707286 0 -23.906994770707286 47.137804286144245 0 0 0 0 124.02312294842704 -37.707227798828427 0 -37.707227798828427 36.736515360564539 0 0 0 0 -202.88897191683645 99.102251187893216 0 99.102251187893216 -66.930886056636609 0 0 0 0 -155.88893645417556 -17.29047870554632 0 -17.29047870554632 -33.093991895260388 0 0 0 0 21.98120558867231 162.78615481957922 0 162.78615481957922 116.00300030572538 0 0 0 0 12.781392254553793 -78.620141104495701 0 -78.620141104495701 51.145659841267616 0 0 0 0 -232.16312775146798 -13.005544820421846 0 -13.005544820421846 221.64672726408344 0 0 0 0 -214.81864659112034 -6.7994719665989578 0 -6.7994719665989578 -45.72811343170315 0 0 0 0 -519.2991877752861 -15.997927054066047 0 -15.997927054066047 117.48823786803268 0 0 0 0 -368.11752448453262 -125.89049965070555 0 -125.89049965070555 81.49994363465521 0 0 0 0 -204.58011458074907 -71.231812511721273 0 -71.231812511721273 10.050318113592766 0 0 0 0 17.355204270410468 -73.53654229401559 0 -73.53654229401559 165.64880801673098 0 0 0 0 -73.75882390501647 -209.88098887626802 0 -209.88098887626802 52.390318629760259 0 0 0 0 174.60283350920508 -198.17546369129559 0 -198.17546369129559 -16.595067569732691 0 0 0 0 -45.266686983732143 -189.19842978725524 0 -189.19842978725524 22.985584145046232 0 0 0 0 -56.254747453742311 -150.08072070069011 0 -150.08072070069011 -114.82325397576076 0 0 0 0 -191.88434225090896 -213.58933757700879 0 -213.58933757700879 -2.123402473137503 0 0 0 0 22.200565313625091 -20.141001124983696 0 -20.141001124983696 10.378144010859542 0 0 0 0 603.57980048196623 51.42486033376008 0 51.42486033376008 10.889522707390711 0 0 0 0 179.16967143393958 -117.54572885710331 0 -117.54572885710331 -19.250049869433496 0 0 0 0 423.04448550704547 16.09488481453991 0 16.09488481453991 234.33863457993732 0 0 0 0 170.2846103619313 -205.05761600967298 0 -205.05761600967298 145.18494637760796 0 0 0 0 167.81770434429927 -270.21089955433627 0 -270.21089955433627 185.97577080483597 0 0 0 0 514.55779739896752 85.380819245448492 0 85.380819245448492 117.61776224415189 0 0 0 0 940.44092381817245 -418.62055966801904 0 -418.62055966801904 188.24433583153291 0 0 0 0 1454.6770881655193 401.45625173828932 0 401.45625173828932 157.69635537099657 0 0 0 0 58.003926912191673 53.11981350453334 0 53.11981350453334 432.67073973382213 0 0 0 0 283.20258819981609 61.823515252309733 0 61.823515252309733 100.83139845339883 0 0 0 0 91.040497565743863 23.039697368717043 0 23.039697368717043 152.71268679159812 0 0 0 0 193.47218291845093 -107.27912705522914 0 -107.27912705522914 791.05576453569211 0 0 0 0 1011.9596709836333 -71.152233180181952 0 -71.152233180181952 3.1263010004761327 0 0 0 0 -92.140446561505087 -184.70535908840156 0 -184.70535908840156 -8.5107975127471036 0 0 0 0 407.7886298553567 111.88505356927703 0 111.88505356927703 -298.45375775142202 0 0 0 0 -8.4380352226799005 -229.29478291890041 0 -229.29478291890041 -328.11999144318452 0 0 0 0 2.5515355991234401 4.4007754242238661 0 4.4007754242238661 -4.6439589156097902 0 0 0 0 42.958180466552221 74.78692675926618 0 74.78692675926618 -160.46221587101445 0 0 0 0 159.75110351770854 -23.104244053393813 0 -23.104244053393813 -86.431450200705285 0 0 0 0 85.923550025603618 -29.455474107666305 0 -29.455474107666305 -86.83095989786807 0 0 0 0 116.62739436788252 49.231598590688236 0 49.231598590688236 -205.42700817931427 0 0 0 0 299.51453458356082 242.09184280214424 0 242.09184280214424 -33.454987089006408 0 0 0 0 115.63494363115751 62.175818153034015 0 62.175818153034015 -90.614726767074671 0 0 0 0 -90.052291065403551 132.48654754014365 0 132.48654754014365 -14.617386575028377 0 0 0 0 -243.57901191459314 -81.891974950061012 0 -81.891974950061012 -72.434062888185508 0 0 0 0 0.16321771737705859 2.8000273928706605 0 2.8000273928706605 -1.8013302544050358 0 0 0 0 -578.31153770606034 45.741092641314026 0 45.741092641314026 44.972553898112892 0 0 0 0 -105.87738133243693 -41.449036388296918 0 -41.449036388296918 38.03993459440062 0 0 0 0 -2.6137027039949317 7.7418026725654272 0 7.7418026725654272 -69.865475261756359 0 0 0 0 -37.179370175865188 55.688357653384628 0 55.688357653384628 -48.784667970961891 0 0 0 0 73.911822378169745 -18.372580630408265 0 -18.372580630408265 -12.258141871384396 0 0 0 0 1.1552120421047221 -0.22222418033993563 0 -0.22222418033993563 47.575662177077902 0 0 0 0 59.350310523506778 -72.338502314095649 0 -72.338502314095649 25.762998669672015 0 0 0 0 37.191751934085914 -70.67703330808763 0 -70.67703330808763 32.016637106466078 0 0 0 0 39.599951953030541 -63.34791257839322 0 -63.34791257839322 -7.3293302334852797 0 0 0 0 54.135667673869847 -33.787900477477002 0 -33.787900477477002 9.0601904366093198 0 0 0 0 40.170241363692185 -112.19847283189051 0 -112.19847283189051 -96.272762852426467 0 0 0 0 125.41042459868186 -1.8727240955365687 0 -1.8727240955365687 -154.5485914344581 0 0 0 0 0.61574880268381094 -144.39594361721993 0 -144.39594361721993 64.526528025143989 0 0 0 0 160.16658111221659 -62.279055022267642 0 -62.279055022267642 -231.49247682613134 0 0 0 0 -189.81699939513055 169.33564872484362 0 169.33564872484362 -59.560473485571947 0 0 0 0 42.720483661854814 -23.65944025241879 0 -23.65944025241879 25.143922817024304 0 0 0 0 49.361623813624519 -33.68848710515654 0 -33.68848710515654 6.0464640080216245 0 0 0 0 53.085300556138463 -65.585680835718449 0 -65.585680835718449 -20.62845386592744 0 0 0 0 18.717361989667911 -7.1680341066671502 0 -7.1680341066671502 -6.0493271505530828 0 0 0 0 73.747658505527284 -6.5811966842062546 0 -6.5811966842062546 -33.567215827230029 0 0 0 0 63.237025235125657 -1.5578983392481405 0 -1.5578983392481405 -13.72130057425511 0 0 0 0 85.867914357637346 28.762413715403454 0 28.762413715403454 -18.102940253148972 0 0 0 0 128.55490599128098 -133.82983073480324 0 -133.82983073480324 -88.445306865496605 0 0 0 0 271.48611763793065 -105.02994070388188 0 -105.02994070388188 -86.266142342175954 0 0 0 0 -368.32626301259006 -169.17446458881886 0 -169.17446458881886 444.48388229222246 0 0 0 0 467.46066132164447 278.46239180355798 0 278.46239180355798 -207.88445379536188 0 0 0 0 393.4315978324048 -292.74141515349515 0 -292.74141515349515 66.906482782815146 0 0 0 0 23.089065780863166 -124.75915025458607 0 -124.75915025458607 410.62790809638363 0 0 0 0 24.783947604726563 -34.130054050623926 0 -34.130054050623926 57.555958535262562 0 0 0 0 283.33844526861566 125.82284887391089 0 125.82284887391089 27.463124758459799 0 0 0 0 5.1058542445795752 -3.0071272078354507 0 -3.0071272078354507 1.2069343040580374 0 0 0 0 0.27254295456805266 -45.843646733603464 0 -45.843646733603464 58.164085740550036 0 0 0 0 15.997500851106082 -6.2039824547798865 0 -6.2039824547798865 2.0181895297904662 0 0 0 0 14.210169437790682 -39.730604967695285 0 -39.730604967695285 -13.323091391984235 0 0 0 0 13.398004554041108 -58.687745761241331 0 -58.687745761241331 -47.920781989174429 0 0 0 0 30.118209162750283 -2.6619995001535237 0 -2.6619995001535237 -15.1025287127342 0 0 0 0 27.47996879210973 -6.7532009521761456 0 -6.7532009521761456 -1.9754409467948881 0 0 0 0 32.380797341481411 -17.632166497024684 0 -17.632166497024684 -17.855388290501651 0 0 0 0 26.275881308434691 -8.4185501443278099 0 -8.4185501443278099 -1.6066187883216116 0 0 0 0 56.048453961495397 9.1950518249482229 0 9.1950518249482229 -17.738154420889373 0 0 0 0 51.358378884113336 -8.6977775934310557 0 -8.6977775934310557 -1.6943677993299957 0 0 0 0 51.641126512343362 -9.4898812600193878 0 -9.4898812600193878 -3.6129900737360003 0 0 0 0 18.022202376405851 3.9208178842867802 0 3.9208178842867802 -15.943479714248564 0 0 0 0 77.218792999319703 -77.441127806185762 0 -77.441127806185762 -13.926117597410439 0 0 0 0 93.337570249696455 -29.759029697541507 0 -29.759029697541507 13.466267776083441 0 0 0 0 46.328150705273401 -51.254245140037824 0 -51.254245140037824 4.8665417072738819 0 0 0 0 44.551695384870072 -43.87957342698671 0 -43.87957342698671 -15.046895960324036 0 0 0 0 27.33268775343322 -117.40511181388631 0 -117.40511181388631 1.138501577991974 0 0 0 0 -55.984781135099183 -35.786134566875603 0 -35.786134566875603 -7.2421888438244082 0 0 0 0 -84.472612718616801 -114.33039751752958 0 -114.33039751752958 6.0504661233875652 0 0 0 0 107.78198064551725 10.901635609973226 0 10.901635609973226 2.6228639614053009 0 0 0 0 33.169561913529492 -3.2805113287124783 0 -3.2805113287124783 -15.925972392790701 0 0 0 0 179.22449533211329 -92.2903031203723 0 -92.2903031203723 -38.09478387643594 0 0 0 0 224.13625811685051 -256.00078658960683 0 -256.00078658960683 143.64454045710522 0 0 0 0 0.064602634602312747 0.46746491067368012 0 0.46746491067368012 1.4290360591203874 0 0 0 0 100.50340935337226 2.5625885105807811 0 2.5625885105807811 49.55869513444668 0 0 0 0 317.87894310407319 70.789481403033278 0 70.789481403033278 -41.363243795975905 0 0 0 0 156.43982567085186 -53.901411714602091 0 -53.901411714602091 19.06025007041444 0 0 0 0 73.148828341494664 -15.47976804703012 0 -15.47976804703012 -10.010563045266281 0 0 0 0 88.806129645538022 -29.678430468390161 0 -29.678430468390161 -9.7842108674161352 0 0 0 0 68.75260846294006 -25.846069014097058 0 -25.846069014097058 7.079018083720003 0 0 0 0 87.118760151515744 -19.783461996447386 0 -19.783461996447386 -13.809393759156137 0 0 0 0 74.979875945893582 1.6716851750916248 0 1.6716851750916248 -13.408652323782235 0 0 0 0 104.04080289671992 -19.185293712141856 0 -19.185293712141856 -50.098395372741834 0 0 0 0 97.72690091070217 -4.1018181704334893 0 -4.1018181704334893 -19.374412872857647 0 0 0 0 184.40926261318236 -0.76319202788727125 0 -0.76319202788727125 -46.559922937434294 0 0 0 0 72.421435354070127 -33.026621743398209 0 -33.026621743398209 -21.452939498125488 0 0 0 0 76.004431626921587 -54.871712766101666 0 -54.871712766101666 -9.3567841537033019 0 0 0 0 44.858065270577072 -53.645334133032286 0 -53.645334133032286 -7.3643216404297362 0 0 0 0 28.445077711619206 -32.071527886257826 0 -32.071527886257826 0.52554338196199524 0 0 0 0 11.970561259481183 -1.4914256689785983 0 -1.4914256689785983 2.2469640378929174 0 0 0 0 -21.930037505583641 -78.239801422650089 0 -78.239801422650089 118.41200887279669 0 0 0 0 66.84247084630897 34.455674969724242 0 34.455674969724242 19.5355341281101 0 0 0 0 28.658582047903963 -4.8848765711089364 0 -4.8848765711089364 5.3318550021867335 0 0 0 0 19.22857528164301 -0.78385804762847311 0 -0.78385804762847311 -1.1576332519521155 0 0 0 0 42.490869869858216 8.8718568820058863 0 8.8718568820058863 -81.430826553706765 0 0 0 0 36.440339369921276 -8.1875660713520801 0 -8.1875660713520801 -41.89434313392394 0 0 0 0 14.250723735010524 49.238672464508184 0 49.238672464508184 -61.506204707324741 0 0 0 0 39.521016773255724 4.9069081676759652 0 4.9069081676759652 11.248439439213314 0 0 0 0 11.593386490486232 4.5419085926304463 0 4.5419085926304463 3.6055434455843711 0 0 0 0 43.91579802614433 2.1760772507379897 0 2.1760772507379897 -64.209095988512445 0 0 0 0 100.29209174133712 -37.221352733945764 0 -37.221352733945764 -23.345038428051339 0 0 0 0 75.783528832058437 37.422705750598595 0 37.422705750598595 -25.491096840979026 0 0 0 0 62.325190427178313 -2.6457040371019502 0 -2.6457040371019502 -46.286644591571758 0 0 0 0 61.328526202858484 -61.283017428855374 0 -61.283017428855374 39.501085198928422 0 0 0 0 64.206704825497582 -10.211594920504695 0 -10.211594920504695 -96.969678049061713 0 0 0 0 -128.60909410784734 -49.608065005922185 0 -49.608065005922185 49.805760719884574 0 0 0 0 207.52574614266086 38.75832696497514 0 38.75832696497514 29.742854217207423 0 0 0 0 248.98906026660916 -93.75104003873048 0 -93.75104003873048 -69.771870512853866 0 0 0 0 177.11758416846715 -80.019151556048655 0 -80.019151556048655 -50.718330290487984 0 0 0 0 139.08067838795614 -87.20225434198494 0 -87.20225434198494 -8.1546820565399685 0 0 0 0 129.20233907397778 -111.4247991817756 0 -111.4247991817756 -67.209547136713923 0 0 0 0 162.31963560969598 -157.41189639712979 0 -157.41189639712979 -8.0219067326825098 0 0 0 0 28.045989930191396 -17.485876440098185 0 -17.485876440098185 24.593360667770099 0 0 0 0 172.59404123665217 -150.86895784465736 0 -150.86895784465736 -99.499436947602135 0 0 0 0 177.53940194764323 -85.958910545417893 0 -85.958910545417893 -131.48244169680765 0 0 0 0 -310.66903093135807 -62.671877211180572 0 -62.671877211180572 789.74673086492089 0 0 0 0 704.88093006315012 276.75314109468098 0 276.75314109468098 -843.86250360579788 0 0 0 0 69.986907027886573 -19.456968657637077 0 -19.456968657637077 1.4481301494513688 0 0 0 0 -19.759953405959095 113.87748113994871 0 113.87748113994871 256.15896360812275 0 0 0 0 77.056637078034328 -121.40429447137046 0 -121.40429447137046 61.335344721050546 0 0 0 0 6.6756342034521126 0.30322880218891246 0 0.30322880218891246 -0.37652916429666394 0 0 0 0 -8.9592082847375423 -26.790544199621536 0 -26.790544199621536 -24.613249821867214 0 0 0 0 136.77377455650276 -21.522350325904654 0 -21.522350325904654 -33.486539513956018 0 0 0 0 91.045606468334881 38.032683264695947 0 38.032683264695947 -84.122656243879646 0 0 0 0 49.978371127286664 -96.11944695801526 0 -96.11944695801526 -30.205986805224711 0 0 0 0 67.375201621193412 -7.7227566277367599 0 -7.7227566277367599 -6.9495333715385152 0 0 0 0 91.501050651265814 57.347672711120381 0 57.347672711120381 55.245823157716131 0 0 0 0 193.12581469637371 104.37188199527859 0 104.37188199527859 43.221161646559949 0 0 0 0 47.225743375864113 -1.318336662033289 0 -1.318336662033289 -13.080056632780952 0 0 0 0 -15.022655453476546 -63.09091536605731 0 -63.09091536605731 -21.66354658888315 0 0 0 0 148.68630995592321 13.588849806601388 0 13.588849806601388 -46.776845587030664 0 0 0 0 21.587067536524312 3.9198980427420658 0 3.9198980427420658 2.9373401700154296 0 0 0 0 38.121171144171967 -5.3882581853516029 0 -5.3882581853516029 -42.917008760081387 0 0 0 0 58.7308626146405 -55.142596992354825 0 -55.142596992354825 -16.265632546401434 0 0 0 0 268.79890090955087 97.311411649244604 0 97.311411649244604 -11.643090625335532 0 0 0 0 191.29723906154504 -54.042980265057452 0 -54.042980265057452 -56.412462674075471 0 0 0 0 -1.8354569688625553 -0.39845031688301091 0 -0.39845031688301091 0.25693885794140425 0 0 0 0 -91.551853991221833 -132.42280381239871 0 -132.42280381239871 -44.143534145286196 0 0 0 0 42.290140965795217 -56.991240128975974 0 -56.991240128975974 -74.571311851844484 0 0 0 0 50.802699440823559 -6.1070536235993034 0 -6.1070536235993034 -7.1729936204967224 0 0 0 0 99.706934742191152 -66.447987769772169 0 -66.447987769772169 -47.391506292303291 0 0 0 0 25.119110218067362 18.6344657067649 0 18.6344657067649 66.266399940369013 0 0 0 0 80.803181087880148 12.455495245774273 0 12.455495245774273 22.326952418629389 0 0 0 0 42.742493074126742 16.743890108398773 0 16.743890108398773 63.985924087741296 0 0 0 0 152.76881267418776 33.664384794454321 0 33.664384794454321 -34.374008740809245 0 0 0 0 61.2085462752285 -8.4784991426734866 0 -8.4784991426734866 -8.5517743864543938 0 0 0 0 15.929759914002055 4.778067716587163 0 4.778067716587163 1.6800780457242448 0 0 0 0 59.183775739684734 47.307420652588576 0 47.307420652588576 62.814649498719518 0 0 0 0 39.392959846624308 50.311242860413586 0 50.311242860413586 22.759311277925462 0 0 0 0 94.371736667355435 13.642214394900293 0 13.642214394900293 37.609526103833559 0 0 0 0 -12.277840466979796 -5.0808856171493062 0 -5.0808856171493062 44.651845211257978 0 0 0 0 10.738115640014961 -20.130746700616722 0 -20.130746700616722 21.013572098110245 0 0 0 0 71.070867429270407 -10.723142216780253 0 -10.723142216780253 -9.0549163348840747 0 0 0 0 131.04766657840537 58.00492027880091 0 58.00492027880091 11.440036685699852 0 0 0 0 143.98360667890847 4.3036008494304951 0 4.3036008494304951 9.1326046246349506 0 0 0 0 18.709168295009221 1.7458761993098486 0 1.7458761993098486 5.3469445215224773 0 0 0 0 45.714923585117504 -22.411701703922574 0 -22.411701703922574 -45.715780202032732 0 0 0 0 42.523786749374267 -43.986725975637881 0 -43.986725975637881 -56.533638195753156 0 0 0 0 27.995715331147949 -38.43419908111477 0 -38.43419908111477 -56.05407597738531 0 0 0 0 58.823409141399679 -45.057328754112945 0 -45.057328754112945 -77.240796091138805 0 0 0 0 59.795209981984954 -34.316577860357398 0 -34.316577860357398 -67.950673493668177 0 0 0 0 43.460677160319392 -47.372019965644526 0 -47.372019965644526 -68.666716269773303 0 0 0 0 43.596859342580501 -27.561668156118046 0 -27.561668156118046 -49.761439032970088 0 0 0 0 161.7087405112361 -6.3807674634564933 0 -6.3807674634564933 -51.097126602140008 0 0 0 0 -54.863827093957298 -88.07236110557362 0 -88.07236110557362 57.89258314193205 0 0 0 0 -0.063457042538537678 -0.50538957630307024 0 -0.50538957630307024 1.0838550518187353 0 0 0 0 118.46884130531362 -24.97170821527402 0 -24.97170821527402 42.638006654810397 0 0 0 0 62.377078884528601 -65.479626192137175 0 -65.479626192137175 58.864897893323132 0 0 0 0 53.75357096578955 -4.2490145935921646 0 -4.2490145935921646 54.32564033416611 0 0 0 0 52.854040372607415 -11.479269461267251 0 -11.479269461267251 48.336628436016326 0 0 0 0 93.010426618444399 0.75350104525625738 0 0.75350104525625738 39.840700622458371 0 0 0 0 36.386872249997396 -46.696055897114888 0 -46.696055897114888 91.06746498222833 0 0 0 0 43.960033464366916 -70.10067137239507 0 -70.10067137239507 -19.601608790881983 0 0 0 0 71.915910155423262 -60.341412496200491 0 -60.341412496200491 -74.114437306174011 0 0 0 0 56.579208889957954 -36.543301453927029 0 -36.543301453927029 -23.026363362650272 0 0 0 0 65.424927512078284 -38.619278915764994 0 -38.619278915764994 -27.100766868309449 0 0 0 0 55.012606115671588 -35.78685081638406 0 -35.78685081638406 17.353659525418152 0 0 0 0 73.704972660994827 -49.844918952729586 0 -49.844918952729586 43.775536565777884 0 0 0 0 57.885544967302849 -36.971787061397663 0 -36.971787061397663 17.098300454180844 0 0 0 0 54.651365803860244 -13.511383443018531 0 -13.511383443018531 50.60713771295309 0 0 0 0 36.891347849399608 -40.477012267884675 0 -40.477012267884675 55.311035191768724 0 0 0 0 55.687841284456226 -16.826906184372547 0 -16.826906184372547 45.053030953257348 0 0 0 0 60.28775435908392 -9.3618858004665526 0 -9.3618858004665526 40.624237382638967 0 0 0 0 -111.62103393029247 -183.82171337928366 0 -183.82171337928366 -65.552968479730339 0 0 0 0 70.020191057952246 -15.555862368417706 0 -15.555862368417706 -0.20537607761693355 0 0 0 0 61.270385262188938 -14.357953006414164 0 -14.357953006414164 36.659506533246031 0 0 0 0 80.286827608688327 -21.115156163211395 0 -21.115156163211395 27.745247621869112 0 0 0 0 58.37984126383526 -49.496570130782402 0 -49.496570130782402 -17.560563045636172 0 0 0 0 110.86391401823494 98.840258544620156 0 98.840258544620156 -23.982925444928696 0 0 0 0 -26.286863155375613 -14.260491299839373 0 -14.260491299839373 -30.492639380340734 0 0 0 0 31.178594117896864 -254.49021732698498 0 -254.49021732698498 -341.92219986694636 0 0 0 0 8.1152096234428797 -8.5198715627979382 0 -8.5198715627979382 -4.9465612760215105 0 0 0 0 40.183725975810376 -72.0926392666006 0 -72.0926392666006 -36.094003962278293 0 0 0 0 111.7133378040453 -107.98302101784645 0 -107.98302101784645 -146.55726418141603 0 0 0 0 23.889182238082867 -81.237023395402957 0 -81.237023395402957 -41.179696490735409 0 0 0 0 10.815114417194089 -2.0366503416154416 0 -2.0366503416154416 3.9786937620727496 0 0 0 0 110.65315206520245 -25.098645971168935 0 -25.098645971168935 7.4353497421298016 0 0 0 0 154.76087284248206 -13.450642714532023 0 -13.450642714532023 -5.6510991707291396 0 0 0 0 196.32514074267965 -34.366392686384415 0 -34.366392686384415 -77.618063848120073 0 0 0 0 140.48693053290754 101.87262753612026 0 101.87262753612026 -29.352740359826385 0 0 0 0 116.39616528131228 -82.043501064238512 0 -82.043501064238512 -95.172761124082172 0 0 0 0 36.261962276897975 -53.483607192226827 0 -53.483607192226827 33.8854732794548 0 0 0 0 95.591528531243966 41.014257428658311 0 41.014257428658311 17.261635637380778 0 0 0 0 35.497318826781438 -12.693250367490194 0 -12.693250367490194 8.7817160848128744 0 0 0 0 -63.606552536240542 -177.08590796789173 0 -177.08590796789173 -71.289782559307241 0 0 0 0 62.777461469173431 -191.72999541451964 0 -191.72999541451964 -217.40436060850016 0 0 0 0 65.508148736307021 -13.910792620438334 0 -13.910792620438334 3.043286383001373 0 0 0 0 297.51588194032956 -87.256805618304043 0 -87.256805618304043 -382.80022919344628 0 0 0 0 84.780606458505645 -14.494279951902627 0 -14.494279951902627 52.930228995074003 0 0 0 0 61.482658934335632 0.8789046417064128 0 0.8789046417064128 51.988495508503888 0 0 0 0 62.043349097784812 -5.4980900254254266 0 -5.4980900254254266 47.81303892518531 0 0 0 0 762.97711565524514 370.85436868959005 0 370.85436868959005 -138.32513438605019 0 0 0 0 -448.39854364974599 81.688579249655959 0 81.688579249655959 242.39507116930963 0 0 0 0 143.45346447944758 -82.395869805429811 0 -82.395869805429811 -101.06987019937424 0 0 0 0 156.37306725616509 -95.598698379137886 0 -95.598698379137886 -160.93518214810229 0 0 0 0 666.93282578334947 50.987627901411543 0 50.987627901411543 -496.73551720378964 0 0 0 0 -22.865004748280626 -162.20144475349844 0 -162.20144475349844 -212.28388016340796 0 0 0 0 -631.09295635278977 -301.937241460976 0 -301.937241460976 942.56607854448373 0 0 0 0 479.47156317673944 -626.45655041466239 0 -626.45655041466239 141.91977552950812 0 0 0 0 726.35050938521454 -390.39673187406595 0 -390.39673187406595 -276.06651054449986 0 0 0 0 -93.60523424285816 65.966660821058909 0 65.966660821058909 -265.96134314019605 0 0 0 0 334.18845535809669 277.80410329169445 0 277.80410329169445 105.25064765883144 0 0 0 0 9.9724538227911523 -5.4548832127537921 0 -5.4548832127537921 1.2232157968839212 0 0 0 0 201.87178999371463 5.7175307088209593 0 5.7175307088209593 -55.737113184418376 0 0 0 0 81.854990426085351 -8.1908904363333477 0 -8.1908904363333477 122.92817799396562 0 0 0 0 27.551011747992469 -2.3517361773756988 0 -2.3517361773756988 -3.1240417530469955 0 0 0 0 135.35386854722947 12.994630444095492 0 12.994630444095492 -55.391942895956163 0 0 0 0 136.24822349607348 39.256616250960633 0 39.256616250960633 73.632178990572356 0 0 0 0 122.64622527395841 24.581870253716716 0 24.581870253716716 -17.064402261225723 0 0 0 0 89.517399777828757 9.1190389887314538 0 9.1190389887314538 -11.51049162470496 0 0 0 0 92.236900303902075 33.643696021504638 0 33.643696021504638 3.4914306245991611 0 0 0 0 195.11193704452853 112.72122431340993 0 112.72122431340993 -156.79216536916255 0 0 0 0 27.616417947678123 16.700330222824448 0 16.700330222824448 -14.775804496067471 0 0 0 0 158.68381238017059 6.2921991874335186 0 6.2921991874335186 -14.147618207945412 0 0 0 0 293.65996481951515 79.429007463473909 0 79.429007463473909 -116.97197990166524 0 0 0 0 139.34084380094646 20.996398264233449 0 20.996398264233449 -123.7302431555363 0 0 0 0 -355.44084543809731 173.28208783421275 0 173.28208783421275 85.403502424782801 0 0 0 0 69.081850818698513 10.669027447979147 0 10.669027447979147 59.498145255049621 0 0 0 0 90.118113896776777 210.09597577490752 0 210.09597577490752 -83.076935606768131 0 0 0 0 44.984695301387546 52.84744044074273 0 52.84744044074273 84.595228268309484 0 0 0 0 35.819323236167435 -4.0321667912836343 0 -4.0321667912836343 0.39951623039708761 0 0 0 0 -31.054109386584969 -244.57266409235478 0 -244.57266409235478 434.83211498425771 0 0 0 0 117.71232847038118 -166.01914552579623 0 -166.01914552579623 279.20338197253221 0 0 0 0 -11.815710309723727 20.141312467142427 0 20.141312467142427 250.68424716721739 0 0 0 0 63.21417657656275 -60.12827999228152 0 -60.12827999228152 104.04308526777764 0 0 0 0 15.64491780778917 65.758536615817377 0 65.758536615817377 102.92400218705546 0 0 0 0 21.505120798530697 36.053507604867548 0 36.053507604867548 142.65199989995432 0 0 0 0 21.177777044218601 25.154301460138356 0 25.154301460138356 88.107140333011557 0 0 0 0 43.243935495484038 13.619759951086621 0 13.619759951086621 50.909833171841569 0 0 0 0 0.6904998483187228 1.4723418307677605 0 1.4723418307677605 66.859920181016918 0 0 0 0 19.902122170307848 27.053695655375577 0 27.053695655375577 79.246112408335648 0 0 0 0 66.245110060375737 41.399542827430196 0 41.399542827430196 85.25786208777123 0 0 0 0 70.809314531819837 1.9559370208908149 0 1.9559370208908149 91.59921177319552 0 0 0 0 -4.3452307511088293 -2.2073785538812558 0 -2.2073785538812558 113.98074460550561 0 0 0 0 29.704587422296754 -18.675342277916343 0 -18.675342277916343 121.89149386269355 0 0 0 0 54.998976850567757 -9.8299684231658624 0 -9.8299684231658624 1.4467416230262402 0 0 0 0 5.3092410778845078 3.1273663437796131 0 3.1273663437796131 138.19543640312065 0 0 0 0 23.054029492122936 11.447410864392168 0 11.447410864392168 115.34366379195319 0 0 0 0 14.65672590514987 -15.188751387805894 0 -15.188751387805894 67.324610751686123 0 0 0 0 -62.175259696234207 3.5597182262108902 0 3.5597182262108902 62.961006742691623 0 0 0 0 -28.282815500308061 -96.282877927796108 0 -96.282877927796108 -42.426476688040012 0 0 0 0 11.732631269069316 -3.7882350709921155 0 -3.7882350709921155 -49.017434391299815 0 0 0 0 0.72768079899782379 -1.1846240769339609 0 -1.1846240769339609 1.3466431651574629 0 0 0 0 -26.591372397177054 -38.508593773524616 0 -38.508593773524616 20.171079054543966 0 0 0 0 50.457903579339472 -27.264244916893318 0 -27.264244916893318 -7.3326303426866417 0 0 0 0 27.321448516633609 -45.345459082256696 0 -45.345459082256696 -78.215544818405647 0 0 0 0 -16.666384547148482 -34.042303932551931 0 -34.042303932551931 -46.751324009862742 0 0 0 0 0.25206659450495295 -0.61090204903424095 0 -0.61090204903424095 0.83509337955738017 0 0 0 0 -29.37381462457779 -121.76987966662044 0 -121.76987966662044 -43.967017055229348 0 0 0 0 37.604608494639251 -62.570658291602285 0 -62.570658291602285 -47.169188545113457 0 0 0 0 45.907744238687883 -79.481860687933704 0 -79.481860687933704 -57.954845366034135 0 0 0 0 31.793288033413774 -58.006602110391242 0 -58.006602110391242 -42.041765861663066 0 0 0 0 229.67403991032916 43.982781941227586 0 43.982781941227586 -8.497630763164679 0 0 0 0 194.45631718916047 -93.641431748114712 0 -93.641431748114712 -58.172721138776524 0 0 0 0 169.27850733021796 -15.800118014381795 0 -15.800118014381795 -50.968798050133046 0 0 0 0 226.47099894122221 -120.58021025912917 0 -120.58021025912917 -85.050934866731112 0 0 0 0 257.93506887391322 11.969442717526476 0 11.969442717526476 -159.4177602971796 0 0 0 0 203.44481269416428 -217.68947846993183 0 -217.68947846993183 -110.34341965991793 0 0 0 0 276.69737655651807 -224.54929580549305 0 -224.54929580549305 -430.24343083612951 0 0 0 0 283.97179073511961 -157.19411461741228 0 -157.19411461741228 -101.31385644795049 0 0 0 0 81.54880881157078 -26.744576153954853 0 -26.744576153954853 -65.562325181109912 0 0 0 0 267.26606850640565 -58.169125974567095 0 -58.169125974567095 -66.716091662383093 0 0 0 0 176.85792130539994 -105.93909731328922 0 -105.93909731328922 -4.9895603600334084 0 0 0 0 50.412353522845166 -24.027375608017046 0 -24.027375608017046 52.86052770416066 0 0 0 0 158.4081396206102 -179.00551722394627 0 -179.00551722394627 4.098972770779838 0 0 0 0 151.91110411247791 -269.97316819598745 0 -269.97316819598745 15.953800512203138 0 0 0 0 115.07210583873893 -227.07337977210247 0 -227.07337977210247 155.37672689986914 0 0 0 0 50.524287687120705 -81.513037310767757 0 -81.513037310767757 173.20936887254294 0 0 0 0 180.5174509620374 -105.24097147840283 0 -105.24097147840283 203.95430560307761 0 0 0 0 196.3357046156234 -171.73965598112829 0 -171.73965598112829 415.50063666492701 0 0 0 0 149.95430109329664 -260.42889041251482 0 -260.42889041251482 260.31741878868911 0 0 0 0 122.31331304039122 -144.89380072235198 0 -144.89380072235198 433.0804995128492 0 0 0 0 654.08123117825744 138.01330028686021 0 138.01330028686021 407.35838070657275 0 0 0 0 394.45719860007011 -306.69654730834054 0 -306.69654730834054 -70.655272348655771 0 0 0 0 51.079466315532045 44.589342394140374 0 44.589342394140374 -350.27703169270535 0 0 0 0 242.53358138090334 -332.96185895020471 0 -332.96185895020471 -58.851048826917889 0 0 0 0 -45.661494195857813 -534.18219553254141 0 -534.18219553254141 -492.47581878385881 0 0 0 0 166.17209334053769 -218.77564931923749 0 -218.77564931923749 -62.874915243278394 0 0 0 0 390.86719917168375 5.4128373755703478 0 5.4128373755703478 -159.29159832302241 0 0 0 0 378.99531518615595 -134.43769139393294 0 -134.43769139393294 -827.55127993932069 0 0 0 0 21.578237957825827 2.8325324816078208 0 2.8325324816078208 -2.6431553619947694 0 0 0 0 480.9377045396468 260.71407363536451 0 260.71407363536451 -354.86021288960183 0 0 0 0 -172.04249022092336 -411.20575992461079 0 -411.20575992461079 -751.3814391177691 0 0 0 0 457.94887619091787 -66.854211235122932 0 -66.854211235122932 -1028.6665773452185 0 0 0 0 172.08560757982741 197.2225269123885 0 197.2225269123885 -198.45300966597301 0 0 0 0 64.599846186762065 9.6288618588129147 0 9.6288618588129147 -3.5708148251348555 0 0 0 0 -149.72946841004614 30.634581203699682 0 30.634581203699682 -23.043047686732091 0 0 0 0 63.405012616199315 -139.94284773510321 0 -139.94284773510321 9.4908313845727434 0 0 0 0 38.449001181113964 -9.933263762828668 0 -9.933263762828668 -4.1291299074468748 0 0 0 0 398.30017542204587 4.6144846630512575 0 4.6144846630512575 -74.816965057834068 0 0 0 0 -5.7949923405150745 55.261376838355417 0 55.261376838355417 2.1627480863617574 0 0 0 0 247.90060640292722 33.124437507740765 0 33.124437507740765 46.274235565050958 0 0 0 0 436.58356919874495 83.603705846961475 0 83.603705846961475 -0.93077219891802088 0 0 0 0 64.05471846772096 32.966334860215007 0 32.966334860215007 -3.5209605364703984 0 0 0 0 2806.4448012450057 -632.56915256205355 0 -632.56915256205355 -739.32700142070632 0 0 0 0 5488.0643561633242 -1057.7896560300364 0 -1057.7896560300364 -685.46144810011697 0 0 0 0 99.851098347702248 382.18750065872234 0 382.18750065872234 363.86174680953621 0 0 0 0 85.689423099603857 -264.3500328673282 0 -264.3500328673282 518.06525627866722 0 0 0 0 2431.4046155722062 -2045.222108690486 0 -2045.222108690486 1255.0253056385363 0 0 0 0 29.671943466367058 3.6657879334836441 0 3.6657879334836441 2.2283788041120971 0 0 0 0 5487.0055691258312 1642.4380908349112 0 1642.4380908349112 -684.73626535739061 0 0 0 0 1534.273277106231 2044.4286935458399 0 2044.4286935458399 743.19890231923239 0 0 0 0 663.95874988196101 554.71801554659908 0 554.71801554659908 576.33778483766764 0 0 0 0 22.133344366749952 -406.57201623070807 0 -406.57201623070807 -175.27932540216182 0 0 0 0 2498.3076398163212 428.23522779766557 0 428.23522779766557 60.906022220737611 0 0 0 0 1176.1167234759487 176.8245826607594 0 176.8245826607594 114.83806159572904 0 0 0 0 2475.2056248520466 656.69441040014158 0 656.69441040014158 -538.09968276166762 0 0 0 0 3653.5878167830124 477.65627336500859 0 477.65627336500859 -511.94039798253056 0 0 0 0 5503.2210101228102 -962.21481304108852 0 -962.21481304108852 -434.7055279771011 0 0 0 0 4935.2260872802544 -1322.9367801653934 0 -1322.9367801653934 -472.45296673146333 0 0 0 0 5059.4883915654573 -1163.119202797943 0 -1163.119202797943 -522.75557836116786 0 0 0 0 -821.46485523011506 -307.94114588462139 0 -307.94114588462139 367.84798449208154 0 0 0 0 864.79635548681836 -829.609014958736 0 -829.609014958736 459.84947986066999 0 0 0 0 3.2981765783167276 -4.4601373066220091 0 -4.4601373066220091 2.9413204984313364 0 0 0 0 2908.0395148494208 -634.71049077598605 0 -634.71049077598605 139.27194062431198 0 0 0 0 1007.2135768374128 -87.266609459403767 0 -87.266609459403767 403.85625453679728 0 0 0 0 646.3424563114786 188.76884164388821 0 188.76884164388821 643.28182849179416 0 0 0 0 231.69514761077517 -112.45943433276267 0 -112.45943433276267 169.37913740674583 0 0 0 0 650.17375947790424 126.30615098719306 0 126.30615098719306 278.98630256732685 0 0 0 0 11.313510909660636 -0.5957274587324255 0 -0.5957274587324255 0.33162590274454284 0 0 0 0 -821.8652435834374 724.03449066407416 0 724.03449066407416 326.76265939338543 0 0 0 0 -2.341270415419217 1.4638560825504001 0 1.4638560825504001 -5.7438518409690342 0 0 0 0 -484.27381387279456 529.24275997838504 0 529.24275997838504 67.606921322430935 0 0 0 0 1115.5161753781758 916.33626452874125 0 916.33626452874125 -111.38185109038659 0 0 0 0 557.94705261508716 119.64372595339557 0 119.64372595339557 779.25818290479697 0 0 0 0 1694.5234255842079 -194.80173117198788 0 -194.80173117198788 -165.57194174237156 0 0 0 0 394.72008747413929 124.9092265579074 0 124.9092265579074 -226.11102903811377 0 0 0 0 522.34312811931886 83.881559970891715 0 83.881559970891715 -267.74418656174942 0 0 0 0 319.66005130250051 -92.645837235104096 0 -92.645837235104096 -351.49584802738525 0 0 0 0 483.39095061378248 311.75112281121159 0 311.75112281121159 -104.76061180327417 0 0 0 0 154.62105156497637 150.91460785732991 0 150.91460785732991 -48.352157821044003 0 0 0 0 169.5442869226099 4.2664891864424135 0 4.2664891864424135 -61.642429488711969 0 0 0 0 200.4241600645837 51.532847850685357 0 51.532847850685357 -6.5317989400064107 0 0 0 0 280.66301589339128 -70.961031979824043 0 -70.961031979824043 -359.41561361246374 0 0 0 0 145.6029177939829 13.267033978057402 0 13.267033978057402 -4.755042012515565 0 0 0 0 15.806404527492198 19.370162317221002 0 19.370162317221002 25.301588266238213 0 0 0 0 3384.5550688090898 3346.5996051571747 0 3346.5996051571747 3267.4280730269816 0 0 0 0 37.336893669896313 2.4471737691438564 0 2.4471737691438564 7.6332647162128398 0 0 0 0 1051.6642835460989 -1286.3966672766783 0 -1286.3966672766783 1761.5089514681952 0 0 0 0 5309.5610288050739 -1348.7669309840719 0 -1348.7669309840719 -642.45426841411233 0 0 0 0 5490.1036235749962 -1162.7229100549125 0 -1162.7229100549125 -655.88877289829713 0 0 0 0 -265.86739092155403 -352.66026874370829 0 -352.66026874370829 -202.58267752115535 0 0 0 0 34.058262781225721 0.50049607217815151 0 0.50049607217815151 1.3971606012603321 0 0 0 0 544.7013021465998 -465.280200457864 0 -465.280200457864 -280.19423842434094 0 0 0 0 38.300615364105397 18.607148168616959 0 18.607148168616959 3.0810391506993753 0 0 0 0 -53.161990273997048 -37.362677801486683 0 -37.362677801486683 19.968683945080102 0 0 0 0 -1.0357663084136757 2.8738255693008075 0 2.8738255693008075 6.3843824031180851 0 0 0 0 -28.064668365284888 -15.238484931285143 0 -15.238484931285143 12.791690792738507 0 0 0 0 -15.952338256862276 -34.128355816454359 0 -34.128355816454359 -4.5584974173448245 0 0 0 0 -20.887171124806628 -16.146228751608305 0 -16.146228751608305 11.261799642389292 0 0 0 0 11.050261247032722 1.7745840543773284 0 1.7745840543773284 -47.7803908634246 0 0 0 0 6.0766854105704384 1.3356033599864432 0 1.3356033599864432 4.9358493575377551 0 0 0 0 57.250785847585576 6.7360663198417114 0 6.7360663198417114 2.6402704246365829 0 0 0 0 61.670043708432786 7.1602423684087171 0 7.1602423684087171 -1.6002787330248793 0 0 0 0 41.776441612588314 28.572419447232733 0 28.572419447232733 4.5541024413655578 0 0 0 0 38.57245060453306 23.305874631817915 0 23.305874631817915 -0.57390189992565865 0 0 0 0 -127.57180374452685 106.22961047803689 0 106.22961047803689 50.387235481228437 0 0 0 0 -8.1285688478924119 7.3254524182066785 0 7.3254524182066785 -6.8484996105102951 0 0 0 0 35.115958516104456 31.654889295105875 0 31.654889295105875 -83.511300810165721 0 0 0 0 -1.7110787452366925 2.1083238517667997 0 2.1083238517667997 -2.9718925641401555 0 0 0 0 20.109776857503675 20.721438867373763 0 20.721438867373763 2.8587453167758667 0 0 0 0 41.061643259312746 18.654576328584028 0 18.654576328584028 -28.795629649403963 0 0 0 0 21.024561475891915 56.745197169207131 0 56.745197169207131 -22.68738264909598 0 0 0 0 27.030294813163891 38.518398096272222 0 38.518398096272222 7.2066036998367053 0 0 0 0 -126.95668213943736 134.89653927290237 0 134.89653927290237 -58.047648293409793 0 0 0 0 5.1140748142356642 62.608884195634118 0 62.608884195634118 14.704806442360677 0 0 0 0 7.4544799071199463 53.878639643999463 0 53.878639643999463 -11.722346225307319 0 0 0 0 -7.0821152262742544 97.323975116987867 0 97.323975116987867 34.544312405128039 0 0 0 0 -17.753681231766677 48.459300917699693 0 48.459300917699693 101.83016908751961 0 0 0 0 -16.602879302329484 48.769527374766938 0 48.769527374766938 44.24049708400571 0 0 0 0 3.0804916215511184 13.588937074974638 0 13.588937074974638 61.900580163722225 0 0 0 0 -14.033966733199122 -3.6605938954501198 0 -3.6605938954501198 120.49339370409143 0 0 0 0 -49.592997929627018 29.230103449174294 0 29.230103449174294 91.015250356710567 0 0 0 0 -137.01865825211098 -1.668725231717417 0 -1.668725231717417 169.31712313978323 0 0 0 0 5.9731303763499639 44.912500545421373 0 44.912500545421373 17.610307677877699 0 0 0 0 5.9744669160372723 42.910893431764862 0 42.910893431764862 31.738122201513306 0 0 0 0 -0.30102432476633112 28.890779212631287 0 28.890779212631287 40.064625770094608 0 0 0 0 2.8304248989215921 17.387066392717543 0 17.387066392717543 67.246549405266023 0 0 0 0 5.4025692480472571 27.149226337949585 0 27.149226337949585 30.219552272028636 0 0 0 0 11.605708720231632 21.592579489018249 0 21.592579489018249 14.146620885923994 0 0 0 0 -0.52221035103048652 2.8314378627612289 0 2.8314378627612289 7.3451554873083227 0 0 0 0 8.6669344791553158 20.685338431069226 0 20.685338431069226 16.131624387573538 0 0 0 0 21.381939879736592 24.729375100359903 0 24.729375100359903 7.1697826146710213 0 0 0 0 53.872000875100639 15.105795587596731 0 15.105795587596731 -3.525174188167739 0 0 0 0 -17.184891209200941 -18.197855242083506 0 -18.197855242083506 -41.431155620648383 0 0 0 0 -17.045619336843316 -24.184035722269488 0 -24.184035722269488 30.216988543354546 0 0 0 0 17.919636161939707 -25.722542235616061 0 -25.722542235616061 -13.089681768305127 0 0 0 0 -136.27685253252002 -6.0084772169632572 0 -6.0084772169632572 56.890522293313921 0 0 0 0 -11.537565530938991 -84.887154826547587 0 -84.887154826547587 26.274513505519678 0 0 0 0 91.200486900341275 0.042477849063743633 0 0.042477849063743633 3.2897722099465909 0 0 0 0 0.025447227105861003 -0.4516687522694145 0 -0.4516687522694145 1.6547939048361049 0 0 0 0 36.170825615045942 67.49797153040808 0 67.49797153040808 67.782778273262579 0 0 0 0 91.245542443386512 -1.7761407243365568 0 -1.7761407243365568 -22.92439566221762 0 0 0 0 73.626909153166821 51.231531015496707 0 51.231531015496707 -11.976726226299775 0 0 0 0 145.46415956181954 81.566709448047789 0 81.566709448047789 57.792093037518612 0 0 0 0 75.809730668396355 69.485980633686026 0 69.485980633686026 72.848356529183206 0 0 0 0 69.10380428011922 61.896766988033221 0 61.896766988033221 30.053682034138092 0 0 0 0 143.01253361434647 31.628004623706346 0 31.628004623706346 27.011528428313625 0 0 0 0 2.4098084065080911 16.509517069574571 0 16.509517069574571 46.446488164562261 0 0 0 0 -5.5695279976971506 -49.87617266325492 0 -49.87617266325492 -13.10572924300179 0 0 0 0 17.277566000122533 -20.621710153666754 0 -20.621710153666754 8.0503575922589334 0 0 0 0 5.0394882178898115 -41.246622734386676 0 -41.246622734386676 34.735562174173765 0 0 0 0 119.10464868052077 -1.273790455039034 0 -1.273790455039034 11.343378643879419 0 0 0 0 -0.6217817682244835 0.53724809906566939 0 0.53724809906566939 0.82109060469468242 0 0 0 0 40.13912900019659 -11.463870574225531 0 -11.463870574225531 -39.050996387254713 0 0 0 0 154.20248963163431 37.292220787179815 0 37.292220787179815 71.559371478331173 0 0 0 0 339.2065545601854 44.187617122168241 0 44.187617122168241 17.403914400914431 0 0 0 0 208.1555910449888 111.60195123313795 0 111.60195123313795 67.683322364882116 0 0 0 0 468.51069336059118 -84.415240160811663 0 -84.415240160811663 71.947421273583132 0 0 0 0 0.78840739611278265 -1.4249747470448284 0 -1.4249747470448284 48.585085532741743 0 0 0 0 1.1788999740503074 -1.3409476417770598 0 -1.3409476417770598 48.372565625577543 0 0 0 0 631.30999205733315 -28.197843415343414 0 -28.197843415343414 16.038225759819397 0 0 0 0 252.0793448607983 -69.286131613311795 0 -69.286131613311795 27.688341302291093 0 0 0 0 118.76331591108283 31.48145092879254 0 31.48145092879254 115.83858879030439 0 0 0 0 45.654171259045143 85.709359453034835 0 85.709359453034835 163.07958384737242 0 0 0 0 524.31402459096626 103.11641442664734 0 103.11641442664734 -19.352179953344034 0 0 0 0 0.6686067542009777 -0.57992774976205475 0 -0.57992774976205475 0.47781565656005498 0 0 0 0 -46.151869511131736 -56.241907734017133 0 -56.241907734017133 41.793457680076926 0 0 0 0 0.20948922677422388 -1.7895265398399491 0 -1.7895265398399491 3.5885748344655286 0 0 0 0 -1.0741762119291707 10.57745139562499 0 10.57745139562499 0.14846311364567555 0 0 0 0 26.125986650455161 -16.73942446568924 0 -16.73942446568924 -11.940653503128033 0 0 0 0 -21.208969341611407 -9.3574177962036131 0 -9.3574177962036131 10.299821990463442 0 0 0 0 5.8825429528351378 -5.0333991403083473 0 -5.0333991403083473 7.4240625489578065 0 0 0 0 -92.031898640456347 70.023953753587534 0 70.023953753587534 38.320475365600373 0 0 0 0 203.40953095267741 44.835985068403232 0 44.835985068403232 -91.318809853093626 0 0 0 0 125.23238740817078 33.991396438900267 0 33.991396438900267 27.88577093590493 0 0 0 0 14.338979607491865 15.830958039456334 0 15.830958039456334 0.48071583444561838 0 0 0 0 1.9629860081423374 -2.2420718133373541 0 -2.2420718133373541 1.5760363258287415 0 0 0 0 -5.5333168967727033 -99.608665751716899 0 -99.608665751716899 89.799200538160107 0 0 0 0 -25.918138388537955 11.608303103780258 0 11.608303103780258 8.513515575218662 0 0 0 0 0.12125476695862769 -1.7527924192342361 0 -1.7527924192342361 2.67038471863113 0 0 0 0 6.0922656494258263 -14.687615224515184 0 -14.687615224515184 11.404465575582776 0 0 0 0 -39.41189623217906 -35.283341972605285 0 -35.283341972605285 -25.995087368234636 0 0 0 0 20.763668877429154 -42.245698181938224 0 -42.245698181938224 -56.359874414595197 0 0 0 0 -0.00033074767462459853 -1.2441730406062756 0 -1.2441730406062756 1.0638524041599098 0 0 0 0 9.3616237263076982 -44.217599269975608 0 -44.217599269975608 47.981093120163678 0 0 0 0 -153.25434008783304 -23.830649023273963 0 -23.830649023273963 -18.884365802947286 0 0 0 0 -221.36402842555799 -78.761667516937678 0 -78.761667516937678 119.03319411701978 0 0 0 0 9.2797956568356312 4.3865814211519591 0 4.3865814211519591 -14.770030241621953 0 0 0 0 10.664417843710453 -3.5963525190306314 0 -3.5963525190306314 31.246306878200812 0 0 0 0 31.930716433134876 12.080307304684993 0 12.080307304684993 34.997947468466464 0 0 0 0 -154.68946605910969 -66.395344264052255 0 -66.395344264052255 130.2893284682541 0 0 0 0 -43.489838666591432 -60.005656639895072 0 -60.005656639895072 117.91594768756386 0 0 0 0 -43.367303020011974 22.0128488278669 0 22.0128488278669 119.81199717701747 0 0 0 0 -104.95285891114327 13.495624723666879 0 13.495624723666879 118.78393923107774 0 0 0 0 -39.523048776462929 52.433131741508191 0 52.433131741508191 104.24557168523461 0 0 0 0 -52.20850231935492 113.58723138344851 0 113.58723138344851 171.3306703853068 0 0 0 0 -131.53742725928532 -6.3744642305830439 0 -6.3744642305830439 82.630062788139185 0 0 0 0 -171.97581793431164 5.8871934498938572 0 5.8871934498938572 132.42223924574228 0 0 0 0 -117.96433366178826 65.35763242036046 0 65.35763242036046 179.84702683715841 0 0 0 0 -82.506210542964254 -8.466934645272886 0 -8.466934645272886 84.997092593888738 0 0 0 0 -184.29481256360305 -43.73172616899501 0 -43.73172616899501 87.5277510220061 0 0 0 0 -141.15897669566766 -43.61239921293145 0 -43.61239921293145 32.695231245386822 0 0 0 0 -135.00610750233136 -77.354928053655385 0 -77.354928053655385 -51.141594449924014 0 0 0 0 -242.2583105609483 -164.67287092679544 0 -164.67287092679544 -5.2234893557224495 0 0 0 0 -154.53245545994832 -12.606680591668919 0 -12.606680591668919 101.74595559044883 0 0 0 0 -29.383602475007137 9.2508984304145088 0 9.2508984304145088 -166.59621154294473 0 0 0 0 2.0280295581158754 -1.7190433413576276 0 -1.7190433413576276 0.96634425970241722 0 0 0 0 -203.64261228807982 -123.56267632188997 0 -123.56267632188997 114.61450206820791 0 0 0 0 -224.58168930629472 -67.734808390366652 0 -67.734808390366652 96.652245756141383 0 0 0 0 1625.4578017749882 -1345.6326865077299 0 -1345.6326865077299 42.95000455539337 0 0 0 0 1303.3157594887725 275.66513598695792 0 275.66513598695792 2800.5019768654674 0 0 0 0 1.8545239129259152 -2.2371888729055893 0 -2.2371888729055893 43.314464461450655 0 0 0 0 634.45022661826079 -39.71842526970272 0 -39.71842526970272 -96.762896603899549 0 0 0 0 99.829932295096114 92.288576311440465 0 92.288576311440465 65.274844155547726 0 0 0 0 419.6622089208031 -56.844904283208052 0 -56.844904283208052 273.70593566980642 0 0 0 0 88.683626722262488 132.99607436808168 0 132.99607436808168 173.80740150326255 0 0 0 0 2.0983223084955771 -1.5601316186900576 0 -1.5601316186900576 0.33072336767171073 0 0 0 0 -48.441648199652263 51.96330165434938 0 51.96330165434938 139.20069718583545 0 0 0 0 16.128748207021999 110.0189671379876 0 110.0189671379876 164.7810588573866 0 0 0 0 18.281111255273572 97.342627968455417 0 97.342627968455417 233.0815974013567 0 0 0 0 128.92521183506324 -19.806281549816049 0 -19.806281549816049 337.85949163371515 0 0 0 0 1917.1096278594478 1558.3751366956485 0 1558.3751366956485 -1022.2103619517584 0 0 0 0 1524.587266122704 569.30906209515342 0 569.30906209515342 -2070.8270109620698 0 0 0 0 725.65755009618442 1015.8430640257529 0 1015.8430640257529 -81.773432288007825 0 0 0 0 1562.009295693299 1022.9337249476685 0 1022.9337249476685 -1001.3259992900857 0 0 0 0 887.1538291520701 1750.8491198629363 0 1750.8491198629363 895.36224190068583 0 0 0 0 584.88875014278346 -449.66998543856312 0 -449.66998543856312 -504.21659890355204 0 0 0 0 991.24692967639658 99.416836270012027 0 99.416836270012027 -304.73847960461353 0 0 0 0 1.3045894996704972 -4.4499314011473228 0 -4.4499314011473228 18.872286632069162 0 0 0 0 493.58393034929031 -258.14882660408921 0 -258.14882660408921 -429.45308461409195 0 0 0 0 868.86259639810305 27.261044758341313 0 27.261044758341313 -1063.5355464542456 0 0 0 0 1055.6712555843551 -262.16036188305338 0 -262.16036188305338 -1687.3915751888394 0 0 0 0 815.29587457911475 -51.142601192928851 0 -51.142601192928851 33.173818123283127 0 0 0 0 802.53166445138959 -96.350809337325018 0 -96.350809337325018 -112.79400146018997 0 0 0 0 412.72025372368626 252.01267004133251 0 252.01267004133251 29.328568431554231 0 0 0 0 488.64029001293966 -250.43684400954044 0 -250.43684400954044 144.59544155984258 0 0 0 0 304.75396946297406 -196.38009880033133 0 -196.38009880033133 328.74553812527728 0 0 0 0 264.76372801670186 -3.5351466360730228 0 -3.5351466360730228 151.27158482552841 0 0 0 0 67.165595120663056 3.0884785308717255 0 3.0884785308717255 173.49830362586272 0 0 0 0 72.95466734484944 -50.510356630448769 0 -50.510356630448769 294.67945786595374 0 0 0 0 36.289036342828695 48.142507686634417 0 48.142507686634417 132.76890817264575 0 0 0 0 -83.045128596859286 38.243979620106984 0 38.243979620106984 209.31130516976827 0 0 0 0 -77.617065140111663 43.806084821329023 0 43.806084821329023 79.481950202214648 0 0 0 0 30.091376441450848 -64.459143430789481 0 -64.459143430789481 160.89332712988426 0 0 0 0 -164.37400616757805 -104.27860013933605 0 -104.27860013933605 88.348090850780864 0 0 0 0 -33.269464977631287 10.333662799374906 0 10.333662799374906 73.025808221867464 0 0 0 0 472.80772277624908 52.944052565497657 0 52.944052565497657 23.17680340998777 0 0 0 0 -34.565459792560432 -133.66535429535361 0 -133.66535429535361 -38.959319967852934 0 0 0 0 -84.537376364394731 -71.058305383805418 0 -71.058305383805418 -116.97064320371646 0 0 0 0 337.40780075324437 505.28102943658496 0 505.28102943658496 182.96851765625433 0 0 0 0 -540.69291230785802 -288.08591194424116 0 -288.08591194424116 23.57815305949407 0 0 0 0 -377.4746089513319 25.707246317235331 0 25.707246317235331 30.073486725643949 0 0 0 0 540.40879988529196 -397.3740113338165 0 -397.3740113338165 -17.467854330820046 0 0 0 0 324.89397117392946 109.26335432839733 0 109.26335432839733 656.93055717572543 0 0 0 0 618.47732941344657 612.34684844238018 0 612.34684844238018 387.24890514385334 0 0 0 0 347.48461126169423 -288.20887888181051 0 -288.20887888181051 377.29362508402664 0 0 0 0 48.560361703754737 -14.504720492133654 0 -14.504720492133654 -1.1688977628905683 0 0 0 0 94.247490111539264 -17.146707047392511 0 -17.146707047392511 -12.705493536961512 0 0 0 0 -82.942125840105291 -188.07984754504287 0 -188.07984754504287 -237.68949698702363 0 0 0 0 11.931836276547898 -3.7941359899918616 0 -3.7941359899918616 -1.4528889810687691 0 0 0 0 -283.17416155394494 -293.65631399500671 0 -293.65631399500671 -123.11282293869135 0 0 0 0 -238.16073175042152 -75.398293792680192 0 -75.398293792680192 61.735384240366329 0 0 0 0 -204.7700840708676 -108.2015229820081 0 -108.2015229820081 -3.2294172489428092 0 0 0 0 -389.60792801178832 -161.22303174103217 0 -161.22303174103217 41.189464010080883 0 0 0 0 -82.853453882475407 21.423515032510892 0 21.423515032510892 106.74840513038362 0 0 0 0 -193.89974890860321 20.122742499370361 0 20.122742499370361 136.71495246907216 0 0 0 0 -268.05843207560247 -61.543252561108602 0 -61.543252561108602 139.2580397481388 0 0 0 0 -148.97399993296858 -74.825276548803231 0 -74.825276548803231 53.631639039625952 0 0 0 0 -260.38066035075462 -156.99471646890197 0 -156.99471646890197 -24.126784142977158 0 0 0 0 -210.73459816760442 -45.366724407083893 0 -45.366724407083893 14.099257212685188 0 0 0 0 -267.43834161408449 -27.966212682084915 0 -27.966212682084915 44.238900363354333 0 0 0 0 -244.74079420075577 -42.026266702925568 0 -42.026266702925568 -74.002266185092594 0 0 0 0 -234.39599580057256 -166.61303242631402 0 -166.61303242631402 -145.74912451786167 0 0 0 0 -294.3116468702392 -85.179437437940578 0 -85.179437437940578 -228.34395221119303 0 0 0 0 -308.12051986309234 -149.9300328433128 0 -149.9300328433128 -119.06961896383655 0 0 0 0 -679.5459208456632 -516.57863942195945 0 -516.57863942195945 -467.57903492211335 0 0 0 0 -1.7278693324279004 -7.2075165561732728 0 -7.2075165561732728 3.1224701458793707 0 0 0 0 39.956709190722904 -14.508145663843607 0 -14.508145663843607 -17.386910655917745 0 0 0 0 34.817836266494794 -21.292268020552861 0 -21.292268020552861 8.4743778665143985 0 0 0 0 -522.17934593260725 -427.49220514126682 0 -427.49220514126682 -283.39126009420579 0 0 0 0 -442.8448730926375 -492.65472266660413 0 -492.65472266660413 -254.74475628993969 0 0 0 0 37.351629772168963 -34.182544547452835 0 -34.182544547452835 -7.8377172788204916 0 0 0 0 35.66030195340818 -43.927978278633304 0 -43.927978278633304 -21.355451354580509 0 0 0 0 46.303017348222056 -42.876437018601791 0 -42.876437018601791 -34.052667865351395 0 0 0 0 45.54199005904772 -30.291872899084495 0 -30.291872899084495 2.3142069292252785 0 0 0 0 51.706902517704293 -26.449989503770666 0 -26.449989503770666 -27.48333068186912 0 0 0 0 90.147067135250381 -65.858692648845803 0 -65.858692648845803 -97.813414652007367 0 0 0 0 138.60982934953063 -34.110094789459254 0 -34.110094789459254 -79.067394964905588 0 0 0 0 35.255503478054329 -31.166980360108766 0 -31.166980360108766 -34.390116614116721 0 0 0 0 4.7649555191892432 -6.9367915511885485 0 -6.9367915511885485 -42.378143562859123 0 0 0 0 89.401788468749146 -1.3311298504697788 0 -1.3311298504697788 -100.8637114216103 0 0 0 0 154.92196740722284 -56.3510335653894 0 -56.3510335653894 -2.0334755412156937 0 0 0 0 14.340531059771621 -14.009917044256387 0 -14.009917044256387 -1.8206727280689212 0 0 0 0 53.928519751650356 -27.367323290803746 0 -27.367323290803746 -38.201793616716714 0 0 0 0 53.249379817015551 -15.211749643960328 0 -15.211749643960328 -23.84365022856764 0 0 0 0 71.259748039599799 -13.425117601068905 0 -13.425117601068905 -10.28002450328529 0 0 0 0 73.913753159609769 -8.6116221017211956 0 -8.6116221017211956 11.756351854023251 0 0 0 0 19.654738959590158 -20.73373146231939 0 -20.73373146231939 -1.5090941868689747 0 0 0 0 76.752918777693566 -18.346632564971607 0 -18.346632564971607 -12.748610279092716 0 0 0 0 318.93901561397797 177.18681777779966 0 177.18681777779966 -152.29211440142399 0 0 0 0 64.70088172371743 -4.5815585552050777 0 -4.5815585552050777 -4.9764195046509485 0 0 0 0 66.345368757751203 -14.719084554429401 0 -14.719084554429401 -1.0572330867657911 0 0 0 0 55.89063100441993 -19.207475867556674 0 -19.207475867556674 -4.5211062527353132 0 0 0 0 68.525975655925777 2.9461646560623649 0 2.9461646560623649 0.79232969917347873 0 0 0 0 48.349253207112817 7.4310452210239557 0 7.4310452210239557 -3.2092806064316104 0 0 0 0 8.3554737347136392 -19.963048625498075 0 -19.963048625498075 7.0798641108878577 0 0 0 0 -15.243573483848877 -51.824243440615305 0 -51.824243440615305 487.74923530653177 0 0 0 0 17.636038359851227 -20.196380237673566 0 -20.196380237673566 -119.04010426495643 0 0 0 0 210.7253603640911 -76.592626130742701 0 -76.592626130742701 -119.78482486880065 0 0 0 0 -16.969679218690544 -195.05315295191917 0 -195.05315295191917 117.69971790267573 0 0 0 0 29.876425920054999 147.06241382939152 0 147.06241382939152 -49.398506039862468 0 0 0 0 77.549874436935795 77.399740937988597 0 77.399740937988597 50.572720412391568 0 0 0 0 16.419029247055519 16.31721848353709 0 16.31721848353709 -18.746330751534678 0 0 0 0 78.870793809244333 21.652143768591031 0 21.652143768591031 -3.3376439743781248 0 0 0 0 100.23097145926809 97.739019525253127 0 97.739019525253127 -59.95437129291372 0 0 0 0 152.26914066942118 5.228393425524331 0 5.228393425524331 -46.561133193330818 0 0 0 0 107.76738599536407 97.081278305815886 0 97.081278305815886 -60.205136391105384 0 0 0 0 134.67588216390095 25.631579802671261 0 25.631579802671261 -17.633590662197403 0 0 0 0 106.25105572305756 94.674438080125583 0 94.674438080125583 -59.292653474074655 0 0 0 0 118.05095868680155 97.664183537591953 0 97.664183537591953 -124.38903613850653 0 0 0 0 3.9072366665539278 -2.0293338361431026 0 -2.0293338361431026 1.2814446550257048 0 0 0 0 1215.8864678692044 816.47030256214748 0 816.47030256214748 374.41547659513321 0 0 0 0 375.73796887048229 -128.53758165654131 0 -128.53758165654131 -356.01825893415662 0 0 0 0 -782.16502802846662 -489.60197722036088 0 -489.60197722036088 509.65589109176199 0 0 0 0 -95.923535058376729 -48.871300765488286 0 -48.871300765488286 -65.607337315405786 0 0 0 0 5.7041795945164608 -3.7377701836263109 0 -3.7377701836263109 0.62033583175937967 0 0 0 0 242.97915846449177 166.19664633994245 0 166.19664633994245 105.9275249130427 0 0 0 0 43.926063531744148 -70.853205124671035 0 -70.853205124671035 -176.80509424276613 0 0 0 0 16.550957114164277 -0.24170073145399584 0 -0.24170073145399584 4.3145780226031585 0 0 0 0 258.23198711302666 101.0383780647704 0 101.0383780647704 -3.128542556993466 0 0 0 0 738.10629314109246 584.39756528666919 0 584.39756528666919 392.01338736290779 0 0 0 0 48.822007086578509 27.915299393696337 0 27.915299393696337 -10.850435161990699 0 0 0 0 138.76550195224263 -4.9321665023510377 0 -4.9321665023510377 -13.337564396477319 0 0 0 0 101.24619134260865 52.06114492675772 0 52.06114492675772 -14.086383956176746 0 0 0 0 -638.50506100219354 -298.42227160715527 0 -298.42227160715527 72.688748468744279 0 0 0 0 945.34649152927886 -192.22149532501282 0 -192.22149532501282 -533.03957800598369 0 0 0 0 193.25962926760803 33.933896260699612 0 33.933896260699612 -93.093329908084343 0 0 0 0 490.87417732609174 -616.49379574842783 0 -616.49379574842783 -371.51306594379525 0 0 0 0 133.06106624135012 37.526456569382077 0 37.526456569382077 -13.569255382913603 0 0 0 0 1328.90268060792 578.29170701604289 0 578.29170701604289 167.0884861276752 0 0 0 0 175.34852450905578 -64.699811210671768 0 -64.699811210671768 -33.778884431878396 0 0 0 0 19.2863601812311 -0.35406395191752882 0 -0.35406395191752882 -1.3254218352393927 0 0 0 0 53.202475386562718 38.744668239229725 0 38.744668239229725 -7.779008029275416 0 0 0 0 171.8470784112198 193.99964010213017 0 193.99964010213017 181.62126370803162 0 0 0 0 38.259496738702438 -1.0467841981336381 0 -1.0467841981336381 -1.8511230185827667 0 0 0 0 21.10802062053699 15.505252073493921 0 15.505252073493921 -1.7203090881862408 0 0 0 0 15.041423012573432 35.776816798812433 0 35.776816798812433 30.11215335540237 0 0 0 0 32.897536830541867 36.05577149624105 0 36.05577149624105 21.800768578948919 0 0 0 0 68.971207131199662 52.376854722955159 0 52.376854722955159 9.8775537203223394 0 0 0 0 42.624304886769096 13.147087240304245 0 13.147087240304245 -15.597025710681919 0 0 0 0 163.6605312533743 52.354811189010888 0 52.354811189010888 -72.730944221379104 0 0 0 0 8.5819824381620631 8.9760473450699774 0 8.9760473450699774 -16.291442831819637 0 0 0 0 -2.2749081163230187 5.3913289666399393 0 5.3913289666399393 -6.1624599584999409 0 0 0 0 44.33809083051159 16.71115145711482 0 16.71115145711482 -14.568787197375123 0 0 0 0 49.991650941658008 4.30768886129772 0 4.30768886129772 -10.232892605441521 0 0 0 0 25.417543274886988 25.896025932830742 0 25.896025932830742 -14.505786989096411 0 0 0 0 54.457578499112159 28.175738752778514 0 28.175738752778514 -18.82815447857152 0 0 0 0 120.55142970447923 38.888724892353252 0 38.888724892353252 -29.68640073782808 0 0 0 0 -29.987201714775438 26.013052306294867 0 26.013052306294867 -68.446593083990592 0 0 0 0 453.31171122049454 127.6821753536442 0 127.6821753536442 -59.097370291950938 0 0 0 0 484.249362423825 -1.8221058082544914 0 -1.8221058082544914 15.476624495722717 0 0 0 0 460.82776645877584 123.54917750859477 0 123.54917750859477 -111.63875016560996 0 0 0 0 491.93514018870701 -78.871883394910583 0 -78.871883394910583 -21.093078290890844 0 0 0 0 543.22336046745704 81.364414644267299 0 81.364414644267299 -190.7114420152393 0 0 0 0 483.8574940501685 -20.654093677583433 0 -20.654093677583433 -221.9943555984064 0 0 0 0 511.02499110029294 1.0452876672432012 0 1.0452876672432012 -354.66849687710601 0 0 0 0 395.95784093235488 136.94650539452732 0 136.94650539452732 -93.063981500954014 0 0 0 0 365.20691211819394 237.94605789104753 0 237.94605789104753 -254.64906968099831 0 0 0 0 526.74995832109926 108.80098771908411 0 108.80098771908411 -177.77642891036157 0 0 0 0 654.99100735912725 110.425925079335 0 110.425925079335 -313.31706316780173 0 0 0 0 -252.70006483913039 479.38495113853605 0 479.38495113853605 -273.58698657238324 0 0 0 0 677.68449408863898 314.60538825049628 0 314.60538825049628 -1065.827369679665 0 0 0 0 759.15743001113606 283.12384980732645 0 283.12384980732645 -543.57716633916698 0 0 0 0 909.56395388284091 -74.455897849619419 0 -74.455897849619419 -344.57900279290425 0 0 0 0 1485.3792901692532 305.14349667790748 0 305.14349667790748 -310.56059490797577 0 0 0 0 494.63786063028692 192.89677705333264 0 192.89677705333264 -114.27077002297631 0 0 0 0 432.59839053069254 381.7878154364185 0 381.7878154364185 693.73826740568211 0 0 0 0 -597.22926657923381 374.04562178150536 0 374.04562178150536 -118.01246472435051 0 0 0 0 -88.561626462890217 560.34131072284686 0 560.34131072284686 165.49879268711572 0 0 0 0 46.072808565434002 211.26261493593273 0 211.26261493593273 37.80505255522263 0 0 0 0 111.2509152929897 265.33156115425265 0 265.33156115425265 -121.92575667784922 0 0 0 0 110.36974747121531 337.58174526714049 0 337.58174526714049 -201.94077803673258 0 0 0 0 132.41735512433206 75.495973925260841 0 75.495973925260841 -100.71072015453319 0 0 0 0 278.92968192778653 112.16657181131586 0 112.16657181131586 -481.16467823023686 0 0 0 0 166.66322121058874 119.77781297625552 0 119.77781297625552 -202.39642803756806 0 0 0 0 206.82732285984821 79.386364375819539 0 79.386364375819539 -171.08695320242168 0 0 0 0 257.81567549252304 195.93229477268051 0 195.93229477268051 -192.73968771531054 0 0 0 0 217.90920309376406 71.070021420899366 0 71.070021420899366 -351.18817586073328 0 0 0 0 396.03823852639016 103.55915392734642 0 103.55915392734642 -420.92380016405332 0 0 0 0 209.57465393890288 -33.170154428340538 0 -33.170154428340538 -759.41528866062436 0 0 0 0 223.5059351611626 51.57880942985139 0 51.57880942985139 -300.95920356442775 0 0 0 0 -38.405529524125086 -175.55425080060604 0 -175.55425080060604 -306.63585705213109 0 0 0 0 -0.96790989680097228 3.6152786986708878 0 3.6152786986708878 -5.3813167329297809 0 0 0 0 251.31488638813107 456.07736077478125 0 456.07736077478125 -901.73456467360438 0 0 0 0 235.24083273508313 384.18755588208796 0 384.18755588208796 -309.85353382925405 0 0 0 0 780.53273279673704 314.48457934991848 0 314.48457934991848 29.3962110329594 0 0 0 0 11.870401683343552 -13.417883494889423 0 -13.417883494889423 14.493488476458829 0 0 0 0 -223.79096865236806 -440.01270054898941 0 -440.01270054898941 -234.67006023231988 0 0 0 0 247.58326870428755 -247.61579282262528 0 -247.61579282262528 -213.75013439367376 0 0 0 0 10.091085708923856 -82.613307046875434 0 -82.613307046875434 -163.4896199650243 0 0 0 0 251.13646515953224 -119.45383692239466 0 -119.45383692239466 -237.78695478886948 0 0 0 0 245.4051656557142 -101.71362382880818 0 -101.71362382880818 -220.98153387535604 0 0 0 0 546.64320822435184 -64.199085990547701 0 -64.199085990547701 -272.81357102808943 0 0 0 0 567.28999648836179 -203.27537381973565 0 -203.27537381973565 -266.29250761816445 0 0 0 0 1593.7112848057086 -662.86149847115132 0 -662.86149847115132 -60.649400192304256 0 0 0 0 26.541359602815646 -334.70270193690567 0 -334.70270193690567 308.00009519969217 0 0 0 0 594.93061264339576 -264.55720205743023 0 -264.55720205743023 -216.43241398314512 0 0 0 0 18.606849710179631 -289.92785158112372 0 -289.92785158112372 77.09572968079965 0 0 0 0 -334.28494244915782 -96.180682359544107 0 -96.180682359544107 -19.09512714218431 0 0 0 0 65.279388712875516 -643.14203038859864 0 -643.14203038859864 259.9131675300091 0 0 0 0 -216.87360868491305 -382.63270278635855 0 -382.63270278635855 203.91467511641559 0 0 0 0 -598.19752524478099 -527.07782894112881 0 -527.07782894112881 240.20431938986667 0 0 0 0 1.8077758695863864 -3.4126501810164598 0 -3.4126501810164598 7.8647738129435627 0 0 0 0 73.946043828116672 -15.823566146757003 0 -15.823566146757003 -48.81521055471012 0 0 0 0 254.57816233345511 -230.6639034432792 0 -230.6639034432792 -297.4789617114393 0 0 0 0 89.96633695780838 -292.89140085937152 0 -292.89140085937152 208.59031577932694 0 0 0 0 -11.950780266783113 -161.93888360351912 0 -161.93888360351912 44.972063823024655 0 0 0 0 -8.8582424973756133 -86.628122215778603 0 -86.628122215778603 19.267098257752878 0 0 0 0 -15.899330644708243 19.761310910797874 0 19.761310910797874 -8.1654532638531236 0 0 0 0 66.27261306615037 -90.499462722737093 0 -90.499462722737093 84.323168788538169 0 0 0 0 43.910901496687075 67.216430163663517 0 67.216430163663517 167.7251067776624 0 0 0 0 176.79429888116101 -236.17961846630851 0 -236.17961846630851 203.08612005725649 0 0 0 0 -16.776429390609678 -200.11502208793365 0 -200.11502208793365 366.20874381554677 0 0 0 0 269.54573414875756 -711.4984660145891 0 -711.4984660145891 928.00778851205587 0 0 0 0 4.143963070981231 -9.1755242493282108 0 -9.1755242493282108 15.915974719736887 0 0 0 0 134.51593847289405 47.979250751019208 0 47.979250751019208 -64.30673143738386 0 0 0 0 -74.18292121065906 -25.310872018921145 0 -25.310872018921145 525.05040663400905 0 0 0 0 19.318729160116277 -18.87655756246793 0 -18.87655756246793 -0.4249917909172094 0 0 0 0 557.55435464731568 255.62800110070174 0 255.62800110070174 280.03303155136018 0 0 0 0 1.2775879964680534 -9.2673831317754978 0 -9.2673831317754978 5.3834905962781612 0 0 0 0 1407.237647090803 1062.661803613441 0 1062.661803613441 594.70699273895843 0 0 0 0 1213.8840143252298 249.54733151269465 0 249.54733151269465 -148.35326749655087 0 0 0 0 1235.7590828286461 207.51714640120758 0 207.51714640120758 -129.5086091564317 0 0 0 0 34.005649365542013 -19.769260168900928 0 -19.769260168900928 -3.5361610249772184 0 0 0 0 135.86772821737031 -60.172481682398029 0 -60.172481682398029 -160.2643404665223 0 0 0 0 17.442557319673888 -23.880596719769034 0 -23.880596719769034 9.636862918601885 0 0 0 0 8.5193977663811893 -30.431544870904702 0 -30.431544870904702 -1.451763285146626 0 0 0 0 38.0160992143974 -32.157157479332 0 -32.157157479332 8.0359893962991009 0 0 0 0 58.454225428050449 -20.850712048469177 0 -20.850712048469177 -0.65394822476491754 0 0 0 0 82.758420863601714 -33.427134749495508 0 -33.427134749495508 -6.5845722716326236 0 0 0 0 9.9968953841117543 -15.782255188358178 0 -15.782255188358178 -10.056812469146651 0 0 0 0 38.405518634497639 -17.057602786483812 0 -17.057602786483812 -48.663258866989054 0 0 0 0 83.769380462947083 -14.809191803369686 0 -14.809191803369686 -95.964831838988175 0 0 0 0 57.336691920390876 -37.44762402458673 0 -37.44762402458673 0.047629750292003337 0 0 0 0 49.884765222367193 -27.061809713396791 0 -27.061809713396791 2.1574917381741061 0 0 0 0 111.06287534029252 -105.40026381067514 0 -105.40026381067514 516.44420002411334 0 0 0 0 591.47354123799551 20.897346302676397 0 20.897346302676397 220.71539170156757 0 0 0 0 -504.82032678219139 -125.83268010569191 0 -125.83268010569191 139.75951231342327 0 0 0 0 -134.15455401575559 274.6638622765048 0 274.6638622765048 0.10681843080783437 0 0 0 0 -100.24614658483847 197.17358045552001 0 197.17358045552001 179.13801050246752 0 0 0 0 -93.236633411202547 255.93957481989833 0 255.93957481989833 56.313971115987954 0 0 0 0 337.60207762166328 244.6587463768077 0 244.6587463768077 231.51051333648297 0 0 0 0 -91.047916160891305 228.70677283538987 0 228.70677283538987 378.47034089697343 0 0 0 0 1316.8390879961507 -614.20201425701043 0 -614.20201425701043 1032.7559011408459 0 0 0 0 336.83802508136955 92.660031911444278 0 92.660031911444278 718.39164096396144 0 0 0 0 2592.1250792684277 53.111953855304364 0 53.111953855304364 18.124692183067054 0 0 0 0 1650.5433966546832 90.840155665385282 0 90.840155665385282 477.81148019325792 0 0 0 0 2611.0007113314841 -263.54107597920211 0 -263.54107597920211 129.48177320439117 0 0 0 0 1136.9895930531384 -541.20229845254312 0 -541.20229845254312 635.75427434228584 0 0 0 0 948.49899044728227 -155.41236200425237 0 -155.41236200425237 266.61948758819562 0 0 0 0 1020.5935613442463 -251.14340779607596 0 -251.14340779607596 74.431427036121704 0 0 0 0 1550.736074887971 -395.34096824961125 0 -395.34096824961125 335.5966671199451 0 0 0 0 1266.6847352485133 246.79523766142529 0 246.79523766142529 -94.197840361078534 0 0 0 0 2401.8249629097545 216.1089765177494 0 216.1089765177494 -96.255426201580121 0 0 0 0 1182.7118490585292 66.400868136807048 0 66.400868136807048 -146.41753043992455 0 0 0 0 1595.1851536744393 50.254203002428994 0 50.254203002428994 -145.86007247856514 0 0 0 0 496.29906239707361 -331.56045200585731 0 -331.56045200585731 92.128073308552331 0 0 0 0 1097.9115012218169 132.54335450073927 0 132.54335450073927 -179.98281870394112 0 0 0 0 408.32286042877774 -243.99507948632768 0 -243.99507948632768 5.8778657206535172 0 0 0 0 408.07347409790646 -318.59447096962049 0 -318.59447096962049 124.05804799055068 0 0 0 0 295.18033351409377 -344.62381694706062 0 -344.62381694706062 -41.478301073268085 0 0 0 0 295.77484517649646 -318.62279926503152 0 -318.62279926503152 346.99455946676926 0 0 0 0 -331.66494742422537 -103.55083524507972 0 -103.55083524507972 124.93338501699827 0 0 0 0 -148.8276578589157 -132.19699617976994 0 -132.19699617976994 127.55114475238952 0 0 0 0 100.41084833536934 -132.14684143972818 0 -132.14684143972818 114.93715066300297 0 0 0 0 0.4488358155130614 -0.15065601565088638 0 -0.15065601565088638 0.3139036586674413 0 0 0 0 308.67295209512122 -289.19341884132109 0 -289.19341884132109 272.31386970924359 0 0 0 0 228.99606372535629 -73.873292337366451 0 -73.873292337366451 3.1248270305404731 0 0 0 0 221.53949434033814 -112.5399511221886 0 -112.5399511221886 57.224325213883731 0 0 0 0 270.42705089945048 -173.0012277964845 0 -173.0012277964845 113.09795318806664 0 0 0 0 271.40172905271356 -155.42701745286377 0 -155.42701745286377 53.826009649590503 0 0 0 0 351.0036761589472 -179.14420783620699 0 -179.14420783620699 -9.7174786258606218 0 0 0 0 307.80372619498303 -139.31412480886047 0 -139.31412480886047 -42.783028275792731 0 0 0 0 252.86268801892857 -103.31087699823593 0 -103.31087699823593 -17.937383149724155 0 0 0 0 265.43126432149376 -111.98285273092539 0 -111.98285273092539 -36.075797315415912 0 0 0 0 238.90422758013938 -106.9788321565502 0 -106.9788321565502 -4.2417421446316439 0 0 0 0 266.20590511306 -132.46895460312908 0 -132.46895460312908 -3.5174964837174514 0 0 0 0 292.91899561135642 -111.81279610477714 0 -111.81279610477714 -70.285014308982682 0 0 0 0 290.53254614872685 -137.44200439606789 0 -137.44200439606789 -46.666756079976494 0 0 0 0 311.6171774958857 -147.12159196018956 0 -147.12159196018956 -39.166704140824095 0 0 0 0 378.9026162585651 -156.89712612620474 0 -156.89712612620474 -65.971114004249557 0 0 0 0 373.82146147647916 -166.90346783350591 0 -166.90346783350591 -71.129569740534407 0 0 0 0 326.78866965867701 -115.69671357717073 0 -115.69671357717073 -64.285039413695813 0 0 0 0 359.02390354396039 -145.56184657165852 0 -145.56184657165852 -53.525226510219113 0 0 0 0 421.36364731826279 -151.07119664364117 0 -151.07119664364117 -134.01358132474149 0 0 0 0 438.98430974923076 -166.96959484030617 0 -166.96959484030617 -71.139937063260192 0 0 0 0 407.12214096223488 -194.64257083007703 0 -194.64257083007703 -48.541817581554369 0 0 0 0 387.13824243545866 -191.03569496964241 0 -191.03569496964241 -4.9146644573102094 0 0 0 0 353.885158939532 -169.51397894487002 0 -169.51397894487002 -33.973116373254015 0 0 0 0 414.33018776363588 -232.92669424026531 0 -232.92669424026531 18.755796280462164 0 0 0 0 455.58751140685649 -212.37741386198053 0 -212.37741386198053 -80.277212148976901 0 0 0 0 68.478620426045154 294.04733125632924 0 294.04733125632924 -191.2101140315412 0 0 0 0 1653.8427768605925 -289.60999900443767 0 -289.60999900443767 61.576070015599043 0 0 0 0 3.0695216718970202 1.4377154266849876 0 1.4377154266849876 0.39147281032740411 0 0 0 0 906.21289104653033 -328.81109067335831 0 -328.81109067335831 75.821945832004332 0 0 0 0 295.30627708488419 -56.443242785446841 0 -56.443242785446841 -94.574475743856965 0 0 0 0 536.44604499691684 -198.91779494787187 0 -198.91779494787187 7.491562992796446 0 0 0 0 454.47766210740576 -80.976928938171511 0 -80.976928938171511 48.182525111947768 0 0 0 0 5.9682770318915006 3.3477602034312035 0 3.3477602034312035 0.13371128466907445 0 0 0 0 822.23718257691075 1.0874970217743041 0 1.0874970217743041 -84.302317495903509 0 0 0 0 625.94275467359466 -42.580616273414137 0 -42.580616273414137 -93.883400553917397 0 0 0 0 5.1129042371836668 2.8120198123411204 0 2.8120198123411204 0.28152264358581164 0 0 0 0 517.3610730825701 -236.43714351552984 0 -236.43714351552984 79.553330467938963 0 0 0 0 166.04833200832195 29.269045111969604 0 29.269045111969604 -28.84904829661567 0 0 0 0 616.120319163359 -133.33640577997303 0 -133.33640577997303 37.527768504136361 0 0 0 0 437.89742017228059 -205.40039040509754 0 -205.40039040509754 186.1238642665042 0 0 0 0 361.71499576618567 -81.059805416679197 0 -81.059805416679197 39.67031483589858 0 0 0 0 496.14532692599437 -159.17835742202732 0 -159.17835742202732 -28.293846930841028 0 0 0 0 365.41508399218083 -131.18060951899923 0 -131.18060951899923 -25.540309688757134 0 0 0 0 399.952807666946 -233.30644197247929 0 -233.30644197247929 90.264973926019138 0 0 0 0 363.31747229653774 -155.89901673831247 0 -155.89901673831247 41.169826928742054 0 0 0 0 54.797389683713845 -26.542759195964663 0 -26.542759195964663 7.2401856762626267 0 0 0 0 -5.6096461989513102 -7.8556970763947938 0 -7.8556970763947938 -3.1661850110484355 0 0 0 0 73.57116995561023 -31.962784796314395 0 -31.962784796314395 -1.9250801500188572 0 0 0 0 50.830647988367275 -21.331082859555828 0 -21.331082859555828 -1.2666811869294179 0 0 0 0 50.939194363423667 -18.858632708340338 0 -18.858632708340338 5.3160666923249664 0 0 0 0 38.946284603396634 -26.146959619702329 0 -26.146959619702329 6.0747368027102766 0 0 0 0 44.664239303541763 -17.178957512096531 0 -17.178957512096531 7.4987527689936542 0 0 0 0 7.1681658640536625 -77.074534379175361 0 -77.074534379175361 159.07752160892164 0 0 0 0 4.2301280692138841 -2.3157238621416467 0 -2.3157238621416467 0.87405018057243611 0 0 0 0 -6.9393763960406432 -30.325242354437933 0 -30.325242354437933 6.0754104047045985 0 0 0 0 21.139482171374819 -20.677813556789314 0 -20.677813556789314 7.6702676099996028 0 0 0 0 1058.6175670801572 -15.917049383196058 0 -15.917049383196058 -165.46050077125983 0 0 0 0 16.184795518154441 -20.69450475703832 0 -20.69450475703832 6.6355182034810793 0 0 0 0 18.285452562864521 -29.993899391304012 0 -29.993899391304012 7.0629830340351418 0 0 0 0 498.40556713573261 -158.3816145670994 0 -158.3816145670994 42.02184880150935 0 0 0 0 795.77455590969623 256.96569400337557 0 256.96569400337557 -18.795077132552706 0 0 0 0 1468.4077778816381 264.23132371276768 0 264.23132371276768 -95.690258139331945 0 0 0 0 1052.904711800948 127.63993831280271 0 127.63993831280271 237.62544324019473 0 0 0 0 1052.2286989633067 239.52796628043279 0 239.52796628043279 147.66769749082846 0 0 0 0 736.52884628445941 46.620440623824237 0 46.620440623824237 -67.419118159749701 0 0 0 0 1279.5240286463127 22.06831472060702 0 22.06831472060702 -70.003913596062944 0 0 0 0 859.72654779670529 123.15997165271472 0 123.15997165271472 -105.14339212167347 0 0 0 0 694.97248551768143 73.865651161355572 0 73.865651161355572 16.229347498571542 0 0 0 0 619.48412742594201 155.24075611210091 0 155.24075611210091 -34.343352640943635 0 0 0 0 620.91177799198977 155.40681087611904 0 155.40681087611904 -73.420950930945338 0 0 0 0 583.3959980210202 248.02951168042077 0 248.02951168042077 132.02755166393052 0 0 0 0 434.28755221934625 228.50754197462561 0 228.50754197462561 -26.355614464113955 0 0 0 0 710.02340109639681 419.18767344181344 0 419.18767344181344 123.27458457650471 0 0 0 0 90.180635977237216 258.549151236277 0 258.549151236277 132.90186642282538 0 0 0 0 504.22340567141327 167.44636031202731 0 167.44636031202731 -86.941003155140152 0 0 0 0 693.12379606602872 370.65703978906868 0 370.65703978906868 -60.328373229834824 0 0 0 0 362.24783187334288 365.94913552516016 0 365.94913552516016 121.7077831021295 0 0 0 0 60.279308556835531 -17.597829151395217 0 -17.597829151395217 3.6198886023730665 0 0 0 0 45.843123488504574 -21.764756447291035 0 -21.764756447291035 5.437926386577816 0 0 0 0 123.17098266466837 -267.19410152822365 0 -267.19410152822365 -187.89678650012604 0 0 0 0 -4.7279809003311293 -14.329607798558458 0 -14.329607798558458 12.843598619624053 0 0 0 0 -66.83719385065433 -39.880721040143328 0 -39.880721040143328 63.258953734755899 0 0 0 0 -77.405153508074363 -92.421090315264337 0 -92.421090315264337 -256.98213487053806 0 0 0 0 103.64220515229499 -254.19606546372103 0 -254.19606546372103 -126.68680185571014 0 0 0 0 274.06751436569084 -54.525884828920297 0 -54.525884828920297 -25.699106154004369 0 0 0 0 488.91331185992476 27.505279687932543 0 27.505279687932543 -137.09611098252805 0 0 0 0 737.73333809015367 -43.355162045554039 0 -43.355162045554039 -77.524629129831311 0 0 0 0 256.91877154404028 -1.3133948295685016 0 -1.3133948295685016 -153.6592199871836 0 0 0 0 237.9275220096311 -273.65878893162079 0 -273.65878893162079 -228.29528695968781 0 0 0 0 64.729795812783436 -27.866143051604496 0 -27.866143051604496 9.6661905356866527 0 0 0 0 -386.4517967224856 -164.49137509561126 0 -164.49137509561126 -137.49741485163878 0 0 0 0 -284.33930893729666 -87.696778259640681 0 -87.696778259640681 154.54084346331126 0 0 0 0 62.607957478173375 -111.12494312758668 0 -111.12494312758668 -59.115691513780064 0 0 0 0 80.69396679295096 -98.978869523077606 0 -98.978869523077606 -213.78896137825109 0 0 0 0 17.638832106904001 -5.3610431389110937 0 -5.3610431389110937 0.53366135528128278 0 0 0 0 67.05829914842252 -25.185907135078423 0 -25.185907135078423 1.2153313552807958 0 0 0 0 10.514473980431521 -12.039225770394861 0 -12.039225770394861 2.3394456633549989 0 0 0 0 -10.410965639102869 -79.049945431725064 0 -79.049945431725064 -14.057809529818314 0 0 0 0 47.596926962718499 -44.022567440073317 0 -44.022567440073317 69.354483190887549 0 0 0 0 31.17234017852752 45.477044353284143 0 45.477044353284143 100.71743599319805 0 0 0 0 468.67271858300137 83.4351346727193 0 83.4351346727193 -43.788906625118557 0 0 0 0 3.7401700408584375 -1.3563412529792571 0 -1.3563412529792571 0.54162761396702108 0 0 0 0 28.539644683770348 -129.9692717436597 0 -129.9692717436597 474.97567734207621 0 0 0 0 471.47224377882031 -80.098607560451029 0 -80.098607560451029 71.176084657860429 0 0 0 0 551.98265170576451 -102.38378581107963 0 -102.38378581107963 -18.349651263422629 0 0 0 0 636.94548059859881 -42.974177726417111 0 -42.974177726417111 -66.329216789625889 0 0 0 0 509.53343544302379 12.346812004064077 0 12.346812004064077 256.78012313440843 0 0 0 0 561.81766158761366 -30.62358486746939 0 -30.62358486746939 26.120319434307021 0 0 0 0 592.80507249727998 -7.6342789526529486 0 -7.6342789526529486 -23.676550905118802 0 0 0 0 654.50546054198617 14.784289145196652 0 14.784289145196652 -6.205447061284076 0 0 0 0 590.60251978838005 -9.5606295020831453 0 -9.5606295020831453 -8.0407534031564865 0 0 0 0 629.36963533136782 -37.255883693310807 0 -37.255883693310807 -56.351956481278194 0 0 0 0 875.60852537900701 42.676730992832063 0 42.676730992832063 -55.914083540372758 0 0 0 0 721.76475448603333 169.53982468524896 0 169.53982468524896 108.93268842918815 0 0 0 0 671.76227151795706 -219.78524778202421 0 -219.78524778202421 19.941272981732709 0 0 0 0 348.62083591965074 -110.81174057857572 0 -110.81174057857572 59.532677618010894 0 0 0 0 305.05318849203991 32.838205948938878 0 32.838205948938878 2.1874450012830948 0 0 0 0 8.1148978711826842 6.0931518364602475 0 6.0931518364602475 2.6109720448398201 0 0 0 0 -29.536646749646025 128.38717505403918 0 128.38717505403918 -149.0869253765342 0 0 0 0 -32.919069248522646 21.30396437525792 0 21.30396437525792 -13.164892275239481 0 0 0 0 222.74386500588344 41.862902771957351 0 41.862902771957351 428.07688191547209 0 0 0 0 565.60088383021093 14.334411973653175 0 14.334411973653175 59.388184041347017 0 0 0 0 809.96202277713166 -252.116424467363 0 -252.116424467363 345.29065764010375 0 0 0 0 1074.9013612194642 -398.42398183443811 0 -398.42398183443811 148.32815901478349 0 0 0 0 1.8155225487274667 0.84233575281722195 0 0.84233575281722195 0.84931227078310334 0 0 0 0 -82.463946612869222 185.06666013824872 0 185.06666013824872 83.202181732267377 0 0 0 0 368.0512525080303 -142.87463613519418 0 -142.87463613519418 -56.027401254160765 0 0 0 0 475.28581333098327 -40.462207241428757 0 -40.462207241428757 40.145943726332689 0 0 0 0 557.27465996466344 -37.331904822916272 0 -37.331904822916272 0.058519625225926575 0 0 0 0 481.72133538546768 -67.333582441841031 0 -67.333582441841031 -10.313739349565367 0 0 0 0 531.76901776432442 47.946558641745696 0 47.946558641745696 82.882155600406918 0 0 0 0 472.08472369375249 7.4975023724715584 0 7.4975023724715584 67.516448623942097 0 0 0 0 427.02498048726829 -49.650073793304728 0 -49.650073793304728 38.407473429128231 0 0 0 0 215.23547020300913 -33.513617348469111 0 -33.513617348469111 207.26138007784448 0 0 0 0 373.16439298180103 113.65212290940349 0 113.65212290940349 262.54833452764603 0 0 0 0 408.20092677972048 131.59843066908786 0 131.59843066908786 150.4698104970721 0 0 0 0 500.21350573420114 190.81092455779344 0 190.81092455779344 144.66882861095561 0 0 0 0 559.37781729017411 85.824745376082092 0 85.824745376082092 46.338750945509219 0 0 0 0 663.86828412576597 103.93004064357456 0 103.93004064357456 39.94860690463878 0 0 0 0 599.9754262040849 237.09178150854041 0 237.09178150854041 70.268722268465353 0 0 0 0 395.89209507418195 305.13881985970033 0 305.13881985970033 97.525345844078856 0 0 0 0 537.91639716406144 220.71471707837782 0 220.71471707837782 113.89309814242188 0 0 0 0 545.45750338337166 242.04604454515129 0 242.04604454515129 69.853523950313956 0 0 0 0 285.66258944225774 117.1957710132192 0 117.1957710132192 -33.376675911202256 0 0 0 0 248.64195519511804 202.55837410938921 0 202.55837410938921 93.766073817768756 0 0 0 0 350.16664038596832 355.5008933204258 0 355.5008933204258 20.939285270511391 0 0 0 0 340.08291546839416 274.50153371053773 0 274.50153371053773 280.49688008372459 0 0 0 0 279.96223006548337 181.75981145376477 0 181.75981145376477 279.05798958115383 0 0 0 0 243.62001112088205 190.65769576354364 0 190.65769576354364 360.01143708154302 0 0 0 0 291.9886514912003 12.355475898492728 0 12.355475898492728 927.66897704270741 0 0 0 0 293.53265410076835 185.69554930065948 0 185.69554930065948 184.265689705765 0 0 0 0 406.10790355516588 562.81782168258815 0 562.81782168258815 444.66016286886793 0 0 0 0 418.29507351153001 -263.57807286779411 0 -263.57807286779411 -314.49486956902183 0 0 0 0 224.01429572008533 379.35585875687048 0 379.35585875687048 -47.716235558970311 0 0 0 0 -56.618737893240905 -51.152064956603226 0 -51.152064956603226 -17.428838936222292 0 0 0 0 278.63042799547276 60.503887730395434 0 60.503887730395434 -289.01710480936981 0 0 0 0 3.3994953570308297 -1.6365805876466277 0 -1.6365805876466277 0.52514799030249293 0 0 0 0 2.9381484706662024 -0.23764466931513772 0 -0.23764466931513772 -1.2665619471500307 0 0 0 0 -32.388457207994861 -130.23260035583144 0 -130.23260035583144 -352.40274173005923 0 0 0 0 -4.4499564432068155 -34.68888903344191 0 -34.68888903344191 23.615254784108402 0 0 0 0 109.7336903195187 118.81584812376059 0 118.81584812376059 -27.666558122073184 0 0 0 0 365.2444744912691 -222.86469910650953 0 -222.86469910650953 146.29762990979043 0 0 0 0 107.51901576201317 -227.74080047972711 0 -227.74080047972711 268.02879516703695 0 0 0 0 153.63919612620862 -354.48207736363543 0 -354.48207736363543 292.71152774630355 0 0 0 0 139.13764464232827 -313.94823585260156 0 -313.94823585260156 179.73795325037463 0 0 0 0 -23.350550748008573 79.913695349484897 0 79.913695349484897 6.8907323818048098 0 0 0 0 638.11433125498252 -586.81118385723084 0 -586.81118385723084 325.14994368914131 0 0 0 0 -3.632019998429314 -357.34653386894342 0 -357.34653386894342 721.52336813666125 0 0 0 0 246.62281353790058 -414.31466570520752 0 -414.31466570520752 695.81927254574157 0 0 0 0 -380.89978748293174 -281.20076051875731 0 -281.20076051875731 330.07275261576478 0 0 0 0 10.848639114157898 -1.4934622887416618 0 -1.4934622887416618 0.78012254035531647 0 0 0 0 829.16781290849349 -677.41429047996508 0 -677.41429047996508 459.17744249466796 0 0 0 0 0.61945703560685894 -0.92715366092668461 0 -0.92715366092668461 1.2645747256808963 0 0 0 0 699.65377215982744 -139.13406654369237 0 -139.13406654369237 63.059428470219927 0 0 0 0 38.760751541426998 44.121400064952013 0 44.121400064952013 522.33115972593077 0 0 0 0 32.505867981873052 -8.7046696542449808 0 -8.7046696542449808 151.6744965971252 0 0 0 0 628.79327825950986 -127.34651938635943 0 -127.34651938635943 133.40394904588004 0 0 0 0 93.003393175802557 -23.960743881332291 0 -23.960743881332291 113.45530716347366 0 0 0 0 169.13854869309489 -75.176486604435695 0 -75.176486604435695 -185.28644252293952 0 0 0 0 358.97307835305446 -285.82468903092513 0 -285.82468903092513 189.93884677863161 0 0 0 0 22.278810005065289 2.1924947537119364 0 2.1924947537119364 0.45970638166302358 0 0 0 0 63.079801215935731 149.2411264540965 0 149.2411264540965 -187.10142445280962 0 0 0 0 79.831105422306791 -88.272501783577354 0 -88.272501783577354 13.883385572080442 0 0 0 0 -70.76276339011747 95.63919926913286 0 95.63919926913286 -38.889295848798326 0 0 0 0 -76.664606757084584 -43.023128726380492 0 -43.023128726380492 18.25245931108816 0 0 0 0 84.200436080210693 131.28247501772034 0 131.28247501772034 40.190933504831264 0 0 0 0 163.84887944128968 46.672871561833063 0 46.672871561833063 -46.695323042138625 0 0 0 0 29.863637124009983 69.520302302308664 0 69.520302302308664 45.109323767578644 0 0 0 0 7.4585465911453639 38.979688789874359 0 38.979688789874359 37.706926616216151 0 0 0 0 8.010981619805932 28.461308190693359 0 28.461308190693359 15.184517860988308 0 0 0 0 27.332937405997654 37.352446805387899 0 37.352446805387899 9.8707318341093924 0 0 0 0 -21.295487892763049 -20.184126680237569 0 -20.184126680237569 -11.144530686094072 0 0 0 0 13.798178677088799 13.485103943354261 0 13.485103943354261 -14.972517172425796 0 0 0 0 -34.195245592995889 11.033941451988994 0 11.033941451988994 26.775403677680515 0 0 0 0 -17.545194075755717 25.731585782563343 0 25.731585782563343 32.169163958044464 0 0 0 0 -17.037651075659141 13.825767287066355 0 13.825767287066355 50.587557986491447 0 0 0 0 -24.061879573448095 1.743744363827318 0 1.743744363827318 23.374197143629317 0 0 0 0 -23.134596104740922 26.577226067427546 0 26.577226067427546 77.623864452083581 0 0 0 0 -23.270255107339835 31.984404397865319 0 31.984404397865319 86.978990068864732 0 0 0 0 -17.758705061598448 29.87795443707364 0 29.87795443707364 54.532353697220515 0 0 0 0 27.119593271347668 -2.7587452361468854 0 -2.7587452361468854 -0.54581179503195021 0 0 0 0 26.026105048495083 -46.060036769896215 0 -46.060036769896215 -44.434418895714771 0 0 0 0 -32.206918155339736 13.534628652912033 0 13.534628652912033 111.29040253348967 0 0 0 0 -32.935671482278849 13.570029731970862 0 13.570029731970862 123.81132064239864 0 0 0 0 -23.043592822068604 10.948568867671838 0 10.948568867671838 82.457801727734704 0 0 0 0 -10.166864230544888 -22.553950644562519 0 -22.553950644562519 35.699433872227019 0 0 0 0 -20.669046659233572 12.412148611249904 0 12.412148611249904 81.597025640576703 0 0 0 0 -16.765255407986842 9.3337606350287388 0 9.3337606350287388 53.24048274866891 0 0 0 0 -18.548259065368256 24.300076924667167 0 24.300076924667167 44.501659828898482 0 0 0 0 3.6720751267348533 3.4539691741729257 0 3.4539691741729257 10.182407116676586 0 0 0 0 -6.873991453263443 23.379945807645072 0 23.379945807645072 8.9002943566347312 0 0 0 0 -14.119706019245768 -11.37857022696744 0 -11.37857022696744 112.5871639871857 0 0 0 0 -31.726609341035328 -26.519753857788828 0 -26.519753857788828 131.105998979589 0 0 0 0 -21.085609505239518 -25.155358350084953 0 -25.155358350084953 90.71993778313572 0 0 0 0 -34.199411908924901 14.95209616373959 0 14.95209616373959 208.20556290499644 0 0 0 0 -33.701360048353848 0.28394117130733321 0 0.28394117130733321 135.35694422062079 0 0 0 0 -7.7246501565023209 48.869905125615105 0 48.869905125615105 195.67159588522281 0 0 0 0 -35.046816196201689 63.781207182320259 0 63.781207182320259 213.64765384529517 0 0 0 0 -35.117924591742849 30.560520083078927 0 30.560520083078927 216.18315578093825 0 0 0 0 -49.176146519163012 41.782464481245825 0 41.782464481245825 202.82234486312254 0 0 0 0 -56.159492180200687 59.558385702106079 0 59.558385702106079 202.61114173295951 0 0 0 0 -58.894033462433072 56.599154214487271 0 56.599154214487271 203.23394476340127 0 0 0 0 -51.31357305817437 53.401808353820115 0 53.401808353820115 170.91186809773262 0 0 0 0 -49.557373394622573 27.27385963586562 0 27.27385963586562 166.8481233904713 0 0 0 0 -40.087664845549625 44.15775876564453 0 44.15775876564453 179.61148940095791 0 0 0 0 -47.069059658821061 36.604195933809933 0 36.604195933809933 185.21023718184074 0 0 0 0 -37.141630164531307 41.922852160356342 0 41.922852160356342 118.70192685304733 0 0 0 0 -39.18762698106093 44.325215265622091 0 44.325215265622091 148.0858333151341 0 0 0 0 -14.7110751381515 56.203886802968327 0 56.203886802968327 90.57346278047828 0 0 0 0 -38.025045916851013 79.643373158460463 0 79.643373158460463 185.92223887359842 0 0 0 0 -53.209034582411732 56.443664413723468 0 56.443664413723468 193.03978543313133 0 0 0 0 -62.193310386675876 62.531409532125735 0 62.531409532125735 192.56994606664273 0 0 0 0 -61.647252829012359 66.070995695899114 0 66.070995695899114 201.95078903851709 0 0 0 0 -63.541752723078389 68.783190274790059 0 68.783190274790059 206.50431316400568 0 0 0 0 -44.872026472592552 60.74159260344652 0 60.74159260344652 148.64446275479077 0 0 0 0 -34.815761141936946 74.268457093126301 0 74.268457093126301 158.11988332682995 0 0 0 0 -11.261296146472887 111.31113143678749 0 111.31113143678749 211.58238652209229 0 0 0 0 12.389412500431717 102.55274269916413 0 102.55274269916413 139.8839712650406 0 0 0 0 -15.993188174901661 51.075260779515531 0 51.075260779515531 87.585172243074339 0 0 0 0 832.18713325232159 21.360521374086929 0 21.360521374086929 79.180682889383206 0 0 0 0 457.33673832393742 183.20988798282474 0 183.20988798282474 103.00513724063649 0 0 0 0 426.25258688074746 142.5966877223284 0 142.5966877223284 167.06405132372163 0 0 0 0 -22.783820182261479 128.18747265145043 0 128.18747265145043 227.6703356270209 0 0 0 0 -33.507966308345203 -113.61758412704057 0 -113.61758412704057 32.778591966197837 0 0 0 0 -31.665611535300741 56.934375791313869 0 56.934375791313869 257.54494005127913 0 0 0 0 -117.02353744182028 -75.654194880937666 0 -75.654194880937666 178.17545392833745 0 0 0 0 91.066790930713353 69.327614607188522 0 69.327614607188522 271.75606235553619 0 0 0 0 95.471778608521163 61.236199570237545 0 61.236199570237545 192.40260334974562 0 0 0 0 23.295318926521759 87.075773670449507 0 87.075773670449507 239.69794755603209 0 0 0 0 -0.27185436130025664 29.781752001678967 0 29.781752001678967 243.80560647514267 0 0 0 0 810.60806480299175 160.81580471526854 0 160.81580471526854 137.69687383035603 0 0 0 0 346.4554320535367 121.98204654256909 0 121.98204654256909 198.28629281111239 0 0 0 0 407.01934456399113 -32.458610479147922 0 -32.458610479147922 188.37517954117658 0 0 0 0 432.50721181560903 92.713492900355959 0 92.713492900355959 253.05608841661353 0 0 0 0 339.69081828821027 68.046220131104548 0 68.046220131104548 186.74203162242705 0 0 0 0 339.54802574854375 54.704378988929868 0 54.704378988929868 112.68951009525506 0 0 0 0 338.22545516878381 -111.21951979068956 0 -111.21951979068956 1.9460419516426555 0 0 0 0 353.27911854305967 -20.265839929928688 0 -20.265839929928688 -8.3878920162069335 0 0 0 0 194.34246477477291 55.89866341642599 0 55.89866341642599 95.644965776842582 0 0 0 0 177.0728836379767 -18.254232463235269 0 -18.254232463235269 -46.841726755878426 0 0 0 0 175.48672909751804 -13.882074528958583 0 -13.882074528958583 -2.7554051526648209 0 0 0 0 270.60741157677603 -76.82315689778261 0 -76.82315689778261 2.24141847193461 0 0 0 0 -17.992783903506279 16.782184326591619 0 16.782184326591619 34.583734242547052 0 0 0 0 50.525364766779603 69.553676475279644 0 69.553676475279644 -50.263279663571211 0 0 0 0 97.868680774649874 43.296140165318093 0 43.296140165318093 19.41795146414087 0 0 0 0 147.89221522758271 -8.3510367891441888 0 -8.3510367891441888 22.719505784462083 0 0 0 0 61.649588167477305 38.761223137887413 0 38.761223137887413 90.085482223430972 0 0 0 0 5.7294957115109355 22.081833109971853 0 22.081833109971853 107.70744631814023 0 0 0 0 71.112044858781474 60.045832122642238 0 60.045832122642238 54.54139490327907 0 0 0 0 81.350430180542389 84.060712892692308 0 84.060712892692308 154.12955896463816 0 0 0 0 152.40638572617991 4.1467243828802793 0 4.1467243828802793 113.28021905280127 0 0 0 0 163.42590646307144 22.156650750285024 0 22.156650750285024 88.67660974086769 0 0 0 0 105.2409485981475 60.440281911887659 0 60.440281911887659 215.01337499644538 0 0 0 0 26.767956490132747 40.028185598865548 0 40.028185598865548 188.34156688238269 0 0 0 0 106.47243088367941 62.971583315567301 0 62.971583315567301 182.61171980238896 0 0 0 0 6.8547095605963477 77.691856297789002 0 77.691856297789002 198.43624432533929 0 0 0 0 -8.9696999419247732 43.232982729210619 0 43.232982729210619 204.80615375128855 0 0 0 0 -42.870009936631504 50.120577174220671 0 50.120577174220671 202.99439105013198 0 0 0 0 -59.686878008425992 56.669455097078185 0 56.669455097078185 209.96351293215412 0 0 0 0 -58.269882460273948 59.189611331621563 0 59.189611331621563 197.15373695519429 0 0 0 0 -67.325812111190317 61.523523729686303 0 61.523523729686303 203.90764394090957 0 0 0 0 -71.54538631745163 57.702831251162365 0 57.702831251162365 197.10211080276918 0 0 0 0 -45.723169176624651 69.883493180230602 0 69.883493180230602 194.09265152041786 0 0 0 0 -50.218069800441299 60.353411850410964 0 60.353411850410964 174.34148080234081 0 0 0 0 -66.855013511500147 48.616911673892858 0 48.616911673892858 168.76512991324586 0 0 0 0 -64.272487540886459 64.783190970043037 0 64.783190970043037 164.00264099451306 0 0 0 0 -61.477928967651678 51.000728366508781 0 51.000728366508781 122.87924654363962 0 0 0 0 -64.679948561915808 64.833417145122098 0 64.833417145122098 131.93062567692289 0 0 0 0 -63.249710334721385 63.4290337612386 0 63.4290337612386 153.42970649924459 0 0 0 0 -45.712454356017588 45.81973784569314 0 45.81973784569314 132.77284016188059 0 0 0 0 -13.219719920714851 69.124845444345056 0 69.124845444345056 128.40150554993954 0 0 0 0 -47.62147960691982 54.076655504297015 0 54.076655504297015 171.86173838492363 0 0 0 0 -25.395663109915404 43.721601549866435 0 43.721601549866435 170.11461988228712 0 0 0 0 -33.680224469713721 64.430145841419062 0 64.430145841419062 209.27373202647414 0 0 0 0 -58.867128685687021 64.915708970199375 0 64.915708970199375 202.52608990489261 0 0 0 0 -54.786128310128333 75.289491541933671 0 75.289491541933671 213.35318007750197 0 0 0 0 -64.005078115196739 69.062851578473214 0 69.062851578473214 200.30038584445015 0 0 0 0 -70.103648495231027 63.405366641811838 0 63.405366641811838 203.89108837716623 0 0 0 0 -68.150962306768179 65.090541074833737 0 65.090541074833737 194.26362346278756 0 0 0 0 -66.683249035545487 61.002310506360573 0 61.002310506360573 197.17015821650352 0 0 0 0 -71.941055966850399 53.423997112488053 0 53.423997112488053 184.31236934578124 0 0 0 0 -62.721267225362681 58.163590029055143 0 58.163590029055143 126.43627288502745 0 0 0 0 -68.375392646667024 48.84116691331181 0 48.84116691331181 152.46581603668162 0 0 0 0 -68.986909997563998 42.432402156833177 0 42.432402156833177 168.97457866910213 0 0 0 0 -65.338070358491677 54.096087384855707 0 54.096087384855707 199.78363208020349 0 0 0 0 -67.335755116176188 64.809463440071141 0 64.809463440071141 174.10734050933763 0 0 0 0 -27.515062096052134 74.598318740706176 0 74.598318740706176 221.42722916754917 0 0 0 0 -55.809318540115783 59.605424874610179 0 59.605424874610179 177.30122966992508 0 0 0 0 -52.863440132256073 14.639854925826057 0 14.639854925826057 143.95076167543067 0 0 0 0 -64.297215111271271 54.922603669257199 0 54.922603669257199 182.59713917139277 0 0 0 0 -54.339736415674452 -1.1638903288201874 0 -1.1638903288201874 243.97974838145717 0 0 0 0 -52.515494448280151 49.216696544252727 0 49.216696544252727 209.61862187549386 0 0 0 0 -1.5934009628130177 1.2535384848441327 0 1.2535384848441327 2.1110468760969718 0 0 0 0 -8.9301441818952298 61.684918938498413 0 61.684918938498413 -37.990849697203657 0 0 0 0 -78.89497139260493 86.917298367633975 0 86.917298367633975 49.041023078852049 0 0 0 0 5.6494780693932682 5.3550549548800896 0 5.3550549548800896 4.2075659634973759 0 0 0 0 30.036835515169514 25.587012816170613 0 25.587012816170613 -59.127579683643489 0 0 0 0 15.362129309334705 -48.865019117303518 0 -48.865019117303518 -2.1162390441609205 0 0 0 0 -20.159116086901122 -53.016339979631766 0 -53.016339979631766 153.72725731772533 0 0 0 0 -8.5468216428853339 -9.4759872179641889 0 -9.4759872179641889 67.655889330842683 0 0 0 0 -16.58696918262649 -15.338015828204561 0 -15.338015828204561 93.185211117974291 0 0 0 0 -47.641356727603124 15.372926315398473 0 15.372926315398473 115.34187213980829 0 0 0 0 -14.549599317577304 23.493508191324679 0 23.493508191324679 9.5892414561540136 0 0 0 0 -16.080299323471991 57.03248793822695 0 57.03248793822695 16.823100189182469 0 0 0 0 -25.365463359550631 54.960167118061918 0 54.960167118061918 42.287079366056901 0 0 0 0 -22.773651083954974 25.447468399815818 0 25.447468399815818 60.256936624673244 0 0 0 0 -26.318777321490415 59.310338891381434 0 59.310338891381434 22.92387571678978 0 0 0 0 -44.97695136350012 49.809116403998246 0 49.809116403998246 81.75362865634338 0 0 0 0 -53.086237947893096 42.400738471364775 0 42.400738471364775 126.84016237686458 0 0 0 0 -55.757347122735155 60.318381144717705 0 60.318381144717705 78.880225839632658 0 0 0 0 -65.495096523185566 51.225903399236557 0 51.225903399236557 120.13837891604089 0 0 0 0 -61.056922946030681 67.423477510577641 0 67.423477510577641 77.228107353033408 0 0 0 0 -56.715996792081569 69.767007284727242 0 69.767007284727242 41.199071137711144 0 0 0 0 -28.452446988430893 45.607058622295881 0 45.607058622295881 -48.084764307001024 0 0 0 0 -44.642916908480402 94.535326919651197 0 94.535326919651197 -8.300999250339828 0 0 0 0 -64.576523948209797 58.529095162462227 0 58.529095162462227 78.483838002666687 0 0 0 0 -31.14938985425033 40.665088656898661 0 40.665088656898661 83.352295767062515 0 0 0 0 -65.355999225555934 61.566064349317799 0 61.566064349317799 124.33364970378938 0 0 0 0 -58.233224879182671 65.315783131087755 0 65.315783131087755 83.402533429491541 0 0 0 0 -70.716349711103248 59.945454311057574 0 59.945454311057574 123.09771942496515 0 0 0 0 -59.851196054323736 59.766333997956622 0 59.766333997956622 84.235185526632449 0 0 0 0 -63.059528914085604 51.934481567021521 0 51.934481567021521 70.878070221098824 0 0 0 0 -76.782158715115656 69.230231755203931 0 69.230231755203931 85.20248392772848 0 0 0 0 -57.281426101132638 53.138734472217834 0 53.138734472217834 5.9201702589925844 0 0 0 0 -90.624270458385581 73.258912365916558 0 73.258912365916558 60.481265777284307 0 0 0 0 -62.593584981450476 78.925011618173016 0 78.925011618173016 -1.8649426500674053 0 0 0 0 -68.201670936432492 77.165444615685601 0 77.165444615685601 40.916607719508463 0 0 0 0 -123.14007752313773 73.210029460655278 0 73.210029460655278 3.3418160360039337 0 0 0 0 -98.78145834372026 18.489283228775435 0 18.489283228775435 -89.333644337860278 0 0 0 0 -101.53939931944478 51.845999065289334 0 51.845999065289334 5.9372023947162234 0 0 0 0 -46.917420010386195 70.440872854367854 0 70.440872854367854 -159.99575103249254 0 0 0 0 -59.393028204716757 81.753060609267322 0 81.753060609267322 -98.162194720822754 0 0 0 0 -9.2865393888123435 56.475441579456628 0 56.475441579456628 -21.527547424805562 0 0 0 0 -59.811964238440851 42.538327247473944 0 42.538327247473944 -20.405581699784761 0 0 0 0 -87.002540017509091 105.53466550321627 0 105.53466550321627 -80.955977157508187 0 0 0 0 -75.667079324046426 111.64591178591741 0 111.64591178591741 -101.28499830072155 0 0 0 0 -3.4634356578608276 61.353954261189301 0 61.353954261189301 -186.33864799571893 0 0 0 0 -133.07575711334357 124.86966119114959 0 124.86966119114959 -101.77329917957036 0 0 0 0 -1.2578190939663223 2.9908339245467177 0 2.9908339245467177 4.1085278501879454 0 0 0 0 1.9722933245815348 2.2038021041454128 0 2.2038021041454128 0.075993029237361398 0 0 0 0 -5.076273247984318 1.8052625185182478 0 1.8052625185182478 -1.209928001695971 0 0 0 0 -8.5391979204832751 102.68119674675836 0 102.68119674675836 -48.990040852171887 0 0 0 0 -115.70865656624392 -1.1137483273571149 0 -1.1137483273571149 -6.8725755314400629 0 0 0 0 25.691239517114809 48.392537129301786 0 48.392537129301786 -59.100993422813588 0 0 0 0 -43.317470282385329 92.964037600181314 0 92.964037600181314 -23.788724283638999 0 0 0 0 -23.924666826617795 102.93146096041781 0 102.93146096041781 95.581692119312606 0 0 0 0 -84.748519135212973 56.55234200265015 0 56.55234200265015 69.328091327195523 0 0 0 0 -11.725277502618496 0.53287760147277652 0 0.53287760147277652 16.254657433420562 0 0 0 0 -0.43008188450760665 3.4899649317813601 0 3.4899649317813601 7.0600889933147295 0 0 0 0 -4.542555442673347 -1.6086897994356377 0 -1.6086897994356377 12.702060168490107 0 0 0 0 -3.1307615061803062 -4.5674592077580201 0 -4.5674592077580201 18.052770432017951 0 0 0 0 2.9044099421662395 7.7869709138230974 0 7.7869709138230974 22.93954888944063 0 0 0 0 8.483883619086555 5.5726912752934368 0 5.5726912752934368 36.85805066889634 0 0 0 0 2.4771676713219222 7.4423946096715099 0 7.4423946096715099 36.69282265761376 0 0 0 0 6.3582821056425018 4.2331740500233082 0 4.2331740500233082 20.429783742290056 0 0 0 0 -18.937829854919983 8.1087025069955416 0 8.1087025069955416 11.275833856923782 0 0 0 0 20.245221586379557 4.2312898317709369 0 4.2312898317709369 20.307184114962524 0 0 0 0 40.487624513493756 -20.2118797376354 0 -20.2118797376354 45.314929390712678 0 0 0 0 34.413839023410219 -9.3714220291726633 0 -9.3714220291726633 31.42342643792108 0 0 0 0 9.0203796206951665 8.4752589695017377 0 8.4752589695017377 45.721791299606139 0 0 0 0 17.817131086892914 -7.9759241114225006 0 -7.9759241114225006 71.22940942464902 0 0 0 0 -36.449901061837409 -53.67033037123997 0 -53.67033037123997 154.14379894854324 0 0 0 0 0.79861055255842395 0.40182180578406002 0 0.40182180578406002 0.49170193741998869 0 0 0 0 19.984480997234641 0.96388436907454889 0 0.96388436907454889 -19.078984047537233 0 0 0 0 28.380420330731795 -37.93005520719089 0 -37.93005520719089 77.300563414950375 0 0 0 0 -28.393880629883597 8.6657496731331776 0 8.6657496731331776 22.838012316814684 0 0 0 0 202.76995788991098 -97.164671742196333 0 -97.164671742196333 -17.345780984879639 0 0 0 0 0.34834239310181658 0.27605260994077829 0 0.27605260994077829 0.2331029401199407 0 0 0 0 140.3193139154273 -112.82579962123236 0 -112.82579962123236 -21.272707473358878 0 0 0 0 230.06408963767535 -96.886669552425701 0 -96.886669552425701 -19.544786514848056 0 0 0 0 226.12826799046388 -83.238857663856948 0 -83.238857663856948 -41.73251983780392 0 0 0 0 197.65733643639669 -85.904681374459187 0 -85.904681374459187 -63.549058702113143 0 0 0 0 238.84842687220407 -108.04427363474906 0 -108.04427363474906 -58.804991838967226 0 0 0 0 239.50771880951561 -104.0234808118289 0 -104.0234808118289 -34.936326096473749 0 0 0 0 18.635909560245636 -100.91000099535995 0 -100.91000099535995 -21.993415223278134 0 0 0 0 1.1381447804560594 -70.077362969033857 0 -70.077362969033857 -29.54980553376663 0 0 0 0 146.18035442432301 -115.10603826651413 0 -115.10603826651413 -33.602774441805195 0 0 0 0 -66.64301505873118 -94.726999427694409 0 -94.726999427694409 -1.6136651425194941 0 0 0 0 -41.671755952298554 -16.93821635224549 0 -16.93821635224549 -38.217743386080656 0 0 0 0 109.21726458470403 -92.585956633794922 0 -92.585956633794922 -47.177589184645058 0 0 0 0 154.56389639705549 -51.411512526288334 0 -51.411512526288334 -66.967271860542496 0 0 0 0 117.38569343622021 -73.290941117697002 0 -73.290941117697002 -30.99774497509361 0 0 0 0 136.4387091513845 -35.940458105838616 0 -35.940458105838616 -51.138795457459651 0 0 0 0 259.15375177448186 -85.186229858660795 0 -85.186229858660795 -77.511570508615478 0 0 0 0 196.92187797194856 -122.86780075240813 0 -122.86780075240813 -46.496947597895542 0 0 0 0 339.06089622584864 -81.899121762411141 0 -81.899121762411141 -45.136283671330602 0 0 0 0 265.66256668004326 -89.983209791367813 0 -89.983209791367813 -31.207090183590935 0 0 0 0 256.75706958180945 -122.18618367285922 0 -122.18618367285922 -43.837900350283007 0 0 0 0 226.91407992288669 -46.561977867673022 0 -46.561977867673022 -58.372651105209115 0 0 0 0 71.024079141594484 35.266716632332077 0 35.266716632332077 -54.150560375037458 0 0 0 0 1.4576864562959901 0.9268778067685628 0 0.9268778067685628 0.66879344339757374 0 0 0 0 -0.16669326708938037 0.73663535910572597 0 0.73663535910572597 0.62493344633217052 0 0 0 0 19.262148303978393 137.72289005791117 0 137.72289005791117 -154.94096465700068 0 0 0 0 59.007179379486843 -2.0814821263670638 0 -2.0814821263670638 -32.85517624651493 0 0 0 0 85.662740547366411 -2.3887335552772129 0 -2.3887335552772129 -25.32906359334811 0 0 0 0 90.876654735481736 59.042169606558659 0 59.042169606558659 -83.102563848302907 0 0 0 0 22.567890097941927 66.401711647713 0 66.401711647713 -62.528755321729477 0 0 0 0 -55.297726752537301 12.847144944025928 0 12.847144944025928 -77.59498562326371 0 0 0 0 47.518803472870786 61.011779668451254 0 61.011779668451254 -174.38244366480899 0 0 0 0 35.558781569948678 65.60089512493164 0 65.60089512493164 -79.129785243917013 0 0 0 0 -147.01315780713617 91.243864195876938 0 91.243864195876938 -25.375863241579736 0 0 0 0 76.381401445208212 28.029277358257559 0 28.029277358257559 -72.614958853860571 0 0 0 0 154.05445141484142 62.455705937813889 0 62.455705937813889 27.878659068599404 0 0 0 0 0.44466949299885028 -1.5710737042708285 0 -1.5710737042708285 49.064610346299659 0 0 0 0 323.38147207073371 -78.617187834485776 0 -78.617187834485776 197.62781237691661 0 0 0 0 150.24991517702892 64.526482850319695 0 64.526482850319695 35.18446788214942 0 0 0 0 79.783573864013761 44.459891870093628 0 44.459891870093628 74.648516475393876 0 0 0 0 123.14727062536622 19.033209062008268 0 19.033209062008268 67.229949696405839 0 0 0 0 108.40906390513811 -15.823952733874611 0 -15.823952733874611 -1.559191234136506 0 0 0 0 111.54491790152952 54.006524128273611 0 54.006524128273611 -16.493102665575634 0 0 0 0 95.524538648020098 29.342300670745544 0 29.342300670745544 -12.60270910089784 0 0 0 0 69.440452523839667 -14.131314833679767 0 -14.131314833679767 -27.543167212282242 0 0 0 0 6.9927468988289547 24.083970637430014 0 24.083970637430014 0.42848026088631741 0 0 0 0 21.597243530479318 51.702407358058963 0 51.702407358058963 -21.976162390338004 0 0 0 0 155.19495029776863 49.607469911184012 0 49.607469911184012 -5.774635027715874 0 0 0 0 184.39481640272288 59.238450591096651 0 59.238450591096651 -14.788897165948356 0 0 0 0 315.48854833363021 145.23014355887267 0 145.23014355887267 -16.43153988712038 0 0 0 0 1.9724767788562687 2.1212557060605901 0 2.1212557060605901 2.1846152162249335 0 0 0 0 229.43763472622595 8.0639091393336457 0 8.0639091393336457 -72.026922849674122 0 0 0 0 -65.229997264616941 30.109718174856596 0 30.109718174856596 16.567330709256566 0 0 0 0 -77.88074553689512 -46.261804454483809 0 -46.261804454483809 21.889056605344422 0 0 0 0 -15.04113712423532 -14.2606353277979 0 -14.2606353277979 -1.0315502658727382 0 0 0 0 58.936647137972614 -45.997209219604201 0 -45.997209219604201 -56.392005414831488 0 0 0 0 203.93411539667113 -12.913217298779955 0 -12.913217298779955 -67.468070025218367 0 0 0 0 2.5249564659206953 -54.633991151266144 0 -54.633991151266144 90.523285095756819 0 0 0 0 -4.3192472912794528 -62.870543484057229 0 -62.870543484057229 329.72989880093598 0 0 0 0 19.845528680692951 145.25083899507081 0 145.25083899507081 415.67314046937247 0 0 0 0 -17.996756371490847 54.944906209560088 0 54.944906209560088 229.22837895025418 0 0 0 0 -25.079714932442585 86.592633369059058 0 86.592633369059058 261.53160622002974 0 0 0 0 396.53883151771697 101.84081897209239 0 101.84081897209239 115.01229341632052 0 0 0 0 86.243389476307129 134.9156702626849 0 134.9156702626849 336.19439525966789 0 0 0 0 155.91479345930748 -122.27869545470548 0 -122.27869545470548 155.31721403939071 0 0 0 0 79.11656313535218 89.065356462557816 0 89.065356462557816 41.298950425374187 0 0 0 0 -2.4247616304601252 -128.062818384396 0 -128.062818384396 39.991633600765219 0 0 0 0 -42.651562418001049 55.333810248122859 0 55.333810248122859 93.951204376805549 0 0 0 0 202.39537682318041 36.099882754720056 0 36.099882754720056 103.30268907918753 0 0 0 0 0.2275399086211673 -1.9383226496328181 0 -1.9383226496328181 46.600804509014864 0 0 0 0 -184.13662641930023 -10.061389699581014 0 -10.061389699581014 137.03715210537075 0 0 0 0 -0.43294318261755638 -3.5395740262740141 0 -3.5395740262740141 39.534953664146784 0 0 0 0 323.36010983977758 105.06614687013416 0 105.06614687013416 81.849252544312549 0 0 0 0 288.35306200635569 64.435213005398055 0 64.435213005398055 55.015928908715068 0 0 0 0 94.930502611928205 -42.413730430796704 0 -42.413730430796704 53.526961253469835 0 0 0 0 134.51929058765381 -106.73433645350019 0 -106.73433645350019 24.707181975142362 0 0 0 0 96.788000332250135 241.30931371309384 0 241.30931371309384 80.364616839327937 0 0 0 0 72.614551257359949 -72.210722493715309 0 -72.210722493715309 5.5144320945519212 0 0 0 0 268.48790549976457 107.01570908860208 0 107.01570908860208 1.3361946827935753 0 0 0 0 307.22071662288181 -245.78244391388193 0 -245.78244391388193 -90.068242992993873 0 0 0 0 392.65763554357181 -9.8056853453767872 0 -9.8056853453767872 -51.966968400385667 0 0 0 0 42.798938216545139 -226.96205768970322 0 -226.96205768970322 -2.7144897219122868 0 0 0 0 449.44525478662399 -10.793844010560861 0 -10.793844010560861 -22.879580517964314 0 0 0 0 386.66994838797291 50.506648076556303 0 50.506648076556303 20.655661018274259 0 0 0 0 37.0295279465563 74.818915578542374 0 74.818915578542374 51.702464856764891 0 0 0 0 -12.288506359062012 123.89147856941099 0 123.89147856941099 253.92226076007319 0 0 0 0 94.530523195693604 145.56667008105546 0 145.56667008105546 133.88885241676417 0 0 0 0 134.83410862679693 29.836889537792644 0 29.836889537792644 50.341655872793126 0 0 0 0 69.930758627156138 -8.5683603883778687 0 -8.5683603883778687 77.715299647569282 0 0 0 0 169.44334880144015 -29.402515119085137 0 -29.402515119085137 20.989637351754936 0 0 0 0 4.1851725575280838 0.67991038834970707 0 0.67991038834970707 -0.12198664861869635 0 0 0 0 46.212342676945809 83.345645071496847 0 83.345645071496847 103.83447748074263 0 0 0 0 110.46456347773801 -85.847954358179777 0 -85.847954358179777 -24.723911345643955 0 0 0 0 20.239335220916473 -73.275218481986258 0 -73.275218481986258 9.2468150187006586 0 0 0 0 63.295660345698707 45.012841503094933 0 45.012841503094933 -66.477474921714133 0 0 0 0 11.630764329244657 2.7985297518007539 0 2.7985297518007539 -0.68526069957467328 0 0 0 0 -1.7152557655854253 13.948874017996332 0 13.948874017996332 1.118781545812908 0 0 0 0 54.566482379696026 17.487122684628048 0 17.487122684628048 -70.523261570644536 0 0 0 0 -49.605661630219402 39.118368355497751 0 39.118368355497751 49.909580472221279 0 0 0 0 52.19939630915087 86.739445626836414 0 86.739445626836414 -34.158046996413759 0 0 0 0 21.299394792627936 52.420791197687322 0 52.420791197687322 50.796879961648216 0 0 0 0 -13.200523989666181 -9.1037878612037275 0 -9.1037878612037275 20.0940185264717 0 0 0 0 64.223552431680218 12.568895135976163 0 12.568895135976163 -129.62050018767241 0 0 0 0 13.372188077996725 -10.926879032396755 0 -10.926879032396755 41.712233647534049 0 0 0 0 49.401504544607633 70.16795095177622 0 70.16795095177622 -13.85053350342173 0 0 0 0 -30.347389260735326 82.879185093527212 0 82.879185093527212 23.811439782749858 0 0 0 0 28.250095127701581 7.7109261739885566 0 7.7109261739885566 1.1568204746321902 0 0 0 0 -0.26715644017804152 -8.4945570845111433 0 -8.4945570845111433 77.444521735405942 0 0 0 0 -1.2510721013559305 -9.072642196752895 0 -9.072642196752895 83.845203399804404 0 0 0 0 -25.111351911004022 29.502360273832437 0 29.502360273832437 168.56862702617263 0 0 0 0 441.83043868328605 -112.61395403984579 0 -112.61395403984579 -10.216410161146996 0 0 0 0 -83.661945262366316 -91.348288569425904 0 -91.348288569425904 14.649286061801831 0 0 0 0 392.10695175553656 -53.508729983305329 0 -53.508729983305329 -10.321744875400327 0 0 0 0 3.8312077088816467 -3.8854419079458165 0 -3.8854419079458165 26.440477753082718 0 0 0 0 444.13428668523557 24.874954261827952 0 24.874954261827952 -110.60986989906996 0 0 0 0 56.861506497092705 -36.759996204874824 0 -36.759996204874824 -14.871570734794886 0 0 0 0 17.598213181625397 11.568638807996649 0 11.568638807996649 -49.251692185309821 0 0 0 0 46.515852330899008 -9.8685325857170341 0 -9.8685325857170341 -35.228175088661374 0 0 0 0 154.17399610950997 58.598169990141741 0 58.598169990141741 7.7508274695851469 0 0 0 0 10.875860988713839 10.0526795282276 0 10.0526795282276 47.543448000830722 0 0 0 0 33.671472343420646 11.174070810720488 0 11.174070810720488 4.9349945241062763 0 0 0 0 42.466437179596142 -8.0587396701348553 0 -8.0587396701348553 54.623753789593366 0 0 0 0 5.587839123884498 0.28910970114098689 0 0.28910970114098689 9.3053072500231035 0 0 0 0 199.36239453322423 167.76012289393384 0 167.76012289393384 323.87114059345458 0 0 0 0 661.61333019348945 -386.35782422808074 0 -386.35782422808074 257.30782269501833 0 0 0 0 32.555239265528897 3.5053250303903449 0 3.5053250303903449 25.359009100709301 0 0 0 0 82.707737560632722 -39.653160417673462 0 -39.653160417673462 44.813932478189599 0 0 0 0 208.12497671815277 171.49155036568209 0 171.49155036568209 9.3699294742255006 0 0 0 0 634.07702160939243 355.89696640815237 0 355.89696640815237 -135.92591486196397 0 0 0 0 414.62371238874766 -63.551743293941399 0 -63.551743293941399 -5.7429917266126722 0 0 0 0 53.623446454956934 -11.944308360896986 0 -11.944308360896986 0.25174714934467346 0 0 0 0 322.25445238454995 367.25678648717803 0 367.25678648717803 -135.20319709316391 0 0 0 0 -7.3242882953345543 214.10622341198086 0 214.10622341198086 -197.03976632806371 0 0 0 0 370.37607363292568 -213.0800353456425 0 -213.0800353456425 -23.838346881217149 0 0 0 0 74.443944380162975 -22.390764244406 0 -22.390764244406 43.714309059074367 0 0 0 0 -3.4265096566314241 -28.268033243733043 0 -28.268033243733043 71.642261718429836 0 0 0 0 30.237260052264901 -35.27795527517992 0 -35.27795527517992 66.268549878454905 0 0 0 0 12.336149810724237 -36.478832943443194 0 -36.478832943443194 66.829523703804171 0 0 0 0 30.383648966644984 -43.373312311824883 0 -43.373312311824883 60.363239394670018 0 0 0 0 23.863179915599176 -54.786159282424705 0 -54.786159282424705 60.649560682766605 0 0 0 0 61.514373169953615 -51.691829799783591 0 -51.691829799783591 52.759073680073925 0 0 0 0 49.417536481578281 -41.761251948442805 0 -41.761251948442805 60.285022901110722 0 0 0 0 162.75285751200136 -51.930199416943651 0 -51.930199416943651 -38.205783875770067 0 0 0 0 87.915763809571217 -240.49911914905624 0 -240.49911914905624 -19.125543596687976 0 0 0 0 26.280915938763428 -48.281349889711237 0 -48.281349889711237 48.102272325943431 0 0 0 0 55.070179255360927 -41.94981670861489 0 -41.94981670861489 49.433147570232904 0 0 0 0 7.0443648436744901 -13.178599497514092 0 -13.178599497514092 12.209225601977998 0 0 0 0 94.090410210299183 -36.736309824701699 0 -36.736309824701699 17.215405706629415 0 0 0 0 -18.45111676061515 -56.861499160584117 0 -56.861499160584117 62.841346481756773 0 0 0 0 356.48256931774085 -74.256706930005748 0 -74.256706930005748 35.290982654071286 0 0 0 0 94.041500022132823 -4.5631254820727918 0 -4.5631254820727918 32.744189784114496 0 0 0 0 41.401065842203373 -43.619530513551467 0 -43.619530513551467 22.31820438064473 0 0 0 0 513.37610715205665 -54.98409899892431 0 -54.98409899892431 -48.155765420473472 0 0 0 0 209.62803578368013 -14.789681932361418 0 -14.789681932361418 2.2105057759070466 0 0 0 0 32.706707211135452 31.519779027701006 0 31.519779027701006 -23.21368441743234 0 0 0 0 67.676185260268539 -24.961544851956205 0 -24.961544851956205 71.970444259610304 0 0 0 0 65.256181106495205 -38.604637565553276 0 -38.604637565553276 79.445025066659582 0 0 0 0 71.501989400636376 -11.875462402736957 0 -11.875462402736957 98.180317687356364 0 0 0 0 80.871401040861187 -58.447022469691319 0 -58.447022469691319 53.011490348742967 0 0 0 0 -15.857514456375725 -50.380090905083648 0 -50.380090905083648 334.21787918368773 0 0 0 0 -3.619468080084971 -3.4196021930666802 0 -3.4196021930666802 93.897680579918415 0 0 0 0 53.56383490796361 -241.9433398258775 0 -241.9433398258775 193.54794503014773 0 0 0 0 -13.542311140548009 -21.89286380551448 0 -21.89286380551448 134.56993154942893 0 0 0 0 -5.290583825914382 -18.906270939358421 0 -18.906270939358421 87.232242410273102 0 0 0 0 -35.514485140225588 -15.31747958262531 0 -15.31747958262531 72.442005806109592 0 0 0 0 -13.275280935796218 -27.878205396547855 0 -27.878205396547855 78.071836648068484 0 0 0 0 64.149437519839921 -57.589245523312002 0 -57.589245523312002 -86.558745533956426 0 0 0 0 2.7454119566577262 1.4499517784556488 0 1.4499517784556488 -0.099307863966028975 0 0 0 0 -365.2411209158372 99.043887371502706 0 99.043887371502706 491.84238989818641 0 0 0 0 277.98952387836243 -420.56409030789973 0 -420.56409030789973 -262.93847181329193 0 0 0 0 -86.533525441241636 -163.72840701428072 0 -163.72840701428072 214.86369609426492 0 0 0 0 124.70384603675848 -171.21275024104079 0 -171.21275024104079 82.004666642093298 0 0 0 0 94.483551293800929 -241.22673645232476 0 -241.22673645232476 169.41366496296632 0 0 0 0 55.13466088885616 -41.707836534977105 0 -41.707836534977105 -49.517262080365072 0 0 0 0 89.647468890453297 -41.258521118768186 0 -41.258521118768186 17.971893211041568 0 0 0 0 97.285845289639838 -77.869246750771708 0 -77.869246750771708 -78.418379987326261 0 0 0 0 53.512904245722893 -57.657446298561808 0 -57.657446298561808 -13.514518403680995 0 0 0 0 104.80286854692531 -39.743726692844575 0 -39.743726692844575 -35.753559533233783 0 0 0 0 107.9547541752836 -11.645121212241975 0 -11.645121212241975 10.173120007097168 0 0 0 0 93.740868370503449 -14.469118323201656 0 -14.469118323201656 0.42812316862909938 0 0 0 0 104.5678795888889 -2.1679454249679111 0 -2.1679454249679111 -11.149174424072044 0 0 0 0 125.69935245318266 -38.91055188133123 0 -38.91055188133123 -70.810445948201959 0 0 0 0 73.708888038680016 -34.582740690069841 0 -34.582740690069841 -19.014899859098477 0 0 0 0 358.76788614000907 -76.337624291941211 0 -76.337624291941211 23.513232299956144 0 0 0 0 191.63675823147622 -52.713315217384888 0 -52.713315217384888 -22.224984620275791 0 0 0 0 104.28545025640051 -21.486734640871873 0 -21.486734640871873 -27.349191281758976 0 0 0 0 143.91079441846523 -36.852557757661998 0 -36.852557757661998 -24.076449491931271 0 0 0 0 98.264792501522606 -17.163438889319423 0 -17.163438889319423 10.366242742842587 0 0 0 0 145.98499852128589 -0.0028947593164048158 0 -0.0028947593164048158 27.795034021709739 0 0 0 0 147.0879929652001 -50.218943878919163 0 -50.218943878919163 30.767573318265931 0 0 0 0 142.62522802734748 -25.879019356172648 0 -25.879019356172648 29.268462347423338 0 0 0 0 114.40881146183528 1.6119184161307203 0 1.6119184161307203 20.731413791341765 0 0 0 0 137.91260578559741 -19.727053365773827 0 -19.727053365773827 -0.321605892464504 0 0 0 0 270.61607897042268 -107.50518637867663 0 -107.50518637867663 14.720502037467668 0 0 0 0 357.96672849255992 -26.492804984622126 0 -26.492804984622126 35.301083501279209 0 0 0 0 183.75801918427896 -9.4535955536684924 0 -9.4535955536684924 5.1599706625256658 0 0 0 0 -4.7487601399681161 -36.858831928242012 0 -36.858831928242012 19.617068366526041 0 0 0 0 6.8245688922853107 -38.350546364561339 0 -38.350546364561339 16.156085326556251 0 0 0 0 409.35830205579578 -118.03710514488591 0 -118.03710514488591 -84.448472935342579 0 0 0 0 49.558092274113733 -123.89897706067222 0 -123.89897706067222 128.59280401432261 0 0 0 0 363.11788763802906 15.688882035210554 0 15.688882035210554 -15.1838641891718 0 0 0 0 -2.4204824851408517 1.0471903031558298 0 1.0471903031558298 0.7164343027757667 0 0 0 0 7.2925208614033181 -12.758508206463375 0 -12.758508206463375 3.8062145808034984 0 0 0 0 3.0513355861904827 -3.6788919525089909 0 -3.6788919525089909 1.5704875899471986 0 0 0 0 122.75470499363018 -43.105591446590267 0 -43.105591446590267 16.251883157776319 0 0 0 0 -42.265755670578073 -11.79369715779103 0 -11.79369715779103 -6.5633659684099257 0 0 0 0 327.88132635848888 -211.04898427837543 0 -211.04898427837543 90.242289261332189 0 0 0 0 24.634884626486212 -42.501373403665418 0 -42.501373403665418 1.2332384296635794 0 0 0 0 14.645076079206774 -14.039274378854316 0 -14.039274378854316 1.6416699791079736 0 0 0 0 17.921051250467261 -12.823581434004822 0 -12.823581434004822 3.4723760055848132 0 0 0 0 60.348668437045305 -13.589001623455161 0 -13.589001623455161 -7.0559450645036463 0 0 0 0 8.8801897201919928 -15.529270510953211 0 -15.529270510953211 7.755865927792911 0 0 0 0 -19.835360050148722 -7.0309564149686423 0 -7.0309564149686423 6.2956360877196893 0 0 0 0 50.347380757499195 -86.90938773768994 0 -86.90938773768994 -14.123538241535698 0 0 0 0 74.198859417734639 -30.895280355371142 0 -30.895280355371142 14.311330829720646 0 0 0 0 120.80410014200424 -30.38327696732199 0 -30.38327696732199 29.194005276598546 0 0 0 0 17.161810705613306 -5.7774329931221544 0 -5.7774329931221544 0.63614233819448174 0 0 0 0 104.21947079074016 18.535748753613007 0 18.535748753613007 43.143670990788451 0 0 0 0 54.842677704185917 16.343100744540379 0 16.343100744540379 58.253216229808459 0 0 0 0 108.21677498255303 10.043204886557305 0 10.043204886557305 -15.511919047010451 0 0 0 0 200.80739516071662 -22.331363960975523 0 -22.331363960975523 -30.160372355258005 0 0 0 0 153.87290366846719 61.733810977400935 0 61.733810977400935 38.015312707554585 0 0 0 0 -9.492245700530475 -30.867135463155137 0 -30.867135463155137 120.37013530257946 0 0 0 0 89.414163542682218 54.231001510762326 0 54.231001510762326 99.449097444380641 0 0 0 0 160.22125284589492 -98.065964826713753 0 -98.065964826713753 -62.351388400132237 0 0 0 0 54.98788593050557 -24.128418538440059 0 -24.128418538440059 9.8029872666534033 0 0 0 0 160.8480479550235 -136.98222531660213 0 -136.98222531660213 -530.72787810888076 0 0 0 0 290.20796134400007 137.84583830519023 0 137.84583830519023 -414.71986386926619 0 0 0 0 135.72879698305042 155.50249974849066 0 155.50249974849066 -185.4974478107988 0 0 0 0 19.363023597623396 -25.71018553572776 0 -25.71018553572776 -165.65968648670241 0 0 0 0 119.61649129699799 26.675659865584748 0 26.675659865584748 -83.735649801031286 0 0 0 0 10.889872576919515 -1.1403274136109758 0 -1.1403274136109758 31.899956242670669 0 0 0 0 119.45154570464456 29.04300816970715 0 29.04300816970715 -44.709129368900904 0 0 0 0 0.88646610665665548 3.5678645732725158 0 3.5678645732725158 -4.0576400360213754 0 0 0 0 13.886340921528582 -3.4415889251127396 0 -3.4415889251127396 0.08005451674888775 0 0 0 0 78.2684529942278 -18.423341268513582 0 -18.423341268513582 50.5092550546251 0 0 0 0 102.33621997872251 6.9885010608286393 0 6.9885010608286393 -15.352038185839774 0 0 0 0 25.333024828690881 -3.0378637975013447 0 -3.0378637975013447 -9.2578402370309192 0 0 0 0 66.654123984507095 -29.712476943582764 0 -29.712476943582764 10.574568667236338 0 0 0 0 90.429670068522682 -41.592819691773911 0 -41.592819691773911 -89.680622767518798 0 0 0 0 74.222756088558526 45.068094540606126 0 45.068094540606126 -81.561017187455946 0 0 0 0 141.1718931166688 18.011961169395363 0 18.011961169395363 49.137508904319816 0 0 0 0 146.0253737496605 17.337104447002275 0 17.337104447002275 32.472211683445494 0 0 0 0 96.920952216998558 52.373451639232371 0 52.373451639232371 58.198607536302006 0 0 0 0 94.892989093616052 52.402021489491744 0 52.402021489491744 65.745154956068291 0 0 0 0 65.271724043341237 60.281097283618692 0 60.281097283618692 74.188829909408014 0 0 0 0 54.631391913877451 41.042115753820326 0 41.042115753820326 47.913289128773613 0 0 0 0 89.087401312979637 36.260804146570081 0 36.260804146570081 42.009802406435483 0 0 0 0 59.060223590524402 51.914796130027753 0 51.914796130027753 65.88468284499686 0 0 0 0 76.137466610882257 16.669449938723119 0 16.669449938723119 60.21233385062078 0 0 0 0 99.818864820670569 18.593256349005969 0 18.593256349005969 49.182552540768484 0 0 0 0 129.62412385921925 4.4607749269216583 0 4.4607749269216583 43.706719383422751 0 0 0 0 96.017087842868932 -1.6684840774651093 0 -1.6684840774651093 53.312359420793655 0 0 0 0 100.96863806743931 -26.472316880975995 0 -26.472316880975995 50.962155306455315 0 0 0 0 172.00227253366029 -96.636110365492641 0 -96.636110365492641 28.489111808306916 0 0 0 0 116.34948260335113 -40.786904705715187 0 -40.786904705715187 59.57550509126304 0 0 0 0 177.44368409196613 -39.2173519917269 0 -39.2173519917269 33.863455528546183 0 0 0 0 102.91739172107191 -106.70662063069176 0 -106.70662063069176 129.52008377767197 0 0 0 0 205.64664059247298 -133.47405216929837 0 -133.47405216929837 56.487713668167999 0 0 0 0 179.2515272368837 -183.63973073921898 0 -183.63973073921898 12.220189534771634 0 0 0 0 268.03122509999048 -169.828388659138 0 -169.828388659138 9.9616201741300756 0 0 0 0 386.27342426504765 -172.30410889350787 0 -172.30410889350787 -50.61086509008237 0 0 0 0 246.52289452938021 -89.347088560361499 0 -89.347088560361499 3.7796288234458189 0 0 0 0 328.78698305225407 -55.71391488741574 0 -55.71391488741574 -27.117448631277512 0 0 0 0 321.68190456499906 -110.38075662946767 0 -110.38075662946767 -94.001409885371686 0 0 0 0 181.59122794980067 -29.354494968520157 0 -29.354494968520157 27.617920047892767 0 0 0 0 242.12925526748586 -69.027872831469722 0 -69.027872831469722 -8.8782996686786646 0 0 0 0 241.6060340674594 -16.301999888251885 0 -16.301999888251885 14.029019205248915 0 0 0 0 204.55654685098852 -0.77220293059690448 0 -0.77220293059690448 9.2095853685532347 0 0 0 0 288.18367877954461 -32.325238342876673 0 -32.325238342876673 -38.969901036645751 0 0 0 0 282.83964422001509 26.436858357764777 0 26.436858357764777 4.1136458687324193 0 0 0 0 260.06055183500575 29.178243787006068 0 29.178243787006068 4.3359971034351474 0 0 0 0 412.0415748408268 -78.403029458520905 0 -78.403029458520905 -84.600118570622726 0 0 0 0 380.61954651400447 4.5706394778972026 0 4.5706394778972026 -35.390992110878869 0 0 0 0 378.35443225430708 -58.304204786118788 0 -58.304204786118788 -96.572913608222734 0 0 0 0 505.01478299651353 -20.646318879787941 0 -20.646318879787941 -85.613194584359007 0 0 0 0 351.46730670839315 10.680152846238343 0 10.680152846238343 -35.59449090281305 0 0 0 0 394.9582075157814 38.473861858090459 0 38.473861858090459 -31.496606819619046 0 0 0 0 417.26983300969005 45.19453880439869 0 45.19453880439869 -34.345364601053916 0 0 0 0 318.81198202243104 63.001092455975595 0 63.001092455975595 1.4018200848440756 0 0 0 0 398.23131432698574 112.31767476789901 0 112.31767476789901 15.507554323248769 0 0 0 0 310.46604030446906 66.779793908815918 0 66.779793908815918 0.13510945326015644 0 0 0 0 238.12282187250094 86.567358765700192 0 86.567358765700192 54.269553460155294 0 0 0 0 277.11028326687665 102.58261926287923 0 102.58261926287923 44.965129570366116 0 0 0 0 235.14578734472161 94.415259801549837 0 94.415259801549837 59.916515625223838 0 0 0 0 189.26114773158042 88.716141373330174 0 88.716141373330174 60.485668470055316 0 0 0 0 186.53082428027119 81.623453251489991 0 81.623453251489991 43.573022184409638 0 0 0 0 131.61853220372723 105.98864566500379 0 105.98864566500379 46.764456523716945 0 0 0 0 243.91128133656457 75.53045907406522 0 75.53045907406522 30.874668850403395 0 0 0 0 227.4963725468624 83.431300082383132 0 83.431300082383132 31.839637385044625 0 0 0 0 199.2193479493144 63.088312682424657 0 63.088312682424657 40.893627628607646 0 0 0 0 132.43632876845368 47.830689618414908 0 47.830689618414908 58.516272035254133 0 0 0 0 152.97030482901755 61.317561645962996 0 61.317561645962996 42.067957658302475 0 0 0 0 214.39980204087624 25.172072138328076 0 25.172072138328076 31.201759509625845 0 0 0 0 105.06162781435705 73.880354779961635 0 73.880354779961635 70.664387623617586 0 0 0 0 107.52010321184207 76.88665501583182 0 76.88665501583182 68.770871596632787 0 0 0 0 132.22079784682137 108.55960521246016 0 108.55960521246016 40.717326022406269 0 0 0 0 45.981663802107505 109.72244111522991 0 109.72244111522991 74.220097213175904 0 0 0 0 53.217424286309779 59.969012896092067 0 59.969012896092067 79.357996532902689 0 0 0 0 43.83016226383188 12.049298505578918 0 12.049298505578918 14.33905870493254 0 0 0 0 2.5277931447574815 -3.7900192105553785 0 -3.7900192105553785 5.1768966630604751 0 0 0 0 37.597614500584911 -17.263303753417432 0 -17.263303753417432 6.6601369469783762 0 0 0 0 67.436967902682227 3.2405934301045818 0 3.2405934301045818 -46.335674011896117 0 0 0 0 163.34315337210501 -549.8621029738124 0 -549.8621029738124 -580.76841012124532 0 0 0 0 99.813714450525367 83.17825856481636 0 83.17825856481636 51.382837885523259 0 0 0 0 0.36130326394969359 -1.125366487298308 0 -1.125366487298308 2.3541573867841485 0 0 0 0 70.209904430888855 77.707459607378951 0 77.707459607378951 102.79566289772629 0 0 0 0 63.147151507590024 65.925725968791085 0 65.925725968791085 72.660988302301121 0 0 0 0 62.205535011249594 59.522243452232942 0 59.522243452232942 69.68160676779371 0 0 0 0 54.480942187180204 63.638037568825787 0 63.638037568825787 67.989506620986504 0 0 0 0 49.542307716230425 26.637682071468589 0 26.637682071468589 -0.79915779533621389 0 0 0 0 46.32245740484359 11.654265308485265 0 11.654265308485265 33.365996925121181 0 0 0 0 52.852599457655742 36.071771948501919 0 36.071771948501919 123.55059234459259 0 0 0 0 95.592510798931471 -69.542198844939776 0 -69.542198844939776 58.425354670363049 0 0 0 0 98.717627425914543 -5.5438325384993732 0 -5.5438325384993732 -84.161962187632525 0 0 0 0 45.721629967687477 -83.829195811849786 0 -83.829195811849786 -52.358791900094729 0 0 0 0 65.742391423424124 18.401132036706258 0 18.401132036706258 -136.55250326471651 0 0 0 0 4.3006377934725606 -128.6364302028469 0 -128.6364302028469 -173.24506904630107 0 0 0 0 68.498589973525668 2.0548754477549664 0 2.0548754477549664 -121.43925339242196 0 0 0 0 43.801291552155817 1.5186298005089611 0 1.5186298005089611 -15.254300599815906 0 0 0 0 37.564292935596313 35.077035691196215 0 35.077035691196215 1.5187660171359312 0 0 0 0 66.570067803022539 15.901596308768603 0 15.901596308768603 7.6753177462160238 0 0 0 0 55.945680024356989 22.743384680114104 0 22.743384680114104 43.343761488988093 0 0 0 0 58.839812180929584 53.165928303784312 0 53.165928303784312 14.552530413719069 0 0 0 0 44.928749341226649 36.220426469664744 0 36.220426469664744 42.76976430752029 0 0 0 0 18.03114741765603 -41.638284909375216 0 -41.638284909375216 100.85832772334106 0 0 0 0 67.478855606808793 -136.20720756041192 0 -136.20720756041192 206.15483074839722 0 0 0 0 76.747465055610519 -16.569123821685935 0 -16.569123821685935 37.040095600100358 0 0 0 0 60.719118421923667 -30.13693024585416 0 -30.13693024585416 70.939341360994149 0 0 0 0 53.69468383671483 12.556636556629201 0 12.556636556629201 -88.705305971925554 0 0 0 0 -0.27904651788412593 14.219369112750428 0 14.219369112750428 52.304388590961935 0 0 0 0 15.558713342878036 73.352519205001954 0 73.352519205001954 -80.198304846675455 0 0 0 0 4.2485193503889604 63.041278633241745 0 63.041278633241745 123.13651392305837 0 0 0 0 -9.283713291380991 -28.471693383897218 0 -28.471693383897218 -5.5507319297830691 0 0 0 0 34.012766156629368 54.834926288698625 0 54.834926288698625 -175.44756671426148 0 0 0 0 92.395111612851906 -105.17613082808748 0 -105.17613082808748 -379.95930251342111 0 0 0 0 -79.938726237582159 -61.127070203358016 0 -61.127070203358016 -242.06234735923499 0 0 0 0 65.319739606435661 -26.474278609917057 0 -26.474278609917057 7.6245000222911088 0 0 0 0 -104.36928564369737 54.113266435662808 0 54.113266435662808 -281.40346261425884 0 0 0 0 19.502818487606419 73.682433714710896 0 73.682433714710896 -279.87087759612768 0 0 0 0 -214.84954266138811 -38.384541298304612 0 -38.384541298304612 -231.84327841625054 0 0 0 0 36.539818555800593 57.495580550519662 0 57.495580550519662 -120.22252200891853 0 0 0 0 60.789255142444745 25.534212380622193 0 25.534212380622193 -367.96318439863535 0 0 0 0 33.23510058222746 -47.114001575471775 0 -47.114001575471775 -231.22114870349105 0 0 0 0 14.404854400418117 1.0729550135911268 0 1.0729550135911268 -142.71594985420597 0 0 0 0 105.2425775834181 -27.659578768177198 0 -27.659578768177198 -104.73788093829808 0 0 0 0 12.740146167808941 18.790726116190257 0 18.790726116190257 -27.937180481947014 0 0 0 0 110.19073441070759 37.286985475801885 0 37.286985475801885 -67.669438212357818 0 0 0 0 69.952019893005854 7.5402442290345562 0 7.5402442290345562 -59.484754384518965 0 0 0 0 138.57340435106198 42.00945891319634 0 42.00945891319634 -85.883860604823667 0 0 0 0 86.233972691852614 26.742073301486016 0 26.742073301486016 -37.431644204424629 0 0 0 0 5.2540097007522739 2.7795558596876724 0 2.7795558596876724 -6.7825800549046216 0 0 0 0 123.29612036091521 95.378956080714772 0 95.378956080714772 16.432062397477239 0 0 0 0 96.825524066052822 -95.569488856042881 0 -95.569488856042881 -130.60912635947352 0 0 0 0 105.28869481201036 -31.03666963739397 0 -31.03666963739397 -100.49032118560899 0 0 0 0 75.766735614354857 -32.391453221849019 0 -32.391453221849019 13.488052359533896 0 0 0 0 75.411334868847916 -72.763380901224082 0 -72.763380901224082 -166.37084681771921 0 0 0 0 145.10624337162881 -89.899724763170866 0 -89.899724763170866 -289.4825413436547 0 0 0 0 87.143297237493243 14.206856905955419 0 14.206856905955419 -96.551844241026629 0 0 0 0 85.656408537168687 -36.694528601539282 0 -36.694528601539282 15.016770304758921 0 0 0 0 158.23619470580206 -211.65524064939041 0 -211.65524064939041 -351.32011873708552 0 0 0 0 103.62001566650906 -162.96264997535218 0 -162.96264997535218 122.01562803578577 0 0 0 0 -20.198096570538837 -33.036415046871753 0 -33.036415046871753 37.298133256492747 0 0 0 0 217.86664609010677 -54.887449342726995 0 -54.887449342726995 -61.463041680737206 0 0 0 0 551.47750653513867 1.6812489600106346 0 1.6812489600106346 -54.18480336718585 0 0 0 0 221.31721966081659 -354.34465656819714 0 -354.34465656819714 429.80424055811545 0 0 0 0 66.818716122437309 10.930181850733732 0 10.930181850733732 -7.46522396725004 0 0 0 0 24.892730728698552 -9.1594467945742508 0 -9.1594467945742508 -13.248033688574651 0 0 0 0 152.18864573455676 126.29750015456005 0 126.29750015456005 23.95378588128915 0 0 0 0 41.16465613732089 64.788843091591843 0 64.788843091591843 79.912336620632914 0 0 0 0 201.37835489319173 -374.89111410872397 0 -374.89111410872397 476.11185303656634 0 0 0 0 6.3753127371657197 -1.055582260851808 0 -1.055582260851808 0.64693508974760094 0 0 0 0 267.88714385971434 213.01090586096643 0 213.01090586096643 162.28297244260648 0 0 0 0 62.347485739070805 -1.7727431557484579 0 -1.7727431557484579 -7.0377661117336174 0 0 0 0 17.212741539759165 -2.7363784431830895 0 -2.7363784431830895 -0.683047602304792 0 0 0 0 82.85599237033216 -12.264507648439803 0 -12.264507648439803 -33.589777503057348 0 0 0 0 -17.186562479709664 19.290966971080707 0 19.290966971080707 4.6585208919656225 0 0 0 0 32.62743767093275 -40.226263188405483 0 -40.226263188405483 -19.291328860611202 0 0 0 0 15.369082297335478 -3.7720144582298634 0 -3.7720144582298634 -3.2980100801911449 0 0 0 0 11.296545724941835 -4.3089207213803933 0 -4.3089207213803933 -2.7478870537503166 0 0 0 0 11.629347403260727 0.75334258684118183 0 0.75334258684118183 -3.6520294186533224 0 0 0 0 11.006429555313844 -2.3034182708338449 0 -2.3034182708338449 -3.5273058934490109 0 0 0 0 24.271403821325293 -6.6008806792406176 0 -6.6008806792406176 2.5157102106270486 0 0 0 0 8.82172426724666 -4.3394474693482721 0 -4.3394474693482721 -5.9425777789866316 0 0 0 0 33.463702906114122 -12.3012722477024 0 -12.3012722477024 -4.5582391359566827 0 0 0 0 25.727304840011811 -16.203684796113635 0 -16.203684796113635 -2.3257344617886702 0 0 0 0 14.995522249752153 -10.224795697397177 0 -10.224795697397177 3.7594717481300357 0 0 0 0 41.642413088797184 -21.281517168888513 0 -21.281517168888513 8.7353100467482818 0 0 0 0 161.70123774422245 45.46504522558098 0 45.46504522558098 2.303298556113532 0 0 0 0 6.8940979944989298 -2.2433928697779955 0 -2.2433928697779955 0.48589942482907045 0 0 0 0 118.05220363783815 129.56240280031602 0 129.56240280031602 144.98454256694549 0 0 0 0 94.653500702423344 87.343462423295364 0 87.343462423295364 81.711514617024477 0 0 0 0 330.06516541482131 321.08367111186305 0 321.08367111186305 179.32673217823776 0 0 0 0 827.62432154915496 199.67902172168488 0 199.67902172168488 43.644705296590246 0 0 0 0 528.98420524676158 482.01816948072519 0 482.01816948072519 360.03293766827665 0 0 0 0 729.11449759819425 120.79695014105255 0 120.79695014105255 270.12516714648063 0 0 0 0 667.50577567926211 253.66190081220611 0 253.66190081220611 249.03095334321347 0 0 0 0 3.5300743922627973 1.3045738609424795 0 1.3045738609424795 -0.26484607129984239 0 0 0 0 624.50630206119286 48.651669832798518 0 48.651669832798518 -51.410782567684691 0 0 0 0 22.344031414718302 -84.355361638612521 0 -84.355361638612521 133.49696363756811 0 0 0 0 388.56953246949433 182.09706838623151 0 182.09706838623151 70.522273779502029 0 0 0 0 295.65100650907573 -129.35635058079475 0 -129.35635058079475 -18.161992092575929 0 0 0 0 17.542257964435336 -14.976770722101229 0 -14.976770722101229 7.5188916928976894 0 0 0 0 805.67510742107606 177.79395010354892 0 177.79395010354892 22.680387567317666 0 0 0 0 -2.1882232154988728 -3.2551993171963201 0 -3.2551993171963201 6.8118101297602092 0 0 0 0 988.39439893039162 299.14237310694534 0 299.14237310694534 46.439911171413087 0 0 0 0 714.83735117825836 308.75327186592676 0 308.75327186592676 51.805567740520019 0 0 0 0 25.426605808272143 15.408493028867724 0 15.408493028867724 -30.266626654645734 0 0 0 0 16.671573367940127 -18.214748654415803 0 -18.214748654415803 16.851646835392586 0 0 0 0 200.75310631651155 -141.43892044933546 0 -141.43892044933546 -306.72479486241537 0 0 0 0 74.41713326703757 55.612214055156073 0 55.612214055156073 -67.464643930179591 0 0 0 0 74.980285885309968 26.956467760622218 0 26.956467760622218 -23.710618400815292 0 0 0 0 11.344346720219836 16.504427913657807 0 16.504427913657807 -37.364653392372801 0 0 0 0 28.059437134344989 -10.282633815288136 0 -10.282633815288136 0.57815094901798147 0 0 0 0 38.567029364393832 -20.868606238138874 0 -20.868606238138874 4.8529212363040877 0 0 0 0 94.03162376068417 -36.122972995144892 0 -36.122972995144892 -130.49574058838698 0 0 0 0 2.377085757048917 -31.480901681068644 0 -31.480901681068644 11.904877908251365 0 0 0 0 28.912301719465177 -8.9005668992840583 0 -8.9005668992840583 -10.795325739163673 0 0 0 0 180.20508517342842 -78.855345042599765 0 -78.855345042599765 41.881590864466489 0 0 0 0 141.97490629460754 -31.137532888399392 0 -31.137532888399392 84.564681796548939 0 0 0 0 78.773091600774933 -32.147586413994759 0 -32.147586413994759 -145.05402710124665 0 0 0 0 43.709875163682682 -78.472334537422682 0 -78.472334537422682 19.173019732228568 0 0 0 0 -91.407116563686031 28.721488062509707 0 28.721488062509707 60.401129806397876 0 0 0 0 300.35649651924359 124.04083830893842 0 124.04083830893842 73.39490087045715 0 0 0 0 1005.4935631553872 365.66925799965293 0 365.66925799965293 -47.703608993329794 0 0 0 0 1216.9568787036287 -206.98273301228892 0 -206.98273301228892 12.404033542818979 0 0 0 0 3.6190913811407697 2.4052556094940432 0 2.4052556094940432 1.8769333502569925 0 0 0 0 -8.8005987933469214 358.13074915800564 0 358.13074915800564 -41.815217076215049 0 0 0 0 889.25990037100428 249.72518975846606 0 249.72518975846606 295.58397317676099 0 0 0 0 763.2703152076374 92.731732309318204 0 92.731732309318204 116.43375862728777 0 0 0 0 833.72495112182332 41.895050334416737 0 41.895050334416737 205.35450569916588 0 0 0 0 804.06908637204174 169.88595876095997 0 169.88595876095997 -16.186195824736387 0 0 0 0 919.16522029191583 136.44471240042003 0 136.44471240042003 -46.123473450508754 0 0 0 0 881.7110847490685 137.7903501961132 0 137.7903501961132 28.275785412148252 0 0 0 0 829.21905027483717 201.27438479412422 0 201.27438479412422 271.75667434481329 0 0 0 0 919.15973430977465 184.11773614712729 0 184.11773614712729 22.079858282621672 0 0 0 0 866.98621810692111 130.06125556056668 0 130.06125556056668 44.148823462696782 0 0 0 0 757.19056711093981 193.18228828772953 0 193.18228828772953 44.038560706233511 0 0 0 0 638.17543753131258 42.321944888463804 0 42.321944888463804 66.160180597855287 0 0 0 0 873.87665749596135 179.4673406791739 0 179.4673406791739 -18.587387955075428 0 0 0 0 504.02002231124334 219.56873241915491 0 219.56873241915491 51.416355355372161 0 0 0 0 340.8968978822686 29.941448048612529 0 29.941448048612529 99.397120293330772 0 0 0 0 435.91311186269286 34.421915852485427 0 34.421915852485427 27.078210563004177 0 0 0 0 464.25018342974363 85.571089138139087 0 85.571089138139087 95.125262006024968 0 0 0 0 643.72200354487632 33.637155418983866 0 33.637155418983866 54.740877874992293 0 0 0 0 381.37780411194035 -63.745887018671965 0 -63.745887018671965 106.097399829746 0 0 0 0 397.54560223009321 16.108378721725785 0 16.108378721725785 121.10631346833179 0 0 0 0 305.07465896887516 -26.171741455302708 0 -26.171741455302708 90.874725747535194 0 0 0 0 218.77815245196143 -80.37294848331203 0 -80.37294848331203 114.16635804376529 0 0 0 0 330.07488605510298 -16.293490655662481 0 -16.293490655662481 81.271375030039053 0 0 0 0 222.68078764927668 -63.235879399107489 0 -63.235879399107489 95.835713761543275 0 0 0 0 354.0694644529176 12.673161238955799 0 12.673161238955799 72.131182329631883 0 0 0 0 227.8943381655954 3.7885706375986956 0 3.7885706375986956 247.02508965818197 0 0 0 0 385.22338021235328 -1.2880809130108446 0 -1.2880809130108446 263.48926288265829 0 0 0 0 375.85167478299036 33.05312214731407 0 33.05312214731407 148.46983024736619 0 0 0 0 305.81155131057676 -46.384663922793152 0 -46.384663922793152 180.28890730738021 0 0 0 0 317.6937479929652 -9.6351309614785805 0 -9.6351309614785805 146.98349423582476 0 0 0 0 339.07876461049273 -63.810948720178658 0 -63.810948720178658 110.80956231470009 0 0 0 0 303.90357888839117 -57.536953899435275 0 -57.536953899435275 97.491501987564334 0 0 0 0 417.78216285493619 2.6760168178751709 0 2.6760168178751709 180.56974704075037 0 0 0 0 417.79776646961909 -27.629188374578007 0 -27.629188374578007 111.0055259486162 0 0 0 0 667.81869994459339 -1.8920292695363514 0 -1.8920292695363514 125.43190122959186 0 0 0 0 785.60098552151248 68.544650583439307 0 68.544650583439307 141.00470364142166 0 0 0 0 497.11480945336734 -53.867876401390276 0 -53.867876401390276 111.8409643834766 0 0 0 0 592.55170759580506 81.384085228220101 0 81.384085228220101 101.5975948458381 0 0 0 0 575.09953592806778 -14.101366815406436 0 -14.101366815406436 239.65895700756482 0 0 0 0 568.39041415542306 27.027279161297884 0 27.027279161297884 353.54492981405429 0 0 0 0 576.59334285251498 -16.269119088036859 0 -16.269119088036859 148.54472829661972 0 0 0 0 567.51153083224017 40.751387826866448 0 40.751387826866448 200.58235788006732 0 0 0 0 804.27111522999985 -81.75648246228775 0 -81.75648246228775 237.76767868655406 0 0 0 0 924.22853209739469 71.658644521434553 0 71.658644521434553 187.22084188382541 0 0 0 0 1508.7952886291932 -61.789052717006143 0 -61.789052717006143 166.87572503435013 0 0 0 0 948.98368985334491 26.779467355820543 0 26.779467355820543 123.02018797040364 0 0 0 0 872.3811701047307 84.473385899978894 0 84.473385899978894 72.557526902673544 0 0 0 0 877.02997695470594 165.66467383745103 0 165.66467383745103 70.019081676819042 0 0 0 0 1177.6876948865356 119.97887813168927 0 119.97887813168927 50.817509002058614 0 0 0 0 1021.0632193534561 474.22707162065296 0 474.22707162065296 124.95024674702927 0 0 0 0 6.1627247926299376 -6.521507504419823 0 -6.521507504419823 9.8001233120959377 0 0 0 0 1651.2462781523036 498.80923812271942 0 498.80923812271942 83.424204256615667 0 0 0 0 1518.8911800553115 -63.196094712700415 0 -63.196094712700415 -613.80406160768371 0 0 0 0 1292.8537954912426 208.59251693484339 0 208.59251693484339 282.31921825263225 0 0 0 0 902.9166761316128 -118.0789972802329 0 -118.0789972802329 303.93572047261205 0 0 0 0 884.97125269573735 -56.973670821390897 0 -56.973670821390897 534.25644607763297 0 0 0 0 503.79398784623299 -27.780880381763382 0 -27.780880381763382 421.41104639508831 0 0 0 0 857.78481083553243 45.566288735915919 0 45.566288735915919 253.67646346701804 0 0 0 0 456.35927718273888 183.30885982003201 0 183.30885982003201 373.60733322706005 0 0 0 0 431.21675790066911 121.2968933836064 0 121.2968933836064 223.18096527374564 0 0 0 0 211.74815952602546 204.9677355337997 0 204.9677355337997 169.83667902198249 0 0 0 0 213.42400981278843 124.14519813148218 0 124.14519813148218 342.39744215997325 0 0 0 0 443.93785149659652 119.00682984554805 0 119.00682984554805 237.9630466932831 0 0 0 0 331.41066492907339 20.442927290060652 0 20.442927290060652 327.85316532128036 0 0 0 0 288.32094035255977 114.8568595373788 0 114.8568595373788 166.29438244035373 0 0 0 0 -67.395763970947883 -510.80220043934605 0 -510.80220043934605 421.29532942274864 0 0 0 0 -128.93651499729822 -595.14895317053833 0 -595.14895317053833 384.01090178363665 0 0 0 0 2.4526871669390218 -4.7138718757635658 0 -4.7138718757635658 3.6102398390027943 0 0 0 0 50.397784588374634 -580.52666185919315 0 -580.52666185919315 367.81229320288048 0 0 0 0 -279.77122112092911 -485.86228599857895 0 -485.86228599857895 422.17791551135474 0 0 0 0 133.72777446646069 -379.19945241583264 0 -379.19945241583264 640.30539332065109 0 0 0 0 83.483817555723363 157.2389251397326 0 157.2389251397326 531.94554315459209 0 0 0 0 41.129858005660935 -169.33193292418218 0 -169.33193292418218 164.96242780908869 0 0 0 0 455.36163393305469 -166.47908334946351 0 -166.47908334946351 -693.03449623484994 0 0 0 0 93.763941837241873 -32.11361347406546 0 -32.11361347406546 -28.803106876759557 0 0 0 0 -29.117819524457445 -20.475931679273344 0 -20.475931679273344 -29.139026038930069 0 0 0 0 593.86916214054872 191.22769535048337 0 191.22769535048337 -373.35138705122517 0 0 0 0 94.595855699919412 -436.77127378562545 0 -436.77127378562545 -669.84545675467234 0 0 0 0 75.465970480647229 81.801733656027864 0 81.801733656027864 32.199578103835847 0 0 0 0 16.050100222721454 -1.3583673616836052 0 -1.3583673616836052 -0.65585345191531275 0 0 0 0 129.75088526505351 199.56503139242068 0 199.56503139242068 172.94949721142984 0 0 0 0 103.04354053898714 28.876792716926502 0 28.876792716926502 -46.836759411672574 0 0 0 0 -232.67578866956046 -234.61677353538471 0 -234.61677353538471 88.668500186215169 0 0 0 0 387.83690433477022 -415.39873008345785 0 -415.39873008345785 117.04723164275947 0 0 0 0 603.68286487392834 -112.31107031003557 0 -112.31107031003557 63.952118525897276 0 0 0 0 17.483070441676887 -20.00282978257804 0 -20.00282978257804 22.104090985696679 0 0 0 0 676.17467884101461 380.65896559419343 0 380.65896559419343 187.34375164008861 0 0 0 0 -247.49468535939195 143.80354093721508 0 143.80354093721508 344.87675329913327 0 0 0 0 27.669921173786207 279.48481424711184 0 279.48481424711184 -34.75471101454059 0 0 0 0 -403.09608846657102 -249.53224989879573 0 -249.53224989879573 639.33187400155066 0 0 0 0 -277.0489368198887 -432.15486042314478 0 -432.15486042314478 -322.82423003931922 0 0 0 0 -207.55950197214588 264.77470086993526 0 264.77470086993526 341.22021667475747 0 0 0 0 10.419150590850535 -10.772001721879466 0 -10.772001721879466 8.0277559655515383 0 0 0 0 -267.10538734803504 -122.66500550838396 0 -122.66500550838396 -25.378282116558694 0 0 0 0 -119.20529017629815 -394.73239532440584 0 -394.73239532440584 -221.3988722828808 0 0 0 0 109.31752041145228 -252.01919396555331 0 -252.01919396555331 10.985526574389951 0 0 0 0 224.96160330313432 -39.291668799436593 0 -39.291668799436593 -93.805850122409538 0 0 0 0 3.6254698548929127 -5.8171172880860382 0 -5.8171172880860382 5.1508344952634815 0 0 0 0 162.09800558580537 7.1749848525214475 0 7.1749848525214475 -308.95207557935646 0 0 0 0 421.74543721370719 -368.55457115100762 0 -368.55457115100762 -333.65633696237819 0 0 0 0 405.51536025501264 -163.75160333194981 0 -163.75160333194981 -403.61958702248421 0 0 0 0 339.54197645707973 -289.14238000972637 0 -289.14238000972637 -125.81813970556686 0 0 0 0 296.13153096446331 -317.90228832428693 0 -317.90228832428693 165.11158098076703 0 0 0 0 432.07394251361256 -494.973603759654 0 -494.973603759654 151.58014956947954 0 0 0 0 415.40121404935053 -245.61808242350708 0 -245.61808242350708 -112.63313842763546 0 0 0 0 380.51855599555711 -199.4091839972134 0 -199.4091839972134 -165.18167657977028 0 0 0 0 426.35400867945282 -129.04845359151841 0 -129.04845359151841 -169.57440569832102 0 0 0 0 456.90106927578745 -90.235111601325116 0 -90.235111601325116 -130.4087819221586 0 0 0 0 431.21723273591488 -159.88712390161072 0 -159.88712390161072 -205.37321071448696 0 0 0 0 439.55077861405152 -92.860374117150968 0 -92.860374117150968 -115.99212684753365 0 0 0 0 616.29140246498719 -51.262602459599293 0 -51.262602459599293 -108.15290999941681 0 0 0 0 475.51700624347723 -95.572173353931248 0 -95.572173353931248 -4.0761002562176145 0 0 0 0 497.9924649422519 -198.77464070145629 0 -198.77464070145629 -1.3204636965201644 0 0 0 0 442.44131962829488 -260.74267206570858 0 -260.74267206570858 343.28574889282754 0 0 0 0 336.73739627245232 -84.131997070712714 0 -84.131997070712714 105.44480402214322 0 0 0 0 877.92995034984779 -139.42697721821423 0 -139.42697721821423 -6.4829922811563847 0 0 0 0 704.05086403508903 80.486804493919408 0 80.486804493919408 112.30103996087564 0 0 0 0 1012.6008225819223 -510.19528517795834 0 -510.19528517795834 431.17990989659847 0 0 0 0 321.75629983738327 -32.858424414665478 0 -32.858424414665478 1011.8747960768533 0 0 0 0 1234.3593226487355 214.15787209128985 0 214.15787209128985 173.53713800076366 0 0 0 0 95.233741761890997 -21.971504453133548 0 -21.971504453133548 357.14764944470244 0 0 0 0 319.51978213894381 -111.47502427672214 0 -111.47502427672214 244.66158462382919 0 0 0 0 153.30131782272656 -258.05449619737556 0 -258.05449619737556 353.20453866889056 0 0 0 0 -0.61532093282585265 -56.156453691464776 0 -56.156453691464776 91.208261849455539 0 0 0 0 -125.90007351010172 -203.75504421922687 0 -203.75504421922687 284.92939297431258 0 0 0 0 -106.56975407772188 -64.812506487941846 0 -64.812506487941846 -50.561008708047893 0 0 0 0 70.713063191638867 -229.75800827943885 0 -229.75800827943885 -6.4119119100878379 0 0 0 0 -22.430995303860982 -158.74608198755004 0 -158.74608198755004 282.34465898071448 0 0 0 0 -20.832574526295502 -152.99673042314566 0 -152.99673042314566 237.31182072453066 0 0 0 0 79.00878687320801 12.890754285182879 0 12.890754285182879 -110.34116460416323 0 0 0 0 67.921548824475394 -99.034284206111394 0 -99.034284206111394 -98.314692131662014 0 0 0 0 35.591430993452377 67.789869383105213 0 67.789869383105213 -482.81965998452529 0 0 0 0 170.34195819948263 -158.29185628567438 0 -158.29185628567438 -439.3746601469411 0 0 0 0 300.30966450052802 71.520878723595843 0 71.520878723595843 -440.57995159306961 0 0 0 0 213.2153350451299 -140.76660337640101 0 -140.76660337640101 -420.68779721430872 0 0 0 0 293.40966651123881 -325.85302727772887 0 -325.85302727772887 -317.38865905679586 0 0 0 0 365.83428435025826 74.745705996276769 0 74.745705996276769 -203.99982744694944 0 0 0 0 535.99722400332757 -6.8389773023860698 0 -6.8389773023860698 -183.09812469085955 0 0 0 0 400.52007524983128 -44.504887754723768 0 -44.504887754723768 111.65642603478591 0 0 0 0 136.7303717098257 49.572828917353718 0 49.572828917353718 317.39303905133352 0 0 0 0 145.91301755651511 44.974080720817938 0 44.974080720817938 29.659186800902944 0 0 0 0 236.98356926648103 271.09930902472797 0 271.09930902472797 -279.39492623359638 0 0 0 0 168.23955386668604 214.97377216245081 0 214.97377216245081 37.995475991408057 0 0 0 0 185.52080931375804 249.40889875978098 0 249.40889875978098 62.857147035483649 0 0 0 0 153.60146822240495 202.6554557095111 0 202.6554557095111 290.81653244339486 0 0 0 0 389.57104060442452 106.86786749393991 0 106.86786749393991 427.51226295075048 0 0 0 0 473.86854069205765 228.9921186066681 0 228.9921186066681 17.34097827160349 0 0 0 0 388.73790111459493 396.37613039677672 0 396.37613039677672 -242.8381395634392 0 0 0 0 438.02906097837149 40.444266254041395 0 40.444266254041395 -207.2987228629645 0 0 0 0 996.73252913373472 318.4279536302779 0 318.4279536302779 -78.731519601497439 0 0 0 0 -146.41928998003959 -282.28506066405834 0 -282.28506066405834 514.88530776956395 0 0 0 0 5.4891912885919822 -5.4288820529073227 0 -5.4288820529073227 4.5392218457951969 0 0 0 0 62.252453508612234 -203.24371889331854 0 -203.24371889331854 -3.1554440605777927 0 0 0 0 765.2188157950859 -596.91894548181563 0 -596.91894548181563 216.30726761360938 0 0 0 0 484.88553371355374 -287.43008386671204 0 -287.43008386671204 -225.21481319398708 0 0 0 0 132.27691412103377 29.958805402473956 0 29.958805402473956 -440.63903455647551 0 0 0 0 139.76922993279004 -108.4122994335786 0 -108.4122994335786 -594.56307771772481 0 0 0 0 271.654576754554 256.00809707451788 0 256.00809707451788 -650.42312952925079 0 0 0 0 182.35578104119304 57.904991067479386 0 57.904991067479386 -492.25288283942746 0 0 0 0 474.38122286077635 236.10355809375045 0 236.10355809375045 -399.67761824386025 0 0 0 0 392.78899522770917 246.09422488598216 0 246.09422488598216 -571.05746131381147 0 0 0 0 212.33652143098516 301.54681787563106 0 301.54681787563106 -571.64423023959989 0 0 0 0 114.07773993807132 225.6453007690418 0 225.6453007690418 -572.49599877863545 0 0 0 0 117.85974659190833 277.45764037062645 0 277.45764037062645 -526.26824023995209 0 0 0 0 94.543818997921335 312.46365347216351 0 312.46365347216351 -526.11457689192684 0 0 0 0 2.7174070984110585 92.95387637133922 0 92.95387637133922 -332.04293955253888 0 0 0 0 48.932192818257022 20.858279222938215 0 20.858279222938215 -36.37342625742258 0 0 0 0 263.86434975431803 236.45592144067996 0 236.45592144067996 -427.68695555835893 0 0 0 0 212.78611702524267 366.36085405943913 0 366.36085405943913 -444.68041643055858 0 0 0 0 48.102375377326098 405.79443002989342 0 405.79443002989342 -246.83893702910973 0 0 0 0 32.945325841560447 5.2224620869478855 0 5.2224620869478855 7.6674366212271394 0 0 0 0 569.87745171607821 -85.07347209064028 0 -85.07347209064028 27.936511119281931 0 0 0 0 416.11987124985899 -223.96517477627276 0 -223.96517477627276 101.45976220601005 0 0 0 0 220.53677504729421 171.07763090020364 0 171.07763090020364 -652.85308251721267 0 0 0 0 392.52162784968095 -120.34156695438014 0 -120.34156695438014 76.431033157285128 0 0 0 0 116.80265771799506 11.624250028687555 0 11.624250028687555 -64.576462731783096 0 0 0 0 165.20201853670028 11.479039503568341 0 11.479039503568341 -10.235347860183815 0 0 0 0 383.90040403285821 -68.938947789849408 0 -68.938947789849408 -63.002798971429002 0 0 0 0 -14.009184384107357 169.88169339231899 0 169.88169339231899 -6.4008973105774203 0 0 0 0 67.762428243237082 16.650353435303259 0 16.650353435303259 -98.979594998105313 0 0 0 0 174.61439548840784 21.331132940195268 0 21.331132940195268 -41.982668931072439 0 0 0 0 215.74914461626005 -28.937841901980946 0 -28.937841901980946 -28.63255739382123 0 0 0 0 190.43796300763344 -19.927156634565428 0 -19.927156634565428 -54.046668341559446 0 0 0 0 214.80516312169493 -68.086805594247835 0 -68.086805594247835 -113.77167769267373 0 0 0 0 140.23097213123037 -7.4628835581132762 0 -7.4628835581132762 12.103080038665212 0 0 0 0 262.4024706984319 74.163646491797138 0 74.163646491797138 -949.49588708280612 0 0 0 0 160.43041971496683 -2.1599907228011013 0 -2.1599907228011013 -2.2169559006823194 0 0 0 0 177.39901416622888 -48.718112886640938 0 -48.718112886640938 -221.94955128226593 0 0 0 0 218.71128315457463 12.968349765150151 0 12.968349765150151 -241.20345655948677 0 0 0 0 129.03065479651195 -48.569373729204699 0 -48.569373729204699 -28.663180230546459 0 0 0 0 238.99904672673438 -65.548820795944721 0 -65.548820795944721 -42.916907394306918 0 0 0 0 102.39819194286247 -94.121979898055542 0 -94.121979898055542 347.00523365994695 0 0 0 0 25.35763184899406 101.33580100239351 0 101.33580100239351 87.727842225201172 0 0 0 0 -61.664320388415945 70.526696506338112 0 70.526696506338112 -11.77015868296985 0 0 0 0 98.10716270064367 60.098800822371288 0 60.098800822371288 -30.674492544622321 0 0 0 0 132.71391900732851 -86.399659308558057 0 -86.399659308558057 92.814159462984207 0 0 0 0 458.26553603463981 -673.02315906310196 0 -673.02315906310196 413.64368336345433 0 0 0 0 86.649588241910806 49.591470651225805 0 49.591470651225805 -49.032922501382203 0 0 0 0 51.44196236555581 333.56951991383539 0 333.56951991383539 -109.06822791953164 0 0 0 0 1248.4089515705709 225.71627202841046 0 225.71627202841046 -94.928251467841619 0 0 0 0 8.3797823379078977 5.1592324228029725 0 5.1592324228029725 -2.129340843428416 0 0 0 0 146.70618483705039 -88.573670236663929 0 -88.573670236663929 -9.4205032685284777 0 0 0 0 1275.0852867923095 -804.84837373944538 0 -804.84837373944538 -67.269378989818506 0 0 0 0 187.20148298569256 -406.36567540857868 0 -406.36567540857868 -27.276369585055363 0 0 0 0 605.03866843227297 -68.230605470566843 0 -68.230605470566843 -79.626138975072536 0 0 0 0 320.27496678719763 92.639741844745004 0 92.639741844745004 -142.87165789120627 0 0 0 0 754.8312683810218 153.9514790352423 0 153.9514790352423 -136.61463184199238 0 0 0 0 283.33836952963611 298.11504579840766 0 298.11504579840766 -153.05727988893705 0 0 0 0 262.38630740292319 81.963626939957066 0 81.963626939957066 14.537187393332715 0 0 0 0 156.6918349849002 59.133638570310723 0 59.133638570310723 11.4907150763338 0 0 0 0 332.43751971465645 -28.111055102844603 0 -28.111055102844603 52.829156345818774 0 0 0 0 189.0542748667649 -42.268550341612354 0 -42.268550341612354 70.125223223334615 0 0 0 0 188.6244024586922 -49.589155236091756 0 -49.589155236091756 100.66777667820134 0 0 0 0 111.33545823473833 60.701877323928784 0 60.701877323928784 61.943905378877389 0 0 0 0 171.44978341371825 -35.61090049502036 0 -35.61090049502036 121.51980160475796 0 0 0 0 -60.448106323397951 79.975355933529499 0 79.975355933529499 6.3170401182069327 0 0 0 0 -103.75068833923433 203.48891611325598 0 203.48891611325598 -8.5992853508359985 0 0 0 0 115.59826477554088 27.646188839010847 0 27.646188839010847 2.6156166224172921 0 0 0 0 69.958809000614565 200.18312429366415 0 200.18312429366415 -54.535335726803169 0 0 0 0 -161.66730857667426 28.372452417784189 0 28.372452417784189 -2.10545734729385 0 0 0 0 106.76182507668273 28.272246990931308 0 28.272246990931308 -95.207858818459499 0 0 0 0 -44.594169547694037 -42.015916367452519 0 -42.015916367452519 -118.05809557544126 0 0 0 0 45.098894547463715 -6.8590478030329223 0 -6.8590478030329223 -30.353700798385944 0 0 0 0 69.66347017273074 9.8442514751050112 0 9.8442514751050112 -21.639981987116926 0 0 0 0 140.03875027492177 123.72248699531838 0 123.72248699531838 -108.27668474423081 0 0 0 0 15.782775555921489 12.107947908782151 0 12.107947908782151 -15.459321365237932 0 0 0 0 219.53595939263323 -84.519359987815278 0 -84.519359987815278 -653.14038228329855 0 0 0 0 174.71448831863381 -30.498491081526709 0 -30.498491081526709 -512.5848619607184 0 0 0 0 109.15388632906001 -12.755987409843794 0 -12.755987409843794 -3.6910901906326989 0 0 0 0 62.435103527313913 11.458139683038326 0 11.458139683038326 -455.10338697304883 0 0 0 0 256.02104199951282 100.34908928970026 0 100.34908928970026 -370.65266551447087 0 0 0 0 227.77819739715778 27.750600481852814 0 27.750600481852814 -794.37059569838448 0 0 0 0 131.02145885836504 -5.7603663846161313 0 -5.7603663846161313 -3.7306520608872282 0 0 0 0 227.30587689064851 -69.219150896094106 0 -69.219150896094106 -368.39734755757672 0 0 0 0 148.34939126131206 -3.0789219828587195 0 -3.0789219828587195 -3.5210018144859685 0 0 0 0 235.31150297798376 39.448311916447835 0 39.448311916447835 -950.57465805990455 0 0 0 0 300.82307370980561 94.018913490319392 0 94.018913490319392 -146.18085234005662 0 0 0 0 63.3184634763129 64.983282696255856 0 64.983282696255856 -149.69002603920762 0 0 0 0 152.05326359199535 -29.101993164895248 0 -29.101993164895248 -2.9821484969643279 0 0 0 0 154.61228446710447 215.38099054476515 0 215.38099054476515 98.198613315068087 0 0 0 0 183.93400320208457 193.21182059313014 0 193.21182059313014 109.81584106825721 0 0 0 0 143.77585047845105 77.791626953125188 0 77.791626953125188 39.72784034831966 0 0 0 0 339.86405252816621 197.67542647473783 0 197.67542647473783 78.044006566374264 0 0 0 0 251.67149543242704 230.27191239513559 0 230.27191239513559 325.70779116304584 0 0 0 0 182.39966351480689 126.85325576203286 0 126.85325576203286 214.52392088140095 0 0 0 0 218.53504925262678 -77.753834008345848 0 -77.753834008345848 100.19337968508626 0 0 0 0 450.01837955795054 6.3145383318560562 0 6.3145383318560562 0.74494119710959694 0 0 0 0 360.69611615619215 247.52869480943991 0 247.52869480943991 179.03343102975487 0 0 0 0 509.77970553271007 388.42538558416163 0 388.42538558416163 285.32557163520323 0 0 0 0 771.69325687675155 -20.328834953948899 0 -20.328834953948899 94.332076550624265 0 0 0 0 4.4082312711962857 -3.4664117079410772 0 -3.4664117079410772 -2.195943963283348 0 0 0 0 44.633272697981738 -107.86042512905897 0 -107.86042512905897 217.01198682923678 0 0 0 0 19.330884495393548 2.1287436557963701 0 2.1287436557963701 16.01987025723065 0 0 0 0 2.2614843895062222 15.907965954883366 0 15.907965954883366 -12.706124438297138 0 0 0 0 27.95511923138838 -8.2132034958233362 0 -8.2132034958233362 -18.328382317227806 0 0 0 0 6.2070704256734928 -2.4533024887748525 0 -2.4533024887748525 -8.3742146133180064 0 0 0 0 16.876838806645537 -7.6257481902414384 0 -7.6257481902414384 -15.629721523382159 0 0 0 0 3.6008096518895059 5.1884743769327883 0 5.1884743769327883 -10.497265013757907 0 0 0 0 22.241070910694361 17.11425758383433 0 17.11425758383433 3.266217765622514 0 0 0 0 91.874759850281407 39.3157462600808 0 39.3157462600808 -7.0232898872304759 0 0 0 0 133.61641591043735 22.679174502243541 0 22.679174502243541 -34.921809270092467 0 0 0 0 181.38396538965753 28.770955541186595 0 28.770955541186595 -36.435464596660267 0 0 0 0 176.87358020804822 71.667772576176958 0 71.667772576176958 -26.632152796076127 0 0 0 0 131.97633288818179 62.247228311767003 0 62.247228311767003 -27.587762006589799 0 0 0 0 231.99496765986987 50.216415700346943 0 50.216415700346943 -142.08054726929186 0 0 0 0 214.2417958686201 79.082115204519596 0 79.082115204519596 -36.344035133333364 0 0 0 0 143.23451893589663 105.75613215894714 0 105.75613215894714 -44.323474247558011 0 0 0 0 213.67713664061012 211.82888169700334 0 211.82888169700334 115.136080606218 0 0 0 0 152.84808893533045 78.216104448455894 0 78.216104448455894 -22.293771420243502 0 0 0 0 76.079966884310124 42.73698879784763 0 42.73698879784763 47.582207953474153 0 0 0 0 82.773889126154245 31.606089823083579 0 31.606089823083579 18.33089679231685 0 0 0 0 35.563336936428755 0.41350581433908307 0 0.41350581433908307 0.63505286246613712 0 0 0 0 20.826687858781952 61.608170163459761 0 61.608170163459761 131.97464872963428 0 0 0 0 31.796148523651937 3.9824656737921487 0 3.9824656737921487 61.215379301793746 0 0 0 0 44.526613187910996 -19.10059148526144 0 -19.10059148526144 11.29516003758263 0 0 0 0 32.023915453377413 -1.8835632131485909 0 -1.8835632131485909 11.63733381812483 0 0 0 0 66.636299787032385 -379.00972398478632 0 -379.00972398478632 -601.22465005575157 0 0 0 0 1088.8345168979868 189.88271657380619 0 189.88271657380619 -216.73987545813634 0 0 0 0 623.0736544328247 -280.43154574694523 0 -280.43154574694523 118.91865162976933 0 0 0 0 12.193367298315394 2.4383426346534822 0 2.4383426346534822 0.73050360335261633 0 0 0 0 133.09962634799012 281.58498631244242 0 281.58498631244242 556.20199574678213 0 0 0 0 181.87937380916264 344.39804977502729 0 344.39804977502729 442.43923910419721 0 0 0 0 907.64299775280597 -621.80586976465145 0 -621.80586976465145 77.238664596933177 0 0 0 0 -89.607159060156846 -3.8883243006612247 0 -3.8883243006612247 -182.02909179703175 0 0 0 0 325.07419871821185 139.68374728398408 0 139.68374728398408 -191.28978639976788 0 0 0 0 581.40697937806908 454.74823995428051 0 454.74823995428051 110.67444445656474 0 0 0 0 270.98369385104888 30.201054500300643 0 30.201054500300643 -169.22513429410219 0 0 0 0 226.20397251364193 53.774892448614537 0 53.774892448614537 -123.08072742080549 0 0 0 0 79.129750737304022 -54.833004881523422 0 -54.833004881523422 9.5138799653334409 0 0 0 0 53.366714228497585 -464.50445577806749 0 -464.50445577806749 -271.01134951251839 0 0 0 0 -40.263539288233005 -134.1515202248271 0 -134.1515202248271 -9.851099185440944 0 0 0 0 111.26130824115535 -141.74128138926926 0 -141.74128138926926 -40.302903673567926 0 0 0 0 -16.028963731849217 -44.08311443329103 0 -44.08311443329103 115.72744673624265 0 0 0 0 -58.631407338485587 -186.78532008851744 0 -186.78532008851744 -16.266026068020892 0 0 0 0 76.33294696686886 -56.242418341061892 0 -56.242418341061892 14.137689549174565 0 0 0 0 258.35753474317607 12.75048595732369 0 12.75048595732369 102.18644972102265 0 0 0 0 139.9445420463453 -24.406764848115017 0 -24.406764848115017 227.55911078288909 0 0 0 0 184.7204843571235 -41.762918659800562 0 -41.762918659800562 224.89521499138232 0 0 0 0 174.07441225942239 -101.4597228678665 0 -101.4597228678665 129.4793248276992 0 0 0 0 107.35239810890926 -38.555211337859873 0 -38.555211337859873 75.587185430981208 0 0 0 0 385.06772931260639 -0.39190364111254894 0 -0.39190364111254894 132.02525380471687 0 0 0 0 186.24020325706806 -107.06236136285224 0 -107.06236136285224 -22.547105361120884 0 0 0 0 94.206555922937696 -105.89760086918977 0 -105.89760086918977 -13.655166286885105 0 0 0 0 184.68055734009567 -29.840868518221136 0 -29.840868518221136 29.128125922683466 0 0 0 0 201.12171198232681 -72.071352688265506 0 -72.071352688265506 -22.319795065004655 0 0 0 0 205.31487075198675 -69.228752676432123 0 -69.228752676432123 72.839268055385219 0 0 0 0 123.50694261913304 -71.104180811874812 0 -71.104180811874812 -60.788735089592592 0 0 0 0 182.17518649576232 -71.965669276458357 0 -71.965669276458357 -65.960481884118963 0 0 0 0 143.53469839988975 -59.982594621816133 0 -59.982594621816133 -23.08854172429983 0 0 0 0 163.93720371141899 -96.113910990583463 0 -96.113910990583463 -69.312529748127417 0 0 0 0 52.42065169743546 -159.63246767717891 0 -159.63246767717891 -84.605060665317069 0 0 0 0 104.25491803008481 -99.57339375487436 0 -99.57339375487436 -88.487719639920215 0 0 0 0 91.231291772244731 -112.57693154678509 0 -112.57693154678509 -63.622597746395286 0 0 0 0 67.70977774509447 -91.207006195181862 0 -91.207006195181862 -77.004434848711753 0 0 0 0 100.97672663947742 -82.925228684664489 0 -82.925228684664489 -108.06925262156619 0 0 0 0 -419.27252515906002 -592.74788486018087 0 -592.74788486018087 -547.67693253037623 0 0 0 0 -14.50395564354335 -19.704077064288331 0 -19.704077064288331 8.5560769647941441 0 0 0 0 109.19947038387181 -113.2144687515397 0 -113.2144687515397 -129.92113730011238 0 0 0 0 138.38036996570008 -100.52142752677264 0 -100.52142752677264 -99.901437748538228 0 0 0 0 54.407643696205923 -94.672885878691432 0 -94.672885878691432 -80.220551099044314 0 0 0 0 144.93086018765462 -70.984862425469146 0 -70.984862425469146 -84.069491873106017 0 0 0 0 -292.97603292021086 -21.46593623966578 0 -21.46593623966578 -73.765506952748325 0 0 0 0 -161.87152608927454 -828.95600947947048 0 -828.95600947947048 -176.23213258093733 0 0 0 0 80.62987663396396 -50.633489250445891 0 -50.633489250445891 11.240816675771065 0 0 0 0 -603.61050385028648 -385.71247078827264 0 -385.71247078827264 -123.08855507868702 0 0 0 0 -616.81989443753628 -376.42094406209321 0 -376.42094406209321 -92.237116890678408 0 0 0 0 -595.84306058732909 -323.39507408309919 0 -323.39507408309919 -167.22597227954429 0 0 0 0 -97.567883973068092 -201.5741069119963 0 -201.5741069119963 -305.00440276382074 0 0 0 0 -230.30731533948347 -96.704522079847152 0 -96.704522079847152 -18.757144416210849 0 0 0 0 92.387714716875053 -165.51953151871862 0 -165.51953151871862 -189.78368211694169 0 0 0 0 427.90374793858791 20.839500284896076 0 20.839500284896076 -113.68654233970574 0 0 0 0 340.1393175006815 123.48592072329757 0 123.48592072329757 -188.76997939575404 0 0 0 0 -8.3020881413758616 -282.61573034970797 0 -282.61573034970797 -156.33864559022004 0 0 0 0 -231.9229530425946 -152.51674009763519 0 -152.51674009763519 -188.34396301427546 0 0 0 0 -158.9205346564413 -103.58949100495465 0 -103.58949100495465 53.819934768370331 0 0 0 0 235.95343586688978 14.441648594633534 0 14.441648594633534 -23.242422064379753 0 0 0 0 -43.181756570091238 143.88294918707015 0 143.88294918707015 -20.864102798090698 0 0 0 0 1061.9706755969673 130.40741312915316 0 130.40741312915316 -215.8569057937475 0 0 0 0 289.19614540742259 -227.95091148543906 0 -227.95091148543906 628.48413437603176 0 0 0 0 92.591053668595237 -31.449672117756467 0 -31.449672117756467 6.03349269801034 0 0 0 0 216.94893457831495 -16.097253477557956 0 -16.097253477557956 -153.24048342875409 0 0 0 0 38.9171602360002 133.42684412369317 0 133.42684412369317 111.58907312847168 0 0 0 0 -359.07451081600448 -332.69534337666846 0 -332.69534337666846 -291.11445368266232 0 0 0 0 12.389754412377229 5.3301580251819871 0 5.3301580251819871 -8.878779840682709 0 0 0 0 -468.75003431129153 -295.2070913295488 0 -295.2070913295488 -298.40507552950527 0 0 0 0 -348.43059331541008 -413.69128513043324 0 -413.69128513043324 -323.94434982746316 0 0 0 0 -376.69575119261572 -436.1057870763575 0 -436.1057870763575 -266.36413982542672 0 0 0 0 -143.68776527016689 -275.97364217718439 0 -275.97364217718439 -434.506641474547 0 0 0 0 -391.1335943894519 -406.31850899518849 0 -406.31850899518849 -253.83768097561915 0 0 0 0 -30.087797846442299 -6.9467279817994267 0 -6.9467279817994267 -275.79127207895181 0 0 0 0 -76.526277656681486 -361.77432230583008 0 -361.77432230583008 -505.38714398651973 0 0 0 0 -1.4674175447546531 2.803131942837382 0 2.803131942837382 -1.2891210612106292 0 0 0 0 -242.81365994780208 -33.347470047475781 0 -33.347470047475781 97.653657735810157 0 0 0 0 -4.6568883256385618 1.2678559366265603 0 1.2678559366265603 1.0845028123823042 0 0 0 0 -367.00322613522076 -568.65126409087486 0 -568.65126409087486 -446.65249274748021 0 0 0 0 345.68478983273963 345.84565762240345 0 345.84565762240345 -60.020439304236788 0 0 0 0 -452.25551665338571 -253.9249379886819 0 -253.9249379886819 -299.640098173242 0 0 0 0 -253.58449042083521 -507.61479374840701 0 -507.61479374840701 -512.35719556487766 0 0 0 0 -120.71977435138251 135.40898027296407 0 135.40898027296407 -98.573931723727583 0 0 0 0 -54.89027548062586 36.510561721469458 0 36.510561721469458 -32.229700975309242 0 0 0 0 -68.105177050114435 92.587929519993395 0 92.587929519993395 82.812651617814481 0 0 0 0 40.978640385532344 114.80104952446982 0 114.80104952446982 -10.558021090151215 0 0 0 0 -34.585116873800871 23.81873403472764 0 23.81873403472764 23.685469211123745 0 0 0 0 51.314439441610375 37.10504627936939 0 37.10504627936939 -42.52049647226886 0 0 0 0 -2.1262238947649621 4.6756138392101292 0 4.6756138392101292 -3.3254205726282464 0 0 0 0 384.67066185594012 475.14266361257432 0 475.14266361257432 342.20878246912662 0 0 0 0 -84.701205482489968 73.669662063907026 0 73.669662063907026 384.26337266559131 0 0 0 0 210.40833144265343 189.22844632713804 0 189.22844632713804 -125.51612425751773 0 0 0 0 37.477051518235385 151.1198257536189 0 151.1198257536189 -77.450810855385498 0 0 0 0 120.12414078666188 286.79922773110138 0 286.79922773110138 85.251871118603958 0 0 0 0 88.58048077013882 130.12665376337782 0 130.12665376337782 -111.6003819717007 0 0 0 0 924.0017255990424 -46.913152232662924 0 -46.913152232662924 -329.64031346462798 0 0 0 0 -187.69987708308327 -296.38519811422884 0 -296.38519811422884 -358.71428864008885 0 0 0 0 -64.364726171326765 -273.04018857010578 0 -273.04018857010578 -364.86952798873972 0 0 0 0 282.00709303956683 -672.0100237353422 0 -672.0100237353422 -55.373594011089153 0 0 0 0 -347.53581165104333 -431.60539321402803 0 -431.60539321402803 147.75005133571642 0 0 0 0 -421.84187465092691 -222.71200381280119 0 -222.71200381280119 45.153094851994751 0 0 0 0 -340.98826565714262 -335.01175206264816 0 -335.01175206264816 123.48563660390028 0 0 0 0 -373.65276624316175 -265.72283503884773 0 -265.72283503884773 -7.5915012769728492 0 0 0 0 -94.041839855592116 -147.52122226143183 0 -147.52122226143183 -489.41973218775274 0 0 0 0 -315.74488176113937 -228.90216638518859 0 -228.90216638518859 -17.607665395393269 0 0 0 0 -140.25873107132793 -391.35737541296112 0 -391.35737541296112 -50.857198595906084 0 0 0 0 -302.93590062452131 -161.9652168436387 0 -161.9652168436387 -272.73453755114861 0 0 0 0 -238.57445018285944 -243.32852171122431 0 -243.32852171122431 -103.40250823640054 0 0 0 0 105.53820644128427 32.652067688479292 0 32.652067688479292 131.98755968670957 0 0 0 0 4.7687550260452554 1.7009659599061706 0 1.7009659599061706 19.49756475792401 0 0 0 0 6.1063516041551367 -5.6225829915360777 0 -5.6225829915360777 7.3294111503777977 0 0 0 0 13.498348614933079 -7.7936276753946387 0 -7.7936276753946387 4.5094704550603524 0 0 0 0 172.17517547938041 83.339559555261076 0 83.339559555261076 45.054813345792354 0 0 0 0 171.11368722634506 63.235839254663006 0 63.235839254663006 61.45896026833725 0 0 0 0 171.45863703932264 77.276411447059218 0 77.276411447059218 85.447825619849027 0 0 0 0 227.16578510924592 99.320058058172435 0 99.320058058172435 94.099358655310425 0 0 0 0 138.073037441216 82.005289508151691 0 82.005289508151691 146.98984623404249 0 0 0 0 504.51796769948851 88.021784439682961 0 88.021784439682961 24.057766331650782 0 0 0 0 523.0728800374236 114.04207911661933 0 114.04207911661933 1.0710865592918708 0 0 0 0 484.65724794117705 218.02487493052286 0 218.02487493052286 80.167425937110238 0 0 0 0 357.09699453355279 130.31527506394195 0 130.31527506394195 57.746094295849616 0 0 0 0 274.63025515095796 149.57398712198847 0 149.57398712198847 142.63867271294794 0 0 0 0 308.18513107445324 118.17429787379297 0 118.17429787379297 55.136956513742916 0 0 0 0 218.83940669341246 110.33412012132248 0 110.33412012132248 95.982953976843419 0 0 0 0 307.97432413884962 119.75186543597374 0 119.75186543597374 68.094425537296047 0 0 0 0 291.26916798351158 173.5399635822705 0 173.5399635822705 140.3217814544987 0 0 0 0 -6.7146977538213832 80.804118944775837 0 80.804118944775837 280.37364780153439 0 0 0 0 142.39355317127047 173.30768983454254 0 173.30768983454254 209.13149685513054 0 0 0 0 185.69721492352255 94.873373048805661 0 94.873373048805661 150.29160727103044 0 0 0 0 506.99291246508074 330.69350396539812 0 330.69350396539812 197.08712627801651 0 0 0 0 -65.233962873360724 246.21112921710483 0 246.21112921710483 383.24209264944511 0 0 0 0 54.924033826682717 389.3486475963382 0 389.3486475963382 378.52485854437691 0 0 0 0 315.4302788552086 252.63027746010812 0 252.63027746010812 181.86823972692218 0 0 0 0 268.74366706366345 239.5148630793019 0 239.5148630793019 189.15268069281592 0 0 0 0 268.63223979336908 235.62046436489618 0 235.62046436489618 234.78845020430163 0 0 0 0 808.20419856233639 35.745706737796354 0 35.745706737796354 130.63744950810269 0 0 0 0 915.83433663772303 108.16690671809738 0 108.16690671809738 42.480841205973775 0 0 0 0 638.82729853428464 495.89038788762809 0 495.89038788762809 206.42727431891763 0 0 0 0 789.64156142389402 162.25317396529863 0 162.25317396529863 20.131143674403575 0 0 0 0 863.28349324173905 489.88475620900317 0 489.88475620900317 378.55908696661936 0 0 0 0 1560.5742932980284 134.80922371631368 0 134.80922371631368 86.910751775852987 0 0 0 0 3.9124732174870189 -4.6480066511434046 0 -4.6480066511434046 6.166258045471789 0 0 0 0 83.890966135513736 -146.86809438902674 0 -146.86809438902674 1054.7168727001081 0 0 0 0 5.5248159969196422 120.95028639841985 0 120.95028639841985 257.69269708484717 0 0 0 0 39.541736410537851 57.649396516671914 0 57.649396516671914 41.230784032362862 0 0 0 0 329.79295513145917 489.96189152423904 0 489.96189152423904 378.93364244063559 0 0 0 0 -32.05861211825686 -471.67932671762355 0 -471.67932671762355 561.10570605789894 0 0 0 0 -97.26160229463494 -138.97852150791141 0 -138.97852150791141 649.01656405721224 0 0 0 0 454.89208146800956 -326.98673956599077 0 -326.98673956599077 104.64957932899961 0 0 0 0 975.67606146031903 -832.34766941509952 0 -832.34766941509952 569.12378582894462 0 0 0 0 -327.37647935312998 -200.947741398174 0 -200.947741398174 82.60230631286322 0 0 0 0 -320.8659409465763 -217.6370327985278 0 -217.6370327985278 61.630912224689382 0 0 0 0 -106.82750354064046 -144.61793511034193 0 -144.61793511034193 -114.5648093937175 0 0 0 0 -215.17269736577873 -188.18534876291778 0 -188.18534876291778 55.444267983025043 0 0 0 0 -229.03919969340313 -137.80881231448166 0 -137.80881231448166 121.07704727515375 0 0 0 0 -180.54312382994976 -249.10958820826272 0 -249.10958820826272 72.213463924838834 0 0 0 0 -116.32391752703916 -50.542415795435318 0 -50.542415795435318 240.20107510494563 0 0 0 0 -30.712789736819104 -434.58173097986946 0 -434.58173097986946 298.28260867938536 0 0 0 0 -353.08595192540088 -265.37713950589841 0 -265.37713950589841 205.05457399785337 0 0 0 0 -354.44621523795649 -293.31826859994635 0 -293.31826859994635 57.897006509505218 0 0 0 0 -209.43479140286581 -389.93435919190284 0 -389.93435919190284 -450.76490187541276 0 0 0 0 -250.10046939493623 -441.43451264986061 0 -441.43451264986061 98.583367203631497 0 0 0 0 216.94799478482309 -475.05165339359155 0 -475.05165339359155 109.85738003055752 0 0 0 0 136.0643363335912 -315.37829909603988 0 -315.37829909603988 -199.4645374450115 0 0 0 0 769.5935847016226 -105.95912143579721 0 -105.95912143579721 -250.30207492881982 0 0 0 0 230.89438118970429 -180.02958482700626 0 -180.02958482700626 -530.95921354652239 0 0 0 0 22.252415422436258 -18.341537325508305 0 -18.341537325508305 12.436703109308448 0 0 0 0 -373.71185335403425 -412.73493350081435 0 -412.73493350081435 -186.15626750804003 0 0 0 0 -309.37174699736806 -710.81728812166102 0 -710.81728812166102 -428.12062257040634 0 0 0 0 406.41267493597115 -71.115829736043906 0 -71.115829736043906 21.980862557532078 0 0 0 0 471.41202796376456 231.59877607479871 0 231.59877607479871 -69.169138402382032 0 0 0 0 670.04444181903091 227.40931079736947 0 227.40931079736947 -195.43740268913677 0 0 0 0 7.4762645888445007 -6.619922203404812 0 -6.619922203404812 6.5481249958770658 0 0 0 0 879.90090835803494 605.83012515798214 0 605.83012515798214 231.71633782333174 0 0 0 0 -368.31380411985083 -192.44959493078522 0 -192.44959493078522 -117.12909352270685 0 0 0 0 417.94703244468292 -327.1661882864517 0 -327.1661882864517 32.359667841021007 0 0 0 0 0.53497982198282656 -1.2951557450312308 0 -1.2951557450312308 4.7889186362967058 0 0 0 0 396.51492014811265 -265.70784685962053 0 -265.70784685962053 -87.595136227022408 0 0 0 0 465.3662781494786 -70.590749460250379 0 -70.590749460250379 -179.28653874865194 0 0 0 0 5497.4599988714544 -351.26383024090734 0 -351.26383024090734 -315.29882923419592 0 0 0 0 461.08012200791563 -121.22411229940727 0 -121.22411229940727 -19.220894168916061 0 0 0 0 680.09707190854533 -65.832624685561086 0 -65.832624685561086 -30.806060343799459 0 0 0 0 467.67629774009765 311.22375623101954 0 311.22375623101954 -243.94930559356578 0 0 0 0 843.40917358706065 -420.33446066190299 0 -420.33446066190299 440.29021616347927 0 0 0 0 416.38129781765747 -181.52798574143389 0 -181.52798574143389 142.33762534055882 0 0 0 0 231.46216633448421 -32.357739491700073 0 -32.357739491700073 47.070387141617516 0 0 0 0 265.90566087616753 -237.85479337302985 0 -237.85479337302985 138.18913586763119 0 0 0 0 4172.7919577449284 1443.7030043872978 0 1443.7030043872978 493.71922943920913 0 0 0 0 14.661845502610284 18.341203793790662 0 18.341203793790662 1.7156196545851963 0 0 0 0 0.54090640475883944 -0.63011724637274114 0 -0.63011724637274114 2.6743698264298512 0 0 0 0 222.37059834455795 -105.13388159296437 0 -105.13388159296437 -70.684213350800292 0 0 0 0 227.81883004332485 -267.99161946708955 0 -267.99161946708955 430.96603029064181 0 0 0 0 148.99364147437882 -132.39587594660884 0 -132.39587594660884 276.03149914638698 0 0 0 0 32.944592624520737 30.639789389504813 0 30.639789389504813 211.30185163508145 0 0 0 0 50.115530560713523 40.78885266987777 0 40.78885266987777 -0.51877405470759186 0 0 0 0 -161.25264210904425 73.20810061072109 0 73.20810061072109 184.05948136565166 0 0 0 0 0.32605552594485188 -1.1857353445862344 0 -1.1857353445862344 2.5601232132451752 0 0 0 0 296.75320816326348 -171.98711481834107 0 -171.98711481834107 104.86558217359971 0 0 0 0 29.215511752987368 -29.123977372239096 0 -29.123977372239096 226.11631088695594 0 0 0 0 -17.973368315018888 97.030118745895152 0 97.030118745895152 127.16952539634258 0 0 0 0 199.63558437293614 -42.386399392168187 0 -42.386399392168187 -37.643894247339176 0 0 0 0 -6.7993333463309682 22.349984888316612 0 22.349984888316612 27.173544231336109 0 0 0 0 -0.84897515968322423 -1.5417776968520656 0 -1.5417776968520656 10.261315587229948 0 0 0 0 252.28802867273771 -126.79780985032494 0 -126.79780985032494 6.8723216111234251 0 0 0 0 333.87989791522068 -123.94503905388876 0 -123.94503905388876 18.162050280833682 0 0 0 0 300.94518063064788 -60.974223096119431 0 -60.974223096119431 15.96764765766693 0 0 0 0 382.03856561435532 -257.42896875987208 0 -257.42896875987208 241.38668848718089 0 0 0 0 467.96643489146936 -68.197919288279991 0 -68.197919288279991 -147.95934912156008 0 0 0 0 490.47041583087776 385.95468729093147 0 385.95468729093147 -101.34440281256155 0 0 0 0 -290.29954945835789 -332.2040556345172 0 -332.2040556345172 438.94842249560293 0 0 0 0 263.25222224621393 40.60894449486598 0 40.60894449486598 -28.735465868071287 0 0 0 0 6065.4006738995122 125.71061161031628 0 125.71061161031628 -286.08822352794573 0 0 0 0 5493.7517530684272 921.04230475651195 0 921.04230475651195 -244.89814297107154 0 0 0 0 714.00811412323674 -167.85124509712458 0 -167.85124509712458 -51.49044747220006 0 0 0 0 697.89400253785061 -196.90807113006494 0 -196.90807113006494 -90.268366380432312 0 0 0 0 4.577053853905328 6.4859133453475835 0 6.4859133453475835 1.8244215182221355 0 0 0 0 358.63547942273181 -228.08241555433406 0 -228.08241555433406 86.740912808841372 0 0 0 0 4377.1902449913468 -567.0620024406627 0 -567.0620024406627 -74.9799780376066 0 0 0 0 345.14674043807463 -832.86581091158655 0 -832.86581091158655 658.83723309876746 0 0 0 0 5467.1522315529346 863.16047564167263 0 863.16047564167263 -18.4824633609608 0 0 0 0 13.78573550694972 -3.8416989181812635 0 -3.8416989181812635 2.2459432261957191 0 0 0 0 -48.23929712701829 108.74737426289732 0 108.74737426289732 -126.59637246185343 0 0 0 0 28.809675136492871 -10.957357604445127 0 -10.957357604445127 4.7713299685283568 0 0 0 0 300.92980248950425 270.75455672988073 0 270.75455672988073 238.00746797013235 0 0 0 0 538.07149291843234 52.414952313191854 0 52.414952313191854 -6.5620347736153271 0 0 0 0 -186.51578056202925 83.991854092350223 0 83.991854092350223 76.0989521385534 0 0 0 0 312.77037340416427 -402.14002274015087 0 -402.14002274015087 4.8496085024670803 0 0 0 0 -114.83057512442247 -448.00442749961655 0 -448.00442749961655 68.836887481208564 0 0 0 0 18.078034120018664 -5.0086303425304379 0 -5.0086303425304379 -1.1949118455969778 0 0 0 0 2438.8555115451954 1202.7931155400556 0 1202.7931155400556 103.79736913399398 0 0 0 0 5493.4742794387694 2313.1382675202385 0 2313.1382675202385 506.30949386689986 0 0 0 0 240.83308262964238 196.33589772037999 0 196.33589772037999 -94.591335998563324 0 0 0 0 44.268760935561659 -143.16909690945138 0 -143.16909690945138 -89.753119499924182 0 0 0 0 2299.3699462080444 481.27086321748874 0 481.27086321748874 -182.52428623141805 0 0 0 0 2068.1653874271615 -176.95677406509336 0 -176.95677406509336 -131.45217570501666 0 0 0 0 28.618734156739968 -15.727439551561512 0 -15.727439551561512 -1.5778754251701774 0 0 0 0 5502.1484279095894 409.8347838033726 0 409.8347838033726 -949.36148074659945 0 0 0 0 198.07338831517882 67.852522609238207 0 67.852522609238207 -48.427247859718442 0 0 0 0 152.38027483177217 10.528452604705489 0 10.528452604705489 -71.462807404044042 0 0 0 0 101.41492931504581 101.53498188951022 0 101.53498188951022 75.813567009958888 0 0 0 0 14.65465466684029 52.187353945303599 0 52.187353945303599 -5.5910142081794403 0 0 0 0 255.06139831498433 -18.420747105534168 0 -18.420747105534168 -77.27746286084016 0 0 0 0 30.623396823544262 -1.0357714549032906 0 -1.0357714549032906 -1.4743925777132203 0 0 0 0 215.61624712470075 217.92089999596828 0 217.92089999596828 -49.806735889064839 0 0 0 0 -402.28028554695629 591.92051998354464 0 591.92051998354464 -93.543951012639809 0 0 0 0 169.28261858750193 283.1305447182267 0 283.1305447182267 147.92130310207625 0 0 0 0 26.933405482817761 18.915741730544198 0 18.915741730544198 -14.575693107454981 0 0 0 0 361.81586446460096 110.65590845017262 0 110.65590845017262 -34.541377692326677 0 0 0 0 11.797151214887814 -1.5291619667831355 0 -1.5291619667831355 0.79247822693006953 0 0 0 0 336.7284333498319 -93.256487246762845 0 -93.256487246762845 -433.26553694118593 0 0 0 0 46.729964650487858 3.1306205127969733 0 3.1306205127969733 -0.26550608019570898 0 0 0 0 7.2207260787540122 0.078225688915395608 0 0.078225688915395608 4.7605064484289512 0 0 0 0 641.23197813306251 -291.02954063103334 0 -291.02954063103334 -21.221356452128703 0 0 0 0 162.52624606117297 176.99236320422835 0 176.99236320422835 327.89786761126652 0 0 0 0 3.0559229795661835 2.9062616832493724 0 2.9062616832493724 2.6394557602579489 0 0 0 0 -279.7351285185141 469.52358875445861 0 469.52358875445861 -350.65745616182176 0 0 0 0 579.74013712782835 -453.25986557834312 0 -453.25986557834312 149.53800630682406 0 0 0 0 143.08329892394249 386.10400634834878 0 386.10400634834878 -302.65029192377006 0 0 0 0 110.74558458080855 14.765164252874399 0 14.765164252874399 -93.106141087891046 0 0 0 0 -313.67155255343778 207.78413460196418 0 207.78413460196418 -144.32129039072061 0 0 0 0 -280.11962430849599 505.64816156476718 0 505.64816156476718 -240.27663017029954 0 0 0 0 -50.084140599530656 55.836773008699765 0 55.836773008699765 -30.375398446285658 0 0 0 0 147.05735613466823 -146.17547537455471 0 -146.17547537455471 -7.2900036666260348 0 0 0 0 12.551600499722554 -6.5129225769451295 0 -6.5129225769451295 -48.430843155428647 0 0 0 0 173.14891298249495 85.188749701629149 0 85.188749701629149 114.73330311131798 0 0 0 0 -30.446236985100768 -148.25543213094176 0 -148.25543213094176 162.67491552589672 0 0 0 0 3.4611279529435706 -166.43945905629613 0 -166.43945905629613 60.405964938727038 0 0 0 0 380.37351588633828 -28.431898508663608 0 -28.431898508663608 158.55312395677464 0 0 0 0 84.543458307358378 -187.67793334823591 0 -187.67793334823591 57.58849658995382 0 0 0 0 3.9786774111110077 2.0802689523147513 0 2.0802689523147513 -0.35644333537519413 0 0 0 0 529.21873525685805 -52.42583836206245 0 -52.42583836206245 -44.456943625239546 0 0 0 0 121.48583224754915 -30.101815574052978 0 -30.101815574052978 -1.4493761499729803 0 0 0 0 236.05961278323957 100.20215394525781 0 100.20215394525781 47.480214796089513 0 0 0 0 -137.55764091419042 -14.041752125936796 0 -14.041752125936796 108.25269649831421 0 0 0 0 75.652410897522714 175.0896556129469 0 175.0896556129469 134.83894074742204 0 0 0 0 100.85097222920476 -25.993447746442016 0 -25.993447746442016 -1.6938514600722203 0 0 0 0 151.5003280533665 -93.139735083557071 0 -93.139735083557071 -114.09650243715623 0 0 0 0 208.75229513197701 58.223200951383262 0 58.223200951383262 12.343655242211412 0 0 0 0 122.79164594085705 -64.810730515807904 0 -64.810730515807904 -52.87462197044988 0 0 0 0 86.559820466678786 -17.957906023443869 0 -17.957906023443869 -6.1587738657041378 0 0 0 0 105.51936808207574 -51.514815563907064 0 -51.514815563907064 154.33782588986287 0 0 0 0 34.177339421477882 -61.233133549699801 0 -61.233133549699801 153.17291941841967 0 0 0 0 150.45114824089615 29.024327959649099 0 29.024327959649099 -110.13674131515191 0 0 0 0 -53.54959161198326 -175.08992314154287 0 -175.08992314154287 194.42219398935367 0 0 0 0 -116.78352317312601 87.244233726838516 0 87.244233726838516 15.340877857891769 0 0 0 0 -41.099796381236956 6.6882845409284073 0 6.6882845409284073 -71.768796084457335 0 0 0 0 -55.932677134811001 47.53175093982523 0 47.53175093982523 15.129490304841966 0 0 0 0 251.96363056681002 107.28133417029926 0 107.28133417029926 -172.07130365874582 0 0 0 0 7.7208914590816775 2.3065694138602897 0 2.3065694138602897 -0.69694349539398104 0 0 0 0 172.32890175601278 26.396708554924999 0 26.396708554924999 -233.03261521053574 0 0 0 0 0.40394995636775377 1.2291923677853802 0 1.2291923677853802 2.8505500221014497 0 0 0 0 86.324866290986392 135.3963094378023 0 135.3963094378023 49.049224959905587 0 0 0 0 -154.38043445067342 105.06538115006606 0 105.06538115006606 63.894659177816038 0 0 0 0 -106.57271449534937 -10.913845470175147 0 -10.913845470175147 30.830861922001532 0 0 0 0 152.63377201918411 54.021261430804088 0 54.021261430804088 6.8589091435876526 0 0 0 0 1.948979858088137 3.8577390514183207 0 3.8577390514183207 5.7144388149572922 0 0 0 0 15.055956663316465 310.0168957756182 0 310.0168957756182 -48.368294506428356 0 0 0 0 166.65736132486563 -106.82496058346396 0 -106.82496058346396 -1.2842097180146084 0 0 0 0 86.572605916739121 7.862365936979586 0 7.862365936979586 -18.477002742295213 0 0 0 0 206.92638808962693 -111.18978440160413 0 -111.18978440160413 16.730804136170264 0 0 0 0 405.88602009911847 -192.11786036677404 0 -192.11786036677404 40.594269167766015 0 0 0 0 103.19891994459613 26.630253758360595 0 26.630253758360595 7.0588441940108169 0 0 0 0 83.486875155798771 -55.430138880943559 0 -55.430138880943559 -88.223700972413098 0 0 0 0 -139.25342637430367 106.6956490240168 0 106.6956490240168 -1.8058389450229697 0 0 0 0 10.402728240089104 8.7819324188512944 0 8.7819324188512944 5.7089523050257398 0 0 0 0 -70.983604143060802 -4.6637145332917953 0 -4.6637145332917953 -168.23859205769713 0 0 0 0 -143.36152527285594 248.33953233238435 0 248.33953233238435 -225.13543862690528 0 0 0 0 127.29035546616251 4.4630660854104462 0 4.4630660854104462 -101.24523174967226 0 0 0 0 -74.997160963936039 141.68231008026805 0 141.68231008026805 -90.851245162865325 0 0 0 0 15.194013947946317 13.018197456681072 0 13.018197456681072 8.9299164461578311 0 0 0 0 151.83021650841511 5.6640648344276769 0 5.6640648344276769 139.4689990361544 0 0 0 0 367.81461688403397 -106.89765851270113 0 -106.89765851270113 14.594692005366142 0 0 0 0 503.64887297367386 -211.51032120469426 0 -211.51032120469426 -35.284673562191074 0 0 0 0 289.30511439562542 -235.27935115412811 0 -235.27935115412811 149.10696706382254 0 0 0 0 123.87540095935401 -117.66045568379309 0 -117.66045568379309 69.466751228029807 0 0 0 0 16.84178361238466 15.535155085809567 0 15.535155085809567 11.890708682915852 0 0 0 0 82.006798569091188 17.979269373753596 0 17.979269373753596 -0.18370766898897273 0 0 0 0 5.4964611521718325 78.489738678040112 0 78.489738678040112 -66.383033110820179 0 0 0 0 78.233211911144281 -0.8077761225777067 0 -0.8077761225777067 -18.799572077316952 0 0 0 0 109.8396516665498 6.4314286780193015 0 6.4314286780193015 -61.253951179253818 0 0 0 0 103.95335198432349 -7.5401287481824397 0 -7.5401287481824397 -21.272222217208764 0 0 0 0 119.00435708042642 -36.129318671913779 0 -36.129318671913779 -20.975912574521118 0 0 0 0 13.134785366205122 -2.0023529061193912 0 -2.0023529061193912 -5.1972158960830956 0 0 0 0 65.974266362693015 -23.340248773900271 0 -23.340248773900271 -22.1822702473074 0 0 0 0 123.48192548823772 -39.178009328024473 0 -39.178009328024473 -16.320824541762704 0 0 0 0 86.865484821297287 1.1446973611341491 0 1.1446973611341491 -29.237934039717857 0 0 0 0 61.856829358897812 -21.083905224274531 0 -21.083905224274531 -22.551976439036252 0 0 0 0 61.846717883596284 2.8806332784562301 0 2.8806332784562301 -47.568663835219013 0 0 0 0 19.029173182983449 -16.723442233046299 0 -16.723442233046299 -18.408420746905975 0 0 0 0 229.38735415363772 -92.711244373140858 0 -92.711244373140858 1.6838332823645032 0 0 0 0 31.184317584957171 49.277177790315591 0 49.277177790315591 -103.10770751800737 0 0 0 0 -2.4599135548308411 -0.75343962466235581 0 -0.75343962466235581 2.9251220622829281 0 0 0 0 144.8379364538705 10.579586806293946 0 10.579586806293946 -65.042464381600439 0 0 0 0 137.59113734958373 4.2321400635721602 0 4.2321400635721602 -60.439147160780522 0 0 0 0 77.886995704750007 49.440699332265012 0 49.440699332265012 -80.897233024174341 0 0 0 0 76.243740287054607 49.160342535131463 0 49.160342535131463 -66.989927760615956 0 0 0 0 -24.354140548584837 107.86587173217163 0 107.86587173217163 -70.475495708084054 0 0 0 0 54.553462695716007 50.206526992416514 0 50.206526992416514 -42.198070777809789 0 0 0 0 54.010603760954837 48.576907839199976 0 48.576907839199976 -45.315880294684348 0 0 0 0 -7.8955354606841865 56.109909014987522 0 56.109909014987522 -27.709486643059449 0 0 0 0 75.785967602507299 10.567554228974814 0 10.567554228974814 -39.150048518058952 0 0 0 0 109.73565482351842 -11.178685203376915 0 -11.178685203376915 -30.019148743354208 0 0 0 0 113.81049905716282 23.34278481672942 0 23.34278481672942 -40.647566471246762 0 0 0 0 73.431075764091474 7.7897686116990599 0 7.7897686116990599 -37.460040587785898 0 0 0 0 36.638151782066416 37.207477226951823 0 37.207477226951823 -37.059464744148443 0 0 0 0 36.557213230645175 35.006299180123563 0 35.006299180123563 -22.334561436019158 0 0 0 0 24.496629947220754 13.919290697148767 0 13.919290697148767 5.5813147643411867 0 0 0 0 35.131211779847945 11.631698424613433 0 11.631698424613433 -7.1505992228821924 0 0 0 0 35.641710494778771 8.9475742378360437 0 8.9475742378360437 -1.380607821044753 0 0 0 0 73.21101635697778 13.130762713478816 0 13.130762713478816 -42.399366667888899 0 0 0 0 20.647229907888686 6.9472756648021914 0 6.9472756648021914 -6.1058235935345238 0 0 0 0 34.891443469236947 -37.995113528634192 0 -37.995113528634192 17.299346923915436 0 0 0 0 86.453492989267033 -3.4809945039533829 0 -3.4809945039533829 -30.186549974350328 0 0 0 0 64.068851878797432 8.6742479786798299 0 8.6742479786798299 -33.435668110182974 0 0 0 0 26.536350583196885 -17.798093190249929 0 -17.798093190249929 -24.396039445126458 0 0 0 0 21.935043128814588 -20.537913489835368 0 -20.537913489835368 -25.556420938813105 0 0 0 0 101.66030538553969 -55.206098727527205 0 -55.206098727527205 -107.92022366536025 0 0 0 0 14.961275698163462 4.3271466673241772 0 4.3271466673241772 0.88537280865793377 0 0 0 0 59.055343668011119 43.1319837369374 0 43.1319837369374 -94.02926278394807 0 0 0 0 4.3042350333121249 -3.0543121388787942 0 -3.0543121388787942 -3.0957783983671696 0 0 0 0 35.390750726151964 -98.935588286621169 0 -98.935588286621169 73.126740787168274 0 0 0 0 107.83461361280933 79.195222325816758 0 79.195222325816758 8.6914774054183681 0 0 0 0 107.27685737938737 -115.55050914049525 0 -115.55050914049525 -33.484859831209178 0 0 0 0 194.06119845275725 91.8729866046952 0 91.8729866046952 -56.922993915066399 0 0 0 0 146.88668616925679 53.638244001655494 0 53.638244001655494 -104.48296642956279 0 0 0 0 155.92099146043256 72.735409072541188 0 72.735409072541188 -64.140180883592961 0 0 0 0 22.914744428248696 -104.00963245390307 0 -104.00963245390307 -93.28388454748665 0 0 0 0 88.315919245607802 55.666642753398946 0 55.666642753398946 -18.526732637200894 0 0 0 0 14.484059304455686 -9.1982022135371135 0 -9.1982022135371135 -2.8217019913122225 0 0 0 0 299.54129580281631 -24.380557741019771 0 -24.380557741019771 -107.95560052778546 0 0 0 0 305.66259962464392 120.06819984694857 0 120.06819984694857 -82.600678034044932 0 0 0 0 130.6435607534122 167.32835906164834 0 167.32835906164834 64.922050591855736 0 0 0 0 4.0605832074195405 2.1071905877417181 0 2.1071905877417181 -0.40967094439650314 0 0 0 0 423.39691352574118 -161.07224129097398 0 -161.07224129097398 -44.477619566713315 0 0 0 0 223.14647479967425 -82.877405788866099 0 -82.877405788866099 122.24150781585308 0 0 0 0 116.24836828915113 113.3552506286166 0 113.3552506286166 61.752940854625308 0 0 0 0 246.31199594522582 18.071382580607008 0 18.071382580607008 31.681235240532715 0 0 0 0 137.45706572536812 88.971762512614703 0 88.971762512614703 6.8656199747624669 0 0 0 0 69.003012883547854 53.679211302118574 0 53.679211302118574 17.582716683056105 0 0 0 0 0.66467233924339908 -2.4110347504909466 0 -2.4110347504909466 0.22429938630994783 0 0 0 0 65.524807626373786 20.099629656877141 0 20.099629656877141 37.851394524794159 0 0 0 0 127.8860376130815 -5.2077956083996924 0 -5.2077956083996924 71.616065865293649 0 0 0 0 373.81787378409172 -80.455783640129539 0 -80.455783640129539 63.908601240050302 0 0 0 0 -111.09344179422351 -11.625196414052937 0 -11.625196414052937 74.146942980433323 0 0 0 0 11.540831162822109 -17.492882828410295 0 -17.492882828410295 15.53212538748542 0 0 0 0 81.001817858919821 34.814611754282566 0 34.814611754282566 7.8008685385188983 0 0 0 0 -133.63760797248142 23.436745505770261 0 23.436745505770261 75.513374343855958 0 0 0 0 40.164867398074421 10.043326329921456 0 10.043326329921456 9.0126826187301958 0 0 0 0 8.3653779078267689 25.572530854553634 0 25.572530854553634 20.146129900323103 0 0 0 0 -103.57334007350255 -183.40261242308111 0 -183.40261242308111 172.32633179513078 0 0 0 0 -28.971299003445893 -8.3180532989260882 0 -8.3180532989260882 16.184314295963759 0 0 0 0 9.7096893054468669 -14.796469914068764 0 -14.796469914068764 7.4825125446998069 0 0 0 0 8.7216743257895359 0.79597651282222159 0 0.79597651282222159 3.3466081694941749 0 0 0 0 15.934058156864921 8.8181560978230209 0 8.8181560978230209 12.227475536884128 0 0 0 0 19.156798045651158 8.6385002318045281 0 8.6385002318045281 5.0465008333376318 0 0 0 0 31.633541395647626 22.87696745588164 0 22.87696745588164 12.839410341118764 0 0 0 0 52.29695822458234 11.318734479300474 0 11.318734479300474 3.2352262991052925 0 0 0 0 85.424157656001626 15.826967542131342 0 15.826967542131342 4.4400126079813163 0 0 0 0 48.987130171330136 6.9429776025128831 0 6.9429776025128831 16.330069227232343 0 0 0 0 85.336393259931356 17.290719522142354 0 17.290719522142354 3.8198874432491721 0 0 0 0 87.712023667390895 8.1784919706938126 0 8.1784919706938126 8.8335468735385803 0 0 0 0 3.1504917297193273 0.76808640586563826 0 0.76808640586563826 10.876702949148601 0 0 0 0 -179.71940690646625 -33.105680528008634 0 -33.105680528008634 54.713355186006993 0 0 0 0 -119.75794675881411 -53.192350407691606 0 -53.192350407691606 -0.22169425683023292 0 0 0 0 -118.47578761206944 0.7226177697253604 0 0.7226177697253604 -43.990466024280977 0 0 0 0 -120.23704517789156 -20.589586869296909 0 -20.589586869296909 47.053874198591075 0 0 0 0 2.1607889610255047 -0.5523944007978514 0 -0.5523944007978514 0.144665450219712 0 0 0 0 -120.38526991856361 -40.836036873227982 0 -40.836036873227982 56.324786669056266 0 0 0 0 -58.847505621073651 -5.5715136877124678 0 -5.5715136877124678 -7.3686585696068505 0 0 0 0 0.079521625037579646 -1.259043419174489 0 -1.259043419174489 6.7004231627477449 0 0 0 0 -39.013474149619469 -82.304306461255806 0 -82.304306461255806 47.837643765850771 0 0 0 0 50.863367957166702 9.870465477835296 0 9.870465477835296 4.8696116826247362 0 0 0 0 51.631845036874438 13.609750013559733 0 13.609750013559733 19.948661309761292 0 0 0 0 102.38878431509511 21.863515533219015 0 21.863515533219015 7.5243538208853806 0 0 0 0 39.040346000858335 21.352194702162478 0 21.352194702162478 31.170266100776416 0 0 0 0 0.32213205935785894 -0.7187452903130449 0 -0.7187452903130449 2.28217403904641 0 0 0 0 188.00706240195018 -145.84151776301795 0 -145.84151776301795 57.603696722368568 0 0 0 0 164.85881410411253 71.44426743007952 0 71.44426743007952 42.892603659043743 0 0 0 0 48.180601030388061 -39.778067674159047 0 -39.778067674159047 -7.8754887006755325 0 0 0 0 46.983767702555269 -86.834256192095722 0 -86.834256192095722 260.37333117031949 0 0 0 0 81.628594456704377 -53.619552770375776 0 -53.619552770375776 35.449048300320555 0 0 0 0 79.328169472817535 -121.27637071379741 0 -121.27637071379741 73.556466545064723 0 0 0 0 76.484592551485548 -66.68661353210905 0 -66.68661353210905 20.27499112562009 0 0 0 0 76.919398146963431 -76.785860459795458 0 -76.785860459795458 207.28005897797107 0 0 0 0 81.45784210517013 -131.05051433991412 0 -131.05051433991412 63.962084909904661 0 0 0 0 66.507696636368564 -59.557322928216763 0 -59.557322928216763 0.44213196902728669 0 0 0 0 117.72617653833186 -92.893305875771603 0 -92.893305875771603 84.254270952102161 0 0 0 0 125.18466206043695 -127.2494655077235 0 -127.2494655077235 33.004932309732794 0 0 0 0 229.83248895553515 -67.672378167998886 0 -67.672378167998886 53.623642318786551 0 0 0 0 132.55081642535697 -107.64304764098642 0 -107.64304764098642 85.731572268623495 0 0 0 0 99.963107580690121 -62.780987957490197 0 -62.780987957490197 45.032733086481699 0 0 0 0 12.981166276049407 -62.777269747911305 0 -62.777269747911305 2.6133976568089565 0 0 0 0 16.343037906938548 -103.96162724212547 0 -103.96162724212547 73.683566815605445 0 0 0 0 30.076747265997255 -28.003233680126868 0 -28.003233680126868 37.674171265043697 0 0 0 0 99.90556663119969 -86.616637378519499 0 -86.616637378519499 61.385034528233518 0 0 0 0 -19.670208062030724 -75.673674320637474 0 -75.673674320637474 49.310837239836474 0 0 0 0 -43.532467645083671 -34.212386758897992 0 -34.212386758897992 24.937973688032798 0 0 0 0 213.5114335912258 -62.576426251381235 0 -62.576426251381235 56.379701001557351 0 0 0 0 105.57856429063031 -62.396965524621919 0 -62.396965524621919 108.21948260590489 0 0 0 0 208.19051857302475 -45.980426149828418 0 -45.980426149828418 134.26043606546045 0 0 0 0 208.44629713773566 -46.515155698543936 0 -46.515155698543936 71.013232844084996 0 0 0 0 115.80707176416763 -64.165698507560592 0 -64.165698507560592 109.49959205704545 0 0 0 0 152.52798287916812 -1.0075375204378361 0 -1.0075375204378361 100.23652805677511 0 0 0 0 68.359065755837946 -39.415521080199142 0 -39.415521080199142 106.65124954747807 0 0 0 0 254.1583177809116 7.7426264017358335 0 7.7426264017358335 143.08952499648331 0 0 0 0 229.92129065778863 -43.774033297288952 0 -43.774033297288952 94.611376597347771 0 0 0 0 133.10377776551104 -21.568860236958244 0 -21.568860236958244 153.52697278165033 0 0 0 0 100.00000264313894 26.911454920389588 0 26.911454920389588 85.714658059134308 0 0 0 0 90.850201490349718 2.6480538253390478 0 2.6480538253390478 131.48650749335138 0 0 0 0 204.94695770944054 66.047021786901496 0 66.047021786901496 113.7153313065362 0 0 0 0 -13.129262066291631 8.8241047592373434 0 8.8241047592373434 27.813071850332562 0 0 0 0 43.080578283384966 76.40778988835973 0 76.40778988835973 83.90110779209158 0 0 0 0 -51.155778422657704 -7.0828856906535407 0 -7.0828856906535407 99.776959758335579 0 0 0 0 36.404816402631695 -24.185086121276981 0 -24.185086121276981 63.369938906475909 0 0 0 0 -93.688747565487574 58.610591623051732 0 58.610591623051732 56.137233718836796 0 0 0 0 -136.30037213756805 -36.194177575133835 0 -36.194177575133835 53.053666442632675 0 0 0 0 -52.489501126347477 10.095538987491807 0 10.095538987491807 50.487641442417953 0 0 0 0 -121.49978709020797 -25.845528504257345 0 -25.845528504257345 84.12404033412713 0 0 0 0 41.826602771354374 -0.24604089426975406 0 -0.24604089426975406 58.285179226067157 0 0 0 0 83.663146854358274 -10.597374364515417 0 -10.597374364515417 54.080392357531309 0 0 0 0 -8.68769444019199 -44.831780404609162 0 -44.831780404609162 90.825350048996825 0 0 0 0 -72.496319729543757 -28.242434756932198 0 -28.242434756932198 76.445553322998421 0 0 0 0 -21.299147125304444 -10.333228788011183 0 -10.333228788011183 37.337407311726565 0 0 0 0 6.5606566090606329 -5.1908586800273966 0 -5.1908586800273966 -9.4202642726692289 0 0 0 0 36.513851005842298 12.974387156692046 0 12.974387156692046 -2.4467996890516588 0 0 0 0 4.340485054020073 11.658658441511783 0 11.658658441511783 23.443347496069357 0 0 0 0 52.173613586897773 21.223560052784677 0 21.223560052784677 95.383243824252986 0 0 0 0 -287.86467369802995 27.263969495960737 0 27.263969495960737 90.20960096503768 0 0 0 0 -162.9270387501906 57.933473710523572 0 57.933473710523572 -19.620920371782631 0 0 0 0 -82.984693417289236 -0.52925293118096306 0 -0.52925293118096306 17.04021173404908 0 0 0 0 48.763484004282873 -8.7683065609349455 0 -8.7683065609349455 -5.0165228479158941 0 0 0 0 -148.0407356664 -2.4800755571413902 0 -2.4800755571413902 58.649538601654058 0 0 0 0 -231.01192031699975 71.772613311805799 0 71.772613311805799 45.481844940339215 0 0 0 0 -196.80537492763688 -10.314012064218332 0 -10.314012064218332 79.288308766332193 0 0 0 0 -127.96435542291511 23.534926582129629 0 23.534926582129629 41.844679892237764 0 0 0 0 25.792023164234514 11.06504530111205 0 11.06504530111205 2.1720141389596019 0 0 0 0 42.967834012742969 16.930164321902112 0 16.930164321902112 -12.466347057079474 0 0 0 0 42.086726784938946 20.038789516618181 0 20.038789516618181 2.995067489853227 0 0 0 0 51.365226075911778 15.537821037550657 0 15.537821037550657 -6.8823128790099872 0 0 0 0 44.994663516808941 6.9593451753689806 0 6.9593451753689806 1.2135969546438901 0 0 0 0 40.812107390174788 18.465372175111042 0 18.465372175111042 -7.4051285407617229 0 0 0 0 6.2055514612729894 21.649026610945782 0 21.649026610945782 -7.353204358502353 0 0 0 0 -7.7638403493056103 26.956343027275466 0 26.956343027275466 -8.044418740481774 0 0 0 0 3.2041998523920654 0.58226245265963428 0 0.58226245265963428 3.9490599765367191 0 0 0 0 144.03429636207693 12.679171363872797 0 12.679171363872797 -152.46611271382926 0 0 0 0 -246.93992471865931 -49.696855252968817 0 -49.696855252968817 39.750834862541524 0 0 0 0 -160.04734827343782 19.359458717764937 0 19.359458717764937 69.51730184178632 0 0 0 0 67.683712054538773 68.051975487994241 0 68.051975487994241 236.20814080755264 0 0 0 0 0.6886157764315044 -2.1494932240018647 0 -2.1494932240018647 -0.15585219255285701 0 0 0 0 -115.84093511247556 116.03145119226065 0 116.03145119226065 -35.67958338651988 0 0 0 0 -128.16502575540289 -12.926500735871286 0 -12.926500735871286 -81.605493215307433 0 0 0 0 -240.71523949610855 112.07956106921529 0 112.07956106921529 102.86689811763426 0 0 0 0 -71.022547671373104 115.10739439081647 0 115.10739439081647 190.32464862741472 0 0 0 0 2.8457063888518643 12.004622659519967 0 12.004622659519967 21.486409981458443 0 0 0 0 -6.8988336742004321 24.243452188402728 0 24.243452188402728 -14.281831581538427 0 0 0 0 -77.95638334807154 22.787438733937051 0 22.787438733937051 -14.136914907605629 0 0 0 0 -225.67611607127765 91.23494213369645 0 91.23494213369645 11.684242167650154 0 0 0 0 -0.083863321277481084 -0.88831257746962677 0 -0.88831257746962677 0.60827441673021099 0 0 0 0 -35.283505500960018 188.5730217184182 0 188.5730217184182 -132.62291220906445 0 0 0 0 318.94702846549262 72.439859102707601 0 72.439859102707601 -236.48176907528705 0 0 0 0 -308.54283696644234 179.6826602363725 0 179.6826602363725 48.644661267891934 0 0 0 0 149.01207267700374 147.96979296068184 0 147.96979296068184 -13.425892966138008 0 0 0 0 102.5918357182727 255.48758364639662 0 255.48758364639662 129.54968680618367 0 0 0 0 141.25970576260079 195.00233228751495 0 195.00233228751495 226.17252168286939 0 0 0 0 113.9016314366836 256.07897679730195 0 256.07897679730195 114.12312166622542 0 0 0 0 137.75611452498788 162.1088747872152 0 162.1088747872152 138.33790951899027 0 0 0 0 162.01620969830947 87.595629287779957 0 87.595629287779957 279.38129153774889 0 0 0 0 54.724289550742469 102.20316954131158 0 102.20316954131158 143.51769120531299 0 0 0 0 47.518264207735228 130.09402379750395 0 130.09402379750395 46.430699914870274 0 0 0 0 -117.57019833533923 79.453932380409242 0 79.453932380409242 110.75722220523494 0 0 0 0 -123.31154403313485 -6.3662942808441585 0 -6.3662942808441585 31.316541671227242 0 0 0 0 -423.23340008251944 1025.535392344606 0 1025.535392344606 -619.73198399601347 0 0 0 0 1.1700625325251046 2.7822178816605572 0 2.7822178816605572 4.8629795184524944 0 0 0 0 1826.4291557574579 172.42101619595041 0 172.42101619595041 -609.32267190296443 0 0 0 0 383.53148862324451 493.04736173492529 0 493.04736173492529 -555.2611941179822 0 0 0 0 940.27208568402239 -266.63541587150939 0 -266.63541587150939 291.37737309154727 0 0 0 0 -15.337401607959691 234.06564545944821 0 234.06564545944821 63.772331882596518 0 0 0 0 -14.241516791937102 262.94242675236137 0 262.94242675236137 119.39683778015205 0 0 0 0 45.702002453977912 344.14363237736052 0 344.14363237736052 -323.4912508373809 0 0 0 0 111.3481805020956 355.40370146069768 0 355.40370146069768 119.81766486057495 0 0 0 0 41.644783439867751 287.4166727913971 0 287.4166727913971 214.54562562617832 0 0 0 0 179.28391756219025 297.60551360881573 0 297.60551360881573 119.06759291538037 0 0 0 0 255.78963302460579 228.51802201910186 0 228.51802201910186 42.901688848256526 0 0 0 0 182.51313488074811 291.39627132710757 0 291.39627132710757 68.87244418868795 0 0 0 0 -392.37230058686782 323.12838881963933 0 323.12838881963933 19.849812961267162 0 0 0 0 2.6830730347840621 9.8706018832499396 0 9.8706018832499396 14.118412240487164 0 0 0 0 86.005679756161044 80.816626974563633 0 80.816626974563633 -84.618422654434653 0 0 0 0 -110.44837196252956 340.04925577177551 0 340.04925577177551 -273.82056873260899 0 0 0 0 121.12729955544637 117.7233395736107 0 117.7233395736107 -137.4447240653526 0 0 0 0 163.22680015159312 64.615174474373475 0 64.615174474373475 -109.1240635980289 0 0 0 0 100.0817588120226 14.443052546301715 0 14.443052546301715 263.36303610139475 0 0 0 0 195.56081858601829 -91.005073032101336 0 -91.005073032101336 -27.596617876875371 0 0 0 0 -954.39149602685029 540.66692178330413 0 540.66692178330413 13.640044700550789 0 0 0 0 176.20004218650138 96.035471836252782 0 96.035471836252782 -275.95173465972118 0 0 0 0 -2.6613388950266597 4.3098080432147476 0 4.3098080432147476 4.5504393422865128 0 0 0 0 -863.47961925917843 687.6527307559636 0 687.6527307559636 155.87065762875136 0 0 0 0 749.50682022974797 -337.82643302109159 0 -337.82643302109159 106.89344423043985 0 0 0 0 385.42255673819727 159.10786050630963 0 159.10786050630963 168.45999827825199 0 0 0 0 434.04642502864408 103.61756248081861 0 103.61756248081861 -322.70070124309677 0 0 0 0 1142.5870386664028 -473.19077166358511 0 -473.19077166358511 -424.52453808552127 0 0 0 0 217.54373052540922 -17.24551338192995 0 -17.24551338192995 -6.4372295078264052 0 0 0 0 75.376963567039638 -100.30066788881572 0 -100.30066788881572 122.78999836552521 0 0 0 0 44.80200570053352 -14.116131358191694 0 -14.116131358191694 6.5748353472678254 0 0 0 0 388.37391027294325 -141.48608990790171 0 -141.48608990790171 -140.18205464921539 0 0 0 0 395.69081776220992 325.12581080457039 0 325.12581080457039 -493.10904046304313 0 0 0 0 197.28113075983674 127.86429413104997 0 127.86429413104997 -138.37454368657018 0 0 0 0 233.71289298243235 -5.5278179913740928 0 -5.5278179913740928 -6.1115420778671208 0 0 0 0 1911.973239349564 -298.42186894531841 0 -298.42186894531841 223.3380060103791 0 0 0 0 927.58055380468431 -389.87190836213813 0 -389.87190836213813 -875.45126067785804 0 0 0 0 -1.1944333987612872 1.4441174713194336 0 1.4441174713194336 -3.2346055945829875 0 0 0 0 336.41360931901727 -291.22647630811389 0 -291.22647630811389 286.00765249575306 0 0 0 0 -144.23373453422391 194.44024311452131 0 194.44024311452131 -455.18692798004849 0 0 0 0 -494.35848588378576 494.85297543426395 0 494.85297543426395 -210.10027983734813 0 0 0 0 74.486540736098505 381.00422525088038 0 381.00422525088038 -539.55377854311882 0 0 0 0 314.74442345173156 -193.15407540766773 0 -193.15407540766773 -84.965236838050259 0 0 0 0 -104.17916258105106 399.80021997574215 0 399.80021997574215 -472.17495323610456 0 0 0 0 37.468375160267442 -12.038367058715727 0 -12.038367058715727 -9.787135458661222 0 0 0 0 234.7261942930636 -212.89604912391951 0 -212.89604912391951 91.930066904096748 0 0 0 0 168.12658358659297 -18.833607745002752 0 -18.833607745002752 3.8578470966951102 0 0 0 0 323.20856168284081 -202.01252055071473 0 -202.01252055071473 132.99750441375363 0 0 0 0 153.59753649637167 -9.6318804654394228 0 -9.6318804654394228 -5.0958337910174301 0 0 0 0 137.2407046330045 -12.14361668273159 0 -12.14361668273159 -61.390323346458899 0 0 0 0 169.49977813590422 -29.770308521210708 0 -29.770308521210708 8.7109548006805042 0 0 0 0 152.15660150175245 -4.703255753234771 0 -4.703255753234771 71.119814541234518 0 0 0 0 178.29265683719132 232.95192287653117 0 232.95192287653117 37.2919832008497 0 0 0 0 220.30013338994468 248.9251175582649 0 248.9251175582649 -300.18610016151251 0 0 0 0 138.24274615417016 -39.347420784797578 0 -39.347420784797578 -124.87411020542277 0 0 0 0 31.592117783096796 -10.686825924722143 0 -10.686825924722143 10.536148097146558 0 0 0 0 73.710115325227775 -32.569248512637046 0 -32.569248512637046 -125.45644159448784 0 0 0 0 72.456113747670315 -3.0528356835093291 0 -3.0528356835093291 -156.53990650532069 0 0 0 0 72.146620376268402 31.468014684211084 0 31.468014684211084 -134.57779026598291 0 0 0 0 81.955840225549764 29.303310414052248 0 29.303310414052248 -95.224694320990238 0 0 0 0 122.34563984381384 50.633797567230431 0 50.633797567230431 30.33420158156332 0 0 0 0 94.314099583556526 -40.03415163402633 0 -40.03415163402633 -87.441676272137556 0 0 0 0 26.299720628849172 10.427151714728097 0 10.427151714728097 202.4233367979059 0 0 0 0 163.09852802644673 -11.977119120475436 0 -11.977119120475436 -110.73520720282613 0 0 0 0 194.12977974506794 -242.80748906161352 0 -242.80748906161352 334.97780326813381 0 0 0 0 73.512709952174191 -79.082109187574133 0 -79.082109187574133 146.76966078253827 0 0 0 0 146.76503154441889 -43.042573722784255 0 -43.042573722784255 306.53265242242014 0 0 0 0 181.26036125261453 -78.324428244904993 0 -78.324428244904993 139.4052294673038 0 0 0 0 129.30869086195889 -115.07802588583672 0 -115.07802588583672 292.51327157028572 0 0 0 0 722.10933681057941 -404.7519888374236 0 -404.7519888374236 210.25719153360842 0 0 0 0 5.7991483719978305 -6.8310901915727271 0 -6.8310901915727271 6.006480426489972 0 0 0 0 166.72912067789002 -420.916034515315 0 -420.916034515315 366.25272472588586 0 0 0 0 1053.7392029431412 -117.6800373145204 0 -117.6800373145204 11.980573953718704 0 0 0 0 1004.9155923296016 517.22333514585239 0 517.22333514585239 259.8090342707801 0 0 0 0 358.09036187604943 86.434523147630898 0 86.434523147630898 146.45485587672283 0 0 0 0 286.12468983277722 18.272970969481776 0 18.272970969481776 88.899594467417046 0 0 0 0 -167.73735333266086 294.44247918635665 0 294.44247918635665 23.592954758976703 0 0 0 0 -83.880915412592003 -665.9387756539254 0 -665.9387756539254 655.15608119753597 0 0 0 0 840.16697095173731 103.41673062517202 0 103.41673062517202 -525.39591325256697 0 0 0 0 839.83169087413626 -108.00932182236693 0 -108.00932182236693 -530.08977756160675 0 0 0 0 808.37874382548034 103.45469856748969 0 103.45469856748969 -202.760562290081 0 0 0 0 796.75302223541075 -131.51235040879328 0 -131.51235040879328 -177.6655412498244 0 0 0 0 -66.472996534706908 -244.54199938088823 0 -244.54199938088823 -132.76284102017235 0 0 0 0 6.0549172340896575 -4.8996091207830688 0 -4.8996091207830688 2.0965385107280419 0 0 0 0 -248.69882830567076 188.68069608119004 0 188.68069608119004 113.92724979386549 0 0 0 0 566.06584145244415 -220.65869252502489 0 -220.65869252502489 -426.472337377445 0 0 0 0 -20.977703296432082 -367.52957793491623 0 -367.52957793491623 -199.7655192045695 0 0 0 0 11.745549603998541 -7.7677537073122807 0 -7.7677537073122807 3.2958462805073481 0 0 0 0 -174.97115054352616 -117.42555424447255 0 -117.42555424447255 364.8913347866619 0 0 0 0 241.91229649950401 259.1585675710503 0 259.1585675710503 -162.82292040840184 0 0 0 0 15.978101159620564 53.550152400996922 0 53.550152400996922 877.93745766170287 0 0 0 0 376.40040752864297 -425.85464042543754 0 -425.85464042543754 531.50533705923226 0 0 0 0 -30.416054472734686 -105.2506128428904 0 -105.2506128428904 482.09991093107055 0 0 0 0 -71.163685235325829 -18.649631018018226 0 -18.649631018018226 330.44060298003569 0 0 0 0 -56.22020714210521 -49.95405852593376 0 -49.95405852593376 540.89599078708306 0 0 0 0 627.07194812878151 204.62752632817956 0 204.62752632817956 466.84693667814281 0 0 0 0 335.94170352549554 -89.703719028117121 0 -89.703719028117121 170.83945343149753 0 0 0 0 114.72214018479281 -147.69997494999097 0 -147.69997494999097 271.27839221501745 0 0 0 0 -14.338887773192255 -94.101855068257464 0 -94.101855068257464 453.55024620094491 0 0 0 0 77.15782046700042 -79.277285461969768 0 -79.277285461969768 288.207696325695 0 0 0 0 -143.53726162434759 -99.184563926137344 0 -99.184563926137344 456.03197498323516 0 0 0 0 -15.980060809393763 -312.80135742845368 0 -312.80135742845368 505.36653048256267 0 0 0 0 435.05195818662469 -258.69439321491882 0 -258.69439321491882 305.41221954754565 0 0 0 0 217.89067663132664 216.13301589260163 0 216.13301589260163 -52.158884637907249 0 0 0 0 4.4724127801526947 -4.2393402442078525 0 -4.2393402442078525 2.6989727740467018 0 0 0 0 -142.34391071207938 46.68995711518528 0 46.68995711518528 86.89323887757746 0 0 0 0 97.243035453560879 -7.6363606181403156 0 -7.6363606181403156 89.666654909910562 0 0 0 0 503.35488313876704 -41.225707916019928 0 -41.225707916019928 -50.654551015226161 0 0 0 0 106.92679827751272 46.273027757662021 0 46.273027757662021 -55.215832179816061 0 0 0 0 119.61808601769735 52.482542758678392 0 52.482542758678392 -70.513803587913571 0 0 0 0 88.419023417236531 -88.72060271190665 0 -88.72060271190665 79.541157911201481 0 0 0 0 121.61082573924745 -32.392530027602824 0 -32.392530027602824 -4.2209503931928571 0 0 0 0 63.188323944108561 -75.457997335305208 0 -75.457997335305208 165.90749278745261 0 0 0 0 132.48485811254068 -95.919806821153088 0 -95.919806821153088 102.18223109284793 0 0 0 0 54.613803609074246 7.3938070750989056 0 7.3938070750989056 22.918165216322354 0 0 0 0 14.031810740616493 101.09302577044559 0 101.09302577044559 108.0974747944183 0 0 0 0 3.1768728064735967 3.9810649868746415 0 3.9810649868746415 3.2028692795436031 0 0 0 0 39.680365781915611 -18.857178033790575 0 -18.857178033790575 9.6239815684781931 0 0 0 0 184.71615331544064 -15.086352171590335 0 -15.086352171590335 -2.0089043179332364 0 0 0 0 396.51951448394539 65.414325862561782 0 65.414325862561782 -246.00626032179707 0 0 0 0 329.96112584362709 16.4109914783985 0 16.4109914783985 100.3434570375648 0 0 0 0 115.15334267311482 -69.21808043596684 0 -69.21808043596684 -22.075832916764284 0 0 0 0 48.016577129702455 23.473974361502769 0 23.473974361502769 211.07270466256614 0 0 0 0 236.47026475427992 117.2682615133308 0 117.2682615133308 160.65967318325534 0 0 0 0 171.54903927720807 -51.290778782736197 0 -51.290778782736197 5.9883975601405837 0 0 0 0 251.27788054989651 28.741277980344194 0 28.741277980344194 -22.283391836153442 0 0 0 0 308.96567776899974 -22.514118083776225 0 -22.514118083776225 11.260077842539431 0 0 0 0 136.39346680803283 21.281724745698284 0 21.281724745698284 84.613635879963113 0 0 0 0 146.82836262542696 24.909719634795465 0 24.909719634795465 19.983234809981695 0 0 0 0 168.56428993931331 12.399256566931058 0 12.399256566931058 -82.449448434773785 0 0 0 0 109.42948415210776 33.571409505382007 0 33.571409505382007 23.195930513223288 0 0 0 0 148.20585710896557 -3.3215863769491989 0 -3.3215863769491989 -31.933258013358568 0 0 0 0 176.74309322806221 -3.7628561224920531 0 -3.7628561224920531 -67.432535062905117 0 0 0 0 147.32667947235677 -22.400623497496326 0 -22.400623497496326 -28.435093833820019 0 0 0 0 148.16776381268573 -42.166653259680857 0 -42.166653259680857 -38.661460021168295 0 0 0 0 29.420723113387794 -27.565144559194096 0 -27.565144559194096 -12.954044312430142 0 0 0 0 46.966211128326904 -40.299468503890353 0 -40.299468503890353 -4.5119616035453873 0 0 0 0 8.3179930909145696 6.3494438553534565 0 6.3494438553534565 11.720540071963114 0 0 0 0 9.8076055086132712 -1.5292647359823164 0 -1.5292647359823164 0.63154193365694589 0 0 0 0 66.690998061916616 -75.142234155133792 0 -75.142234155133792 40.787967146470692 0 0 0 0 19.438387973235876 -25.721468126994978 0 -25.721468126994978 58.995274096672802 0 0 0 0 33.882445192848536 -17.308586595778706 0 -17.308586595778706 -29.62885469957746 0 0 0 0 28.287599759900331 -45.723672523014102 0 -45.723672523014102 45.359378984944215 0 0 0 0 16.725683390035556 -15.428372486907392 0 -15.428372486907392 16.968062597207819 0 0 0 0 23.731209402572858 0.45582854340864287 0 0.45582854340864287 -0.65053479577545659 0 0 0 0 18.040858587504353 -0.57315691298848037 0 -0.57315691298848037 2.7715990399849293 0 0 0 0 22.923227197591991 15.948996094416312 0 15.948996094416312 11.744637709107918 0 0 0 0 19.210835720056814 -16.812301665196081 0 -16.812301665196081 -15.189100057275203 0 0 0 0 66.505784529115772 35.356069111917805 0 35.356069111917805 -25.796070120351487 0 0 0 0 18.856638636891375 17.786382740142585 0 17.786382740142585 14.258808364304059 0 0 0 0 20.810043508753324 35.707144662029577 0 35.707144662029577 88.249757742367365 0 0 0 0 247.45386511293691 -51.690558522454467 0 -51.690558522454467 5.7485107869346166 0 0 0 0 243.63486861038018 -71.166317457638797 0 -71.166317457638797 -80.594954934746966 0 0 0 0 379.61131759684463 -143.8230576980896 0 -143.8230576980896 -71.894175431004442 0 0 0 0 381.54255368435042 -164.69265869713035 0 -164.69265869713035 -24.278324834666364 0 0 0 0 -139.68527080596323 -227.80848534476763 0 -227.80848534476763 145.22075728751361 0 0 0 0 -126.1859109520592 353.53147314292301 0 353.53147314292301 505.57535118520127 0 0 0 0 333.19685653379202 -474.51480867674195 0 -474.51480867674195 224.2652434767042 0 0 0 0 7.888557197206552 -0.41268179920585846 0 -0.41268179920585846 0.250219560987611 0 0 0 0 210.35937741935777 176.82031561917552 0 176.82031561917552 81.284750512823848 0 0 0 0 805.36467536539567 -58.279303845494269 0 -58.279303845494269 -85.304078266986494 0 0 0 0 267.44590105228781 -562.01833098538771 0 -562.01833098538771 652.42762744673701 0 0 0 0 -333.44351998840648 71.065812208305942 0 71.065812208305942 128.82323012695406 0 0 0 0 294.25139811641202 182.577493787516 0 182.577493787516 -514.74609166483015 0 0 0 0 496.17717741925662 444.19751613662754 0 444.19751613662754 -195.15952097289596 0 0 0 0 139.72879563918656 -39.549860923336674 0 -39.549860923336674 -4.6899435837000247 0 0 0 0 102.10808108851779 -100.63629110115835 0 -100.63629110115835 72.243784998954652 0 0 0 0 195.5398081492167 -102.39788862750538 0 -102.39788862750538 -35.335677338287496 0 0 0 0 138.09950489040057 -128.43245177075369 0 -128.43245177075369 47.181997301722731 0 0 0 0 175.54802133669 -81.514122875143585 0 -81.514122875143585 -120.13309461298741 0 0 0 0 139.95196634639856 -33.971889338668547 0 -33.971889338668547 -9.2027012353385214 0 0 0 0 119.08132642766031 -70.670466760801446 0 -70.670466760801446 111.39973590879163 0 0 0 0 108.15332926015981 -90.675363721960821 0 -90.675363721960821 52.650752309931704 0 0 0 0 308.0847513554545 -248.82985357011239 0 -248.82985357011239 -122.70073676488482 0 0 0 0 23.839201234236512 -0.9132920331110852 0 -0.9132920331110852 -0.5366596005547617 0 0 0 0 51.492470630739263 -341.11156345671316 0 -341.11156345671316 509.26133554501212 0 0 0 0 197.11367129340215 97.705841693698403 0 97.705841693698403 -378.32731110369696 0 0 0 0 54.658827283246865 -154.78520272350181 0 -154.78520272350181 323.94479337337452 0 0 0 0 71.543033473601099 -20.730419528322273 0 -20.730419528322273 121.88937549225716 0 0 0 0 29.425333953845268 1.0137654505026066 0 1.0137654505026066 -0.10027550037535526 0 0 0 0 -3.4625726010599465 37.729890451877282 0 37.729890451877282 258.8817903572799 0 0 0 0 303.19273782367236 -272.30292342255416 0 -272.30292342255416 351.40994679075084 0 0 0 0 6.5056700384609201 0.24334810274006458 0 0.24334810274006458 0.012738094219942653 0 0 0 0 48.238765803369461 -95.082573369139936 0 -95.082573369139936 232.32129063888533 0 0 0 0 133.91537255033509 -37.865688456998612 0 -37.865688456998612 -9.5942262012682953 0 0 0 0 307.1269224586722 -169.3689572312569 0 -169.3689572312569 -155.36011155513745 0 0 0 0 270.65468793192122 -13.002059741251287 0 -13.002059741251287 -214.41943655101886 0 0 0 0 225.30029523477788 -156.05919333385646 0 -156.05919333385646 40.623084200491576 0 0 0 0 93.920234607401653 -155.52663280584784 0 -155.52663280584784 278.79875149405507 0 0 0 0 289.00118860652583 -287.06825536257747 0 -287.06825536257747 297.97384848236652 0 0 0 0 523.37887807046536 13.752555761923759 0 13.752555761923759 190.79824500271206 0 0 0 0 134.65135048465891 -48.158767736553273 0 -48.158767736553273 557.58252464767247 0 0 0 0 29.484634778476902 -83.396602651292596 0 -83.396602651292596 273.11720520961535 0 0 0 0 133.56723566603705 -69.312928725814572 0 -69.312928725814572 225.58516615152257 0 0 0 0 121.02357271083747 75.35867584395055 0 75.35867584395055 136.12703311015048 0 0 0 0 265.80647011227848 6.1875191476128748 0 6.1875191476128748 204.6318774348747 0 0 0 0 234.93189880497084 -62.547845502417658 0 -62.547845502417658 68.057738904835787 0 0 0 0 -136.9248651220405 164.99778198070589 0 164.99778198070589 842.85187653506 0 0 0 0 50.293300737954269 -40.608016527921791 0 -40.608016527921791 71.911852833629382 0 0 0 0 9.5384309137268701 2.893471802229385 0 2.893471802229385 -2.6248121368929134 0 0 0 0 1.9070738930254549 3.5033906772766557 0 3.5033906772766557 3.0411353536887873 0 0 0 0 11.231139955700201 -20.341690859441769 0 -20.341690859441769 132.64481529401746 0 0 0 0 269.94812460624962 -260.39412011422246 0 -260.39412011422246 -498.06736215187266 0 0 0 0 25.398753460412991 5.4140374322878415 0 5.4140374322878415 85.802686390059534 0 0 0 0 -7.9830332132551121 59.671883428512956 0 59.671883428512956 37.543057627881353 0 0 0 0 63.732328487065388 3.9389292598971224 0 3.9389292598971224 83.703186785938669 0 0 0 0 23.353261065945844 28.330558265156469 0 28.330558265156469 165.18236822629115 0 0 0 0 45.335666260805738 4.5128355063661729 0 4.5128355063661729 190.2429561291101 0 0 0 0 119.43149580925819 64.237095413548559 0 64.237095413548559 165.75729989074171 0 0 0 0 38.626307145546889 32.976016715453625 0 32.976016715453625 186.54416799552564 0 0 0 0 148.0470780692558 50.379910198923426 0 50.379910198923426 110.90956014625772 0 0 0 0 108.34518622279575 -17.696087424865254 0 -17.696087424865254 115.67043002728315 0 0 0 0 149.28391910970095 13.24044408179725 0 13.24044408179725 131.09419676543621 0 0 0 0 122.07988027979445 -57.528044064995811 0 -57.528044064995811 221.16998720096672 0 0 0 0 157.99738347815583 -45.792858885113674 0 -45.792858885113674 131.01173554421621 0 0 0 0 146.97447459616524 -21.300709141519292 0 -21.300709141519292 107.65885249194253 0 0 0 0 121.54486401859322 -104.77128162703411 0 -104.77128162703411 161.47935137562672 0 0 0 0 94.112114279763773 -142.30267313628065 0 -142.30267313628065 153.96283503268569 0 0 0 0 143.93427324940058 -96.949054329623777 0 -96.949054329623777 89.751520970326965 0 0 0 0 157.6437582593644 -57.562668852948264 0 -57.562668852948264 98.094947426776343 0 0 0 0 190.32196796013159 -22.804061966291556 0 -22.804061966291556 80.054525364408619 0 0 0 0 197.79072683562117 -143.67352044359905 0 -143.67352044359905 141.53835906576569 0 0 0 0 236.43570153025212 -71.550893315290523 0 -71.550893315290523 96.285087006499452 0 0 0 0 139.61784888699913 -99.151690320840771 0 -99.151690320840771 202.19763089913613 0 0 0 0 222.54488204103836 -56.563082584179938 0 -56.563082584179938 103.88653389710817 0 0 0 0 136.5517237138265 -28.320048870456958 0 -28.320048870456958 92.914295143687923 0 0 0 0 198.17934474759386 -183.38973237378173 0 -183.38973237378173 137.29298547068538 0 0 0 0 15.402468701362466 -23.474554700382097 0 -23.474554700382097 8.2692443597284111 0 0 0 0 118.59551348556124 -58.261998840118395 0 -58.261998840118395 76.124767596615129 0 0 0 0 12.205904567459104 -9.393754147624648 0 -9.393754147624648 -0.52107507640545236 0 0 0 0 52.861164249596186 -92.12085634531104 0 -92.12085634531104 92.80252793157706 0 0 0 0 114.37172902206657 -59.264518221440085 0 -59.264518221440085 96.476797647439525 0 0 0 0 157.89108349634262 -55.891226353374122 0 -55.891226353374122 54.123317065736046 0 0 0 0 118.5031280083349 -72.442108032912074 0 -72.442108032912074 71.312979035301396 0 0 0 0 118.64723356939066 -58.409392228763863 0 -58.409392228763863 83.410950152701844 0 0 0 0 125.25539486165508 -56.09500953136012 0 -56.09500953136012 80.221559694866301 0 0 0 0 127.47537507492234 -40.97024499886902 0 -40.97024499886902 98.984240447338379 0 0 0 0 69.762380096915876 -43.62980033713211 0 -43.62980033713211 75.016877781308722 0 0 0 0 119.56885533648892 -37.421800821939541 0 -37.421800821939541 67.198344262837054 0 0 0 0 112.33439978914976 -63.190232595197813 0 -63.190232595197813 72.330177742828255 0 0 0 0 96.609984104143223 -60.752347023355469 0 -60.752347023355469 62.634963734704797 0 0 0 0 112.60969795349956 -48.873230268400221 0 -48.873230268400221 69.966027967515402 0 0 0 0 9.4171470232292904 11.684311342637798 0 11.684311342637798 14.076124691545452 0 0 0 0 55.339303674430994 -20.254466949667403 0 -20.254466949667403 49.90478985698428 0 0 0 0 100.25444888041238 -22.288091615000667 0 -22.288091615000667 66.130870321852854 0 0 0 0 117.0351061096444 -40.69035049539707 0 -40.69035049539707 51.057821727023111 0 0 0 0 133.71362617665 -40.031716619598228 0 -40.031716619598228 81.812998129251355 0 0 0 0 121.07717090375081 -29.506773451139452 0 -29.506773451139452 81.041384651149428 0 0 0 0 172.63793316749798 -1.6928039070735394 0 -1.6928039070735394 72.741234779278784 0 0 0 0 4.0161965183130519 3.8681474673678338 0 3.8681474673678338 4.3756659906736104 0 0 0 0 83.712747877436414 -105.68108526432536 0 -105.68108526432536 247.08995389463962 0 0 0 0 381.2130698558758 124.30604675174163 0 124.30604675174163 -204.79189753127503 0 0 0 0 377.26784039470658 -108.4229954932307 0 -108.4229954932307 31.097532350632264 0 0 0 0 134.3499667133583 -44.032349541204894 0 -44.032349541204894 29.20897799996601 0 0 0 0 9.6263576655328507 -23.747632501908811 0 -23.747632501908811 57.683106537336243 0 0 0 0 77.086980602691256 -61.185741562600697 0 -61.185741562600697 68.772965603307966 0 0 0 0 31.466074157353432 32.380619638697553 0 32.380619638697553 45.753597338024314 0 0 0 0 41.618992116360459 116.90383162846592 0 116.90383162846592 60.778627452741546 0 0 0 0 10.573926517550717 121.92359103316448 0 121.92359103316448 81.24350420078008 0 0 0 0 472.78478729947528 464.96835973810812 0 464.96835973810812 -286.45894045922432 0 0 0 0 2.3382600607874338 136.09523431847629 0 136.09523431847629 415.385580425238 0 0 0 0 3.9223149825504002 -4.7594901276524126 0 -4.7594901276524126 2.9471428332430833 0 0 0 0 5501.9168708490542 -185.52132393377937 0 -185.52132393377937 -91.307986055516494 0 0 0 0 5157.4590052529529 188.32488615037954 0 188.32488615037954 -308.47242116265909 0 0 0 0 445.0537417344749 23.110485486756502 0 23.110485486756502 3.2974221613390853 0 0 0 0 -4.9820479641348356 -103.07186967118159 0 -103.07186967118159 106.20885247865692 0 0 0 0 228.60780093577341 64.016272834257961 0 64.016272834257961 -172.2555745056552 0 0 0 0 208.73305719046948 -34.753037868774612 0 -34.753037868774612 80.33010295420263 0 0 0 0 74.056437640218064 139.40530663621348 0 139.40530663621348 6.4079465271429399 0 0 0 0 17.96984841321931 31.287056922127661 0 31.287056922127661 34.984546016736367 0 0 0 0 5376.3105558900206 -222.60111325815802 0 -222.60111325815802 -94.951620890539019 0 0 0 0 3.8584565406736839 -16.622963479029167 0 -16.622963479029167 10.031101267681008 0 0 0 0 260.85034361781436 45.410627657365922 0 45.410627657365922 -56.512826469534048 0 0 0 0 5499.7518922458185 -316.93768060411014 0 -316.93768060411014 -101.99831607460278 0 0 0 0 91.726978648468503 -91.89203713378447 0 -91.89203713378447 14.098429769976065 0 0 0 0 89.112150119937724 -15.218378358078553 0 -15.218378358078553 40.417205076990285 0 0 0 0 78.093605092726648 -15.518290618512765 0 -15.518290618512765 72.518169609204051 0 0 0 0 20.018523337765515 16.326098217609726 0 16.326098217609726 24.566877370912636 0 0 0 0 90.402249512535491 -18.488185699520955 0 -18.488185699520955 44.338078273629435 0 0 0 0 26.709475209834451 20.169270444660256 0 20.169270444660256 23.914028277241627 0 0 0 0 87.524585043429397 -14.036274550689996 0 -14.036274550689996 42.663430338985563 0 0 0 0 83.436239127404406 -18.252429510974707 0 -18.252429510974707 52.122303295356687 0 0 0 0 4683.6941774140578 -687.8772649418006 0 -687.8772649418006 -10.239672115291569 0 0 0 0 183.50450910927611 18.522240374746161 0 18.522240374746161 37.684692499869698 0 0 0 0 6.3987490080018574 -25.277944966848608 0 -25.277944966848608 18.227057702359009 0 0 0 0 5495.9770952518484 -1239.2328416128864 0 -1239.2328416128864 98.592096615181049 0 0 0 0 3662.4928673778195 -2289.5196486246186 0 -2289.5196486246186 1443.1412976462739 0 0 0 0 28.522912473238954 -10.738006443966896 0 -10.738006443966896 22.48661583705238 0 0 0 0 91.971082201751415 -25.612452840703554 0 -25.612452840703554 46.540958543181659 0 0 0 0 28.738391504776359 9.1135392509806934 0 9.1135392509806934 11.891634513582169 0 0 0 0 34.881959363407418 3.6097553630899455 0 3.6097553630899455 13.646526843438906 0 0 0 0 24.119334263736164 -1.9863362644971971 0 -1.9863362644971971 22.83274302357313 0 0 0 0 24.286311229380104 -8.3539406990816332 0 -8.3539406990816332 14.743415671949943 0 0 0 0 57.196056590578024 -9.3475465517342684 0 -9.3475465517342684 13.607660260980222 0 0 0 0 10.482953521201125 -2.2921257167220119 0 -2.2921257167220119 7.0961434155178722 0 0 0 0 14.825088296645674 2.2793566595921746 0 2.2793566595921746 7.8302572372999233 0 0 0 0 64.010772521824947 -15.786337157818423 0 -15.786337157818423 15.941932015855855 0 0 0 0 19.541607291578501 -9.5767103054319591 0 -9.5767103054319591 17.811210026316832 0 0 0 0 40.141995099722408 -16.97167697740224 0 -16.97167697740224 26.780550617375411 0 0 0 0 177.18232015985996 -237.03630961435556 0 -237.03630961435556 373.95710936828073 0 0 0 0 101.3450228624497 -6.7547593892279565 0 -6.7547593892279565 21.65825541809761 0 0 0 0 6.5400113274654927 -10.86057065045053 0 -10.86057065045053 19.785296909971471 0 0 0 0 5482.4938561970775 -6.2348941837583176 0 -6.2348941837583176 15.118665947224375 0 0 0 0 123.90823254887982 -30.128448968294123 0 -30.128448968294123 -30.660518278294148 0 0 0 0 2456.2937858732694 888.27031902720353 0 888.27031902720353 470.02486633814613 0 0 0 0 14.388992405557477 2.9752803693957617 0 2.9752803693957617 9.6611477970314219 0 0 0 0 16.497397206258057 -4.2798140914741083 0 -4.2798140914741083 5.9352887317441327 0 0 0 0 -187.85877216732479 1113.8776228791048 0 1113.8776228791048 1198.7761981726071 0 0 0 0 646.95650780950382 -575.14140335695572 0 -575.14140335695572 -1070.589549097519 0 0 0 0 420.67879142385209 -761.65767009066394 0 -761.65767009066394 -377.91998825978044 0 0 0 0 33.720049669436747 -9.0123325088410589 0 -9.0123325088410589 16.447861342351992 0 0 0 0 54.29744987457525 -89.026024640650576 0 -89.026024640650576 -1133.7076186440972 0 0 0 0 3.1853540695331617 -1.7109780258385854 0 -1.7109780258385854 0.76014782973018136 0 0 0 0 1630.793366695194 2127.7498645268129 0 2127.7498645268129 1763.9839701014582 0 0 0 0 149.50979590942006 -4.4629503617140358 0 -4.4629503617140358 -70.874102211575632 0 0 0 0 17.918813101955582 0.21017772918903432 0 0.21017772918903432 -3.4491917309614415 0 0 0 0 14.436999479032238 -46.008240579876116 0 -46.008240579876116 -38.70214815719919 0 0 0 0 87.606547601750066 -12.611848947285559 0 -12.611848947285559 -13.245268089080698 0 0 0 0 85.014444153988734 -35.708276792212928 0 -35.708276792212928 95.963684878304775 0 0 0 0 36.079868328255543 -5.5818947998409385 0 -5.5818947998409385 13.55331299342015 0 0 0 0 41.560372346662916 -8.1693175803575286 0 -8.1693175803575286 22.316193541435496 0 0 0 0 82.114051933458541 -50.04590769337301 0 -50.04590769337301 67.21391408962927 0 0 0 0 26.703022403428498 -12.637755687661183 0 -12.637755687661183 40.040737472734385 0 0 0 0 85.587896632503544 9.2996540241672392 0 9.2996540241672392 -67.144914178550607 0 0 0 0 65.345181090291589 80.415717407902775 0 80.415717407902775 -96.692358928942667 0 0 0 0 102.45172050610563 -316.37236926762307 0 -316.37236926762307 420.24282357323318 0 0 0 0 135.71075211582502 8.5329013968639629 0 8.5329013968639629 -25.066513377073079 0 0 0 0 24.554755916154324 -73.08958878382947 0 -73.08958878382947 62.632486449605608 0 0 0 0 120.26469370708182 -10.037124483186513 0 -10.037124483186513 -15.740233425641193 0 0 0 0 252.57051556360238 15.317218024375052 0 15.317218024375052 -137.94026519810905 0 0 0 0 157.64091160286625 88.62119237550678 0 88.62119237550678 -178.47407090307615 0 0 0 0 284.92384164533723 -234.29809496406892 0 -234.29809496406892 133.48201631892607 0 0 0 0 23.401941720964107 -8.4168301044841911 0 -8.4168301044841911 2.119591613044248 0 0 0 0 3.8418442613799613 -24.681124052447618 0 -24.681124052447618 6.5899134028468751 0 0 0 0 987.32695734986919 1244.8517822874728 0 1244.8517822874728 -1830.7435088703041 0 0 0 0 742.2274492099823 -103.85899388419421 0 -103.85899388419421 -172.73186194997464 0 0 0 0 953.13827650253381 -96.332585628338123 0 -96.332585628338123 -748.41275581856462 0 0 0 0 400.61003164141584 -438.59039561109853 0 -438.59039561109853 156.29458471281441 0 0 0 0 6.8062415925401751 6.3381892399396271 0 6.3381892399396271 7.2133354989225476 0 0 0 0 8.6476530855288729 178.83714503333761 0 178.83714503333761 -143.87999520225941 0 0 0 0 -86.318591812691011 74.526770216678756 0 74.526770216678756 -18.763011995600834 0 0 0 0 244.17418134404579 -123.43192404983529 0 -123.43192404983529 35.90142521266057 0 0 0 0 218.80689462378723 -230.32173485320027 0 -230.32173485320027 288.66549674240093 0 0 0 0 273.68177809989811 -108.0124108337169 0 -108.0124108337169 -44.051564124647484 0 0 0 0 -1.6241568180145305 0.088507195317021115 0 0.088507195317021115 5.6660473285652149 0 0 0 0 -83.224991970480914 -66.772207463485756 0 -66.772207463485756 81.998026803017865 0 0 0 0 174.65503358566639 -153.41583640292902 0 -153.41583640292902 16.252547999608851 0 0 0 0 187.59409957270327 -120.03183188135785 0 -120.03183188135785 53.150069739467199 0 0 0 0 444.12835113087931 -223.45141605901222 0 -223.45141605901222 93.806024695130418 0 0 0 0 494.4940848675833 80.717005216204967 0 80.717005216204967 95.268341285524912 0 0 0 0 206.75527344579314 -97.076908448684662 0 -97.076908448684662 2.6900509518864055 0 0 0 0 5496.9330413080315 -1627.4466503957119 0 -1627.4466503957119 269.45418023000366 0 0 0 0 16.244559569875658 2.7053040394785981 0 2.7053040394785981 5.6360270675055215 0 0 0 0 -94.328350032697927 16.540161797424162 0 16.540161797424162 300.66328557144789 0 0 0 0 124.74150545338489 -1.0865860761496151 0 -1.0865860761496151 -10.948410534204868 0 0 0 0 209.14798854968467 14.501804495859531 0 14.501804495859531 -17.150660565976125 0 0 0 0 32.159201927223108 32.697664880174358 0 32.697664880174358 -0.77082259357063165 0 0 0 0 2.2157345570563223 3.1814402297391737 0 3.1814402297391737 0.41103296882177909 0 0 0 0 12.886017707555119 0.8631099753630167 0 0.8631099753630167 1.8080852849219462 0 0 0 0 15.189691701266785 9.4895810042911819 0 9.4895810042911819 -15.557103411298403 0 0 0 0 108.99832083101137 23.182113472294191 0 23.182113472294191 31.504872831647845 0 0 0 0 5492.6217574841394 192.97949406153614 0 192.97949406153614 -811.40860627298753 0 0 0 0 4159.6504350898213 -228.68553238299313 0 -228.68553238299313 -436.10428870433805 0 0 0 0 291.03685598999255 -21.895335277410652 0 -21.895335277410652 0.50109247018099268 0 0 0 0 21.377460118423613 20.799488672637583 0 20.799488672637583 15.564365742726929 0 0 0 0 60.006166571707581 71.292167065118917 0 71.292167065118917 -59.758966698343215 0 0 0 0 1964.4698276846466 555.26428860590522 0 555.26428860590522 -419.55362116757544 0 0 0 0 5484.9123464405038 2504.1438225317747 0 2504.1438225317747 -36.354976931538886 0 0 0 0 442.73078223268385 389.8801617021453 0 389.8801617021453 539.79225316443853 0 0 0 0 581.67041095395689 -75.830071196578103 0 -75.830071196578103 -173.09878828544174 0 0 0 0 181.57666631124448 -229.58593476572855 0 -229.58593476572855 234.41286057204377 0 0 0 0 762.65931418764285 -201.9541316431787 0 -201.9541316431787 222.21172080226296 0 0 0 0 111.2717639265029 -8.0801662064390882 0 -8.0801662064390882 326.46671761329185 0 0 0 0 828.46689043297374 239.51325424112474 0 239.51325424112474 70.776436235976689 0 0 0 0 1984.2213667685355 454.45805179754842 0 454.45805179754842 60.792364859953693 0 0 0 0 2020.420184554212 -302.81715028573763 0 -302.81715028573763 126.37622982564119 0 0 0 0 275.80876642714429 22.960638521694079 0 22.960638521694079 397.66223624463129 0 0 0 0 1071.0155186167685 -350.21335029609281 0 -350.21335029609281 91.232373426084905 0 0 0 0 1386.1626182598848 142.55712879675357 0 142.55712879675357 240.82115615111533 0 0 0 0 2444.8227466370663 -755.93439918547438 0 -755.93439918547438 -172.25971005265569 0 0 0 0 2342.6519955549447 445.30027159779399 0 445.30027159779399 -468.74323195350382 0 0 0 0 5503.7084982795641 85.469193725628671 0 85.469193725628671 -767.55066586693272 0 0 0 0 2508.8335715528701 -673.91898861694983 0 -673.91898861694983 -372.19467522460769 0 0 0 0 2568.1864926411945 -853.42982613394349 0 -853.42982613394349 -359.58005076438559 0 0 0 0 5488.3275461935482 -2288.1312393868307 0 -2288.1312393868307 -175.12776839196724 0 0 0 0 2539.7847423729072 -956.80696074934156 0 -956.80696074934156 -98.451744991549219 0 0 0 0 554.67735183807963 -650.98959410024315 0 -650.98959410024315 1247.3409955391041 0 0 0 0 440.77701957582212 73.985507503752601 0 73.985507503752601 90.499349373574205 0 0 0 0 770.23136229939701 -2182.868099946008 0 -2182.868099946008 2124.1703699516925 0 0 0 0 24.516522708754849 -9.7456001974239825 0 -9.7456001974239825 5.9648513269856416 0 0 0 0 5490.4627838440401 148.25824352522605 0 148.25824352522605 -324.50478921023171 0 0 0 0 3311.0587329397677 2146.6605933901842 0 2146.6605933901842 612.47242898030686 0 0 0 0 57.457165073826758 -18.903250920778916 0 -18.903250920778916 13.903465189528166 0 0 0 0 556.57910666280077 -240.33559181255464 0 -240.33559181255464 -677.41791463967616 0 0 0 0 594.51931970877922 -328.0384260977998 0 -328.0384260977998 -104.45252708858398 0 0 0 0 861.07753157507977 -700.30427902597125 0 -700.30427902597125 273.68698682093833 0 0 0 0 184.00450828749308 135.01395734787434 0 135.01395734787434 389.05473669101724 0 0 0 0 397.30880706995958 -325.93543720390539 0 -325.93543720390539 597.44535241132348 0 0 0 0 223.90188058080093 -78.198970773959445 0 -78.198970773959445 -317.36994690801566 0 0 0 0 189.16400594711013 -82.175985782528187 0 -82.175985782528187 -59.582206863231477 0 0 0 0 115.8808489201048 -12.257374838762885 0 -12.257374838762885 -7.9437962441136776 0 0 0 0 161.60252088452398 76.843111068680173 0 76.843111068680173 -180.02630853493611 0 0 0 0 18.535518744531288 -18.19795828814631 0 -18.19795828814631 -11.193652447838286 0 0 0 0 -133.82115301823796 227.9618702511267 0 227.9618702511267 179.93703626221705 0 0 0 0 112.52693880387233 149.7180935352346 0 149.7180935352346 -28.970667528283208 0 0 0 0 -311.00132662290707 -38.325898104795669 0 -38.325898104795669 -47.730982059146356 0 0 0 0 89.401563276797532 5.3420356939037674 0 5.3420356939037674 22.778734783328236 0 0 0 0 137.64762042756047 156.476734493923 0 156.476734493923 20.955102227849693 0 0 0 0 154.8534134356014 145.4303938746441 0 145.4303938746441 -23.418682872899808 0 0 0 0 209.43785831975401 215.56480402270336 0 215.56480402270336 -131.2476072710233 0 0 0 0 202.04293730395148 178.82117732904408 0 178.82117732904408 -189.65812327617004 0 0 0 0 106.82023067270347 202.94715051516778 0 202.94715051516778 -83.201577736356739 0 0 0 0 188.67477801755012 195.3279888415417 0 195.3279888415417 -104.50089763954293 0 0 0 0 379.16292327319388 91.437798851067555 0 91.437798851067555 -111.87810029759294 0 0 0 0 275.25951966363937 292.18053811953325 0 292.18053811953325 -77.922181156146053 0 0 0 0 235.98313897973276 -28.621001712775637 0 -28.621001712775637 137.05779728976944 0 0 0 0 926.86892764890217 -3.4135435128913656 0 -3.4135435128913656 -3.8863877331953063 0 0 0 0 216.17842256918084 -3.1430490045081569 0 -3.1430490045081569 443.16544804138772 0 0 0 0 247.11724371990567 2.8238202963399033 0 2.8238202963399033 -73.264655645373864 0 0 0 0 -0.94075749057541458 -0.57586009458466947 0 -0.57586009458466947 -2.5562539631664545 0 0 0 0 88.813702839368489 -7.6172885025150094 0 -7.6172885025150094 -1.1028050193542924 0 0 0 0 84.74505378404865 -36.518768800600583 0 -36.518768800600583 -23.238944886342267 0 0 0 0 89.311187499763605 29.657410405417828 0 29.657410405417828 4.8297590931292165 0 0 0 0 96.805612653413846 9.3482139624657634 0 9.3482139624657634 -81.611198501657213 0 0 0 0 14.469497138402147 3.3810351999435682 0 3.3810351999435682 -11.467074479963829 0 0 0 0 -109.34805418443284 293.9036138496474 0 293.9036138496474 42.516257337560774 0 0 0 0 -304.61947641073493 206.64207237204823 0 206.64207237204823 68.283845468451091 0 0 0 0 -48.753783774707699 213.40746336340544 0 213.40746336340544 -26.825587588265989 0 0 0 0 -55.60449195720139 163.64061408883526 0 163.64061408883526 -249.34115130600185 0 0 0 0 115.56955716419907 100.108144482444 0 100.108144482444 -43.577524729594188 0 0 0 0 37.820759359106063 46.132448864060734 0 46.132448864060734 6.9104511550140515 0 0 0 0 -5.7683132247859135 14.674823300621281 0 14.674823300621281 5.0667533306168542 0 0 0 0 22.501322963944403 115.56316715555431 0 115.56316715555431 102.91220332417834 0 0 0 0 46.26963056124805 177.80106797205508 0 177.80106797205508 -91.038935654887609 0 0 0 0 14.437000506428376 52.654285984192484 0 52.654285984192484 58.962642082906314 0 0 0 0 28.10989592659763 19.312643171313205 0 19.312643171313205 8.609362053166814 0 0 0 0 13.724080484200385 106.38981223458813 0 106.38981223458813 -36.80898409004385 0 0 0 0 -57.143129974647309 103.79876167083057 0 103.79876167083057 69.120773515345377 0 0 0 0 17.924287932459265 15.927402234776309 0 15.927402234776309 21.948079850259091 0 0 0 0 49.283485872000817 25.543744987500787 0 25.543744987500787 0.90237611916726479 0 0 0 0 51.5549443377177 15.112673817140433 0 15.112673817140433 -4.8703577935181883 0 0 0 0 33.348465355375083 21.113955485587212 0 21.113955485587212 -21.199420277816898 0 0 0 0 89.496840499509204 33.478274262791643 0 33.478274262791643 -9.4813035204933129 0 0 0 0 163.27412163262579 43.437720862797391 0 43.437720862797391 19.21348930638851 0 0 0 0 311.72098441000708 19.83040372512778 0 19.83040372512778 -49.054274679041555 0 0 0 0 247.45251218904014 35.034336537917625 0 35.034336537917625 79.101546958298059 0 0 0 0 52.71655839329469 -106.62210968218551 0 -106.62210968218551 -0.57409891091265308 0 0 0 0 -146.4792018476146 -197.83839950614765 0 -197.83839950614765 157.67476545552609 0 0 0 0 12.624540376825422 3.3902338433886428 0 3.3902338433886428 1.154233048770708 0 0 0 0 357.91473509866046 22.596288087751418 0 22.596288087751418 -86.180620964029913 0 0 0 0 492.54373959850636 178.06142220613947 0 178.06142220613947 38.205109954342333 0 0 0 0 792.07522705440351 889.54291212337921 0 889.54291212337921 -425.69107532973476 0 0 0 0 173.72909155779053 34.139911295344234 0 34.139911295344234 -254.09819251427496 0 0 0 0 93.252190002816178 23.844909935988063 0 23.844909935988063 5.0839386288379558 0 0 0 0 57.482753806798428 3.0699406830898113 0 3.0699406830898113 1.3016784580339618 0 0 0 0 141.10673074089573 3.3269705201070678 0 3.3269705201070678 -2.5032275841143772 0 0 0 0 162.23593618506857 -118.98203399288707 0 -118.98203399288707 -20.786698690724279 0 0 0 0 430.93730427815171 113.45658283810477 0 113.45658283810477 58.377299465247916 0 0 0 0 0.41335703650585742 -0.37127373034954303 0 -0.37127373034954303 2.6185719793034172 0 0 0 0 77.310018841475539 65.36002491953127 0 65.36002491953127 189.51009480864309 0 0 0 0 167.27628861000994 28.939004447368291 0 28.939004447368291 81.574707699954246 0 0 0 0 162.36700178079082 11.533275051682557 0 11.533275051682557 127.95307242593096 0 0 0 0 93.399526454122679 -23.900533671341861 0 -23.900533671341861 23.183859154567017 0 0 0 0 -5.5790662311483175 121.95755050618757 0 121.95755050618757 60.557764349609222 0 0 0 0 162.42931231406692 -207.33911959326667 0 -207.33911959326667 78.964829901537797 0 0 0 0 -448.64527567736513 249.12083188168228 0 249.12083188168228 183.79433046624706 0 0 0 0 -188.3780833225901 39.897606641260509 0 39.897606641260509 273.23236767315541 0 0 0 0 -40.969418166350806 -19.664700415582629 0 -19.664700415582629 124.45477157887898 0 0 0 0 -20.707468381733634 -107.97527912801317 0 -107.97527912801317 333.85679942706736 0 0 0 0 151.27944617181493 -167.80137806078005 0 -167.80137806078005 170.96253925070704 0 0 0 0 167.68643437245919 -138.43645967845282 0 -138.43645967845282 -233.12766092931338 0 0 0 0 -109.52364606893389 -137.76908939481538 0 -137.76908939481538 172.44631398645231 0 0 0 0 18.871783500784659 -264.1077762855349 0 -264.1077762855349 -64.823392280960888 0 0 0 0 90.165915842895629 -163.61988571754537 0 -163.61988571754537 73.602584283300047 0 0 0 0 310.84389624513278 -249.39337252646999 0 -249.39337252646999 -137.51426139161708 0 0 0 0 304.40619329194305 -226.27794912898435 0 -226.27794912898435 -133.09667769149516 0 0 0 0 375.31701203445846 -86.022361807074873 0 -86.022361807074873 -125.27514762094134 0 0 0 0 806.46920858473459 -36.116408238174557 0 -36.116408238174557 -307.68804797553389 0 0 0 0 28.680114778020652 11.461826774679821 0 11.461826774679821 14.663419437756147 0 0 0 0 191.06589078318211 46.423326946436703 0 46.423326946436703 78.030813377061421 0 0 0 0 -0.19444663316304656 0.43864032309201662 0 0.43864032309201662 8.1176178887196411 0 0 0 0 434.21643987573589 -4.3631428128032486 0 -4.3631428128032486 -61.637113008664443 0 0 0 0 201.83067984691297 -85.043594119307855 0 -85.043594119307855 90.886370520728704 0 0 0 0 4.7926687449280507 -23.36926347070137 0 -23.36926347070137 -15.1900570552516 0 0 0 0 55.448334936731044 39.687866126052086 0 39.687866126052086 -6.7299420290660237 0 0 0 0 9.0357578821773643 2.3309281841525546 0 2.3309281841525546 -4.326718031268074 0 0 0 0 8.3890024554111733 16.594186167314291 0 16.594186167314291 14.952132590154179 0 0 0 0 46.17018392283353 44.138418421058759 0 44.138418421058759 -3.9699680284844021 0 0 0 0 1.0325725011471434 -0.19977257577082241 0 -0.19977257577082241 -1.1815319825716397 0 0 0 0 28.389888906778651 13.61954024270949 0 13.61954024270949 -5.3384569097647727 0 0 0 0 -8.1806669761208468 33.573625240546818 0 33.573625240546818 2.5713609178656043 0 0 0 0 15.652399425249314 9.0481370912734747 0 9.0481370912734747 12.733756531883046 0 0 0 0 32.256734186201356 2.5853031069655117 0 2.5853031069655117 1.5450823095757187 0 0 0 0 42.096149645367404 14.204631300856818 0 14.204631300856818 9.2034609139132044 0 0 0 0 209.24240553111304 -34.680053464454431 0 -34.680053464454431 -149.09795467299591 0 0 0 0 28.155748184508411 30.376290236378736 0 30.376290236378736 19.563936596266558 0 0 0 0 22.881257412521393 -5.144671442264368 0 -5.144671442264368 -8.9760793299383117 0 0 0 0 13.89482245164254 25.01218000709747 0 25.01218000709747 21.209325252588314 0 0 0 0 52.024721259338548 1.3022619038320045 0 1.3022619038320045 -32.927175946334955 0 0 0 0 64.985015210608253 27.896330610876703 0 27.896330610876703 -15.341504835289754 0 0 0 0 33.27644631563453 -10.341040435872856 0 -10.341040435872856 -22.745595809142742 0 0 0 0 70.731707571772859 59.913572536432184 0 59.913572536432184 9.9499992470588268 0 0 0 0 15.213130380048199 1.6009363035535387 0 1.6009363035535387 -14.430616439141616 0 0 0 0 25.559317888342775 24.144895003177226 0 24.144895003177226 26.41284498363575 0 0 0 0 78.503174768004101 13.261241022296872 0 13.261241022296872 -43.297405606657321 0 0 0 0 93.431465173431206 -17.801282889972754 0 -17.801282889972754 -75.626831692100268 0 0 0 0 28.397019069467206 -59.288948136888393 0 -59.288948136888393 -60.162681267803237 0 0 0 0 22.167936838465437 3.0194603184718005 0 3.0194603184718005 -8.2263769689542201 0 0 0 0 8.8938322686169329 5.1729844934696132 0 5.1729844934696132 -3.8678963700215601 0 0 0 0 55.063735677016666 10.997642541754431 0 10.997642541754431 -10.537476758471485 0 0 0 0 69.047589369229172 39.12028326644463 0 39.12028326644463 -1.474290072191252 0 0 0 0 4.1918851315567736 -49.795115382196855 0 -49.795115382196855 -61.371657784391573 0 0 0 0 32.199681409336335 7.2243678045417994 0 7.2243678045417994 -4.1369348426605939 0 0 0 0 70.667108981413548 23.135594562469066 0 23.135594562469066 -14.297440510841625 0 0 0 0 35.195896442906815 30.453243840750019 0 30.453243840750019 22.979708645952996 0 0 0 0 39.659883396862938 18.867580433696205 0 18.867580433696205 -0.82249837621426991 0 0 0 0 37.757476042694179 21.235240741038751 0 21.235240741038751 6.1240794121079603 0 0 0 0 26.525308971613413 18.007727855782832 0 18.007727855782832 5.6370868329913719 0 0 0 0 11.975654653361943 4.4073440835836379 0 4.4073440835836379 -7.6734711552949717 0 0 0 0 36.64533819098142 4.1527583808256168 0 4.1527583808256168 -10.405179222803554 0 0 0 0 18.465375964122359 18.472746670159268 0 18.472746670159268 2.4726353680484863 0 0 0 0 42.075725320461061 22.367926841868012 0 22.367926841868012 -4.6107953729567726 0 0 0 0 25.840880735268115 16.421107282260074 0 16.421107282260074 2.6708882492805075 0 0 0 0 -12.963505446678028 43.940559972297706 0 43.940559972297706 -5.4563039737290637 0 0 0 0 53.014995829027612 20.880231599845047 0 20.880231599845047 -56.853734485719997 0 0 0 0 51.797078204574063 30.365161702742625 0 30.365161702742625 -41.079476633506147 0 0 0 0 43.817960683256388 17.718734505062912 0 17.718734505062912 -36.54120893173058 0 0 0 0 11.189069225947605 6.5915527518350245 0 6.5915527518350245 2.4875898485140624 0 0 0 0 43.418288632994518 30.443405024103299 0 30.443405024103299 -25.09145578075686 0 0 0 0 31.630305371688792 5.5877866300098447 0 5.5877866300098447 -3.5903646600467853 0 0 0 0 48.375919412006624 11.023072580809185 0 11.023072580809185 -5.2624635271261013 0 0 0 0 21.039033703098539 32.241377477854712 0 32.241377477854712 -2.9115586681795662 0 0 0 0 42.739577117099543 80.183932267137607 0 80.183932267137607 -13.654988995370331 0 0 0 0 82.507671269937418 69.258887262274129 0 69.258887262274129 -59.521247930020763 0 0 0 0 60.333845511064283 0.52015539809099209 0 0.52015539809099209 -16.011196453856428 0 0 0 0 4.4123801945928278 5.6652262757907579 0 5.6652262757907579 -2.7354593696344374 0 0 0 0 -23.119561262690695 83.018146198464819 0 83.018146198464819 -13.368827162043743 0 0 0 0 19.059507035111892 156.01965490933526 0 156.01965490933526 70.717339134071153 0 0 0 0 9.9182354724616744 140.13156930334662 0 140.13156930334662 50.944269835479645 0 0 0 0 61.726182259866619 52.802434691509461 0 52.802434691509461 12.366401802389191 0 0 0 0 1.0547334549628431 30.519447252238493 0 30.519447252238493 47.392547665069984 0 0 0 0 -13.859148115305516 10.995736919672026 0 10.995736919672026 11.315195418107944 0 0 0 0 -12.289411636105797 34.356157355583832 0 34.356157355583832 153.88929267278644 0 0 0 0 -2.1260854786606274 2.7504150910937426 0 2.7504150910937426 3.1634017457345642 0 0 0 0 39.892696197275654 99.05384519627745 0 99.05384519627745 64.9269751862372 0 0 0 0 30.045231196156237 4.0314318768091653 0 4.0314318768091653 3.4214705851125018 0 0 0 0 52.973286285909126 -8.099408812255291 0 -8.099408812255291 8.4970599140008289 0 0 0 0 51.753429675416555 15.760728641596643 0 15.760728641596643 2.5366617131312523 0 0 0 0 20.832809051993536 -1.1608781403709827 0 -1.1608781403709827 -4.8619758383669591 0 0 0 0 4.7553114411973922 2.148003296136892 0 2.148003296136892 -0.49548267998679307 0 0 0 0 40.419962382293306 32.049999527639557 0 32.049999527639557 -20.548090499411501 0 0 0 0 57.824202126357704 14.002395049961621 0 14.002395049961621 -16.093484163213574 0 0 0 0 -75.580710118709248 -2.3646568555012379 0 -2.3646568555012379 158.97891872187301 0 0 0 0 41.012635131162824 35.729697671096403 0 35.729697671096403 161.6877298788105 0 0 0 0 116.47883142517821 221.291912392266 0 221.291912392266 12.647036002896471 0 0 0 0 3.4759928103158018 32.232425161699553 0 32.232425161699553 5.0791127492637997 0 0 0 0 143.19134307706554 138.34347188399431 0 138.34347188399431 -226.43521362932154 0 0 0 0 17.667350383562734 60.122782839699539 0 60.122782839699539 8.5225305442636454 0 0 0 0 79.927637572102981 20.168425616105591 0 20.168425616105591 3.5438302138890951 0 0 0 0 99.70630333176814 -207.11003567332318 0 -207.11003567332318 -628.0625675688425 0 0 0 0 -476.65597918510321 -313.50565907564851 0 -313.50565907564851 696.011607036633 0 0 0 0 356.64802463832893 421.73383229849946 0 421.73383229849946 403.65455998268408 0 0 0 0 -7.6827187664894154 144.88266423503319 0 144.88266423503319 198.67721822990097 0 0 0 0 13.124509567176574 -44.852018576051705 0 -44.852018576051705 107.70296662398141 0 0 0 0 47.841520700546425 71.658096513125372 0 71.658096513125372 211.89412148115844 0 0 0 0 131.08887132655946 -22.931601534130095 0 -22.931601534130095 308.04014406878287 0 0 0 0 133.34043625477352 32.412849175410884 0 32.412849175410884 124.22035730893913 0 0 0 0 349.64100498682819 114.35014077592314 0 114.35014077592314 140.21511443819327 0 0 0 0 118.27591439634944 -43.713946776796206 0 -43.713946776796206 346.41726270075378 0 0 0 0 100.54811886353127 95.080188754999654 0 95.080188754999654 218.41086036920387 0 0 0 0 36.844226768599583 -22.467739954048398 0 -22.467739954048398 226.49599336322717 0 0 0 0 92.020502558458247 117.62080086618607 0 117.62080086618607 375.42095576373595 0 0 0 0 94.425911629892653 77.242618608331213 0 77.242618608331213 99.371229039534683 0 0 0 0 86.986188687907998 -53.439271799037215 0 -53.439271799037215 44.45487590911489 0 0 0 0 92.698237059212261 18.448098537164924 0 18.448098537164924 -55.871811073371646 0 0 0 0 -20.910620593102067 -81.185420576571232 0 -81.185420576571232 -124.65172907251781 0 0 0 0 16.282996156484558 -66.800505569977744 0 -66.800505569977744 -56.69756132231123 0 0 0 0 85.47960961778881 -3.5782341715935218 0 -3.5782341715935218 -220.8068253052229 0 0 0 0 -3.4808129896118771 70.867496210258537 0 70.867496210258537 57.737847986980199 0 0 0 0 53.252284778936826 14.481470286289241 0 14.481470286289241 5.6514909056498226 0 0 0 0 34.255059622701083 63.284370406880385 0 63.284370406880385 -15.637048085452534 0 0 0 0 37.066330087252936 -74.969399136470372 0 -74.969399136470372 107.92120407661241 0 0 0 0 32.21467615714937 42.946245118831484 0 42.946245118831484 181.93807001900859 0 0 0 0 0.22443854831965382 0.16417459458315165 0 0.16417459458315165 6.0170448665508864 0 0 0 0 -10.642096679057488 5.4047391431686265 0 5.4047391431686265 18.361581430998932 0 0 0 0 62.932750109641347 95.80273353996472 0 95.80273353996472 84.467267582893328 0 0 0 0 -1.2933455913666307 0.51130357329464005 0 0.51130357329464005 0.37400468577842183 0 0 0 0 177.43426918855403 -104.06392537928923 0 -104.06392537928923 80.204317113277284 0 0 0 0 180.32999007657054 92.832712154166529 0 92.832712154166529 9.5546799687353996 0 0 0 0 524.57394422747893 -78.159196984556729 0 -78.159196984556729 34.735577942097734 0 0 0 0 458.3948973769875 231.35311243651631 0 231.35311243651631 54.881068905221582 0 0 0 0 367.60571045725374 -160.90053626836016 0 -160.90053626836016 83.990817279023759 0 0 0 0 500.81431749282638 80.607089399615688 0 80.607089399615688 -167.66306870763282 0 0 0 0 469.35752808746474 129.46535048237683 0 129.46535048237683 -21.929867119886694 0 0 0 0 562.59016263036756 165.23056247855584 0 165.23056247855584 -161.15055603998263 0 0 0 0 494.92710999707197 3.5539368939740825 0 3.5539368939740825 -21.354135777406555 0 0 0 0 482.4752623289678 4.4458192754623269 0 4.4458192754623269 139.86225744504009 0 0 0 0 740.20444145135116 56.767310639176685 0 56.767310639176685 -48.337881738099895 0 0 0 0 102.14178276402527 -29.363304314291781 0 -29.363304314291781 27.395326691914306 0 0 0 0 -0.63906660683892369 0.45346016848975523 0 0.45346016848975523 1.5927603660246739 0 0 0 0 174.22518847891479 71.712550586458292 0 71.712550586458292 53.838189783477219 0 0 0 0 51.70810715816333 231.50888228646545 0 231.50888228646545 -23.849827491892711 0 0 0 0 -0.62075455565900484 -174.0193111612225 0 -174.0193111612225 -160.23685017715252 0 0 0 0 713.02255804286688 289.33257977326321 0 289.33257977326321 -34.363435631555149 0 0 0 0 8.9776189744886778 -4.114188729909273 0 -4.114188729909273 10.78116933556619 0 0 0 0 165.23276277513651 -115.35152086981407 0 -115.35152086981407 -233.30463148832314 0 0 0 0 -250.74921797448042 -168.99413718387132 0 -168.99413718387132 187.9107947101802 0 0 0 0 980.03080953852623 -79.326923356566567 0 -79.326923356566567 127.21170010390961 0 0 0 0 806.72890916222241 306.01507075355767 0 306.01507075355767 147.02768964196639 0 0 0 0 0.087827654333864302 -2.1919503227179291 0 -2.1919503227179291 4.972201688812067 0 0 0 0 495.80519520788397 -387.10271718159186 0 -387.10271718159186 246.73067531824381 0 0 0 0 494.25211530217621 -81.882220624273515 0 -81.882220624273515 397.4773377473357 0 0 0 0 264.98308863106649 -401.00459109622989 0 -401.00459109622989 287.74367180143145 0 0 0 0 126.62550750604714 -257.83512813205198 0 -257.83512813205198 421.24910728162467 0 0 0 0 121.84775258520676 -164.49571118963604 0 -164.49571118963604 264.64299030666007 0 0 0 0 105.18507210467214 -184.05255740619805 0 -184.05255740619805 479.34086372489037 0 0 0 0 366.21691615319287 -362.05495172143674 0 -362.05495172143674 569.63251714517264 0 0 0 0 230.70976279638126 -149.86815005251219 0 -149.86815005251219 411.57419273159394 0 0 0 0 17.242308708664495 -119.1947521724851 0 -119.1947521724851 422.35366423497817 0 0 0 0 56.702277227141167 -249.40338750114768 0 -249.40338750114768 453.8213700277156 0 0 0 0 72.579349631356308 -243.2848723705888 0 -243.2848723705888 456.01734631131148 0 0 0 0 -188.97107180602325 -111.75278908072869 0 -111.75278908072869 382.47750892670501 0 0 0 0 -10.471752615878358 -216.62868305666507 0 -216.62868305666507 216.0278483490265 0 0 0 0 347.03717942303047 -178.56690070495415 0 -178.56690070495415 236.21570603796863 0 0 0 0 370.85812380173593 118.02738714237739 0 118.02738714237739 57.395113440881687 0 0 0 0 60.416238686870201 11.651860318476793 0 11.651860318476793 112.66231195930777 0 0 0 0 170.15608384359803 226.24887843789156 0 226.24887843789156 -107.94020929163798 0 0 0 0 -116.03178692905931 -165.77677570491551 0 -165.77677570491551 34.24828213108367 0 0 0 0 38.903156551648863 -35.054754579530254 0 -35.054754579530254 -66.702573119757744 0 0 0 0 -104.10592592933972 169.71300552560615 0 169.71300552560615 -193.04755643085446 0 0 0 0 59.692912447608251 -214.55277360785158 0 -214.55277360785158 -406.20492488334185 0 0 0 0 14.833367147220542 -9.6378834323804909 0 -9.6378834323804909 4.3881071795769078 0 0 0 0 -13.369145039669093 34.921460211121428 0 34.921460211121428 -28.951981001468539 0 0 0 0 0.17206489209273457 3.4915976295972087 0 3.4915976295972087 2.0098142792556946 0 0 0 0 -18.56343093416217 2.273539692790564 0 2.273539692790564 27.124948920425595 0 0 0 0 -23.351538916511345 -27.231498959758483 0 -27.231498959758483 -17.850307039212112 0 0 0 0 203.08376783592394 -50.73893073028546 0 -50.73893073028546 38.231222793102688 0 0 0 0 -49.731133053486701 39.819917754256267 0 39.819917754256267 69.621880349019193 0 0 0 0 121.04795756770181 -132.39097723249313 0 -132.39097723249313 21.516327563974755 0 0 0 0 -25.867884579216479 8.3357668733237915 0 8.3357668733237915 37.204325955124766 0 0 0 0 504.42605555751652 101.3894167378287 0 101.3894167378287 -220.19196744490955 0 0 0 0 5.4285620685192839 -5.105865834671178 0 -5.105865834671178 2.5973896297441712 0 0 0 0 257.0507861530059 -234.1827266366156 0 -234.1827266366156 97.158562875335292 0 0 0 0 596.32476053060964 -6.5168299970732733 0 -6.5168299970732733 -97.626332266955615 0 0 0 0 698.2901119382077 -320.25612210127531 0 -320.25612210127531 -271.10184228600156 0 0 0 0 253.01298839508672 -90.127750743406978 0 -90.127750743406978 47.290913519745118 0 0 0 0 557.66911164872909 -307.83536376585761 0 -307.83536376585761 240.02881788541708 0 0 0 0 252.05576942823245 -54.738645835716852 0 -54.738645835716852 50.879211640614358 0 0 0 0 319.76982246883563 356.36854668556543 0 356.36854668556543 530.67792314137614 0 0 0 0 248.85496919581419 91.779272600358127 0 91.779272600358127 -244.22988677277772 0 0 0 0 66.634733251179568 217.48228711789852 0 217.48228711789852 141.54467847468686 0 0 0 0 220.52142664487474 205.15996212014284 0 205.15996212014284 -29.54023461507586 0 0 0 0 152.59570161791635 -33.313614377501381 0 -33.313614377501381 -230.58526376174541 0 0 0 0 78.508633695484605 27.606038007819052 0 27.606038007819052 -151.91392621482009 0 0 0 0 81.066703586955555 43.467262677410872 0 43.467262677410872 -116.09074158956173 0 0 0 0 160.90893056947971 116.39581570676614 0 116.39581570676614 -161.57342572527159 0 0 0 0 315.13744937102456 -19.223351740536827 0 -19.223351740536827 -25.345294056691728 0 0 0 0 320.21572464856217 -67.430967574052886 0 -67.430967574052886 40.656256976968507 0 0 0 0 2.9736595783615485 -9.2244942136107966 0 -9.2244942136107966 -26.818484469105215 0 0 0 0 14.331372622749768 -67.33501244769775 0 -67.33501244769775 -120.51142742272987 0 0 0 0 8.032895655712025 7.3760996697108112 0 7.3760996697108112 1.8386104486959738 0 0 0 0 36.572547834657598 -10.382082367078283 0 -10.382082367078283 -83.065057117073593 0 0 0 0 456.08260668208823 -123.87482582625533 0 -123.87482582625533 -73.214394357364739 0 0 0 0 451.96998818853172 -103.17700963126055 0 -103.17700963126055 -137.23704387606927 0 0 0 0 418.39575093382155 18.678393289545852 0 18.678393289545852 -366.4819774849484 0 0 0 0 408.23016791723785 -81.083635146733286 0 -81.083635146733286 17.897569907563593 0 0 0 0 356.95865772452089 13.563224187914784 0 13.563224187914784 -136.15147755433028 0 0 0 0 256.73000282179419 32.378077292096634 0 32.378077292096634 -33.093317842378838 0 0 0 0 426.02610341020045 -86.797169865885735 0 -86.797169865885735 -95.650098996271709 0 0 0 0 10.439243094251538 3.0698322865130621 0 3.0698322865130621 1.2435333043166423 0 0 0 0 -92.610114500246709 -848.57828950218027 0 -848.57828950218027 479.76845694529015 0 0 0 0 387.13350589711627 -141.39872654271949 0 -141.39872654271949 467.946247688943 0 0 0 0 473.89161129231798 -73.26324400238309 0 -73.26324400238309 -13.414693275290688 0 0 0 0 394.46417329108226 -7.4434346862931307 0 -7.4434346862931307 32.912880964798546 0 0 0 0 29.587249453868139 11.999584228261952 0 11.999584228261952 1.6040811278579765 0 0 0 0 57.351663037610706 21.820957663867375 0 21.820957663867375 -125.75542356313781 0 0 0 0 357.75545603357386 -75.223568575673767 0 -75.223568575673767 42.211132372269276 0 0 0 0 71.459639763401356 -14.667562805570924 0 -14.667562805570924 -112.55101388558251 0 0 0 0 1.183833968359977 2.7527520110570549 0 2.7527520110570549 -84.81588012638349 0 0 0 0 83.29067496227799 -15.669865132220366 0 -15.669865132220366 -80.930517827993299 0 0 0 0 154.87678037615842 39.955830582999624 0 39.955830582999624 -35.956419486567142 0 0 0 0 50.107100863708183 -4.5915115577113284 0 -4.5915115577113284 -23.227060861938298 0 0 0 0 84.636314678151393 -24.729288640919094 0 -24.729288640919094 -21.623859659575828 0 0 0 0 100.0569859697207 253.24821334511751 0 253.24821334511751 243.66157230507542 0 0 0 0 -8.5032707196223782 26.009590863849553 0 26.009590863849553 20.924773260212532 0 0 0 0 81.932359595048183 143.02596271117136 0 143.02596271117136 128.30369594203148 0 0 0 0 276.49003067304147 224.54412524552663 0 224.54412524552663 -40.524887798072086 0 0 0 0 644.11151196798892 395.51620084028127 0 395.51620084028127 16.946976181685841 0 0 0 0 278.02708360247198 185.4506312653125 0 185.4506312653125 -82.193615984521784 0 0 0 0 765.1109488386719 -292.52290924971885 0 -292.52290924971885 -109.04150374524033 0 0 0 0 145.5798212573427 -540.80108205181523 0 -540.80108205181523 208.97016907152829 0 0 0 0 -348.05417263242998 -386.33673264712161 0 -386.33673264712161 201.82341590538772 0 0 0 0 8.185307290520484 -18.276062713764304 0 -18.276062713764304 4.8076760228232267 0 0 0 0 33.705313914022554 -13.700440214392017 0 -13.700440214392017 -6.9712061234904468 0 0 0 0 -261.49935173997073 118.76219911110195 0 118.76219911110195 -54.822932705644234 0 0 0 0 -14.445743163173177 -1.2878780771634979 0 -1.2878780771634979 2.8697954661236365 0 0 0 0 -215.82772398945235 350.36429973608756 0 350.36429973608756 532.80514599508138 0 0 0 0 -3.1590980534157893 -0.052334665180758577 0 -0.052334665180758577 -0.077725736314756766 0 0 0 0 301.03728888873593 63.551861066498986 0 63.551861066498986 -28.165641708596468 0 0 0 0 1470.736779909188 -583.18631612928152 0 -583.18631612928152 -725.24723221140493 0 0 0 0 -27.334535070607672 -35.21786085709266 0 -35.21786085709266 -8.908627019509936 0 0 0 0 -0.15723891893867403 -40.927113007386083 0 -40.927113007386083 -26.600803135799197 0 0 0 0 0.85078726391657256 -27.564631985880169 0 -27.564631985880169 9.2698097321904243 0 0 0 0 37.111006018094486 -76.968100816632159 0 -76.968100816632159 -134.33464999446551 0 0 0 0 78.774752485769568 -174.80085278870092 0 -174.80085278870092 92.728957398987632 0 0 0 0 29.667162376776105 -38.847514904451145 0 -38.847514904451145 -64.273374827014777 0 0 0 0 22.001720230653461 -29.364163512025073 0 -29.364163512025073 -26.919171657845059 0 0 0 0 -4.2841501418151893 -50.64620543608271 0 -50.64620543608271 -0.89339288983683218 0 0 0 0 -5.2540034670892055 -71.094135241314007 0 -71.094135241314007 26.708518165651185 0 0 0 0 17.922089454075163 -18.07517571275622 0 -18.07517571275622 -10.879631191960861 0 0 0 0 26.941135744091298 -24.246551332793956 0 -24.246551332793956 -20.14110203063774 0 0 0 0 10.892768258893 -14.855487625613662 0 -14.855487625613662 -3.7582060209302863 0 0 0 0 11.852907117223367 -42.066025700741193 0 -42.066025700741193 -167.91063856291294 0 0 0 0 189.62208234102582 -148.08160940987455 0 -148.08160940987455 -368.25538244807012 0 0 0 0 225.12367913134221 227.03823644580075 0 227.03823644580075 -80.361745908515331 0 0 0 0 84.469998599390237 141.47780964940091 0 141.47780964940091 -56.571417095030483 0 0 0 0 497.87506744515849 204.68868924366757 0 204.68868924366757 -128.33093069330539 0 0 0 0 379.85322445823113 181.52683016130641 0 181.52683016130641 -91.72618444336058 0 0 0 0 76.98864554904867 21.325514526537063 0 21.325514526537063 11.645151187150532 0 0 0 0 265.62638182594674 -38.626585950979461 0 -38.626585950979461 -6.9102061151675116 0 0 0 0 504.00448727444746 -103.05479318652465 0 -103.05479318652465 -42.775293433651996 0 0 0 0 82.311419917459716 -155.36319037929775 0 -155.36319037929775 318.55925951422796 0 0 0 0 -80.728606932287221 287.41014644074335 0 287.41014644074335 324.18923972366292 0 0 0 0 711.63349659842788 -165.55571170753569 0 -165.55571170753569 -214.98874087704462 0 0 0 0 658.80195999916759 173.84374036546001 0 173.84374036546001 -347.24599138457188 0 0 0 0 58.299447722936748 -177.08899539847744 0 -177.08899539847744 393.42191149732275 0 0 0 0 6.9942846061236992 0.0297383451423201 0 0.0297383451423201 -0.21941022929144616 0 0 0 0 397.37176852222183 -375.61061376780708 0 -375.61061376780708 124.20061572912709 0 0 0 0 101.94629582381458 -147.30531542002791 0 -147.30531542002791 -40.581637549127208 0 0 0 0 -12.958100955358532 -188.56351398294618 0 -188.56351398294618 -101.84727919128727 0 0 0 0 129.27764152355667 -225.8441317747421 0 -225.8441317747421 -92.960826814989559 0 0 0 0 280.05248337751254 -160.02194478689626 0 -160.02194478689626 -157.99232189110626 0 0 0 0 286.46297681123451 26.095398389356667 0 26.095398389356667 -270.98493672178756 0 0 0 0 -32.8561613241327 1.6219541848004155 0 1.6219541848004155 -229.91347587273322 0 0 0 0 209.45757637609495 79.27318431380354 0 79.27318431380354 -374.54348376523558 0 0 0 0 -32.856161324307323 1.6219541847931396 0 1.6219541847931396 -229.91347587268319 0 0 0 0 -32.856161324307323 1.6219541848881818 0 1.6219541848881818 -229.91347587279779 0 0 0 0 73.304747638072513 70.493330246326096 0 70.493330246326096 -294.28739071082236 0 0 0 0 259.59061529918108 59.470613442334979 0 59.470613442334979 -398.1700795109565 0 0 0 0 81.770303607858466 4.076669437648194 0 4.076669437648194 -1.1957400169772567 0 0 0 0 304.7925699322368 225.10492238995357 0 225.10492238995357 -265.717753469738 0 0 0 0 273.23498047626344 -14.251812659400912 0 -14.251812659400912 -326.63882837381152 0 0 0 0 99.415804507938446 22.177037188264876 0 22.177037188264876 -33.030855964962711 0 0 0 0 80.729214749182574 33.936499604686333 0 33.936499604686333 10.268015004688095 0 0 0 0 95.350736570120716 14.061738142053386 0 14.061738142053386 25.642858219139271 0 0 0 0 84.023585249378812 45.215982193386026 0 45.215982193386026 26.604112313023165 0 0 0 0 33.975132176780221 -14.664724153646688 0 -14.664724153646688 8.1199120528731292 0 0 0 0 73.755407705394759 13.913787118675444 0 13.913787118675444 5.8959535572973047 0 0 0 0 70.239556356536923 25.079063426689345 0 25.079063426689345 32.124587382142636 0 0 0 0 76.604869467322715 14.253520985845171 0 14.253520985845171 5.1968818067743996 0 0 0 0 98.307716509356396 38.19666898248056 0 38.19666898248056 7.1035013983833721 0 0 0 0 40.432339850231074 22.208951478271786 0 22.208951478271786 49.66712035404089 0 0 0 0 4.4050319685193244 -24.94405794957629 0 -24.94405794957629 -30.410161574302037 0 0 0 0 43.898456509863905 -9.7230113033477608 0 -9.7230113033477608 -27.903107832768161 0 0 0 0 179.1210112980043 112.12124695395642 0 112.12124695395642 -275.44943021264862 0 0 0 0 70.629487641694766 -26.169189672601931 0 -26.169189672601931 -30.927097636685456 0 0 0 0 39.191431811166694 -15.702865131851013 0 -15.702865131851013 -22.283921403810382 0 0 0 0 56.525146320958129 -16.247176879202073 0 -16.247176879202073 -11.488656925620887 0 0 0 0 121.00463977819891 -227.23221450868687 0 -227.23221450868687 -196.11438086499925 0 0 0 0 29.148031796903879 -27.301241778419467 0 -27.301241778419467 -28.263359107351008 0 0 0 0 3.9307688005255272 11.109460805058987 0 11.109460805058987 1.3848680117367507 0 0 0 0 166.67657396075083 -121.60702500662865 0 -121.60702500662865 228.80895712225538 0 0 0 0 89.111661576724146 165.25264681048679 0 165.25264681048679 68.494980987330564 0 0 0 0 230.99014856916619 -131.47460586490752 0 -131.47460586490752 -119.12195609547962 0 0 0 0 -3.4348448251766968 -27.822254624865309 0 -27.822254624865309 -45.297877905599307 0 0 0 0 -16.809608561045025 -20.907229479878879 0 -20.907229479878879 -24.969622019608323 0 0 0 0 2.4002562575666389 -8.4385206207368952 0 -8.4385206207368952 -1.1325018257354351 0 0 0 0 41.101338369422592 12.832175455973811 0 12.832175455973811 -30.550878224873095 0 0 0 0 54.538706283616193 4.512014516798672 0 4.512014516798672 -47.81424707007136 0 0 0 0 59.768586524267448 -13.531566057497002 0 -13.531566057497002 -32.167215779327307 0 0 0 0 189.20741373838973 -36.275330984583888 0 -36.275330984583888 -39.240762771019945 0 0 0 0 30.64956105179408 -4.3028254373958248 0 -4.3028254373958248 -31.195183068421919 0 0 0 0 25.716675718085753 -33.12875260753799 0 -33.12875260753799 21.871208110303996 0 0 0 0 42.054023422446335 -22.323358289049935 0 -22.323358289049935 7.5451718726669554 0 0 0 0 9.9141987940806331 -2.8247861686422198 0 -2.8247861686422198 0.03422057308667581 0 0 0 0 26.272403519076761 -42.218185546468817 0 -42.218185546468817 16.421441027539686 0 0 0 0 25.905624526094471 -45.005201462885246 0 -45.005201462885246 0.60725219968190913 0 0 0 0 219.90004894675803 -31.203485423642121 0 -31.203485423642121 -72.85772431671694 0 0 0 0 63.022293883681414 -11.419393927798183 0 -11.419393927798183 -50.05485120683943 0 0 0 0 97.61558245800552 -38.675057733694985 0 -38.675057733694985 -32.008964083979109 0 0 0 0 38.993875777261565 -33.345594201401923 0 -33.345594201401923 -31.917783154211406 0 0 0 0 66.088001034135232 -36.324629052976626 0 -36.324629052976626 -4.0805931785221219 0 0 0 0 67.283066932781367 -33.625794615839311 0 -33.625794615839311 -7.6962915519349053 0 0 0 0 23.616800036805216 -33.342150247468453 0 -33.342150247468453 -6.7003333729758197 0 0 0 0 52.32828625375987 -55.529417537080803 0 -55.529417537080803 -27.908691674619149 0 0 0 0 54.780263391774497 -10.807712466435728 0 -10.807712466435728 -10.696112589446145 0 0 0 0 57.801515406918043 -24.080900855780605 0 -24.080900855780605 -1.1288338586233344 0 0 0 0 59.08881307256155 -11.230946832191208 0 -11.230946832191208 1.9754194304748505 0 0 0 0 81.104012859766954 -24.894845088987864 0 -24.894845088987864 -8.5338872942091655 0 0 0 0 11.310653592791084 -2.2003019557035373 0 -2.2003019557035373 0.35251017395734607 0 0 0 0 59.362042729801033 -15.653583017008634 0 -15.653583017008634 0.012596298520719206 0 0 0 0 50.346527881454676 -24.05680843438854 0 -24.05680843438854 -6.4231279769438636 0 0 0 0 71.328509588507586 -10.152002457135616 0 -10.152002457135616 2.5343099086361889 0 0 0 0 70.849891443080196 -14.380691731895315 0 -14.380691731895315 -0.5854672654613573 0 0 0 0 76.504595809761668 -11.733813990418229 0 -11.733813990418229 0.0075863315353279972 0 0 0 0 79.809820084774401 -10.693827641612287 0 -10.693827641612287 -0.3432590536441289 0 0 0 0 35.875421064876718 -41.288163826533378 0 -41.288163826533378 -10.368250980045218 0 0 0 0 65.978494581473797 -12.985124853028054 0 -12.985124853028054 1.5584997347272183 0 0 0 0 76.19762700877618 -8.2254999564255336 0 -8.2254999564255336 2.7112275214182588 0 0 0 0 72.249099437634982 -13.740608382771065 0 -13.740608382771065 2.1389673500159669 0 0 0 0 26.384391147012138 -30.643539410918606 0 -30.643539410918606 -21.850638831989272 0 0 0 0 0.48418468218369526 -68.592224041854863 0 -68.592224041854863 -49.252297741338367 0 0 0 0 28.516970022791611 -51.756498402900569 0 -51.756498402900569 -48.613578398362961 0 0 0 0 20.14696818219619 -1.9690806189273644 0 -1.9690806189273644 -1.6628913077663161 0 0 0 0 52.206186741044803 112.89834929697795 0 112.89834929697795 -24.994081064331397 0 0 0 0 67.19939070098917 -51.281251528464182 0 -51.281251528464182 -34.399589645115242 0 0 0 0 54.591046378045576 -33.701718161266399 0 -33.701718161266399 -57.22131520177598 0 0 0 0 -1.4000268641393632 -11.871045264055795 0 -11.871045264055795 -63.218652185518692 0 0 0 0 35.801521869027056 -167.02629946848083 0 -167.02629946848083 -18.483494750397078 0 0 0 0 -16.276427476957906 -21.450348709056698 0 -21.450348709056698 -28.22941332189248 0 0 0 0 111.35217781824758 -35.67614324465805 0 -35.67614324465805 -31.685516937434386 0 0 0 0 114.45598496953608 -41.040983037414776 0 -41.040983037414776 -40.51686083399477 0 0 0 0 160.92188259901013 -139.03263215666141 0 -139.03263215666141 -67.870324147641213 0 0 0 0 -40.865282310332987 -26.981499416062633 0 -26.981499416062633 -25.877652006199128 0 0 0 0 27.289763838634826 -3.8770700491703565 0 -3.8770700491703565 -36.211735199415671 0 0 0 0 151.20929706450261 121.07143503483735 0 121.07143503483735 103.97697149056694 0 0 0 0 16.067608224724495 -10.521566532640833 0 -10.521566532640833 6.5782298975340314 0 0 0 0 195.35842549812514 40.29521986048735 0 40.29521986048735 -32.82403068915437 0 0 0 0 133.2034399483673 -12.240736519642383 0 -12.240736519642383 -3.2110234786534875 0 0 0 0 68.077112325510825 -78.25556964683301 0 -78.25556964683301 -74.1876974932743 0 0 0 0 91.014837659779005 18.939141863829491 0 18.939141863829491 -5.0606410514337767 0 0 0 0 5.921430903659882 -2.9281075614159704 0 -2.9281075614159704 1.8447893950719267 0 0 0 0 303.39419709263893 356.88476558092952 0 356.88476558092952 245.35767317285456 0 0 0 0 514.31490158253291 -50.949639543008288 0 -50.949639543008288 -833.79115034086863 0 0 0 0 -38.054547270367038 -58.209421752067897 0 -58.209421752067897 66.553027559751172 0 0 0 0 -31.69755998547771 -91.874104805686216 0 -91.874104805686216 -61.077781451455621 0 0 0 0 130.84786269608048 242.41867790335436 0 242.41867790335436 1052.5245888020172 0 0 0 0 16.262367524014437 3.2413687388796006 0 3.2413687388796006 -1.7879421717212853 0 0 0 0 171.98782926044123 -344.27321770130828 0 -344.27321770130828 -300.77988102514087 0 0 0 0 77.507138862837166 -15.583692587354918 0 -15.583692587354918 0.86022959505833729 0 0 0 0 101.7536615858553 -11.104572037424564 0 -11.104572037424564 -0.0072325658974147725 0 0 0 0 78.549567581969313 -18.534248877870574 0 -18.534248877870574 -0.9619740812025368 0 0 0 0 92.645147663228272 -13.661276843227947 0 -13.661276843227947 -0.72014976410131282 0 0 0 0 21.442061401242469 0.019125371692950921 0 0.019125371692950921 -0.76053823072429272 0 0 0 0 74.606145462108543 -12.613889967039608 0 -12.613889967039608 0.0034467484204928622 0 0 0 0 46.944552680593915 -1.2966144742960199 0 -1.2966144742960199 -0.01804948907815589 0 0 0 0 76.139459793339483 -4.8040972748244712 0 -4.8040972748244712 1.5944506977335777 0 0 0 0 7.9709396870388218 14.805359373973083 0 14.805359373973083 -0.24821027595667386 0 0 0 0 83.935999992419966 -7.3519989298976069 0 -7.3519989298976069 -2.1771173845774037 0 0 0 0 69.578357152916794 -7.6789578499185467 0 -7.6789578499185467 0.2770021444916142 0 0 0 0 81.564039307006169 -7.428169734133256 0 -7.428169734133256 -0.13707702075947648 0 0 0 0 88.600473190919729 -5.7248413654978094 0 -5.7248413654978094 -0.91694955404153689 0 0 0 0 81.764142899388389 -7.2967521414616279 0 -7.2967521414616279 2.468705338226755 0 0 0 0 98.53479256934952 -3.3152429606924443 0 -3.3152429606924443 3.4053090030760131 0 0 0 0 15.031555950873638 5.6202652728059945 0 5.6202652728059945 -2.2684470463356305 0 0 0 0 -16.777516883841599 25.198599726177918 0 25.198599726177918 111.67611279185894 0 0 0 0 130.13920601049904 -12.709405862958192 0 -12.709405862958192 -63.468470859199897 0 0 0 0 37.579038186975765 -11.366409259327526 0 -11.366409259327526 -10.54124207443002 0 0 0 0 64.108275460187201 -24.578039286740307 0 -24.578039286740307 -16.317345799202045 0 0 0 0 114.85654198200791 -98.272329041608373 0 -98.272329041608373 -37.956099878796522 0 0 0 0 48.413153895515279 61.544875658727278 0 61.544875658727278 77.835785428162126 0 0 0 0 299.623882335909 87.018594735110582 0 87.018594735110582 -9.3240890893421238 0 0 0 0 152.13201691182621 -44.920334720249912 0 -44.920334720249912 -18.39395472752858 0 0 0 0 334.30991850115242 116.02308111828927 0 116.02308111828927 7.321442528172156 0 0 0 0 332.54886843699205 106.20161650779221 0 106.20161650779221 108.22516019352406 0 0 0 0 0.75966394739555199 -0.96964881837614314 0 -0.96964881837614314 -1.8904043793792549 0 0 0 0 113.12548135963152 -97.191737056415832 0 -97.191737056415832 19.945456281325733 0 0 0 0 367.95607107508113 -16.606921868986774 0 -16.606921868986774 -48.872550425340705 0 0 0 0 367.46291551773902 52.460644059684455 0 52.460644059684455 128.92053351311552 0 0 0 0 -280.91158540965989 -174.72350595238458 0 -174.72350595238458 58.749909355694854 0 0 0 0 1.4298743134546328 -1.4252225342070801 0 -1.4252225342070801 0.23812085631965019 0 0 0 0 492.24464394649112 84.764103967553638 0 84.764103967553638 -61.868424781412614 0 0 0 0 368.47509258137143 -145.27212208237586 0 -145.27212208237586 -40.678501764100474 0 0 0 0 5.5367898416972707 0.6068816235714678 0 0.6068816235714678 -13.721387406034601 0 0 0 0 92.584030319354497 75.40007969210842 0 75.40007969210842 59.871465366213215 0 0 0 0 77.146077100245748 -62.822177252536335 0 -62.822177252536335 -53.727568918296583 0 0 0 0 0.23833345720777288 17.741268294488009 0 17.741268294488009 -6.9564755714181956 0 0 0 0 22.444523132677745 -15.085263207174194 0 -15.085263207174194 -12.370062384454629 0 0 0 0 -45.813506439808407 -2.6544320892176074 0 -2.6544320892176074 41.690714939029021 0 0 0 0 51.851637498777563 2.6366203843249671 0 2.6366203843249671 -10.6354104724617 0 0 0 0 103.65303340004175 -31.22846356393984 0 -31.22846356393984 -93.898954738961947 0 0 0 0 37.753737770904991 -4.5490375632268751 0 -4.5490375632268751 -5.9536536475812216 0 0 0 0 46.179056754917838 -8.4299833613129636 0 -8.4299833613129636 -20.267799116227366 0 0 0 0 54.620047502095076 -2.4793247281974402 0 -2.4793247281974402 -11.62948212156949 0 0 0 0 129.0051791056103 -8.1172931409903413 0 -8.1172931409903413 -64.690109796724755 0 0 0 0 99.403002804800053 5.8669818597213634 0 5.8669818597213634 -1.9018137569321425 0 0 0 0 8.6739881047606673 7.6763441938532821 0 7.6763441938532821 -2.7332079191146201 0 0 0 0 87.87566329892843 -3.8657967740941466 0 -3.8657967740941466 -4.2054765277698225 0 0 0 0 53.910243673657533 4.4829909304540934 0 4.4829909304540934 -187.16980770197642 0 0 0 0 66.856824486906589 139.04705850163748 0 139.04705850163748 -27.130795572978968 0 0 0 0 -2.2413362531515304 -2.7934851592724499 0 -2.7934851592724499 24.213377175082144 0 0 0 0 57.045999798807316 -21.522310656694117 0 -21.522310656694117 -45.053890958108241 0 0 0 0 43.79010999079037 15.575058732940306 0 15.575058732940306 -99.453670459698969 0 0 0 0 0.83253715971665088 -0.12825553071471063 0 -0.12825553071471063 -1.64819249836283 0 0 0 0 -59.688991573697422 -29.826736861336713 0 -29.826736861336713 -95.280135088785528 0 0 0 0 50.49277299696405 62.471084209675496 0 62.471084209675496 8.422204532200908 0 0 0 0 -20.793766864240752 47.288976865597306 0 47.288976865597306 32.458332491069314 0 0 0 0 76.28361207767739 132.8878631990649 0 132.8878631990649 -185.05811102252096 0 0 0 0 0.12559518495299926 0.018657237235089497 0 0.018657237235089497 -3.7306067686231259 0 0 0 0 -68.142623617452045 -85.485426263403383 0 -85.485426263403383 36.536226594546406 0 0 0 0 4.8308199885905196 23.828135305367709 0 23.828135305367709 -2.4307945325313085 0 0 0 0 23.906797816438484 24.352907391988083 0 24.352907391988083 27.882605450773099 0 0 0 0 3.0824121124121859 9.4475729327592148 0 9.4475729327592148 -14.320809464850779 0 0 0 0 23.185612892182689 4.8834820912248134 0 4.8834820912248134 -22.39087621753697 0 0 0 0 -5.5661424933932722 6.7314148836794629 0 6.7314148836794629 -19.998849040715868 0 0 0 0 -6.1106372579233721 -118.39829656718803 0 -118.39829656718803 -66.621104984706108 0 0 0 0 30.447655626041524 7.4611008984561522 0 7.4611008984561522 23.293102462369461 0 0 0 0 20.998713060956447 -3.5239319022111459 0 -3.5239319022111459 -3.7975805022551912 0 0 0 0 -141.80947194091277 420.22402086225884 0 420.22402086225884 62.215720215666124 0 0 0 0 413.91691666208499 103.00826095546984 0 103.00826095546984 2.4160293194127007 0 0 0 0 0.21645299277832919 3.9181291547640456 0 3.9181291547640456 -0.88103932976077193 0 0 0 0 -22.06387185852509 -144.99008692533744 0 -144.99008692533744 25.107889887858619 0 0 0 0 78.345661905012093 -112.80692371950227 0 -112.80692371950227 25.602134656037379 0 0 0 0 104.4332997277379 -4.9471656298792368 0 -4.9471656298792368 -16.992371362559652 0 0 0 0 163.31914864308783 -82.509634715821903 0 -82.509634715821903 2.2714511256226615 0 0 0 0 -116.25845316465711 -80.522834094943391 0 -80.522834094943391 170.73183832523864 0 0 0 0 3.5660449431708798 -2.0342950450275339 0 -2.0342950450275339 -4.1260196841831789 0 0 0 0 72.231912421761081 -108.56058283927678 0 -108.56058283927678 89.092496527437106 0 0 0 0 306.34012868150603 114.10890586386358 0 114.10890586386358 4.9378332499363751 0 0 0 0 105.91683658119291 11.961652797643183 0 11.961652797643183 83.256383982361484 0 0 0 0 130.37083905476902 -3.0288330663877332 0 -3.0288330663877332 -42.260586544363832 0 0 0 0 158.53841853435733 -1.4704423944986047 0 -1.4704423944986047 -56.897736311058907 0 0 0 0 141.81898898916552 -28.764696905795972 0 -28.764696905795972 -101.32533916890316 0 0 0 0 -34.566691586980596 -75.352920962603548 0 -75.352920962603548 -51.417901184990114 0 0 0 0 76.457548275095178 -29.989208925424009 0 -29.989208925424009 -92.489231212807226 0 0 0 0 76.455669256247347 -29.099349577824341 0 -29.099349577824341 -35.47907512556958 0 0 0 0 -70.98840575478971 -158.00831966837245 0 -158.00831966837245 -136.86702688872901 0 0 0 0 183.95684192600311 17.748868893359031 0 17.748868893359031 -98.072788507834673 0 0 0 0 156.9545591874994 -74.664852114479345 0 -74.664852114479345 -124.89382824525455 0 0 0 0 157.15984037157614 21.689276559471637 0 21.689276559471637 -23.856107855886876 0 0 0 0 52.465365640018717 57.911632799135305 0 57.911632799135305 -48.102182583567355 0 0 0 0 63.429010626743548 35.655040753023513 0 35.655040753023513 -3.0836968116968819 0 0 0 0 0.66657108534815279 2.5030750974276827 0 2.5030750974276827 -16.718617338151731 0 0 0 0 1104.3471311117319 592.88592584498508 0 592.88592584498508 248.34041927878673 0 0 0 0 9.5227641934446297 -2.8069978092128736 0 -2.8069978092128736 2.9739927277602622 0 0 0 0 1435.7798563275137 609.42936067113146 0 609.42936067113146 -338.8033474450267 0 0 0 0 24.565027984644985 1.5497146857467214 0 1.5497146857467214 114.30286979916411 0 0 0 0 -98.673459767742315 -70.696965819898651 0 -70.696965819898651 -84.909184010068202 0 0 0 0 7.0563718704295155 0.15299582552532343 0 0.15299582552532343 -0.97466468551969854 0 0 0 0 -51.668983426912746 0.80887923819028629 0 0.80887923819028629 -71.070230423441899 0 0 0 0 -165.09866432583658 -83.693592903125364 0 -83.693592903125364 -37.448594641828549 0 0 0 0 4.0617374468961884 1.1769057407171601 0 1.1769057407171601 13.094863516900494 0 0 0 0 223.73488552296476 566.28488411272781 0 566.28488411272781 1032.635623183806 0 0 0 0 12.054109716940729 0.59278803342555619 0 0.59278803342555619 -1.0467577410393176 0 0 0 0 467.87912450984004 -341.6791295862912 0 -341.6791295862912 -429.9439709325361 0 0 0 0 608.1662422370573 -289.618230416122 0 -289.618230416122 -423.21589056866469 0 0 0 0 205.08461698764586 -460.54465531822103 0 -460.54465531822103 -461.4358240200915 0 0 0 0 61.540121268277289 -407.95307070322002 0 -407.95307070322002 -250.30123926941042 0 0 0 0 -293.80458150699269 -291.95504363176804 0 -291.95504363176804 -148.76829658235897 0 0 0 0 20.499973564863467 -188.33946787430108 0 -188.33946787430108 -114.66570701413207 0 0 0 0 70.740913340399857 -176.66526296559107 0 -176.66526296559107 -875.68590144084988 0 0 0 0 -38.263770604171441 -370.99133654914533 0 -370.99133654914533 -260.76611158370804 0 0 0 0 62.326195773057407 -94.593290917794434 0 -94.593290917794434 -20.714587746725101 0 0 0 0 24.289318642293551 -2.3515801365185425 0 -2.3515801365185425 -1.8576105807331629 0 0 0 0 -206.20675659063272 -148.28733534905268 0 -148.28733534905268 438.92461065821698 0 0 0 0 129.05218244444404 337.09660822082878 0 337.09660822082878 491.57688644263169 0 0 0 0 777.65136750461534 311.6946110225324 0 311.6946110225324 -44.714661248976427 0 0 0 0 2.5924066644984123 72.495626183920251 0 72.495626183920251 29.903695286950551 0 0 0 0 -20.893878898175899 264.41216390056343 0 264.41216390056343 6.9873321771508472 0 0 0 0 197.83065149358299 72.69114720815719 0 72.69114720815719 -113.13486104983417 0 0 0 0 463.68992093199631 226.49116007571001 0 226.49116007571001 -36.757866794789607 0 0 0 0 315.58402331166144 -105.27064693254715 0 -105.27064693254715 -124.58242180006073 0 0 0 0 160.3253116219712 -71.508312659630064 0 -71.508312659630064 -127.59417781895945 0 0 0 0 343.52344033132977 -127.12090292844442 0 -127.12090292844442 -125.21772826275719 0 0 0 0 111.15972700313432 -285.89283739571147 0 -285.89283739571147 156.83858071475311 0 0 0 0 876.97149570863985 -14.07335394033737 0 -14.07335394033737 -119.06087345066953 0 0 0 0 463.09156475242344 -342.25167264557263 0 -342.25167264557263 6.336104525623341 0 0 0 0 -242.33995710877934 -48.072019792531137 0 -48.072019792531137 73.805341401047372 0 0 0 0 -129.66075792207266 -53.28898376143502 0 -53.28898376143502 64.324722312609083 0 0 0 0 119.34227964395541 -77.254522347384409 0 -77.254522347384409 -2.0259515228544842 0 0 0 0 -42.503907964244718 -204.71432512699494 0 -204.71432512699494 76.629500728027352 0 0 0 0 8.8996048430271912 -21.174497541292112 0 -21.174497541292112 -98.677870790295856 0 0 0 0 99.35315350239398 -163.91100493376371 0 -163.91100493376371 -2.0337674237010228 0 0 0 0 169.66324919182807 -95.585155011513962 0 -95.585155011513962 -98.007561229225416 0 0 0 0 81.73948167009803 -81.425327923186387 0 -81.425327923186387 -65.423369068287229 0 0 0 0 334.07768183511507 73.672526372459515 0 73.672526372459515 -36.202810866955588 0 0 0 0 -1.5885100485801047 -3.9588222843238157 0 -3.9588222843238157 0.24556039557043441 0 0 0 0 129.82172967815131 -17.442376193324435 0 -17.442376193324435 -17.374478932994862 0 0 0 0 237.42771828224795 1.2008505434952212 0 1.2008505434952212 -73.600179349790324 0 0 0 0 199.57998160741408 -49.658251994053899 0 -49.658251994053899 -117.71842112866352 0 0 0 0 198.37242643783247 47.5241682651166 0 47.5241682651166 -59.574853110035292 0 0 0 0 185.06106895162884 18.27662336394269 0 18.27662336394269 -72.419722078083396 0 0 0 0 199.45615556661505 51.350128926097568 0 51.350128926097568 -46.139112104484411 0 0 0 0 268.86249793834577 27.073650260618024 0 27.073650260618024 -34.282376117493186 0 0 0 0 35.842949395205679 3.6781306624807826 0 3.6781306624807826 3.0092759666804252 0 0 0 0 187.4479215012143 32.384973524634063 0 32.384973524634063 2.9658042664705135 0 0 0 0 76.371280863741276 -14.60468305592903 0 -14.60468305592903 -14.768259183831798 0 0 0 0 50.124534344766289 2.8263983026872666 0 2.8263983026872666 -3.7039936422385153 0 0 0 0 81.304431421144727 -1.1785258321672707 0 -1.1785258321672707 -4.4505746174111209 0 0 0 0 150.61481361718955 49.719937231763964 0 49.719937231763964 -5.9066342132813876 0 0 0 0 410.99278136844805 43.625116513017872 0 43.625116513017872 13.677572462554707 0 0 0 0 120.71325775504596 58.034523067360695 0 58.034523067360695 9.8151109976706294 0 0 0 0 151.41480706354196 37.239049991086674 0 37.239049991086674 46.110944644758035 0 0 0 0 35.040658748785063 17.756411394246584 0 17.756411394246584 -3.5581333825276191 0 0 0 0 22.472516921421629 3.553320378018384 0 3.553320378018384 1.180458472169865 0 0 0 0 594.42920935686561 -177.541995376578 0 -177.541995376578 107.4267912432905 0 0 0 0 635.28813788946718 -181.80640564959145 0 -181.80640564959145 0.096849877300227372 0 0 0 0 76.32473695780368 3.9260240661731336 0 3.9260240661731336 -3.746744184411682 0 0 0 0 55.22948709490629 19.873889257882013 0 19.873889257882013 -3.6385345267434461 0 0 0 0 102.45236160738568 19.745601698132198 0 19.745601698132198 0.046998221338979497 0 0 0 0 109.65141526958905 26.342382371450856 0 26.342382371450856 -0.82898282264244527 0 0 0 0 804.16737595899758 -528.11706970423597 0 -528.11706970423597 147.97218080458913 0 0 0 0 1092.0658893867148 -306.15859327939461 0 -306.15859327939461 0.048747560507606758 0 0 0 0 725.68283895024797 -286.00560258609983 0 -286.00560258609983 90.011170167466418 0 0 0 0 442.95065879781032 -421.50266516985596 0 -421.50266516985596 305.01297505438862 0 0 0 0 282.04769743523502 -179.28444516345564 0 -179.28444516345564 235.50188926391573 0 0 0 0 885.33657586454319 -538.62351714174849 0 -538.62351714174849 248.30603340878463 0 0 0 0 178.4633451870468 230.27157391164425 0 230.27157391164425 330.80679087958197 0 0 0 0 150.78961912302475 160.55882951800299 0 160.55882951800299 -154.81256675066152 0 0 0 0 110.78688798649949 57.666467300498397 0 57.666467300498397 10.054013593219484 0 0 0 0 738.8821874404166 -645.46393904380716 0 -645.46393904380716 239.68336492191986 0 0 0 0 5501.5406010049992 -35.677788614027641 0 -35.677788614027641 -1603.1268879570223 0 0 0 0 2240.9485071730742 -1623.2550516662611 0 -1623.2550516662611 111.69874457884225 0 0 0 0 1343.3460715070396 -1581.9308439325555 0 -1581.9308439325555 374.83858395907504 0 0 0 0 76.363797001860803 -1369.7045682040621 0 -1369.7045682040621 432.02451912978518 0 0 0 0 2927.2414779355531 584.4027506055877 0 584.4027506055877 22.500274097959846 0 0 0 0 8.6027325829301162 -6.2796787252096067 0 -6.2796787252096067 5.0773615301886039 0 0 0 0 2157.6225131318788 -1339.2670993685024 0 -1339.2670993685024 779.39937119067588 0 0 0 0 1493.6513460119022 -9.9881203616552057 0 -9.9881203616552057 746.24091423460402 0 0 0 0 909.31364416434371 -381.73267231418959 0 -381.73267231418959 176.34470555043981 0 0 0 0 1432.1951236051682 -648.02604893709031 0 -648.02604893709031 115.7663688167832 0 0 0 0 807.00379349262221 181.42016901945061 0 181.42016901945061 -26.141992926948575 0 0 0 0 712.70772999984911 -48.411637243376106 0 -48.411637243376106 -4.0354940392069238 0 0 0 0 904.5530532659759 -236.79118376727547 0 -236.79118376727547 -0.46744153300632352 0 0 0 0 1614.847929646101 -52.975210568209889 0 -52.975210568209889 -216.37129244045809 0 0 0 0 4321.1069238779601 1162.1917856353396 0 1162.1917856353396 428.59408004422869 0 0 0 0 7895.1783770434849 -14.837724343545105 0 -14.837724343545105 -14.919196788536301 0 0 0 0 15.189077410729055 -3.3660982798626549 0 -3.3660982798626549 -1.1048822062803183 0 0 0 0 408.80508729229041 111.04630161322905 0 111.04630161322905 102.36000573227903 0 0 0 0 30.106757866597036 -10.238919598640146 0 -10.238919598640146 -0.0094386776943244603 0 0 0 0 8.370835288344523 -2.8005745258165007 0 -2.8005745258165007 -0.078977956390062998 0 0 0 0 -82.108561748522334 260.70490626294446 0 260.70490626294446 -610.90266829569464 0 0 0 0 12.732195588410377 -1.991415515699174 0 -1.991415515699174 -9.2765969006506896 0 0 0 0 24.445471379570336 -16.983923966397924 0 -16.983923966397924 7.7842617836265156 0 0 0 0 640.36439284281005 136.35437073752354 0 136.35437073752354 -906.47390059069335 0 0 0 0 1770.7939992095635 -813.91154712190178 0 -813.91154712190178 -405.72165882836282 0 0 0 0 2743.8746142898162 -1850.3726201430093 0 -1850.3726201430093 293.46425831347375 0 0 0 0 5489.1426645055326 -3584.4825876956675 0 -3584.4825876956675 1548.6331344465525 0 0 0 0 2699.581126596604 -1677.2554949494906 0 -1677.2554949494906 325.37287340150868 0 0 0 0 747.98504021269036 -2560.6062572519158 0 -2560.6062572519158 5555.6192873213522 0 0 0 0 20.982137355925374 -12.762425654766758 0 -12.762425654766758 9.3122101621012021 0 0 0 0 586.03273369028466 -665.62624991509892 0 -665.62624991509892 659.43803729845149 0 0 0 0 62.133378279299677 -7.3548095728287493 0 -7.3548095728287493 4.5023799372198541 0 0 0 0 280.61815449297501 -347.19617617641154 0 -347.19617617641154 1638.928597157339 0 0 0 0 880.34985243322444 -1831.4777964399307 0 -1831.4777964399307 2130.186655921907 0 0 0 0 764.58610530584701 -1075.1601390661024 0 -1075.1601390661024 680.76829439763958 0 0 0 0 908.52765629378632 -1009.3894466264369 0 -1009.3894466264369 544.34072707804853 0 0 0 0 100.9540702156707 50.467502173316063 0 50.467502173316063 2.2888164831165216 0 0 0 0 699.38923445314867 39.478673709195391 0 39.478673709195391 99.794044448161287 0 0 0 0 -21.783392165278201 40.228532379571902 0 40.228532379571902 96.973735739450603 0 0 0 0 -36.783362122201652 75.919331168776523 0 75.919331168776523 22.816868671055431 0 0 0 0 261.07023798435694 -86.799024813772121 0 -86.799024813772121 752.63626230166039 0 0 0 0 94.471471781095374 30.448943798730056 0 30.448943798730056 -7.3154414085229877 0 0 0 0 30.040313339948568 10.267001304854844 0 10.267001304854844 -2.4337103637851141 0 0 0 0 147.98993843488279 -93.551204894007014 0 -93.551204894007014 -826.61781308955597 0 0 0 0 -60.272659215155727 -50.185168163035868 0 -50.185168163035868 -166.63443403206179 0 0 0 0 435.35920415182773 106.22463917958885 0 106.22463917958885 -717.07694286968172 0 0 0 0 267.61367184385745 -225.07474293948354 0 -225.07474293948354 45.287326966017872 0 0 0 0 769.91359802221996 150.03649890681754 0 150.03649890681754 -784.38345598042997 0 0 0 0 5494.9998841506167 -1154.1182741993384 0 -1154.1182741993384 239.185961602254 0 0 0 0 16.353845102194441 9.4152912215151048 0 9.4152912215151048 6.6162978377574237 0 0 0 0 -443.90393160839449 1376.3076508736433 0 1376.3076508736433 759.08248387233323 0 0 0 0 918.69531237937599 -384.84888384306413 0 -384.84888384306413 133.97023556386904 0 0 0 0 5489.013107606952 1566.5343697774599 0 1566.5343697774599 -294.16625429919895 0 0 0 0 44.650388830895224 20.516201034209757 0 20.516201034209757 11.004589576906492 0 0 0 0 69.127945012961391 622.85409971615843 0 622.85409971615843 -843.44518558066738 0 0 0 0 918.69531237924821 23.765742308433687 0 23.765742308433687 19.879615860326922 0 0 0 0 -53.682946811226429 -222.14814225829969 0 -222.14814225829969 142.89790639772127 0 0 0 0 38.813098614802584 -33.32960749056474 0 -33.32960749056474 -47.229167340268305 0 0 0 0 103.57822434257832 -133.17162547468706 0 -133.17162547468706 -9.561474367538267 0 0 0 0 169.27796676789876 -155.31384245317804 0 -155.31384245317804 -17.857704522643417 0 0 0 0 269.04613410626189 -74.13234454594749 0 -74.13234454594749 -40.199653904448496 0 0 0 0 165.53752691407863 -142.23370574478918 0 -142.23370574478918 -63.50215545005085 0 0 0 0 188.150794563815 82.891651429944432 0 82.891651429944432 -7.0371682499671806 0 0 0 0 136.37733917695004 50.623893365720733 0 50.623893365720733 -112.19314504169506 0 0 0 0 105.90876456710976 32.969326528000238 0 32.969326528000238 37.143253576238749 0 0 0 0 112.584629049059 61.011391790383641 0 61.011391790383641 25.882682207782636 0 0 0 0 17.509426030650502 19.988406427752125 0 19.988406427752125 8.536425079691071 0 0 0 0 116.02967418632761 8.3562590387741693 0 8.3562590387741693 -83.595601222118603 0 0 0 0 82.945253736015729 9.0471934381101846 0 9.0471934381101846 19.401578853081901 0 0 0 0 -34.039289438005653 105.67695601842388 0 105.67695601842388 -9.6649317656447238 0 0 0 0 54.179690683263317 19.851458049567299 0 19.851458049567299 -8.3251067288523757 0 0 0 0 11.699836478408997 11.162002485786488 0 11.162002485786488 -1.0813723334497727 0 0 0 0 190.64036505873082 -284.35161964685176 0 -284.35161964685176 168.0051758575637 0 0 0 0 7.0862357205884337 -3.4357213091039043 0 -3.4357213091039043 -1.2988879529816835 0 0 0 0 -44.508145774787408 24.797089859755033 0 24.797089859755033 196.68238938192644 0 0 0 0 348.41958947450621 144.77932556907399 0 144.77932556907399 -102.67723567600115 0 0 0 0 -78.469702924616286 -175.11057030199936 0 -175.11057030199936 304.2713321834924 0 0 0 0 -78.18692081651534 257.23790292557123 0 257.23790292557123 346.81484749690935 0 0 0 0 -68.038735695576179 225.59997378387902 0 225.59997378387902 -2.4265247068397002 0 0 0 0 70.636777896666899 -25.516879712260561 0 -25.516879712260561 69.24985653873955 0 0 0 0 26.050661711580005 11.841012057346518 0 11.841012057346518 4.4400726441749114 0 0 0 0 25.176806701724246 -4.1168616317974909 0 -4.1168616317974909 -5.0621153290268097 0 0 0 0 -73.699468223763688 -179.49891392380368 0 -179.49891392380368 -27.246121960730306 0 0 0 0 181.48033489307272 -26.087575450997065 0 -26.087575450997065 10.995812582459394 0 0 0 0 119.38070709680323 -64.706428511503645 0 -64.706428511503645 20.65444993748099 0 0 0 0 185.16442523797377 -38.461866595405411 0 -38.461866595405411 5.1580896697018943 0 0 0 0 89.30160381438327 77.382837428181574 0 77.382837428181574 -178.65495721846651 0 0 0 0 21.969709456155329 13.335109612047674 0 13.335109612047674 5.9517190828987383 0 0 0 0 432.00416126401979 -148.13372705282336 0 -148.13372705282336 -134.14004431563899 0 0 0 0 56.546405427179707 53.811322785821915 0 53.811322785821915 -82.021550219419169 0 0 0 0 87.291545625863364 -50.071046957133831 0 -50.071046957133831 52.146335503774026 0 0 0 0 69.431703559646849 -70.156086240218087 0 -70.156086240218087 -98.257294021812186 0 0 0 0 101.75500431627734 -39.711647579903001 0 -39.711647579903001 -70.284773437563672 0 0 0 0 139.39401299047313 -81.970017976222522 0 -81.970017976222522 85.910012690359963 0 0 0 0 199.66363450359495 -14.576316208179946 0 -14.576316208179946 40.521926896023729 0 0 0 0 27.39780771304504 -4.1830434536045971 0 -4.1830434536045971 23.958225442882224 0 0 0 0 154.11187839746708 -70.913485397650675 0 -70.913485397650675 -6.4028714626070951 0 0 0 0 59.468270863770556 45.356763429687618 0 45.356763429687618 4.0109257077100757 0 0 0 0 165.5307401685568 -28.461484914526409 0 -28.461484914526409 99.539855437132246 0 0 0 0 206.34523420625192 -116.29165052518056 0 -116.29165052518056 49.297391726174283 0 0 0 0 32.810837164724944 -26.87844968531931 0 -26.87844968531931 29.177520040843774 0 0 0 0 99.421292944753077 -83.034568300163755 0 -83.034568300163755 41.628374884370714 0 0 0 0 113.93565658899024 -84.540622762011481 0 -84.540622762011481 44.387810799219778 0 0 0 0 87.248134085595666 -33.933816000266233 0 -33.933816000266233 162.87452502653014 0 0 0 0 88.622777062177192 -9.6692616051495861 0 -9.6692616051495861 142.36457916023528 0 0 0 0 97.547162940521957 41.293632838357553 0 41.293632838357553 395.33800791920748 0 0 0 0 40.152493580390001 236.21957050742208 0 236.21957050742208 -113.8354269787269 0 0 0 0 222.55399553710595 -130.87459247401512 0 -130.87459247401512 177.6548981861024 0 0 0 0 325.8207493313821 94.186772449637829 0 94.186772449637829 -1.0419802472588344 0 0 0 0 2.0973790520220064 14.2034361492465 0 14.2034361492465 278.78528237787577 0 0 0 0 66.310881210112711 121.47101149098398 0 121.47101149098398 28.687034024947934 0 0 0 0 175.20437296121963 120.23308794462764 0 120.23308794462764 -199.16283129933345 0 0 0 0 204.00313307205215 54.650061797085073 0 54.650061797085073 -19.889331581337956 0 0 0 0 62.020804777595913 5.1826516787318724 0 5.1826516787318724 93.771486879733857 0 0 0 0 -123.43845568568213 87.968801785158917 0 87.968801785158917 6.7214854692616086 0 0 0 0 18.131049687822497 8.9800416897637376 0 8.9800416897637376 2.2614072866033643 0 0 0 0 -21.533848615828902 -85.701518362118463 0 -85.701518362118463 -34.46259785940947 0 0 0 0 656.68019974013441 -65.036835011737708 0 -65.036835011737708 59.576222946233827 0 0 0 0 635.94610216267756 -158.50154061756393 0 -158.50154061756393 -62.955862059277422 0 0 0 0 167.6185950217332 -565.43017498809854 0 -565.43017498809854 188.605778765982 0 0 0 0 40.196666214236757 36.081985879344757 0 36.081985879344757 82.242391845262262 0 0 0 0 106.05369008189882 75.937744718682097 0 75.937744718682097 100.7930303739065 0 0 0 0 31.180447133490816 30.736401222034146 0 30.736401222034146 96.156705161461559 0 0 0 0 360.30683151625271 143.64644349273863 0 143.64644349273863 66.871797523189343 0 0 0 0 35.813162592705339 10.413375431788609 0 10.413375431788609 75.241370889957579 0 0 0 0 472.07140756843728 -102.59085558993684 0 -102.59085558993684 369.27676618889564 0 0 0 0 -138.02124774661206 36.395202952446141 0 36.395202952446141 222.98271228156364 0 0 0 0 7.8415713889779113 2.61552369557063 0 2.61552369557063 -0.43504708469310671 0 0 0 0 6.9818945774368899 2.574128080212617 0 2.574128080212617 -2.4212341713607897 0 0 0 0 -46.534449460217729 -125.43495387801704 0 -125.43495387801704 -18.615411896125352 0 0 0 0 25.845103687926894 -50.77716333254034 0 -50.77716333254034 14.026664421291571 0 0 0 0 -319.2957450952963 -879.01645463897148 0 -879.01645463897148 73.089831950576126 0 0 0 0 -9.2389722286025062 -22.946620306184855 0 -22.946620306184855 59.452631190401462 0 0 0 0 43.70112684070773 10.688783311981467 0 10.688783311981467 -3.8027952998996 0 0 0 0 13.176262627613539 2.8180000801510801 0 2.8180000801510801 5.2711289010562243 0 0 0 0 74.316500031811302 -21.778754721481164 0 -21.778754721481164 -13.021050674911521 0 0 0 0 66.666930347972084 30.854357718564643 0 30.854357718564643 -6.7817308030530512 0 0 0 0 7.1826504443183694 17.106034389767746 0 17.106034389767746 -1.7532032249298481 0 0 0 0 35.731169999608483 13.338662339391163 0 13.338662339391163 -4.4021801586109577 0 0 0 0 7.0216784481526702 19.96931159398946 0 19.96931159398946 -18.774657958849275 0 0 0 0 1.0925579920655082 3.038104540413741 0 3.038104540413741 0.57648673965902475 0 0 0 0 51.702326484315563 20.73745699425308 0 20.73745699425308 42.704378459116924 0 0 0 0 65.884166258168989 -27.259381223957917 0 -27.259381223957917 27.423229847167931 0 0 0 0 32.549679315125104 33.693741221033633 0 33.693741221033633 45.233967119985209 0 0 0 0 51.222473747795448 30.506577130734513 0 30.506577130734513 18.414910623770993 0 0 0 0 42.134761885419721 12.841995521638296 0 12.841995521638296 72.967707827095637 0 0 0 0 37.796995580458315 10.909092514536042 0 10.909092514536042 72.68349340538748 0 0 0 0 160.28568860719679 15.672322716599069 0 15.672322716599069 3.6734158143099194 0 0 0 0 85.270915698696626 4.9700969681593961 0 4.9700969681593961 0.099144963794060459 0 0 0 0 6.6334091438621599 -15.303936001537778 0 -15.303936001537778 5.6515369265039794 0 0 0 0 146.83097059902502 0.38753661965813535 0 0.38753661965813535 9.7020592218173078 0 0 0 0 140.52224952991673 8.4846649321017296 0 8.4846649321017296 9.3156393469568712 0 0 0 0 133.85035340457398 21.816468904841301 0 21.816468904841301 16.645681929313582 0 0 0 0 91.365472458666773 15.287292005411189 0 15.287292005411189 0.41521850410617844 0 0 0 0 14.86098809200692 3.4831344109555857 0 3.4831344109555857 -0.7805362145193393 0 0 0 0 42.490641112668982 21.438226494318457 0 21.438226494318457 -1.0960893174210709 0 0 0 0 47.719059711671434 -16.308967326715219 0 -16.308967326715219 -15.264324141790894 0 0 0 0 97.115943801647518 5.7608957800705412 0 5.7608957800705412 -11.458819454421132 0 0 0 0 88.015558084916847 -13.848284167008501 0 -13.848284167008501 4.2679109950477141 0 0 0 0 141.59279065504961 4.7710666833611413 0 4.7710666833611413 11.45328956877438 0 0 0 0 81.359144265501527 -11.613027444639556 0 -11.613027444639556 10.176205801844844 0 0 0 0 19.598131720989869 -15.865667664096179 0 -15.865667664096179 10.06180390566734 0 0 0 0 82.019773434869421 -7.9433351783033004 0 -7.9433351783033004 25.836428143800731 0 0 0 0 46.205146361113293 19.380043206534538 0 19.380043206534538 5.6361144947550201 0 0 0 0 128.28246226109331 -12.049603595637564 0 -12.049603595637564 -13.495823781267063 0 0 0 0 63.43459204616471 -10.528738118450271 0 -10.528738118450271 1.6967952512594229 0 0 0 0 64.670663730241358 -16.927506020538203 0 -16.927506020538203 35.993789177935696 0 0 0 0 102.89372126187664 -32.901947006609134 0 -32.901947006609134 30.76120668645126 0 0 0 0 132.7923757431563 -9.5823233466412603 0 -9.5823233466412603 -6.6511061758628784 0 0 0 0 92.993128249829169 46.93881680361369 0 46.93881680361369 39.087328959522893 0 0 0 0 6.6524841635792882 -14.853234532446308 0 -14.853234532446308 -3.7396118574892938 0 0 0 0 114.65017300099134 -23.931027423547675 0 -23.931027423547675 -5.0042011250134237 0 0 0 0 14.588930485105209 -6.1591224943400391 0 -6.1591224943400391 -0.1786928533696468 0 0 0 0 65.049721254987844 -6.7926187581632931 0 -6.7926187581632931 21.04962790335594 0 0 0 0 64.643202176201157 -20.55038253025532 0 -20.55038253025532 8.6850808389226586 0 0 0 0 -8.881011542838678 25.907831943125416 0 25.907831943125416 11.055147776398371 0 0 0 0 40.749765273620028 -9.2251053105099743 0 -9.2251053105099743 8.3787527089550373 0 0 0 0 52.115586123004306 -1.0202598390452948 0 -1.0202598390452948 5.964450672903304 0 0 0 0 38.202616544062039 -5.0931852099720345 0 -5.0931852099720345 -1.2338062275230186 0 0 0 0 33.831779396319376 24.004349666681236 0 24.004349666681236 2.1553335144307795 0 0 0 0 47.79351754983179 8.0999353592728482 0 8.0999353592728482 -2.2234601097579088 0 0 0 0 24.547965073652449 13.89398234425289 0 13.89398234425289 -20.955325391498263 0 0 0 0 42.157473283130116 11.979163829686115 0 11.979163829686115 -5.3866437572696739 0 0 0 0 303.42704645753838 164.30525452200891 0 164.30525452200891 -236.26616276422283 0 0 0 0 9.4943245756076067 89.092028958933895 0 89.092028958933895 -3.1713003967888653 0 0 0 0 -426.06040335609578 19.272646824945696 0 19.272646824945696 195.65018028045961 0 0 0 0 38.016078153695503 11.962790631849941 0 11.962790631849941 -3.8797672862899457 0 0 0 0 14.92005813481228 27.281042061592871 0 27.281042061592871 5.6030562504975023 0 0 0 0 19.238668496465095 11.381018314544178 0 11.381018314544178 0.26369661965234403 0 0 0 0 51.12829185865121 -1.18601829411773 0 -1.18601829411773 -7.7304700939382656 0 0 0 0 70.083198978954897 7.9393214962649381 0 7.9393214962649381 27.265658316328881 0 0 0 0 81.905386518010346 13.306390243680198 0 13.306390243680198 6.6142756483055791 0 0 0 0 115.45683426746109 -2.8900887653571772 0 -2.8900887653571772 23.807441272471237 0 0 0 0 76.907332680157197 9.9417206809994099 0 9.9417206809994099 27.052324791629871 0 0 0 0 129.13151041488163 27.5326583465162 0 27.5326583465162 32.73941753278541 0 0 0 0 76.94393367221187 9.2280179343526498 0 9.2280179343526498 31.686149991008278 0 0 0 0 59.181245903135277 -21.743009945906579 0 -21.743009945906579 25.51443449197177 0 0 0 0 9.1065223467524845 -26.126081711785105 0 -26.126081711785105 27.130502277799732 0 0 0 0 78.838227826614457 -30.119050444408231 0 -30.119050444408231 7.0662005588364991 0 0 0 0 120.65606653177383 -0.8580962341313807 0 -0.8580962341313807 5.5464319633529158 0 0 0 0 108.78278809167386 6.1783120393374702 0 6.1783120393374702 20.538695423629179 0 0 0 0 127.65557624657231 9.8622105127919895 0 9.8622105127919895 12.774217022189077 0 0 0 0 128.5086061396521 -17.691228121234303 0 -17.691228121234303 1.635270279636643 0 0 0 0 45.726034528510354 -34.676787432148558 0 -34.676787432148558 40.628281449082806 0 0 0 0 185.51749137035767 -70.13263198430144 0 -70.13263198430144 25.989302920037517 0 0 0 0 125.87044018010783 9.2101500054059215 0 9.2101500054059215 14.719098969485003 0 0 0 0 215.73400762056372 71.066279848976819 0 71.066279848976819 56.478071852375251 0 0 0 0 74.563931622396922 -9.4771320119157281 0 -9.4771320119157281 312.15981003980505 0 0 0 0 89.691517302475404 -73.124685196334212 0 -73.124685196334212 388.26242289600128 0 0 0 0 6.5054767459337768 -4.0317078656482792 0 -4.0317078656482792 2.5403081084089436 0 0 0 0 132.1621642956452 19.349216826032716 0 19.349216826032716 387.78200343542994 0 0 0 0 39.813092683571995 -22.704963301685297 0 -22.704963301685297 31.655034529504519 0 0 0 0 44.088341027818387 18.726483884799109 0 18.726483884799109 104.47884112633164 0 0 0 0 81.370420424773329 -20.1484348669876 0 -20.1484348669876 51.414926894071868 0 0 0 0 -2.6105511190107791 -76.001948815659489 0 -76.001948815659489 13.521262632181788 0 0 0 0 14.832493679830804 -33.684426006483591 0 -33.684426006483591 63.246396536631437 0 0 0 0 73.532605616128748 -50.737160779910781 0 -50.737160779910781 4.9101826858370714 0 0 0 0 158.25609898519906 -84.731844559094498 0 -84.731844559094498 -195.3047039003676 0 0 0 0 165.78481465810682 -14.453317929333849 0 -14.453317929333849 -50.822458306515728 0 0 0 0 53.132980544440215 -35.181991672069671 0 -35.181991672069671 12.467762310125792 0 0 0 0 35.160448378359433 -15.746329124425756 0 -15.746329124425756 45.439165632088589 0 0 0 0 74.750236163425143 -13.509079348487035 0 -13.509079348487035 3.3549753639304072 0 0 0 0 53.61193481340888 -37.079739571008986 0 -37.079739571008986 6.774917069582898 0 0 0 0 62.170054392687291 10.344366633973237 0 10.344366633973237 -11.948837528293609 0 0 0 0 61.914679421519395 -2.8332025246143075 0 -2.8332025246143075 22.011826671964172 0 0 0 0 75.178061603561218 28.842423515862265 0 28.842423515862265 19.872238692676547 0 0 0 0 52.595880442822818 38.441154649371128 0 38.441154649371128 24.427820894813067 0 0 0 0 163.05768502900901 111.05141825251212 0 111.05141825251212 -108.81089105439787 0 0 0 0 87.939472673169803 -124.73736907500188 0 -124.73736907500188 -128.97967863256554 0 0 0 0 373.21583035809454 -91.546404291242652 0 -91.546404291242652 -125.23364393735392 0 0 0 0 52.73625519898917 -13.188079489259394 0 -13.188079489259394 -4.9294175795676622 0 0 0 0 85.195049180212663 31.427189433538388 0 31.427189433538388 -7.5598534770670085 0 0 0 0 101.42991312430266 36.087775294359773 0 36.087775294359773 -2.0204672524632699 0 0 0 0 92.692837555368897 33.443498204301704 0 33.443498204301704 -7.6331023231614665 0 0 0 0 153.09465787015506 1.1874802973416081 0 1.1874802973416081 5.0332439537896789 0 0 0 0 87.954921260247545 -39.961933656560603 0 -39.961933656560603 -3.7890327304445357 0 0 0 0 175.6590508010413 14.254973434134627 0 14.254973434134627 -6.6718689122335491 0 0 0 0 190.2779767907632 -14.876392411401866 0 -14.876392411401866 9.2961047133849206 0 0 0 0 194.13135635127401 12.329388640282559 0 12.329388640282559 -6.47136846250487 0 0 0 0 177.50849335448584 4.1211279638233123 0 4.1211279638233123 -23.665222281872047 0 0 0 0 170.48849414681172 43.197775954614372 0 43.197775954614372 -58.321104678741904 0 0 0 0 170.12172814171868 53.850758006729613 0 53.850758006729613 10.648948056762492 0 0 0 0 136.98253243419094 23.304210367190308 0 23.304210367190308 -13.845053718740928 0 0 0 0 82.513112128406647 -4.409623074080173 0 -4.409623074080173 -8.8054422656077804 0 0 0 0 165.47781699806364 76.869196999597534 0 76.869196999597534 -10.903796759021134 0 0 0 0 19.79025688378772 22.081303170225652 0 22.081303170225652 -7.8563994178141741 0 0 0 0 80.761679152186844 27.6319676760736 0 27.6319676760736 -23.544551376557649 0 0 0 0 140.91200615106209 53.354275365521517 0 53.354275365521517 -6.1594735684602711 0 0 0 0 95.475168213497057 43.305181464621228 0 43.305181464621228 2.1205995270555995 0 0 0 0 -87.723101452076662 367.01580278323854 0 367.01580278323854 183.29558012485359 0 0 0 0 125.05291433239472 116.24370762737544 0 116.24370762737544 -240.89644623570575 0 0 0 0 116.70122634930877 -18.463526940578021 0 -18.463526940578021 -0.81560504766820863 0 0 0 0 49.365017421787343 -79.510586747330535 0 -79.510586747330535 -43.261045620603454 0 0 0 0 28.879304171194832 -4.2422572466321071 0 -4.2422572466321071 -6.7239227204667991 0 0 0 0 133.65613749040494 -29.619521186459679 0 -29.619521186459679 -102.46129517587633 0 0 0 0 55.555228066834388 -116.56262494390512 0 -116.56262494390512 91.013816423056824 0 0 0 0 549.38182919255905 172.27170610543965 0 172.27170610543965 -97.114542642467313 0 0 0 0 414.05001063270902 -243.69587956043233 0 -243.69587956043233 49.254084952713583 0 0 0 0 152.69060308089684 117.34114066631491 0 117.34114066631491 -101.79806161896158 0 0 0 0 135.99497407880341 -19.752086078705247 0 -19.752086078705247 -2.7893920926160121 0 0 0 0 329.69639055407242 -75.306043523530434 0 -75.306043523530434 -171.81644703998882 0 0 0 0 827.23010299709858 -693.69879658534319 0 -693.69879658534319 -573.31090303646761 0 0 0 0 71.167083517641885 26.938690425884914 0 26.938690425884914 -11.898399065671477 0 0 0 0 105.40681605917052 769.37064126265659 0 769.37064126265659 319.25903772935635 0 0 0 0 105.38064331866917 216.77295500613764 0 216.77295500613764 125.22112068168644 0 0 0 0 584.4577315999195 -15.33629351198897 0 -15.33629351198897 -80.756920625977273 0 0 0 0 550.50554538040888 -498.97005436321729 0 -498.97005436321729 247.60218091571687 0 0 0 0 411.26419551601975 -793.67808060149684 0 -793.67808060149684 70.582372869999745 0 0 0 0 480.96490006720705 73.696237790061787 0 73.696237790061787 -40.804114814025127 0 0 0 0 48.573372513172217 30.633418105409874 0 30.633418105409874 30.249237227769243 0 0 0 0 29.623654089962486 22.377725488530572 0 22.377725488530572 14.772071313618831 0 0 0 0 -0.75414036560687236 29.920486219316444 0 29.920486219316444 30.283943347290077 0 0 0 0 37.202110474943765 59.990007589572997 0 59.990007589572997 6.010530416831898 0 0 0 0 83.87602985036574 59.946272086642239 0 59.946272086642239 -3.246271449969754 0 0 0 0 9.0376701515158402 6.5222550760499587 0 6.5222550760499587 6.3368821216954068 0 0 0 0 -1.4575974044419127 -0.70054708118686904 0 -0.70054708118686904 247.69204492638437 0 0 0 0 37.364458031210233 -304.5354156764115 0 -304.5354156764115 380.48426589942392 0 0 0 0 246.52525129000423 -518.40824753801917 0 -518.40824753801917 479.43933172806646 0 0 0 0 113.19747635012027 -414.13468405343883 0 -414.13468405343883 416.62771787751626 0 0 0 0 402.43059102960979 -387.46773646533074 0 -387.46773646533074 268.3810481370856 0 0 0 0 183.08648702406208 -260.12365750388744 0 -260.12365750388744 393.93639905612326 0 0 0 0 354.2895282060199 -184.26706770959754 0 -184.26706770959754 156.19441918069242 0 0 0 0 190.68768096205895 -229.35519054626036 0 -229.35519054626036 165.78470818804999 0 0 0 0 421.75868648100004 -253.04065794164035 0 -253.04065794164035 54.924846632522531 0 0 0 0 354.92558675241889 -141.0279471918675 0 -141.0279471918675 -91.375787844969409 0 0 0 0 368.1334239660755 -267.0459578779662 0 -267.0459578779662 55.760521670410526 0 0 0 0 246.6462617564539 -554.8401048575297 0 -554.8401048575297 423.62561108575392 0 0 0 0 790.42362120459438 -505.55427767890887 0 -505.55427767890887 169.06148488378221 0 0 0 0 596.13859743611829 -202.658118166024 0 -202.658118166024 43.618266903982658 0 0 0 0 939.96828241243202 78.719892248041106 0 78.719892248041106 -6.066350413224427 0 0 0 0 156.2529977660306 -43.805957514882721 0 -43.805957514882721 14.506362810680912 0 0 0 0 61.536258796055336 167.69827464441096 0 167.69827464441096 174.30318078489017 0 0 0 0 434.7504476319391 6.4400630445062745 0 6.4400630445062745 -132.94463628446829 0 0 0 0 -0.1209059537795838 -3.7908454411435741 0 -3.7908454411435741 -43.917474447007407 0 0 0 0 115.70400614536067 61.38089947358219 0 61.38089947358219 -19.939073403167491 0 0 0 0 53.874265682941768 207.1680982782791 0 207.1680982782791 72.283081992918596 0 0 0 0 532.63873670581961 16.608357213259296 0 16.608357213259296 173.6549460791075 0 0 0 0 44.37248716139743 5.01287142590229 0 5.01287142590229 -0.30200026785717782 0 0 0 0 358.71028336574091 -278.44597535159392 0 -278.44597535159392 -198.64097327166292 0 0 0 0 576.80853717104264 -563.48271425347139 0 -563.48271425347139 738.16881773536625 0 0 0 0 1419.0678056929028 -441.9753063691885 0 -441.9753063691885 370.34962685095434 0 0 0 0 8.2956705766139009 3.0841715526622409 0 3.0841715526622409 -7.8998308294874811 0 0 0 0 18.465892211082974 -8.9877970896072839 0 -8.9877970896072839 -17.45693483686955 0 0 0 0 18.474241593475199 -8.7356796151100298 0 -8.7356796151100298 -10.077294227332459 0 0 0 0 1883.0610140124481 -1420.4276847188994 0 -1420.4276847188994 524.83412891145508 0 0 0 0 18.501924699914525 -8.4403701030687444 0 -8.4403701030687444 -13.703380189461313 0 0 0 0 -1560.5491693062359 -343.83488009418943 0 -343.83488009418943 1494.8307387030254 0 0 0 0 1630.8555384522188 254.11403222244735 0 254.11403222244735 144.71592050500476 0 0 0 0 282.18060337505449 -956.24910172285013 0 -956.24910172285013 1468.9502936121989 0 0 0 0 4.9150794108315381 -11.205495196195344 0 -11.205495196195344 8.9655379122771706 0 0 0 0 793.00992745775147 368.935286410755 0 368.935286410755 154.22903816004327 0 0 0 0 1631.1056908871542 -479.93874850307384 0 -479.93874850307384 111.21970676278579 0 0 0 0 4470.1490067451377 -134.41559723053979 0 -134.41559723053979 950.31752600296022 0 0 0 0 842.70890400384087 -562.28509008781839 0 -562.28509008781839 258.76564698895345 0 0 0 0 881.6589588334391 -865.61773003464168 0 -865.61773003464168 564.56433362350435 0 0 0 0 187.49290701556311 -613.93040463936541 0 -613.93040463936541 836.02888602743405 0 0 0 0 719.99751595078851 -1060.7323862898938 0 -1060.7323862898938 1161.2622861922137 0 0 0 0 2226.8115266871027 -1118.1984449728934 0 -1118.1984449728934 478.66535815388124 0 0 0 0 758.7807181191165 -626.38278874670505 0 -626.38278874670505 928.15978205096917 0 0 0 0 19.651641277538147 -7.0965852333133626 0 -7.0965852333133626 -21.581347687679227 0 0 0 0 19.817744654952548 -4.4552789276258409 0 -4.4552789276258409 -25.089106341136358 0 0 0 0 19.72383942581655 -8.9040212019954197 0 -8.9040212019954197 -20.376419613516191 0 0 0 0 13.759464359869526 -9.8119285608383109 0 -9.8119285608383109 4.3400178126649624 0 0 0 0 15.187336176328245 -3.7650006467911226 0 -3.7650006467911226 -6.4130822967472341 0 0 0 0 15.893846657942049 -1.3498994765368479 0 -1.3498994765368479 -16.865196383283546 0 0 0 0 13.736360119815799 -0.25848589558790991 0 -0.25848589558790991 -6.6127200044375058 0 0 0 0 0.27473953414300922 3.9752421314494768 0 3.9752421314494768 -0.70877178019145504 0 0 0 0 11.560708619887009 6.1557387978027691 0 6.1557387978027691 -24.129468048080696 0 0 0 0 -528.63464626215864 183.78639224884137 0 183.78639224884137 408.44473131708764 0 0 0 0 -458.80666560595273 -271.08231283666919 0 -271.08231283666919 1029.8248257985106 0 0 0 0 179.08656067520496 -646.04076428548615 0 -646.04076428548615 750.37653453034272 0 0 0 0 -225.00281645177165 -431.73480537834621 0 -431.73480537834621 673.46708420864161 0 0 0 0 -69.933932563741109 -333.89763223328328 0 -333.89763223328328 532.56028258315382 0 0 0 0 19.842659369567684 -8.4088834022885308 0 -8.4088834022885308 2.0650834837410299 0 0 0 0 28.910286831720441 -8.3257917108623687 0 -8.3257917108623687 -1.1494927230079952 0 0 0 0 9.2451838232227601 -10.685831977202469 0 -10.685831977202469 7.5568994517079773 0 0 0 0 16.127361057198868 -2.891476368586666 0 -2.891476368586666 -6.5895595067431714 0 0 0 0 16.499848315041163 -5.3958858654996504 0 -5.3958858654996504 -6.1983462480926192 0 0 0 0 16.685080810220711 -4.8140429400959235 0 -4.8140429400959235 0.46540157101961199 0 0 0 0 19.768270966276759 -5.5823834726242012 0 -5.5823834726242012 -2.4576998663600307 0 0 0 0 16.56864712620154 -3.8541589060894239 0 -3.8541589060894239 -4.6267607388031138 0 0 0 0 20.77878596103983 -0.98311762190314766 0 -0.98311762190314766 -3.082391673753591 0 0 0 0 1666.9352180634451 -758.18450450107696 0 -758.18450450107696 305.36730388352589 0 0 0 0 7.5755281189952655 -1.2611485082205718 0 -1.2611485082205718 -10.341823210485764 0 0 0 0 937.68198331614258 -622.7595346429639 0 -622.7595346429639 636.60409158056859 0 0 0 0 1372.8028879858321 -809.21834463341179 0 -809.21834463341179 333.53816358841226 0 0 0 0 19.67260051870835 -5.4327109651612773 0 -5.4327109651612773 -2.6908466393380195 0 0 0 0 8.8403199588800021 3.7963110760561563 0 3.7963110760561563 -6.4336320752376537 0 0 0 0 6.4649856958492933 0.85425946077452863 0 0.85425946077452863 -6.4778070964629082 0 0 0 0 21.339248902630061 -4.4891935226501118 0 -4.4891935226501118 -2.9684636041367867 0 0 0 0 21.912519465346122 -3.2602983934657459 0 -3.2602983934657459 -7.2525551384405844 0 0 0 0 20.062383199267799 -1.3279886919562358 0 -1.3279886919562358 -0.46960003353400825 0 0 0 0 12.947280540101929 2.3457971401376199 0 2.3457971401376199 41.621468708830434 0 0 0 0 23.044158055789012 -5.5542854394566348 0 -5.5542854394566348 -9.5052221768187337 0 0 0 0 23.365271180562559 -6.5826363031734445 0 -6.5826363031734445 -6.3195521923221349 0 0 0 0 20.00396691201604 -6.6446011586558598 0 -6.6446011586558598 -3.3498051496769676 0 0 0 0 20.933274069240724 -5.7404594316013799 0 -5.7404594316013799 -6.4608133250562787 0 0 0 0 19.483731238102337 -7.9706352178701536 0 -7.9706352178701536 -6.2688981267547206 0 0 0 0 27.380394657477154 -14.240221498390383 0 -14.240221498390383 -5.0086478947413298 0 0 0 0 24.945902124665736 -8.948291860507652 0 -8.948291860507652 -15.136372678710359 0 0 0 0 31.613167561774389 -2.9994468811270139 0 -2.9994468811270139 0.31047348291914734 0 0 0 0 27.787505263433559 -12.989958183389717 0 -12.989958183389717 -6.7597600548820083 0 0 0 0 24.548901072092121 -14.399268671332266 0 -14.399268671332266 0.46986195188537749 0 0 0 0 63.431690106152075 45.572926013129631 0 45.572926013129631 3.718523369537138 0 0 0 0 96.094818789730198 86.229418767767186 0 86.229418767767186 69.203311081205356 0 0 0 0 241.50305373837182 -36.865319856208657 0 -36.865319856208657 11.089183338640623 0 0 0 0 247.00140550793731 -11.064469499409597 0 -11.064469499409597 -4.3539175563219032 0 0 0 0 186.97598283137631 -46.604367324015243 0 -46.604367324015243 31.112365837804191 0 0 0 0 257.99366467632353 -238.44340889968043 0 -238.44340889968043 105.50875651298156 0 0 0 0 257.43168003363826 -118.91032612354456 0 -118.91032612354456 134.76609676523185 0 0 0 0 177.72932520965696 -28.86847573319892 0 -28.86847573319892 34.81999669853019 0 0 0 0 5.066307171854163 2.1721589343483458 0 2.1721589343483458 0.31505633019346391 0 0 0 0 244.93923182405706 -45.403659973441108 0 -45.403659973441108 187.47528188166052 0 0 0 0 82.949417020528927 65.993897419373525 0 65.993897419373525 43.369036393717579 0 0 0 0 328.12021753212321 -53.202220052367011 0 -53.202220052367011 -19.379851315555698 0 0 0 0 58.612498164890184 44.820005086470758 0 44.820005086470758 0.30818342819807398 0 0 0 0 100.32935052519315 158.41648063691855 0 158.41648063691855 50.831529065252653 0 0 0 0 129.94915425332147 -274.02969895751431 0 -274.02969895751431 414.83446962358755 0 0 0 0 918.20319157002359 -301.1702086240274 0 -301.1702086240274 209.75603243177466 0 0 0 0 779.13015840442677 -301.69860315902628 0 -301.69860315902628 133.2953577267167 0 0 0 0 803.2628772755852 -557.4763600622814 0 -557.4763600622814 450.13234635885743 0 0 0 0 1206.4015033557953 -446.07740268313387 0 -446.07740268313387 205.99006797729862 0 0 0 0 524.71072886764887 -430.97345370749736 0 -430.97345370749736 313.68325926107173 0 0 0 0 967.80298406208749 -447.03739541313348 0 -447.03739541313348 148.64100421973217 0 0 0 0 988.47791189761483 -612.62326990956171 0 -612.62326990956171 445.37196291328382 0 0 0 0 528.04296566310222 -266.54626995343574 0 -266.54626995343574 48.935769349895416 0 0 0 0 268.04898672006675 -289.23933632930402 0 -289.23933632930402 220.14471707715711 0 0 0 0 491.45359647847363 -362.69766859126435 0 -362.69766859126435 247.80702997210119 0 0 0 0 744.42708170472906 -273.91033233311339 0 -273.91033233311339 95.89273440955958 0 0 0 0 1285.4150078639796 -678.43399459848524 0 -678.43399459848524 170.00374373277918 0 0 0 0 798.31252568111086 -497.97415797353631 0 -497.97415797353631 265.14383291409649 0 0 0 0 947.38579567399574 -556.142315107576 0 -556.142315107576 217.69112392883198 0 0 0 0 1194.2903562042047 -479.11192238631884 0 -479.11192238631884 157.18977506309238 0 0 0 0 1253.878376096196 -403.71658891801098 0 -403.71658891801098 180.04296951932884 0 0 0 0 1139.761959532043 -608.71077087306821 0 -608.71077087306821 226.17077385144967 0 0 0 0 7.8143221067103354 6.088945462501357 0 6.088945462501357 1.6897094169472311 0 0 0 0 34.365000801364658 -19.512445090566189 0 -19.512445090566189 33.453885719143727 0 0 0 0 937.19899651606102 -473.54041988839072 0 -473.54041988839072 363.151018812237 0 0 0 0 1146.1520671057515 -399.07502412930353 0 -399.07502412930353 329.99357317923568 0 0 0 0 32.732848644271144 -9.8734462769411948 0 -9.8734462769411948 36.629558466320304 0 0 0 0 875.044045131036 -376.7303717128068 0 -376.7303717128068 135.45695973476086 0 0 0 0 759.69953432661714 -518.78136028376503 0 -518.78136028376503 234.82666857205686 0 0 0 0 862.04542413871968 -532.54551650906251 0 -532.54551650906251 351.19719972025632 0 0 0 0 343.10339972283691 -288.70276075533593 0 -288.70276075533593 135.06549568093305 0 0 0 0 644.58834947875584 -230.06456455688067 0 -230.06456455688067 19.289061288293851 0 0 0 0 519.6404813272693 -166.88953064399857 0 -166.88953064399857 -45.650455429522026 0 0 0 0 167.91730509020272 209.58875441465489 0 209.58875441465489 -3.3685338354252963 0 0 0 0 314.53334693447687 -241.16078642630919 0 -241.16078642630919 23.397713969353617 0 0 0 0 624.83100387194645 102.39665722974314 0 102.39665722974314 315.17358696501287 0 0 0 0 1041.7491269252787 -698.8585017575665 0 -698.8585017575665 215.5411178430677 0 0 0 0 816.83440712693846 -531.09031778998678 0 -531.09031778998678 259.65996047431236 0 0 0 0 947.09430863922171 -502.46164699244423 0 -502.46164699244423 92.465881326259478 0 0 0 0 875.71070154279005 -568.9354777716735 0 -568.9354777716735 217.72563136076784 0 0 0 0 964.27101411568583 -420.08121667213163 0 -420.08121667213163 223.16463436653248 0 0 0 0 3.0013818070740683 2.1312563761026979 0 2.1312563761026979 0.048196840935919028 0 0 0 0 77.276542448307737 -62.646826342586337 0 -62.646826342586337 13.887302927621931 0 0 0 0 7.1655262014828622 -26.14655447133191 0 -26.14655447133191 38.7346027880767 0 0 0 0 5.783324746758808 -0.073646256478838268 0 -0.073646256478838268 33.266592076328379 0 0 0 0 51.126607833008165 103.17903884995212 0 103.17903884995212 -202.39155920744452 0 0 0 0 12.381138858370832 203.55066161658397 0 203.55066161658397 185.32360036481532 0 0 0 0 99.266633194725728 -679.1640493281111 0 -679.1640493281111 232.95353655942358 0 0 0 0 250.25717583762889 168.29494646827015 0 168.29494646827015 13.525784956933421 0 0 0 0 40.908863186385133 -19.487096336846662 0 -19.487096336846662 -297.2543081730937 0 0 0 0 12.42377166692836 1.5039833765785602 0 1.5039833765785602 2.0099868480701311 0 0 0 0 -82.340018480899744 -27.460366866253025 0 -27.460366866253025 6.6085630755078455 0 0 0 0 17.854386688617865 -8.7433784617073513 0 -8.7433784617073513 4.0202469562497143 0 0 0 0 -86.534308053815039 3.1444381288247314 0 3.1444381288247314 158.70478293993438 0 0 0 0 299.44513777266548 -75.520870476148048 0 -75.520870476148048 -11.878224523208701 0 0 0 0 804.45372945509735 -304.61803033454817 0 -304.61803033454817 105.66041478600187 0 0 0 0 261.14285617732094 -54.484958451510465 0 -54.484958451510465 51.910244854484972 0 0 0 0 533.5333579176513 -471.17322415223043 0 -471.17322415223043 494.28147994579558 0 0 0 0 163.25853443372762 -742.43493353462691 0 -742.43493353462691 512.70119073141086 0 0 0 0 1490.4497800246463 -1265.6001490710723 0 -1265.6001490710723 229.69580973308257 0 0 0 0 977.45773710397771 -692.399412486031 0 -692.399412486031 -248.69118142413117 0 0 0 0 885.93645301219658 -510.66264468428835 0 -510.66264468428835 2.7257597298766996 0 0 0 0 7.0237801982617043 -4.5629373262895854 0 -4.5629373262895854 2.7882535022936459 0 0 0 0 1361.375640565544 -420.15096410841397 0 -420.15096410841397 -141.43618672581761 0 0 0 0 1032.6315867429366 74.897145034583446 0 74.897145034583446 -20.375978788588327 0 0 0 0 890.66195569691263 -371.37187364596593 0 -371.37187364596593 -130.05375334798737 0 0 0 0 235.17996336874785 11.464381474177117 0 11.464381474177117 -72.571255804823522 0 0 0 0 324.8951506684391 -403.02161111751525 0 -403.02161111751525 13.345790948915237 0 0 0 0 157.50523555051768 -123.79887360457633 0 -123.79887360457633 -11.319440339453195 0 0 0 0 18.382930062580272 13.855931355190478 0 13.855931355190478 -70.812785621321382 0 0 0 0 132.42867305211257 -65.110601402158863 0 -65.110601402158863 -90.558187361751152 0 0 0 0 38.862564853079618 -13.221011602140749 0 -13.221011602140749 -4.2539237666622576 0 0 0 0 25.667746125749545 38.299183135644853 0 38.299183135644853 -15.296469302677906 0 0 0 0 29.772562927279068 27.171418595933471 0 27.171418595933471 -37.443975558124293 0 0 0 0 29.559532527986448 109.17547038988778 0 109.17547038988778 -57.246169781608842 0 0 0 0 -47.541092655839748 85.577012162116262 0 85.577012162116262 -76.088829320716286 0 0 0 0 13.959143432992278 51.501472959761031 0 51.501472959761031 -29.927939781002351 0 0 0 0 9.57762680459291 -6.3814863764279153 0 -6.3814863764279153 34.469312334342249 0 0 0 0 13.171595240710303 0.62776937236685626 0 0.62776937236685626 18.780693812106449 0 0 0 0 -10.105475475080311 105.86539628085484 0 105.86539628085484 13.493580434345631 0 0 0 0 12.61073890721309 28.107444495528398 0 28.107444495528398 -122.22977601187813 0 0 0 0 31.027793315719464 37.531828046256123 0 37.531828046256123 -146.20500872821958 0 0 0 0 35.682510334109452 -8.7549745599403082 0 -8.7549745599403082 -1.114975515371313 0 0 0 0 85.132377854468359 -34.924092066738694 0 -34.924092066738694 -42.955973557027392 0 0 0 0 33.147109433542937 -66.179680078840647 0 -66.179680078840647 25.338001362290015 0 0 0 0 1.962586268962923 -6.9486290331256555 0 -6.9486290331256555 -3.1268689354579848 0 0 0 0 7.9709002905292436 17.506797906788279 0 17.506797906788279 -141.00057385307446 0 0 0 0 27.242579262790969 33.227987408712579 0 33.227987408712579 -149.65021374378011 0 0 0 0 -0.70289831069675301 -0.92559152449207716 0 -0.92559152449207716 -1.294511362599355 0 0 0 0 130.26477925697691 -243.76751497794885 0 -243.76751497794885 177.4302435699592 0 0 0 0 72.493348893054645 114.58733274550377 0 114.58733274550377 -233.81077790665631 0 0 0 0 52.587479601847008 -13.322265260258973 0 -13.322265260258973 95.49609507692503 0 0 0 0 54.299230014643399 -82.851456350243097 0 -82.851456350243097 -37.839761853327218 0 0 0 0 64.167700116764536 130.0401893618793 0 130.0401893618793 -228.10291920726377 0 0 0 0 -1.2538754224822242 -0.074600172620193916 0 -0.074600172620193916 0.87375689650464849 0 0 0 0 187.89060074306326 -179.26349515837592 0 -179.26349515837592 81.076384315356336 0 0 0 0 117.9155415755813 76.960340284182166 0 76.960340284182166 34.908319069429126 0 0 0 0 190.41536194446962 -123.77430227726472 0 -123.77430227726472 -76.88027088738454 0 0 0 0 380.13621866909671 -60.756660133153673 0 -60.756660133153673 -57.777639280251606 0 0 0 0 313.87396302027628 180.92835524633847 0 180.92835524633847 -66.671038060478168 0 0 0 0 253.52607314730994 102.59508723342697 0 102.59508723342697 39.645529835639536 0 0 0 0 2.092509497836204 -1.4155696473889066 0 -1.4155696473889066 1.3864887832998853 0 0 0 0 49.051735401163796 -11.54801693070096 0 -11.54801693070096 -0.33465811891095715 0 0 0 0 96.381948774098419 -34.536188842023421 0 -34.536188842023421 -53.638099999293217 0 0 0 0 4.6232702482957393 -20.444061803086015 0 -20.444061803086015 -55.696871949089086 0 0 0 0 1.2459049571878609 0.60596576116589063 0 0.60596576116589063 -1.1206343426757748 0 0 0 0 -4.2574144935184677 -7.248140663492336 0 -7.248140663492336 5.7189259950370355 0 0 0 0 -19.327256920398213 -17.042764661728086 0 -17.042764661728086 15.034412184230064 0 0 0 0 15.168917997709741 -38.997711869664585 0 -38.997711869664585 -0.58306694505296486 0 0 0 0 117.25365689274622 -12.427077632295095 0 -12.427077632295095 -2.4445201235563445 0 0 0 0 40.256370675959658 -6.2231339031436619 0 -6.2231339031436619 -20.191999439734964 0 0 0 0 112.03742253713426 -9.890095491201464 0 -9.890095491201464 -41.425770453428413 0 0 0 0 81.293410410638899 -56.269002226904377 0 -56.269002226904377 34.871601556564201 0 0 0 0 79.018354252000393 -42.669216492762473 0 -42.669216492762473 10.553402542060255 0 0 0 0 96.597543991694693 -73.903591525657703 0 -73.903591525657703 0.91487904085806804 0 0 0 0 15.850436654230862 -11.692077985582955 0 -11.692077985582955 -0.22984498222376004 0 0 0 0 80.032242780871456 6.2884228141574567 0 6.2884228141574567 -103.43974451136637 0 0 0 0 121.00247375865001 -74.457761947629365 0 -74.457761947629365 -16.514127474970394 0 0 0 0 88.720021345419809 -69.051049288153592 0 -69.051049288153592 16.317513489621263 0 0 0 0 138.07072353071999 -109.6143750359081 0 -109.6143750359081 80.533830001287242 0 0 0 0 8.8768388031904806 -3.047959270800618 0 -3.047959270800618 2.4261463393554443 0 0 0 0 168.37842111554346 -108.76902331589505 0 -108.76902331589505 14.204027798884352 0 0 0 0 105.66565871654529 -10.572200800399031 0 -10.572200800399031 -32.972446946807793 0 0 0 0 90.31096740430803 -98.791374929990937 0 -98.791374929990937 -7.7708429851119076 0 0 0 0 46.646373174245127 -10.18623620381959 0 -10.18623620381959 -21.834104854989377 0 0 0 0 66.508552263676393 -35.240593746855325 0 -35.240593746855325 -40.107776327995452 0 0 0 0 45.155264699453255 -22.225222645327449 0 -22.225222645327449 -22.40808454764192 0 0 0 0 44.597582775124408 -8.1898273256934431 0 -8.1898273256934431 -6.6378929747179107 0 0 0 0 49.27052338546855 -6.2169183464314983 0 -6.2169183464314983 -25.084819414703816 0 0 0 0 37.651089402803336 -4.92436087439728 0 -4.92436087439728 -18.174627846077783 0 0 0 0 60.687413360603387 -25.369160668228687 0 -25.369160668228687 -4.0457568035972145 0 0 0 0 83.955017951200716 67.90205506067187 0 67.90205506067187 -31.922386194507691 0 0 0 0 37.176911723896183 1.1894965341322461 0 1.1894965341322461 -23.767952112758223 0 0 0 0 83.42103151055926 -44.378424086523509 0 -44.378424086523509 -13.811059537652476 0 0 0 0 -2.059885416761972 5.6521070668577016 0 5.6521070668577016 31.264304730764266 0 0 0 0 45.669822385476436 -35.355064516325442 0 -35.355064516325442 32.582703709476633 0 0 0 0 60.788684557803208 -19.402824255376245 0 -19.402824255376245 0.070348574495027183 0 0 0 0 102.36249034656794 -32.778947519531201 0 -32.778947519531201 1.463313696551598 0 0 0 0 130.68894435188849 -82.806534594880091 0 -82.806534594880091 60.089495026596083 0 0 0 0 191.74578420020407 -48.631563365461886 0 -48.631563365461886 -0.081010362827168128 0 0 0 0 300.99341504654149 -199.08474713274546 0 -199.08474713274546 82.003478238104691 0 0 0 0 112.25768425301067 -47.325847603920899 0 -47.325847603920899 66.069033591168889 0 0 0 0 0.62539032118786508 0.4711607575586072 0 0.4711607575586072 0.32633854415568375 0 0 0 0 145.49378739474923 18.088657777236744 0 18.088657777236744 34.309311275033131 0 0 0 0 29.721784916968318 -4.1930664054671603 0 -4.1930664054671603 -12.52935005625293 0 0 0 0 37.168765529058874 -5.7479539383251534 0 -5.7479539383251534 -20.344074672477277 0 0 0 0 17.250189629441593 -15.39212676672183 0 -15.39212676672183 -21.076768919940914 0 0 0 0 3.7339326211076695 41.562745562189228 0 41.562745562189228 -28.288095533549445 0 0 0 0 49.802844573510811 27.082084204499576 0 27.082084204499576 -31.808548657238926 0 0 0 0 57.857857828545093 -21.56433886681171 0 -21.56433886681171 -21.080585572128285 0 0 0 0 44.996063346246956 -19.47501922962579 0 -19.47501922962579 0.027900467095126742 0 0 0 0 44.134591842564987 -14.822022014486215 0 -14.822022014486215 -10.57404758228305 0 0 0 0 39.221685612268629 -2.9191350602710244 0 -2.9191350602710244 -22.310882135619636 0 0 0 0 -83.5440971115313 23.950255635229041 0 23.950255635229041 -5.6297081594229894 0 0 0 0 40.578368823841174 -28.206114438736222 0 -28.206114438736222 16.944055754136208 0 0 0 0 391.07033926752047 -459.43759345823219 0 -459.43759345823219 -412.21221220920472 0 0 0 0 960.15862517047935 -1490.2133188841976 0 -1490.2133188841976 518.32302382676141 0 0 0 0 3228.1791351901702 1430.8841689239323 0 1430.8841689239323 -120.89295539535215 0 0 0 0 -69.341114895796636 -690.67268491572554 0 -690.67268491572554 926.67945674830298 0 0 0 0 20.715004061769775 -10.965492797781764 0 -10.965492797781764 5.9150401110142319 0 0 0 0 -385.83353579660616 112.85636126757163 0 112.85636126757163 315.69629835210617 0 0 0 0 326.4827597552212 56.769614327883687 0 56.769614327883687 -23.516611104759249 0 0 0 0 264.27334818980307 274.98418609077362 0 274.98418609077362 -438.88891180302903 0 0 0 0 2.7550067453013867 2.3151347312353323 0 2.3151347312353323 1.153620259585086 0 0 0 0 -25.515805867646122 9.6418762171979324 0 9.6418762171979324 -2.101645280379671 0 0 0 0 26.050921773334267 5.7649451110783048 0 5.7649451110783048 -21.438326406897886 0 0 0 0 41.960208075684932 6.9435928984594284 0 6.9435928984594284 -24.882077744559865 0 0 0 0 66.024205251451349 3.0690956496081299 0 3.0690956496081299 -46.852362427171101 0 0 0 0 20.587403578807425 35.787961586662732 0 35.787961586662732 -35.768087730099069 0 0 0 0 -34.04629894849495 57.051179312225031 0 57.051179312225031 -43.1231196302233 0 0 0 0 -363.78215258810087 -183.64725211430471 0 -183.64725211430471 17.00166456904914 0 0 0 0 46.23684370560477 -31.850239476832655 0 -31.850239476832655 18.119883658863767 0 0 0 0 59.537672975904115 -0.80406845443032182 0 -0.80406845443032182 -96.509850753567662 0 0 0 0 57.979698532595648 -42.971086987763101 0 -42.971086987763101 12.907176301650907 0 0 0 0 43.848164882722699 -1.0406211103136229 0 -1.0406211103136229 -19.239641614437573 0 0 0 0 15.64929240312631 32.835482060307157 0 32.835482060307157 -19.165388376972036 0 0 0 0 16.215267495252192 -0.50996208040289037 0 -0.50996208040289037 6.0147891117481649 0 0 0 0 37.775483511912171 -17.502079084390203 0 -17.502079084390203 7.8721768239822012 0 0 0 0 35.573243132210337 -13.429312542130743 0 -13.429312542130743 -19.623657317181948 0 0 0 0 12.519257236299836 2.4880330234914254 0 2.4880330234914254 -10.101294564769299 0 0 0 0 37.961790581117384 -19.993319122858864 0 -19.993319122858864 12.075219342516929 0 0 0 0 3.3886014653443794 -4.8306194506529891 0 -4.8306194506529891 2.717544016442071 0 0 0 0 -214.57090286587481 80.486736916210646 0 80.486736916210646 -0.54184206475974861 0 0 0 0 32.830282700735552 -9.6824458985560771 0 -9.6824458985560771 0.00021649143332906802 0 0 0 0 -178.75707499409327 259.23032772558702 0 259.23032772558702 273.02664116330521 0 0 0 0 -390.17074366571615 -30.883162960763002 0 -30.883162960763002 285.51839808742108 0 0 0 0 613.27584704336186 585.85750566269121 0 585.85750566269121 308.47654135993503 0 0 0 0 1813.4017750064377 -142.24766494585293 0 -142.24766494585293 -199.87609405184287 0 0 0 0 559.57791360495321 -106.1246066701067 0 -106.1246066701067 -0.67242493535847547 0 0 0 0 1084.9425110267184 27.033524047270259 0 27.033524047270259 -238.26401544902018 0 0 0 0 637.44115089993284 -201.76487174661517 0 -201.76487174661517 0.15049148999407969 0 0 0 0 909.26879838247623 -543.30986734488602 0 -543.30986734488602 37.485444203649877 0 0 0 0 413.2846867062035 -306.5572289948052 0 -306.5572289948052 146.94752732667243 0 0 0 0 184.61705723262276 -163.26650541933606 0 -163.26650541933606 266.40887211784707 0 0 0 0 244.98252893972676 -60.077169106252143 0 -60.077169106252143 175.97708435544195 0 0 0 0 1577.1828733638322 -813.40633139348131 0 -813.40633139348131 134.58332484076846 0 0 0 0 250.40490680897346 -55.60956906338469 0 -55.60956906338469 -20.478345193457699 0 0 0 0 213.308769445488 -111.09818720399636 0 -111.09818720399636 73.042133072379386 0 0 0 0 303.26730665101786 -122.97420018792891 0 -122.97420018792891 0.095180713552373036 0 0 0 0 229.03728360417153 -52.485786230254739 0 -52.485786230254739 22.521470627281303 0 0 0 0 279.01020559263998 -140.03868849039856 0 -140.03868849039856 79.443086372013966 0 0 0 0 153.3271037748782 -37.069932444322745 0 -37.069932444322745 61.357521551320389 0 0 0 0 103.27011573157506 15.713136940586629 0 15.713136940586629 15.827070558500537 0 0 0 0 84.799059390097682 46.488841363289609 0 46.488841363289609 -42.976949697359657 0 0 0 0 163.27840713062324 -27.221988551564166 0 -27.221988551564166 -31.201651909226882 0 0 0 0 109.19830092863413 32.827130165016257 0 32.827130165016257 -33.224153028939433 0 0 0 0 163.29202279371384 -3.6448876577336335 0 -3.6448876577336335 -64.590252707972155 0 0 0 0 162.84190848184517 6.9640134884856479 0 6.9640134884856479 -6.8729540334125971 0 0 0 0 192.30982364571537 -16.199932587834951 0 -16.199932587834951 -24.517027597315632 0 0 0 0 182.00772203047018 -51.448167980945335 0 -51.448167980945335 98.686277459011706 0 0 0 0 146.95199669653084 6.5696672601315003 0 6.5696672601315003 16.825445551443792 0 0 0 0 147.55093729408691 -18.624697374887049 0 -18.624697374887049 -43.655110959017961 0 0 0 0 189.90621019614628 11.148457285560072 0 11.148457285560072 -61.190404768393414 0 0 0 0 167.24671894857966 2.6888876895617209 0 2.6888876895617209 -64.341412783525655 0 0 0 0 172.02411474479595 25.145702707477504 0 25.145702707477504 -59.462169401243244 0 0 0 0 75.45472240561503 -19.963629522108477 0 -19.963629522108477 -0.092243551014689729 0 0 0 0 71.898700309422566 -6.6231093814680833 0 -6.6231093814680833 -68.192868559906515 0 0 0 0 120.23651969898492 26.187509271406952 0 26.187509271406952 -0.69756190889545877 0 0 0 0 24.69632083458913 -1.012477536570799 0 -1.012477536570799 -9.0167479103358072 0 0 0 0 74.371103371104141 -7.3788212122897221 0 -7.3788212122897221 -6.4545186161413213 0 0 0 0 -259.16703492650413 -330.16266671386944 0 -330.16266671386944 350.09645620159785 0 0 0 0 346.1913505087432 -152.08664139248097 0 -152.08664139248097 130.75538795348189 0 0 0 0 11.717157666017499 -11.881045545528821 0 -11.881045545528821 10.948087308516037 0 0 0 0 130.29342726586037 -633.63883829117572 0 -633.63883829117572 585.55156613268286 0 0 0 0 12.412037842033897 -77.59473046444316 0 -77.59473046444316 109.64018044377612 0 0 0 0 195.48852429917315 -182.3034309256596 0 -182.3034309256596 157.09611502637543 0 0 0 0 118.80242759967223 -59.109185485446247 0 -59.109185485446247 195.38485825153157 0 0 0 0 191.5894289551652 -6.227099041670769 0 -6.227099041670769 6.5821067900350556 0 0 0 0 201.90724416884041 -45.656620797465251 0 -45.656620797465251 21.057799867826816 0 0 0 0 145.60762498350232 -52.688521915729069 0 -52.688521915729069 -105.11671438931569 0 0 0 0 143.58337506113457 52.81683278711327 0 52.81683278711327 -109.08371137369733 0 0 0 0 154.27325447578914 -26.354254551353609 0 -26.354254551353609 21.49355980814509 0 0 0 0 83.596080033894395 -68.854748714045215 0 -68.854748714045215 -92.692937186301862 0 0 0 0 122.76481179447728 -94.0880839408713 0 -94.0880839408713 -203.31873014809318 0 0 0 0 1300.431938842521 3027.38989872618 0 3027.38989872618 -1187.6471668083777 0 0 0 0 -123.7669043194619 106.27078089272295 0 106.27078089272295 -132.47642820995699 0 0 0 0 18.496188696012069 -27.006170652819719 0 -27.006170652819719 30.582095823459849 0 0 0 0 966.95409207101329 -1424.1608879142095 0 -1424.1608879142095 1054.0094535272801 0 0 0 0 1744.0092092933482 -319.31079765325865 0 -319.31079765325865 -948.78539657542387 0 0 0 0 3924.7199608370429 -2606.0697626149349 0 -2606.0697626149349 3612.38184712574 0 0 0 0 -23.0139158515085 -155.15240045151509 0 -155.15240045151509 -88.229906181040661 0 0 0 0 3791.3955354791979 -1289.469302965842 0 -1289.469302965842 -489.29283080229561 0 0 0 0 639.00729223072995 352.32887430399114 0 352.32887430399114 -687.56595531542416 0 0 0 0 -200.03093731190893 -65.981916999316127 0 -65.981916999316127 88.654206577876721 0 0 0 0 37.8919666522809 -27.28206085343075 0 -27.28206085343075 33.239705490281338 0 0 0 0 131.65659492160194 -31.805100309445351 0 -31.805100309445351 4.5758056814337564 0 0 0 0 14.276206373004243 -54.013836165957628 0 -54.013836165957628 8.2356698018854217 0 0 0 0 156.92777867644327 -9.8239007177196243 0 -9.8239007177196243 -35.416631384342708 0 0 0 0 156.29688313661609 -18.139741566629809 0 -18.139741566629809 -25.473268000208151 0 0 0 0 42.288479500410631 23.326564429409672 0 23.326564429409672 -19.643423372240299 0 0 0 0 34.115769464849137 19.168589784491388 0 19.168589784491388 -12.631406870415418 0 0 0 0 109.28544560063165 -11.715564861150597 0 -11.715564861150597 2.1474051512868755 0 0 0 0 100.49663574568694 -66.784845415885229 0 -66.784845415885229 -20.542120153343603 0 0 0 0 98.952272326750972 -16.25590830834949 0 -16.25590830834949 2.7769536311461707 0 0 0 0 133.71491236954898 13.177469575267651 0 13.177469575267651 -35.152749478015721 0 0 0 0 93.591579769457894 -0.37227194199084579 0 -0.37227194199084579 7.8677495525671475 0 0 0 0 23.259460469565397 25.056638425788293 0 25.056638425788293 -9.5139964951086142 0 0 0 0 53.821409895907721 19.496509727520163 0 19.496509727520163 -15.539946873042565 0 0 0 0 96.166974904597737 -22.212709732671556 0 -22.212709732671556 6.7225805618412551 0 0 0 0 123.80530804771115 -71.588850389533675 0 -71.588850389533675 33.351183863182698 0 0 0 0 30.057198615108916 24.882899790036447 0 24.882899790036447 -4.2098005888576893 0 0 0 0 48.420909142674645 26.680335216262847 0 26.680335216262847 116.69975237058316 0 0 0 0 93.637810168533179 -9.887023728959548 0 -9.887023728959548 6.6376664357121626 0 0 0 0 113.0451449687389 51.396165806527279 0 51.396165806527279 -46.32307291077359 0 0 0 0 16.981366454725503 105.51510571777055 0 105.51510571777055 248.02246679929794 0 0 0 0 -43.647927883255761 -21.469345992205263 0 -21.469345992205263 95.386221444650801 0 0 0 0 45.767099082382629 45.796041789935771 0 45.796041789935771 36.625959689139563 0 0 0 0 61.04084371009958 -129.35730587743728 0 -129.35730587743728 202.93180298751986 0 0 0 0 10.979531497235087 2.5115851358334567 0 2.5115851358334567 1.9536949245323729 0 0 0 0 158.23079237618367 -75.756260958918574 0 -75.756260958918574 1.7467924910542934 0 0 0 0 167.79708644741913 145.51647234959637 0 145.51647234959637 184.40000367716857 0 0 0 0 11.155409067285007 1.04255836031939 0 1.04255836031939 -3.1569937369918115 0 0 0 0 165.78023174832924 -29.723303867993309 0 -29.723303867993309 92.189859551694099 0 0 0 0 167.57143244925828 -20.419637760443948 0 -20.419637760443948 44.976358560190192 0 0 0 0 174.47728009555431 92.678210406577364 0 92.678210406577364 60.946623560434091 0 0 0 0 66.3769039663743 36.405631374218416 0 36.405631374218416 4.2433123929510614 0 0 0 0 135.4967062267242 13.579545423942363 0 13.579545423942363 153.88489622644101 0 0 0 0 115.2173192691771 -25.916112800680366 0 -25.916112800680366 102.10543915028757 0 0 0 0 31.596176040777209 233.75538720696568 0 233.75538720696568 86.751715050743769 0 0 0 0 49.311398725231129 -24.970390556815744 0 -24.970390556815744 8.0480900311081598 0 0 0 0 172.30633691785624 -27.252354026154535 0 -27.252354026154535 -48.805187483721966 0 0 0 0 51.53329911743208 20.843484892533127 0 20.843484892533127 -6.1861741725909063 0 0 0 0 62.87363607090083 13.817180267771278 0 13.817180267771278 1.652427213669398 0 0 0 0 16.242546381067314 -3.0900029430107452 0 -3.0900029430107452 -0.62151512821417576 0 0 0 0 11.99742893868212 -3.5954054149929391 0 -3.5954054149929391 -1.3606621273622519 0 0 0 0 131.06857385142939 10.652761350474435 0 10.652761350474435 -4.704026360441901 0 0 0 0 120.14050091212266 19.495562954636853 0 19.495562954636853 -8.5086551786623659 0 0 0 0 16.212395707490217 11.053418688018837 0 11.053418688018837 -1.2293401604253731 0 0 0 0 115.10124865439866 1.4027126743324061 0 1.4027126743324061 -5.5223439816163591 0 0 0 0 123.20601569820428 7.8649788720479918 0 7.8649788720479918 12.575023521543926 0 0 0 0 123.90991865533579 1.4071095521317432 0 1.4071095521317432 3.7097955106792142 0 0 0 0 116.88581102577155 6.8778739593708451 0 6.8778739593708451 0.0016345968736004579 0 0 0 0 127.85412411938887 8.8166829703751262 0 8.8166829703751262 8.7039455014655687 0 0 0 0 126.81350719694819 15.388259197013241 0 15.388259197013241 20.057364886654796 0 0 0 0 63.056351812338107 17.015319375736716 0 17.015319375736716 3.1338066006296685 0 0 0 0 21.659811443623681 0.53742202044938381 0 0.53742202044938381 -3.003842247217789 0 0 0 0 64.214340497095691 15.37933731552684 0 15.37933731552684 1.3695511866117158 0 0 0 0 63.027037317791837 14.649121816239813 0 14.649121816239813 2.6309831272740212 0 0 0 0 46.93205072497949 17.387199901108488 0 17.387199901108488 3.1460010876367051 0 0 0 0 53.714029255439527 -11.803270822112609 0 -11.803270822112609 10.043609278975055 0 0 0 0 44.269618023070507 -10.832425792502363 0 -10.832425792502363 -4.2290715806384469 0 0 0 0 64.247927789723235 -4.3009704330635827 0 -4.3009704330635827 -6.1619410493917695 0 0 0 0 54.028819833154927 0.90500696349732834 0 0.90500696349732834 -3.00075143486524 0 0 0 0 42.842728919043964 -9.164955728995011 0 -9.164955728995011 9.2535740941216797 0 0 0 0 346.78439013214665 -372.09900386740719 0 -372.09900386740719 -212.16059958778715 0 0 0 0 777.96196088890429 448.26703594967421 0 448.26703594967421 307.75474414387099 0 0 0 0 17.983983298999135 -0.67115510896019259 0 -0.67115510896019259 2.950691106726504 0 0 0 0 265.00578094529919 216.56605786672026 0 216.56605786672026 133.02560141483127 0 0 0 0 509.3123406675586 -26.452977660792385 0 -26.452977660792385 -142.35752531943217 0 0 0 0 -64.011952749540797 -74.290401863863735 0 -74.290401863863735 -49.666553131032742 0 0 0 0 104.00338474830642 -34.050460316330089 0 -34.050460316330089 -10.999602887475703 0 0 0 0 37.029050786599782 -33.503539817115666 0 -33.503539817115666 21.841078324823719 0 0 0 0 -49.706527494170587 -396.19269146012903 0 -396.19269146012903 -65.920267580564541 0 0 0 0 90.547413149382919 -3.1991834975681286 0 -3.1991834975681286 23.67142271285411 0 0 0 0 88.307751727291816 -49.745908958838363 0 -49.745908958838363 1.3332802223521867 0 0 0 0 116.71380605221384 -36.040479412321901 0 -36.040479412321901 -22.72387781242378 0 0 0 0 113.31844138682936 -60.005615759072697 0 -60.005615759072697 4.4988308138717912 0 0 0 0 76.189768167561851 -21.687543106576413 0 -21.687543106576413 19.479717170728236 0 0 0 0 116.02211445980356 45.063310467393876 0 45.063310467393876 -92.452025338072417 0 0 0 0 37.482077428938652 -35.3534348884412 0 -35.3534348884412 19.943358866414115 0 0 0 0 38.788758585695177 -30.852269715691818 0 -30.852269715691818 23.967241850521532 0 0 0 0 52.593768717415514 6.4675947510495462 0 6.4675947510495462 93.212104393594018 0 0 0 0 82.09138880923274 -9.5008081694263637 0 -9.5008081694263637 60.142693251902529 0 0 0 0 81.334997119607578 -50.633508175980978 0 -50.633508175980978 180.89768091160477 0 0 0 0 443.35629140987294 -38.243526900487723 0 -38.243526900487723 5.9218539278126627 0 0 0 0 121.88828017073683 75.635669614209746 0 75.635669614209746 364.35001806266246 0 0 0 0 114.87446556636132 33.057185980332633 0 33.057185980332633 109.13802711500648 0 0 0 0 164.2799166404584 -105.40056146016013 0 -105.40056146016013 4.9355828313355232 0 0 0 0 276.26303982418904 -94.742591509028102 0 -94.742591509028102 -26.346916479828906 0 0 0 0 177.65904831336229 -158.56411379916608 0 -158.56411379916608 185.94333415371966 0 0 0 0 123.33818637579679 55.233079263998661 0 55.233079263998661 -170.11460322015046 0 0 0 0 218.52886883674728 119.81412391579835 0 119.81412391579835 -78.261310274933749 0 0 0 0 97.383716190630366 -1.9777951349466889 0 -1.9777951349466889 -10.369498444777491 0 0 0 0 94.735404051054502 21.641703525337107 0 21.641703525337107 -8.1983746229825556 0 0 0 0 60.920830696228222 63.319699363111283 0 63.319699363111283 -89.939173309705438 0 0 0 0 69.167003054411055 20.164882941159561 0 20.164882941159561 -11.615041903135031 0 0 0 0 9.6325752616976388 97.603843816970993 0 97.603843816970993 105.27082521159218 0 0 0 0 2.1650398390193004 -98.958738418830308 0 -98.958738418830308 173.47828723574867 0 0 0 0 5.3684337831618905 3.1404848347616259 0 3.1404848347616259 -1.0108120535775869 0 0 0 0 110.45651322219055 -198.31691836408118 0 -198.31691836408118 99.789425901596587 0 0 0 0 37.125044094464101 -204.0138247014213 0 -204.0138247014213 -60.003469021032288 0 0 0 0 21.283532862027641 -173.31086844346555 0 -173.31086844346555 93.390712669065124 0 0 0 0 -78.007606459410454 -298.87540936652863 0 -298.87540936652863 -84.592320572081007 0 0 0 0 -150.65357914642664 -117.56340623866799 0 -117.56340623866799 -30.324296744009189 0 0 0 0 11.418036449687861 -12.366020664988042 0 -12.366020664988042 12.572915087245395 0 0 0 0 5.5618181107493001 -23.532402192728313 0 -23.532402192728313 -85.253671262229545 0 0 0 0 17.251169559138361 -215.59612973312778 0 -215.59612973312778 -48.505526689070393 0 0 0 0 111.71095824614167 -190.59883507042377 0 -190.59883507042377 -48.809122253462192 0 0 0 0 83.122443295898847 -91.096651899163589 0 -91.096651899163589 -28.536642431790369 0 0 0 0 126.47267855098471 -29.586945641689454 0 -29.586945641689454 11.21538753302957 0 0 0 0 169.67147633960121 12.890693979455136 0 12.890693979455136 -80.680835133944129 0 0 0 0 61.791769843403017 -30.74575631334983 0 -30.74575631334983 -126.76970787426035 0 0 0 0 18.569158679048996 -94.602821299853531 0 -94.602821299853531 -76.136117889702746 0 0 0 0 51.367160533118295 -39.121792018746874 0 -39.121792018746874 -68.346084199209145 0 0 0 0 0.32296512098400854 -48.161077163463233 0 -48.161077163463233 -46.353504163096659 0 0 0 0 -27.011762975394959 -116.39918747658157 0 -116.39918747658157 -91.050196666616102 0 0 0 0 -1.7133707662578672 -143.63528761958605 0 -143.63528761958605 -160.21920289532477 0 0 0 0 19.070569362896606 -18.048512010921883 0 -18.048512010921883 15.716682350210583 0 0 0 0 -127.07255028776854 -68.496482723223096 0 -68.496482723223096 107.84262377486175 0 0 0 0 71.50130891250592 132.91121794548536 0 132.91121794548536 16.052670912599751 0 0 0 0 -207.40357209375361 34.992670748383944 0 34.992670748383944 -49.725637565046327 0 0 0 0 -40.459174601593986 -19.681610213601743 0 -19.681610213601743 -169.76362314652761 0 0 0 0 88.210970134328818 16.682452749989807 0 16.682452749989807 26.878114909214673 0 0 0 0 16.593072362741026 -3.291844403158791 0 -3.291844403158791 -3.3606720671135619 0 0 0 0 83.729249134514248 -4.7453264360665344 0 -4.7453264360665344 -0.026298213230802503 0 0 0 0 106.15148354004486 56.122940457371442 0 56.122940457371442 35.03150911013131 0 0 0 0 90.002093793566019 13.331296749725198 0 13.331296749725198 -31.557345937695573 0 0 0 0 99.210933854468749 -5.5988321551062654 0 -5.5988321551062654 -19.472942176425931 0 0 0 0 115.00231706147315 -13.700339770092796 0 -13.700339770092796 -98.30621605529268 0 0 0 0 104.60894912283402 -6.6627025137950113 0 -6.6627025137950113 -29.457511735554704 0 0 0 0 29.470478026857165 16.550419063130846 0 16.550419063130846 -21.092640992053934 0 0 0 0 79.937100191105856 -32.776402632936083 0 -32.776402632936083 -75.190480313222281 0 0 0 0 12.141320374605129 74.055194215616837 0 74.055194215616837 28.987449961892139 0 0 0 0 -0.96406830963678658 77.431972466925799 0 77.431972466925799 -66.925244486592419 0 0 0 0 26.714911913627105 10.842799586068054 0 10.842799586068054 -29.127187518088139 0 0 0 0 -4.8843149511526462 4.879937189974612 0 4.879937189974612 -3.7205117361524884 0 0 0 0 13.775423172206047 -8.6518256860101985 0 -8.6518256860101985 2.9917150063318054 0 0 0 0 26.019887443849655 -18.269900114495883 0 -18.269900114495883 10.402917861969259 0 0 0 0 136.17767153528985 -74.765022159892396 0 -74.765022159892396 -30.249857263591821 0 0 0 0 90.338918856461532 -27.066071654642201 0 -27.066071654642201 -58.386561409202841 0 0 0 0 20.916938313413993 -83.277488692553675 0 -83.277488692553675 -28.549421777290263 0 0 0 0 8.0020572588909999 -8.4294574962277693 0 -8.4294574962277693 -4.2100977156405861 0 0 0 0 -126.12734231985814 12.270837083574886 0 12.270837083574886 -63.813677164092155 0 0 0 0 6.2412105968105607 -0.49529198988991036 0 -0.49529198988991036 -0.0017479820467392313 0 0 0 0 21.621535067039076 7.2859936422229445 0 7.2859936422229445 -2.3175717387637795 0 0 0 0 4.1816787496396444 -1.3172473409227337 0 -1.3172473409227337 0.26667332651843934 0 0 0 0 2.7575062152408805 1.030068850508826 0 1.030068850508826 -0.37387071626140089 0 0 0 0 17.821558015380276 -6.349459641272972 0 -6.349459641272972 -1.4842629509629213 0 0 0 0 160.90167090557225 56.454608649206172 0 56.454608649206172 -25.158978257635113 0 0 0 0 3.7218312344311357 1.2795574662878266 0 1.2795574662878266 -3.3099708716554797 0 0 0 0 29.265551928430796 -18.38331720799351 0 -18.38331720799351 -0.052945045617680438 0 0 0 0 1.5424555673981217 -6.1806051483579836 0 -6.1806051483579836 7.807167686613246 0 0 0 0 -0.21592665494245011 -291.43669852372557 0 -291.43669852372557 -264.12844882796981 0 0 0 0 125.90065413515549 -188.94960981118564 0 -188.94960981118564 44.325638838697955 0 0 0 0 320.89025022933492 26.839420987429577 0 26.839420987429577 -100.03317952048086 0 0 0 0 162.14386593570816 134.68430542049413 0 134.68430542049413 49.334698577518793 0 0 0 0 193.40434829989681 33.341195066267574 0 33.341195066267574 -97.109556584617167 0 0 0 0 151.0492941236007 -134.48356663739006 0 -134.48356663739006 -303.90049128228384 0 0 0 0 -78.157623443345074 -60.571915755516784 0 -60.571915755516784 -29.900145787900328 0 0 0 0 -179.46928069529531 -63.923067561408928 0 -63.923067561408928 213.35503776820102 0 0 0 0 -61.376525841595139 -1.0034505106344227 0 -1.0034505106344227 -139.90884456835877 0 0 0 0 -3.9890915088471957 -76.320296379497776 0 -76.320296379497776 0.1160614772070219 0 0 0 0 -125.08381861101952 -161.51927462562597 0 -161.51927462562597 25.482422337234027 0 0 0 0 121.8523489858926 -54.194196000251011 0 -54.194196000251011 -20.030739734424973 0 0 0 0 331.2438485204475 239.22832946944325 0 239.22832946944325 292.31929042165081 0 0 0 0 389.87874130868295 -28.356627934303763 0 -28.356627934303763 -13.07653541175719 0 0 0 0 640.55784025054891 471.64295932352542 0 471.64295932352542 90.584932031731427 0 0 0 0 257.37332534629968 -19.838533660219039 0 -19.838533660219039 -0.071120508746909866 0 0 0 0 247.95066060815589 -41.110061383673013 0 -41.110061383673013 29.528575667162599 0 0 0 0 3.0072198589618893 0.86017469768562194 0 0.86017469768562194 0.2283074553323482 0 0 0 0 -47.623679947282653 -36.153895244462213 0 -36.153895244462213 31.124848254537394 0 0 0 0 229.76819874308421 -9.3240087828776055 0 -9.3240087828776055 213.04029686427612 0 0 0 0 533.23637748142937 28.464518105429818 0 28.464518105429818 -92.830706134477623 0 0 0 0 413.14337724179495 48.638576067773101 0 48.638576067773101 -96.093497946484604 0 0 0 0 241.36363735154737 -49.480993037094777 0 -49.480993037094777 36.099431488129085 0 0 0 0 379.55215331689396 95.520203013061632 0 95.520203013061632 -161.34752643841693 0 0 0 0 266.75585855700774 131.63782770346415 0 131.63782770346415 -35.980039584515112 0 0 0 0 388.74914679021458 144.89537154644407 0 144.89537154644407 -34.984279894325482 0 0 0 0 5.5988914568422388 -1.4991090851196986 0 -1.4991090851196986 1.0628354029702183 0 0 0 0 404.39570029114839 38.161528644469968 0 38.161528644469968 -108.64026885775093 0 0 0 0 -487.67127066536341 -161.34479515859502 0 -161.34479515859502 653.63278736410609 0 0 0 0 -59.617043491125514 23.418374782589098 0 23.418374782589098 0.032144496623985226 0 0 0 0 67.045338308671489 -189.26244275824388 0 -189.26244275824388 37.402942924405011 0 0 0 0 3.4241811587075972 0.050839898176235465 0 0.050839898176235465 -0.059333107444876951 0 0 0 0 140.01880369335413 -206.93297415568475 0 -206.93297415568475 41.469549077618723 0 0 0 0 299.7928658471792 -162.41011307620346 0 -162.41011307620346 -12.952182799260527 0 0 0 0 577.26849092176417 327.79520757797849 0 327.79520757797849 1.1112785659297115 0 0 0 0 86.357493798510404 -129.81063803373274 0 -129.81063803373274 -10.236595133330418 0 0 0 0 -63.068966666665801 -52.477172246732621 0 -52.477172246732621 0.018382092848631355 0 0 0 0 -0.10547502010086873 0.82067507706824472 0 0.82067507706824472 -0.93081976004638611 0 0 0 0 66.051120259449817 -50.071050280473571 0 -50.071050280473571 11.840971494183123 0 0 0 0 -15.197465242836188 -36.173552387896926 0 -36.173552387896926 -25.888515951310438 0 0 0 0 4.0959766954851062 -2.2918111830592807 0 -2.2918111830592807 -4.6782523608006326 0 0 0 0 192.44912518633646 -62.409850671819015 0 -62.409850671819015 -21.409946067215003 0 0 0 0 14.366312896059299 -6.999255440291563 0 -6.999255440291563 -1.1044384687404074 0 0 0 0 46.730937093612738 -83.690517010310714 0 -83.690517010310714 -86.622790883400171 0 0 0 0 35.582006216252921 -38.240974389314502 0 -38.240974389314502 27.86609922214177 0 0 0 0 39.054991603807139 18.69995249785444 0 18.69995249785444 88.953122563280886 0 0 0 0 -53.930328968097456 -13.120331449926198 0 -13.120331449926198 29.222468525864997 0 0 0 0 4.4386122566943698 -6.8260258633130775 0 -6.8260258633130775 -14.986659718954215 0 0 0 0 -44.338716105732601 38.333336150571085 0 38.333336150571085 29.920720938845022 0 0 0 0 13.293623512203339 -48.655562322690002 0 -48.655562322690002 39.373044652564658 0 0 0 0 101.00558661785908 -37.295562220457214 0 -37.295562220457214 20.523605058712974 0 0 0 0 278.27111010844237 -32.559688087425457 0 -32.559688087425457 13.954994088250032 0 0 0 0 420.26885760523146 138.93997846236789 0 138.93997846236789 94.30150100574474 0 0 0 0 20.120106462243712 -223.81824706070938 0 -223.81824706070938 164.99433738476318 0 0 0 0 682.11236526834546 165.19995949347003 0 165.19995949347003 -98.944744314631066 0 0 0 0 -0.67558910720981658 -184.58068524039936 0 -184.58068524039936 -66.869641545241279 0 0 0 0 448.61194318687194 195.43458232094144 0 195.43458232094144 -101.71685757160239 0 0 0 0 4.1275062486602678 -0.33177762138689104 0 -0.33177762138689104 -1.0250295392262823 0 0 0 0 351.43292293098057 73.979956688544007 0 73.979956688544007 -167.6906745105191 0 0 0 0 436.73584619621397 -0.36408273555889537 0 -0.36408273555889537 -150.20038507457275 0 0 0 0 432.69847937433951 -27.582866468902594 0 -27.582866468902594 -73.958960563515575 0 0 0 0 -25.659748630656395 -12.096677906657135 0 -12.096677906657135 29.617680015420092 0 0 0 0 247.49174086650601 6.0935094984520219 0 6.0935094984520219 6.8467282063800212 0 0 0 0 247.02171781397192 -7.2338425298955826 0 -7.2338425298955826 110.93386704017576 0 0 0 0 -65.582388523311238 189.50919562864249 0 189.50919562864249 -270.2151047758714 0 0 0 0 101.79237888817443 -57.52024594472379 0 -57.52024594472379 -86.109246647373737 0 0 0 0 45.688633908081101 -139.14203849938619 0 -139.14203849938619 0.0060216928431452571 0 0 0 0 14.149899935509893 -79.371226585343706 0 -79.371226585343706 -84.69743659593945 0 0 0 0 -2.1262236399925314 -41.999965828810772 0 -41.999965828810772 -38.909869129879063 0 0 0 0 -14.15025382595195 -55.695172649829217 0 -55.695172649829217 -38.138380005530436 0 0 0 0 7.9906482002370467 -85.358119863288152 0 -85.358119863288152 -0.093975860308104744 0 0 0 0 -12.79940284465556 -49.68481577430768 0 -49.68481577430768 -17.124577547093565 0 0 0 0 -8.2804210107424296 -37.749332665594252 0 -37.749332665594252 -28.895921084876363 0 0 0 0 9.0104990818215356 -11.097149686451573 0 -11.097149686451573 5.0047018704819228 0 0 0 0 23.694186396543955 -18.701422653299915 0 -18.701422653299915 -31.276972041103363 0 0 0 0 20.072343171297689 -8.449908762708219 0 -8.449908762708219 -12.75556708464228 0 0 0 0 7.7367330400302308 -35.627878803507883 0 -35.627878803507883 4.6854693170148494 0 0 0 0 11.63019058421196 -34.56988800630802 0 -34.56988800630802 -15.487581353556379 0 0 0 0 12.128519104543955 -13.395555613120464 0 -13.395555613120464 2.3864584007050649 0 0 0 0 28.006697320830426 -39.382657554764023 0 -39.382657554764023 -62.468073078039737 0 0 0 0 10.000421311808168 -6.4952345640595581 0 -6.4952345640595581 -107.60469426545959 0 0 0 0 115.29140602584812 -108.91170966923619 0 -108.91170966923619 217.56612438784396 0 0 0 0 -11.392236388014453 -13.347246955095045 0 -13.347246955095045 -6.2863186464592751 0 0 0 0 279.62866925267735 -502.56794713244653 0 -502.56794713244653 673.3664848781973 0 0 0 0 3.8483998015537964 -2.51696630618531 0 -2.51696630618531 -5.1982334155737693 0 0 0 0 1126.5309998590383 -410.94437101715107 0 -410.94437101715107 36.10427451464966 0 0 0 0 -2.5330490731012674 -11.401208966782633 0 -11.401208966782633 -11.153155400626598 0 0 0 0 779.13776904105907 -5.9416304800456601 0 -5.9416304800456601 -16.996760763850943 0 0 0 0 47.037037345027784 -160.74468528538 0 -160.74468528538 -63.144286988859676 0 0 0 0 234.66107145783462 544.00404803872357 0 544.00404803872357 -254.32842167241324 0 0 0 0 733.17067294700973 -324.13090635644539 0 -324.13090635644539 29.033681799859551 0 0 0 0 159.76886624481995 -294.04585858143946 0 -294.04585858143946 259.07865031913002 0 0 0 0 445.88994748691039 -98.715419832582029 0 -98.715419832582029 -65.632757888311971 0 0 0 0 191.10231579261017 -99.656592316972819 0 -99.656592316972819 -31.873818122653574 0 0 0 0 25.952102554088924 -39.111266262046229 0 -39.111266262046229 5.14270832962643 0 0 0 0 178.00615863494022 -299.83248891276025 0 -299.83248891276025 113.99059147916705 0 0 0 0 -19.288027176538037 -14.430995777528096 0 -14.430995777528096 -10.688635501653881 0 0 0 0 65.42294919496635 -20.070505508328097 0 -20.070505508328097 -9.9642410437218132 0 0 0 0 27.221565719533828 -42.498044313492073 0 -42.498044313492073 0.68698530542314984 0 0 0 0 118.06653501704568 11.402391238045311 0 11.402391238045311 -16.565677479549777 0 0 0 0 70.453238974994747 -54.734346884404658 0 -54.734346884404658 -0.52586905143925833 0 0 0 0 236.58952667025005 -167.34367881211938 0 -167.34367881211938 -41.533593642045162 0 0 0 0 104.02830305400676 -53.357119884069277 0 -53.357119884069277 8.2411654768657172 0 0 0 0 219.77125909423921 -199.30524857811361 0 -199.30524857811361 45.010401422616269 0 0 0 0 103.85095154240844 -39.948234291161498 0 -39.948234291161498 4.9541837857373139 0 0 0 0 -1.6686552416203995 -8.1961008569207578 0 -8.1961008569207578 0.69931967600373657 0 0 0 0 7.7871179920946361 -29.246047874487004 0 -29.246047874487004 -17.531961229138538 0 0 0 0 30.742282672464611 -36.969642542428915 0 -36.969642542428915 -6.3727112535632955 0 0 0 0 214.1275322837464 -120.65062137026325 0 -120.65062137026325 -33.931320483512536 0 0 0 0 165.67879676267023 -324.01155922392593 0 -324.01155922392593 -350.9679509219568 0 0 0 0 29.181071224552049 -84.615393301772883 0 -84.615393301772883 -5.3365991710140719 0 0 0 0 180.14310915308306 -106.65663209618651 0 -106.65663209618651 -28.099231122349011 0 0 0 0 209.73763475735905 -137.68376339812858 0 -137.68376339812858 -74.311493121476815 0 0 0 0 -140.53313238302508 -5.3971578820323884 0 -5.3971578820323884 113.24272099313202 0 0 0 0 42.54443265559614 -67.912932297102913 0 -67.912932297102913 -27.509844562217744 0 0 0 0 -134.58946084576746 -20.954718486262777 0 -20.954718486262777 -25.340707096554979 0 0 0 0 211.90011618848075 29.02091157626819 0 29.02091157626819 -84.464619299820356 0 0 0 0 242.50156851732754 -0.07235176232552476 0 -0.07235176232552476 -272.85259287102599 0 0 0 0 128.03324636498462 28.840239851900577 0 28.840239851900577 0.31493417619088504 0 0 0 0 470.61237119771249 -138.39903421315512 0 -138.39903421315512 67.914953473230071 0 0 0 0 126.76135776950105 -129.54196577088987 0 -129.54196577088987 -39.097920709518803 0 0 0 0 177.35097440745449 -146.5208128777067 0 -146.5208128777067 -166.74975442880441 0 0 0 0 78.192287372333737 20.389159151226877 0 20.389159151226877 4.2688233647786369 0 0 0 0 205.62331224060108 0.69749790027935887 0 0.69749790027935887 -572.45929723320478 0 0 0 0 566.7005745999777 -546.83282124445395 0 -546.83282124445395 485.30089322409094 0 0 0 0 606.69312493897451 -427.93477899090772 0 -427.93477899090772 696.33474707932692 0 0 0 0 78.587807955103926 -2.8032467590443275 0 -2.8032467590443275 -10.455575398545989 0 0 0 0 102.41069042260642 0.39401330733471696 0 0.39401330733471696 -26.149313361620216 0 0 0 0 105.08945616532583 -7.3242546735828 0 -7.3242546735828 -6.7165914118504588 0 0 0 0 105.79220310293022 -6.342229841376934 0 -6.342229841376934 -12.761370559653187 0 0 0 0 74.34898807670919 10.726586308783453 0 10.726586308783453 -11.288944462923645 0 0 0 0 101.92661188769853 -53.897372288257202 0 -53.897372288257202 -333.77339326912897 0 0 0 0 -2310.0706892337184 401.42965712412206 0 401.42965712412206 314.14435941621923 0 0 0 0 14.860307874882892 -9.82968733884843 0 -9.82968733884843 -6.3803280699126255 0 0 0 0 36.025916605663951 -16.247608419573226 0 -16.247608419573226 48.975262165013191 0 0 0 0 -1116.7758192273322 455.12662566520885 0 455.12662566520885 -279.86666592401525 0 0 0 0 -24.672551861523971 -285.73397667049909 0 -285.73397667049909 -166.77715534025992 0 0 0 0 4.4213099394924029 -4.4045995143049765 0 -4.4045995143049765 4.4561095556993369 0 0 0 0 867.00539485906484 -148.04892814995083 0 -148.04892814995083 -221.97212778549192 0 0 0 0 84.730353134837856 -11.402270361279864 0 -11.402270361279864 -1.5432598459932567 0 0 0 0 6.5064070052176248 -282.03542466233057 0 -282.03542466233057 32.515101766661701 0 0 0 0 667.99068394324331 -191.46556521275323 0 -191.46556521275323 -62.308259746629119 0 0 0 0 87.001074770276318 -50.814180575236605 0 -50.814180575236605 59.320374645908487 0 0 0 0 -199.68423634479404 100.33805961002554 0 100.33805961002554 32.391701693057485 0 0 0 0 10.255958976318084 -5.8993331553173789 0 -5.8993331553173789 -13.141837621883564 0 0 0 0 6.639348445169162 29.80108710539821 0 29.80108710539821 -50.658655879370599 0 0 0 0 76.573863916186383 -27.577709678393148 0 -27.577709678393148 -16.84428562118228 0 0 0 0 4.7958852536976337 87.356079468637063 0 87.356079468637063 -154.07349653964138 0 0 0 0 56.423016457003541 -28.546720357719096 0 -28.546720357719096 -25.722712852663335 0 0 0 0 85.077480701278546 -25.065942473750056 0 -25.065942473750056 -35.886618408617323 0 0 0 0 61.900161104885569 -14.983749452189269 0 -14.983749452189269 1.0798415095807821 0 0 0 0 76.629509209480602 -25.575620938421707 0 -25.575620938421707 -26.23172527835959 0 0 0 0 86.888881945167668 -6.7328382998593952 0 -6.7328382998593952 3.4608456993614709 0 0 0 0 96.253795906552114 -5.4205580419703665 0 -5.4205580419703665 -12.607230216044059 0 0 0 0 165.3835900693642 -120.606729010397 0 -120.606729010397 -3.9622974279809569 0 0 0 0 77.747271775031408 11.663955430734944 0 11.663955430734944 -35.508197043900864 0 0 0 0 93.937907141458709 -26.60872418382462 0 -26.60872418382462 -26.499541060050603 0 0 0 0 293.42285253034788 -155.26498510962392 0 -155.26498510962392 -88.940720073242119 0 0 0 0 414.55917690796196 -48.565299396396313 0 -48.565299396396313 -44.711875022287131 0 0 0 0 1.5282298644333707 4.2580779185340702 0 4.2580779185340702 -1.9388724227104106 0 0 0 0 64.668829490830859 26.738507204345865 0 26.738507204345865 -24.779667910056226 0 0 0 0 98.935906745056855 -5.6432174903887926 0 -5.6432174903887926 3.3600618105143667 0 0 0 0 116.62149677968046 172.8788979354573 0 172.8788979354573 19.293245880537597 0 0 0 0 97.230475702337571 -0.77052488373141159 0 -0.77052488373141159 9.177021212364707 0 0 0 0 105.98226886460907 0.93222950186941489 0 0.93222950186941489 0.62456386352914706 0 0 0 0 99.381781789910747 0.59770377478616865 0 0.59770377478616865 -11.61439885821801 0 0 0 0 100.79842758296581 -3.9316036623779382 0 -3.9316036623779382 -0.016028940785417944 0 0 0 0 105.38556617090944 3.7937325561549642 0 3.7937325561549642 -4.679427980292985 0 0 0 0 110.13130694173742 4.862686010669222 0 4.862686010669222 -7.492113465966213 0 0 0 0 109.6368197085103 -2.1889573220987586 0 -2.1889573220987586 -15.343847442141168 0 0 0 0 112.35823798335332 -2.5104080699140923 0 -2.5104080699140923 1.0153292347235947 0 0 0 0 107.71644766451209 -2.678634083312371 0 -2.678634083312371 7.704263308095662 0 0 0 0 118.3412702283531 1.8705717301347633 0 1.8705717301347633 10.128501383460772 0 0 0 0 116.68392605418921 4.723467209302882 0 4.723467209302882 5.2769391097554106 0 0 0 0 117.04889896188979 0.781148058111512 0 0.781148058111512 13.082423669151012 0 0 0 0 114.06162891112035 5.8064086731581028 0 5.8064086731581028 10.092464706783005 0 0 0 0 106.38712543771544 -1.6762711869660052 0 -1.6762711869660052 6.5661779740298698 0 0 0 0 109.53886273619719 10.106486471667267 0 10.106486471667267 11.292528545648111 0 0 0 0 51.589508816206944 103.20891988269454 0 103.20891988269454 -40.897250765079434 0 0 0 0 73.062983367817708 32.195595252117812 0 32.195595252117812 -18.669389050036518 0 0 0 0 115.08949039128493 -3.5754383943217363 0 -3.5754383943217363 16.339781484955893 0 0 0 0 15.656701496729511 112.57577045519656 0 112.57577045519656 -16.17856552817284 0 0 0 0 6.0728499074102729 91.604840764193796 0 91.604840764193796 38.150697884300826 0 0 0 0 75.14919237030449 37.414826807720274 0 37.414826807720274 -11.319059259696443 0 0 0 0 151.98755702743802 -25.083914342539174 0 -25.083914342539174 1.9235299319830119 0 0 0 0 -11.407201099344263 3.4201349986262954 0 3.4201349986262954 -1.366369782513015 0 0 0 0 194.37102777270775 192.64089267799409 0 192.64089267799409 170.54579873944931 0 0 0 0 12.816341782934614 77.390197760480078 0 77.390197760480078 55.213422758955858 0 0 0 0 -32.917367572188937 14.046053246554408 0 14.046053246554408 3.2092629678964073 0 0 0 0 42.861832347029122 48.086442120822539 0 48.086442120822539 38.458958564602803 0 0 0 0 314.02524133372935 -221.97862617622013 0 -221.97862617622013 -214.85952325047947 0 0 0 0 927.32793851222959 -514.24538734834005 0 -514.24538734834005 247.0499842651825 0 0 0 0 2.2881826499463429 3.6480147235657796 0 3.6480147235657796 -3.5583791701916176 0 0 0 0 612.44845938240178 -497.50328531478954 0 -497.50328531478954 388.73938922204979 0 0 0 0 1186.2077639733398 -828.81040725657454 0 -828.81040725657454 117.76295426061188 0 0 0 0 298.60417049925309 110.70573283227623 0 110.70573283227623 -118.08817707414892 0 0 0 0 903.55541226787318 219.9863507094633 0 219.9863507094633 -1062.5393882813914 0 0 0 0 294.96291378299065 29.881267910665088 0 29.881267910665088 -48.501348865468572 0 0 0 0 298.2394358922902 -60.646214378132527 0 -60.646214378132527 56.057384120774032 0 0 0 0 252.3682339554689 -177.08975590194694 0 -177.08975590194694 183.61588556196784 0 0 0 0 440.6898101291481 -69.742533147615035 0 -69.742533147615035 -53.223166245993525 0 0 0 0 2.2901862249790312 3.7543282097722965 0 3.7543282097722965 -8.1641406939618761 0 0 0 0 671.97634032162023 -293.684969500242 0 -293.684969500242 59.696512997808895 0 0 0 0 273.81411700553144 -18.855356349279873 0 -18.855356349279873 27.243662191283647 0 0 0 0 216.96534870233882 -100.10355954494321 0 -100.10355954494321 -16.344430674929299 0 0 0 0 273.40304054890294 24.275148668581096 0 24.275148668581096 -116.13927815442003 0 0 0 0 440.0949751529879 22.015109594688056 0 22.015109594688056 -8.641778926099505 0 0 0 0 449.66294698340062 -71.559273664970533 0 -71.559273664970533 -55.709386424033255 0 0 0 0 2.7456956316944883 2.1718340662404216 0 2.1718340662404216 -12.753834992444425 0 0 0 0 221.39940801828925 -58.212854890677363 0 -58.212854890677363 162.65449802231706 0 0 0 0 624.25026990874903 -214.73169118844817 0 -214.73169118844817 55.840599956380174 0 0 0 0 3.3681994146619445 -2.7753491223397901 0 -2.7753491223397901 -3.6339570959371752 0 0 0 0 17.839696822932936 5.9562353426747165 0 5.9562353426747165 3.6547454609788055 0 0 0 0 54.140752954946947 -23.56712459702667 0 -23.56712459702667 6.9748684245022439 0 0 0 0 22.803343844902827 -32.120002693560011 0 -32.120002693560011 -16.229522510704388 0 0 0 0 602.50520791401505 -239.28039107731914 0 -239.28039107731914 143.02547729700981 0 0 0 0 354.07445591453143 -240.61804895363139 0 -240.61804895363139 225.77278759713863 0 0 0 0 477.419355616752 -311.25081323230529 0 -311.25081323230529 257.76954776493591 0 0 0 0 472.61624775292876 -301.35947094719057 0 -301.35947094719057 252.73405154008833 0 0 0 0 66.017581821466592 -44.627254285037019 0 -44.627254285037019 44.235467211716418 0 0 0 0 460.84248697865405 -364.06656649807792 0 -364.06656649807792 204.85259726704476 0 0 0 0 688.94280070166133 -260.88913998344765 0 -260.88913998344765 -0.65077849932276877 0 0 0 0 679.44651598737983 -260.76321138811306 0 -260.76321138811306 137.4639697380444 0 0 0 0 431.30546217929805 -391.00485566581142 0 -391.00485566581142 359.46410023825661 0 0 0 0 393.27211914383224 -300.98976027372214 0 -300.98976027372214 291.27649908079047 0 0 0 0 443.08695453134715 -169.78731000490006 0 -169.78731000490006 105.76206890754827 0 0 0 0 742.4958809820705 -294.41715522951728 0 -294.41715522951728 28.866212531801921 0 0 0 0 753.35018775719368 81.646244211569154 0 81.646244211569154 308.95153776361394 0 0 0 0 55.491506358259358 -131.7766596807769 0 -131.7766596807769 413.87620688831612 0 0 0 0 281.66970976610901 -175.86697189709184 0 -175.86697189709184 65.631508326630865 0 0 0 0 158.28743110754294 -309.93310587270571 0 -309.93310587270571 12.014277770712852 0 0 0 0 165.6817014763725 -5.5071210452226858 0 -5.5071210452226858 -9.7803415841272567 0 0 0 0 949.7957299004338 -366.64006875261475 0 -366.64006875261475 -315.36153979031496 0 0 0 0 378.65122204711224 228.15764107955113 0 228.15764107955113 -724.82533774461808 0 0 0 0 560.83276630456385 -320.03730592188208 0 -320.03730592188208 141.08580863593488 0 0 0 0 639.3091592193814 -484.89849008632791 0 -484.89849008632791 267.13413611813667 0 0 0 0 545.39284851076081 -307.61480191035344 0 -307.61480191035344 257.9632676921081 0 0 0 0 474.58749182605243 -353.4223258172135 0 -353.4223258172135 313.49155722921114 0 0 0 0 76.915595201629912 -391.70287047813599 0 -391.70287047813599 323.86341390207463 0 0 0 0 28.526045156282208 2.2412117841152508 0 2.2412117841152508 2.1535054023292659 0 0 0 0 -78.863307323335903 -160.62341810204362 0 -160.62341810204362 83.026550548531304 0 0 0 0 790.39425181329716 -434.09382349971474 0 -434.09382349971474 258.72995356482897 0 0 0 0 705.15530559478793 -395.81101169622798 0 -395.81101169622798 272.32236671403916 0 0 0 0 96.835529729002246 7.7866620500841197 0 7.7866620500841197 -7.0626303052904369 0 0 0 0 183.30330529511411 -372.41690977870167 0 -372.41690977870167 -985.60624274439942 0 0 0 0 617.95323953649495 -338.09747179622718 0 -338.09747179622718 247.58989138793731 0 0 0 0 72.494805732814712 126.46541407708764 0 126.46541407708764 -173.13551920753127 0 0 0 0 140.81827639791567 -8.7040341826461614 0 -8.7040341826461614 -15.086997847673832 0 0 0 0 190.99445274760365 -137.9539635679439 0 -137.9539635679439 -353.92989297391068 0 0 0 0 -0.38535152535769157 86.470796681325055 0 86.470796681325055 -61.31570610469953 0 0 0 0 24.905109632612483 -0.23129532682420972 0 -0.23129532682420972 -30.417534448836459 0 0 0 0 16.415538890614698 127.33385251862751 0 127.33385251862751 16.162632338101048 0 0 0 0 -351.07135785479477 -236.74064807167088 0 -236.74064807167088 250.15720883673475 0 0 0 0 263.12548725805391 125.29284120756944 0 125.29284120756944 -427.78146814200909 0 0 0 0 254.57068272240576 195.79093942009035 0 195.79093942009035 -185.57547736084533 0 0 0 0 69.522916739944776 147.74136153943005 0 147.74136153943005 -74.217627734273719 0 0 0 0 70.291059975555982 114.48147198707738 0 114.48147198707738 -81.143767440335978 0 0 0 0 151.05992579269696 213.00031731229927 0 213.00031731229927 38.799340718296662 0 0 0 0 180.4520981808746 108.54367062015592 0 108.54367062015592 50.830273372026568 0 0 0 0 385.07332410902018 152.85623919972977 0 152.85623919972977 -193.37310540727003 0 0 0 0 465.94309960087412 -30.653923277348895 0 -30.653923277348895 19.176593424009297 0 0 0 0 413.12274488579715 146.38908294286375 0 146.38908294286375 35.620642725041307 0 0 0 0 195.262205292609 88.553570731657373 0 88.553570731657373 7.8958716288507276 0 0 0 0 214.23810816786136 143.42270416219981 0 143.42270416219981 166.52637747656081 0 0 0 0 20.275234292173991 166.49888755371512 0 166.49888755371512 44.811375491324725 0 0 0 0 181.32312847326102 -12.101564427454377 0 -12.101564427454377 -80.863206664843801 0 0 0 0 -29.36938128748443 240.97866843657448 0 240.97866843657448 -306.69566783039681 0 0 0 0 223.0251289694861 64.926061681008605 0 64.926061681008605 35.379619767809345 0 0 0 0 489.96662391233258 -200.10030500039738 0 -200.10030500039738 -205.97011549232957 0 0 0 0 372.4332580653936 396.80768478860227 0 396.80768478860227 60.846136735282926 0 0 0 0 236.12878132353944 -248.03772621024564 0 -248.03772621024564 -138.72535180281193 0 0 0 0 -61.943560699502996 41.70777947649492 0 41.70777947649492 -15.657684874224287 0 0 0 0 -4.5219888003306394 0.89976069186135987 0 0.89976069186135987 -8.3375241804583169 0 0 0 0 -358.81687076188973 119.36348967194408 0 119.36348967194408 8.6691285429274103 0 0 0 0 -231.1604894066113 -126.50625162860069 0 -126.50625162860069 -187.58343205280835 0 0 0 0 556.67191835487029 -128.80363014556769 0 -128.80363014556769 -78.600287394683619 0 0 0 0 750.52779569503036 41.513704007998967 0 41.513704007998967 -392.19795006853451 0 0 0 0 790.04872738086851 -158.62252326282089 0 -158.62252326282089 -176.4812534943685 0 0 0 0 2058.1872784670995 -310.08867708397884 0 -310.08867708397884 66.031382433086492 0 0 0 0 786.84819617649191 54.037419692415824 0 54.037419692415824 45.616740628234766 0 0 0 0 441.62918982030533 -469.2069247908621 0 -469.2069247908621 690.4633796400658 0 0 0 0 1139.4708435815701 -1031.9231131430734 0 -1031.9231131430734 926.53730554167487 0 0 0 0 1192.2605528757122 -468.930392141212 0 -468.930392141212 56.617201591470803 0 0 0 0 624.38793157432519 -172.00047125973924 0 -172.00047125973924 -43.329436741588779 0 0 0 0 677.61585223808652 -296.97672802565626 0 -296.97672802565626 69.400242719268135 0 0 0 0 439.40365454289713 -129.05888947004314 0 -129.05888947004314 -14.063754320122825 0 0 0 0 362.40332011785358 -202.73061245738791 0 -202.73061245738791 180.50592793567921 0 0 0 0 283.92562547168927 -188.31450614444475 0 -188.31450614444475 205.36539953290776 0 0 0 0 284.49410716151579 -178.21139039195145 0 -178.21139039195145 225.7487312043595 0 0 0 0 262.41113728721029 -224.69465493798157 0 -224.69465493798157 310.46667445073035 0 0 0 0 262.86222638046638 -218.01065592337335 0 -218.01065592337335 279.17516314983732 0 0 0 0 344.65945432893932 -234.84995533307847 0 -234.84995533307847 227.56780539998317 0 0 0 0 329.49958962271921 -290.40385503375001 0 -290.40385503375001 350.74617841272629 0 0 0 0 156.27961532802146 -55.209823773798234 0 -55.209823773798234 281.83458283204891 0 0 0 0 134.38362101980601 -98.987230376496882 0 -98.987230376496882 333.0464221072416 0 0 0 0 129.97240095620509 -125.60751160774817 0 -125.60751160774817 257.39894738980001 0 0 0 0 198.98602294770535 -178.3015351542108 0 -178.3015351542108 255.11911782908646 0 0 0 0 198.88666657331123 -176.74769862318431 0 -176.74769862318431 295.28556940797716 0 0 0 0 223.72321873513283 -131.03997876102585 0 -131.03997876102585 238.77413947534569 0 0 0 0 226.25183199162711 -140.05831987304009 0 -140.05831987304009 208.32351405151803 0 0 0 0 166.29774503703811 -214.42486755213577 0 -214.42486755213577 330.24582618351269 0 0 0 0 87.264029640704393 -183.00257969801532 0 -183.00257969801532 322.26830455040363 0 0 0 0 87.264029640587978 -183.00257969801169 0 -183.00257969801169 322.26830455040908 0 0 0 0 87.264029640558874 -183.00257969794893 0 -183.00257969794893 322.26830455046729 0 0 0 0 65.656764506216859 -110.94346246921759 0 -110.94346246921759 331.12674448492953 0 0 0 0 10.485331749022428 -26.715398486004545 0 -26.715398486004545 14.105750166797066 0 0 0 0 45.501219780357076 9.0868403208558775 0 9.0868403208558775 -0.62571429853918303 0 0 0 0 42.871288701804588 -285.31739924945668 0 -285.31739924945668 -1021.8820928209525 0 0 0 0 241.48557821789291 -226.89543038402098 0 -226.89543038402098 331.44484143678926 0 0 0 0 293.48674391838722 -208.13846344441754 0 -208.13846344441754 310.45104292440078 0 0 0 0 284.83613613780471 -229.61087833037345 0 -229.61087833037345 337.63923896500978 0 0 0 0 -211.0659047829904 -1188.5073386084846 0 -1188.5073386084846 1105.849421249899 0 0 0 0 48.714086408290314 -1175.460689285374 0 -1175.460689285374 -213.32590832644564 0 0 0 0 -397.82851967430906 -202.40381004465962 0 -202.40381004465962 753.32738794990655 0 0 0 0 -638.48658350812912 -330.92871969657062 0 -330.92871969657062 2352.2832337908985 0 0 0 0 -424.48743257430033 -346.21084319603051 0 -346.21084319603051 188.15590652545688 0 0 0 0 -194.59035212737945 -250.20613658037837 0 -250.20613658037837 -74.650219571027264 0 0 0 0 -253.95085649807879 91.426669915247658 0 91.426669915247658 19.322956045854426 0 0 0 0 -104.25081614323426 341.41825584696699 0 341.41825584696699 436.38554680293964 0 0 0 0 132.06463054442429 168.04252652182595 0 168.04252652182595 -818.63804049805367 0 0 0 0 1050.1163093633513 1751.1432599735072 0 1751.1432599735072 1413.865491236058 0 0 0 0 35.641387452672575 3.4497547832780544 0 3.4497547832780544 1.2879935964701641 0 0 0 0 779.23583397851326 -1993.4376724759586 0 -1993.4376724759586 2316.777642948693 0 0 0 0 2341.3012802517187 -1645.5458330541223 0 -1645.5458330541223 -85.631628989798628 0 0 0 0 351.62600163755997 -507.54159149466068 0 -507.54159149466068 1064.8363560342386 0 0 0 0 540.03673973993864 -447.9530642091504 0 -447.9530642091504 373.55441817689189 0 0 0 0 995.80028458181914 1348.2627890203262 0 1348.2627890203262 -1044.8506719314246 0 0 0 0 824.61541932616092 803.06620979631225 0 803.06620979631225 867.77400896313338 0 0 0 0 -340.64719806176436 -886.78752808290574 0 -886.78752808290574 938.99750972346737 0 0 0 0 1583.1292095085373 1599.4417987090746 0 1599.4417987090746 -1262.988771959971 0 0 0 0 17.397445496820865 6.8785569057081588 0 6.8785569057081588 2.3216195049647084 0 0 0 0 281.24339701332792 -102.35032063746303 0 -102.35032063746303 -17.339745639401031 0 0 0 0 274.06627792703512 -133.64096101735004 0 -133.64096101735004 -1.6092207096510265 0 0 0 0 166.66022433848411 -32.917792896532092 0 -32.917792896532092 -51.004057254466716 0 0 0 0 299.50860286263924 -94.289984793059148 0 -94.289984793059148 -57.169861451397082 0 0 0 0 272.83176833468315 -113.20346883793457 0 -113.20346883793457 -2.1175837755117755 0 0 0 0 138.9111563081824 -54.63995844174724 0 -54.63995844174724 22.37972434964172 0 0 0 0 365.85962093287526 -161.83832150339947 0 -161.83832150339947 3.3312055489893737 0 0 0 0 383.89518306729951 -108.83146628926701 0 -108.83146628926701 35.39745454427748 0 0 0 0 0.057135513800396609 -1.2788766292796936 0 -1.2788766292796936 1.260939908776491 0 0 0 0 -185.16459817639407 170.1701108024549 0 170.1701108024549 104.52390742859416 0 0 0 0 456.64278470414865 -120.01822040659704 0 -120.01822040659704 -18.548958091676013 0 0 0 0 338.74422922676604 -124.24046042256896 0 -124.24046042256896 7.1084839016775732 0 0 0 0 -0.28217584717834043 -3.5404673909596625 0 -3.5404673909596625 -1.8114661773661602 0 0 0 0 -354.72505481078406 13.840617338003767 0 13.840617338003767 146.16557576802097 0 0 0 0 223.67662256030599 -138.529320049116 0 -138.529320049116 15.909020260026182 0 0 0 0 310.87073153836081 -188.25525453775904 0 -188.25525453775904 40.142157535387923 0 0 0 0 312.59447849419666 -182.70015385598299 0 -182.70015385598299 -35.681375043608114 0 0 0 0 333.07132640039254 -163.67929331628628 0 -163.67929331628628 -36.722540079577811 0 0 0 0 397.74358611475327 -79.744112626125684 0 -79.744112626125684 -71.389181652472871 0 0 0 0 357.93089779491129 -172.95815919595361 0 -172.95815919595361 -33.661525797132981 0 0 0 0 174.4462226114847 -39.568005023973456 0 -39.568005023973456 7.0071756539721264 0 0 0 0 239.3032423860277 23.696993270606526 0 23.696993270606526 -38.382702078740294 0 0 0 0 160.48784934118157 23.400078403896259 0 23.400078403896259 -45.959665028732616 0 0 0 0 -22.518318160713534 21.915769994998755 0 21.915769994998755 -12.704775041901485 0 0 0 0 -75.55373356754717 4.1095803335256278 0 4.1095803335256278 -23.637842729095155 0 0 0 0 92.175422585248725 -24.381277923593302 0 -24.381277923593302 -22.476609397623179 0 0 0 0 89.288056619217514 27.050531976353483 0 27.050531976353483 -70.05263327510329 0 0 0 0 193.88015472085681 -3.0217114408746966 0 -3.0217114408746966 -69.821388813157682 0 0 0 0 193.778735576896 -41.789966462732082 0 -41.789966462732082 -64.486344622181662 0 0 0 0 541.14803780155489 -72.852207964742774 0 -72.852207964742774 -16.850333412926375 0 0 0 0 894.48140706078266 -130.79321066666125 0 -130.79321066666125 -53.033816908547124 0 0 0 0 691.67479069132241 20.781749358106936 0 20.781749358106936 89.127633972010699 0 0 0 0 961.57308232437936 -16.881862343856483 0 -16.881862343856483 -656.76307522900606 0 0 0 0 922.52071700786473 -195.77384541006904 0 -195.77384541006904 95.036071739286854 0 0 0 0 -109.41768506351218 -29.908531057907112 0 -29.908531057907112 -1.5102539954696113 0 0 0 0 1000.3784551877689 124.94199203945379 0 124.94199203945379 -148.54300247674382 0 0 0 0 1.4260728431101768 -1.3908033563280071 0 -1.3908033563280071 1.8133290654106737 0 0 0 0 201.48573676659726 368.75095460186822 0 368.75095460186822 134.96536188935079 0 0 0 0 -21.828932088597867 24.052353953202157 0 24.052353953202157 -102.2075723220587 0 0 0 0 -89.466122090190765 96.475391141995715 0 96.475391141995715 -61.708451198387365 0 0 0 0 5.4934980308142656 1.7110321395706904 0 1.7110321395706904 -1.7597006392432366 0 0 0 0 1106.109962688759 -765.71886765467571 0 -765.71886765467571 388.0078800991887 0 0 0 0 833.65695253120793 15.984758076665457 0 15.984758076665457 306.14408380951136 0 0 0 0 1115.8201494875248 147.21818511207493 0 147.21818511207493 296.97818503034159 0 0 0 0 837.6447404170176 -7.0133507659393217 0 -7.0133507659393217 385.86203571457372 0 0 0 0 1018.4660007199855 -1.9649767672253802 0 -1.9649767672253802 197.6255689724494 0 0 0 0 1424.4462884486566 -219.39708880297667 0 -219.39708880297667 75.510085814694321 0 0 0 0 1115.02596664062 -400.64891016046658 0 -400.64891016046658 187.23275679833387 0 0 0 0 621.94680361216888 -299.9595999876683 0 -299.9595999876683 409.41684982774223 0 0 0 0 844.02941015869146 -18.127017034315941 0 -18.127017034315941 120.74204064034166 0 0 0 0 500.8440540486481 70.700928278405627 0 70.700928278405627 205.21360261276141 0 0 0 0 788.89042050036369 -77.786765069269677 0 -77.786765069269677 111.34491021271651 0 0 0 0 429.99739339633743 10.914515817990662 0 10.914515817990662 177.16502535320251 0 0 0 0 464.12039826549699 -46.810006679009348 0 -46.810006679009348 312.89506229611288 0 0 0 0 737.27976785725332 -130.6752017313147 0 -130.6752017313147 331.88131013805832 0 0 0 0 330.87506194731395 136.34902701266515 0 136.34902701266515 55.513391319385846 0 0 0 0 574.57428870629519 67.208573253161376 0 67.208573253161376 11.397965858603129 0 0 0 0 481.23172801858163 27.471894897792481 0 27.471894897792481 169.22049183036506 0 0 0 0 417.43310893385205 -85.514707295000335 0 -85.514707295000335 259.61483621822799 0 0 0 0 591.95326181798009 30.140523832069903 0 30.140523832069903 21.216666870633162 0 0 0 0 370.93751258475822 181.99965602259545 0 181.99965602259545 -91.825322082300318 0 0 0 0 498.85786982116406 7.3840886883162966 0 7.3840886883162966 19.685197278288797 0 0 0 0 554.28830270277831 -571.68393268526074 0 -571.68393268526074 781.56828127312474 0 0 0 0 60.885235558322165 286.25558862368598 0 286.25558862368598 467.68528932745699 0 0 0 0 -104.47677716817998 -248.66742476854756 0 -248.66742476854756 -310.83693490459757 0 0 0 0 26.542741085657585 3.3540283373712043 0 3.3540283373712043 -6.5974047298055059 0 0 0 0 268.50617021026846 -152.00407903232895 0 -152.00407903232895 99.050061621729583 0 0 0 0 688.56594229987968 -303.64965729805954 0 -303.64965729805954 -946.32270460504253 0 0 0 0 596.26449676099583 -78.887005623048935 0 -78.887005623048935 -581.72917750564466 0 0 0 0 92.910532136505935 -286.28215483402641 0 -286.28215483402641 -486.33043715683198 0 0 0 0 275.01795870771457 -16.548356841029204 0 -16.548356841029204 -348.49868957083447 0 0 0 0 383.15865785066126 -67.369107004105899 0 -67.369107004105899 -400.56317198502074 0 0 0 0 33.59365885083389 42.491623377262385 0 42.491623377262385 -39.024388753130893 0 0 0 0 40.119377743045334 56.765024465581291 0 56.765024465581291 -67.406035717844475 0 0 0 0 55.386207769275643 -10.616338152929529 0 -10.616338152929529 -10.6075338689825 0 0 0 0 59.64509429091413 8.0084853229818691 0 8.0084853229818691 -92.740188433383537 0 0 0 0 14.902281463358463 8.8540766351465692 0 8.8540766351465692 0.51650181049755517 0 0 0 0 598.86480725619185 -482.5390001977301 0 -482.5390001977301 4.6808195030409934 0 0 0 0 142.26180567136907 -48.472539044000314 0 -48.472539044000314 -15.205107125861332 0 0 0 0 98.159901011480542 -57.787946552561493 0 -57.787946552561493 10.588950272562442 0 0 0 0 21.984774102743273 17.596975038801062 0 17.596975038801062 9.4902317752574206 0 0 0 0 1075.1176865903981 824.0616912287901 0 824.0616912287901 563.47627377169192 0 0 0 0 59.081669386578142 26.384241618062219 0 26.384241618062219 15.018882457088694 0 0 0 0 194.01137122890214 -149.63741567639249 0 -149.63741567639249 211.36911295046775 0 0 0 0 159.98022847973334 271.46841352047159 0 271.46841352047159 467.57954775812686 0 0 0 0 12.598887058751643 9.0984560970240409 0 9.0984560970240409 -2.6707212219524559 0 0 0 0 109.73778930651315 -322.44285929386979 0 -322.44285929386979 -8.1169166114142399 0 0 0 0 337.58392788998026 252.54317989756009 0 252.54317989756009 -55.807761747500535 0 0 0 0 378.40438444638858 338.39490444840521 0 338.39490444840521 70.311040719950142 0 0 0 0 746.48739006131655 96.388511589831978 0 96.388511589831978 -448.55497598624697 0 0 0 0 -228.76993106266309 -499.16578917947731 0 -499.16578917947731 -132.20156423411663 0 0 0 0 1319.3886665068803 -678.67382247017474 0 -678.67382247017474 -945.4290663008469 0 0 0 0 1241.2255478817387 467.57158937522826 0 467.57158937522826 -190.12346042665922 0 0 0 0 720.54594674496911 607.20079949995215 0 607.20079949995215 252.84522587419633 0 0 0 0 174.61626272284849 12.899023521380833 0 12.899023521380833 -19.462489312722365 0 0 0 0 88.131464475038229 361.19136530840933 0 361.19136530840933 -403.5940156816614 0 0 0 0 91.921156834971043 -128.2801704103158 0 -128.2801704103158 -319.43840634562116 0 0 0 0 -51.125452480249805 472.00450027763304 0 472.00450027763304 206.74509965069228 0 0 0 0 36.208844988322269 73.718779686080381 0 73.718779686080381 -44.683253911087427 0 0 0 0 31.905935939651656 114.91207075011812 0 114.91207075011812 -65.308096803928493 0 0 0 0 -163.31706488336204 -0.28082943050731046 0 -0.28082943050731046 242.08322788414443 0 0 0 0 -46.718960701982724 -0.080857876015215879 0 -0.080857876015215879 370.13020163346573 0 0 0 0 -78.27091842671507 123.83017271163044 0 123.83017271163044 -23.30865538367334 0 0 0 0 11.393740108378779 0.0018664786806823486 0 0.0018664786806823486 -2.8194765262190291 0 0 0 0 208.33479814161547 -142.06862160304354 0 -142.06862160304354 33.555034172730302 0 0 0 0 286.70810088858707 89.973285559167834 0 89.973285559167834 -118.09894003758791 0 0 0 0 31.466827084790857 88.042939094320332 0 88.042939094320332 -32.815140057427996 0 0 0 0 -38.091281635075575 84.651475673748905 0 84.651475673748905 0.28063556673987478 0 0 0 0 8.6770170331269583 19.42158386055371 0 19.42158386055371 -11.561917432269261 0 0 0 0 -63.166894389665686 31.584260167201592 0 31.584260167201592 -4.040786713426769 0 0 0 0 19.477091849029218 5.9215908958756245 0 5.9215908958756245 -67.5889834387348 0 0 0 0 754.73462115356233 -246.83814193185026 0 -246.83814193185026 -116.93925452602389 0 0 0 0 209.33034243786096 215.85294088932824 0 215.85294088932824 -160.77871661183053 0 0 0 0 225.30589607491856 -22.220816508103326 0 -22.220816508103326 -155.37551262018246 0 0 0 0 383.75310409461963 -60.284237104658587 0 -60.284237104658587 -191.26478859469353 0 0 0 0 80.468852434841736 182.91257472713451 0 182.91257472713451 -69.85962911898514 0 0 0 0 293.28985127865599 119.55915294247734 0 119.55915294247734 -59.259997564388414 0 0 0 0 131.82862474732218 88.481512583953759 0 88.481512583953759 31.245594891442863 0 0 0 0 258.07667965875589 135.02444619520247 0 135.02444619520247 -233.32057693004936 0 0 0 0 37.934077975216496 65.937588481582225 0 65.937588481582225 73.125973781433458 0 0 0 0 3.7069674539234256 -46.703761494760784 0 -46.703761494760784 101.40083670047954 0 0 0 0 -17.933050436535268 52.630654839690351 0 52.630654839690351 -46.267436706471926 0 0 0 0 17.447452663373667 14.516994467379305 0 14.516994467379305 9.083196883088382 0 0 0 0 14.021915694043855 18.895914437287274 0 18.895914437287274 -11.298485295539649 0 0 0 0 -327.01545309112407 28.963327039062733 0 28.963327039062733 0.60101077193667152 0 0 0 0 144.06314638591721 -1.0105857443405171 0 -1.0105857443405171 21.833767604864761 0 0 0 0 21.261943594712704 19.001734447570584 0 19.001734447570584 13.663015722069144 0 0 0 0 141.43437636034218 -75.377372708857877 0 -75.377372708857877 165.48952635092155 0 0 0 0 232.27819219985395 -99.190139451049617 0 -99.190139451049617 80.203160719528114 0 0 0 0 397.42070382535167 -116.40224402713082 0 -116.40224402713082 24.383109089339314 0 0 0 0 235.76045302395505 -90.372556488396157 0 -90.372556488396157 13.489388469695768 0 0 0 0 75.667248389392626 -75.647232532665157 0 -75.647232532665157 109.8364236195082 0 0 0 0 0.78066450196609694 0.7260799327933114 0 0.7260799327933114 0.78173353359515474 0 0 0 0 685.64121430025989 -139.74439636743278 0 -139.74439636743278 10.901261044743535 0 0 0 0 402.47273961024621 -169.76795928250829 0 -169.76795928250829 175.84017747568305 0 0 0 0 525.81369416536472 7.6104396472096596 0 7.6104396472096596 150.2766290589808 0 0 0 0 522.42477928043809 16.849417356769365 0 16.849417356769365 129.86024538389657 0 0 0 0 831.23488780787739 99.103564090680948 0 99.103564090680948 48.340641135157966 0 0 0 0 350.13186876507098 -168.75737155026184 0 -168.75737155026184 71.246142411660003 0 0 0 0 748.80923460178019 -211.12477511819679 0 -211.12477511819679 30.396069268740575 0 0 0 0 329.07908563724777 0.02032001419502194 0 0.02032001419502194 59.298440660391421 0 0 0 0 506.06675047137833 -220.52889181610499 0 -220.52889181610499 116.29454583549796 0 0 0 0 668.48599677635866 38.992980677518403 0 38.992980677518403 30.917472893042941 0 0 0 0 1100.6262512172107 61.624390996857187 0 61.624390996857187 -8.7051170285512853 0 0 0 0 1325.7547056331532 904.45747577858424 0 904.45747577858424 352.32235591665631 0 0 0 0 1779.6269677703385 -150.28881948324897 0 -150.28881948324897 24.270462065837819 0 0 0 0 1158.5292429810215 1219.7378811389453 0 1219.7378811389453 -259.51598428587067 0 0 0 0 350.74983256022097 904.54522100239501 0 904.54522100239501 807.65674843773195 0 0 0 0 23.605887110808112 11.504087586711165 0 11.504087586711165 1.77646219298909 0 0 0 0 -807.10703789902618 439.91819954807124 0 439.91819954807124 686.8663416751333 0 0 0 0 1736.7331487933716 -2083.8686818881533 0 -2083.8686818881533 -329.14902120827719 0 0 0 0 414.93115503506851 988.93199186379297 0 988.93199186379297 -323.07130215868528 0 0 0 0 8.1940734205235231 6.0263992351729314 0 6.0263992351729314 2.8941199610924038 0 0 0 0 -4.6821353051782353 -98.628061273649564 0 -98.628061273649564 -124.01787633578783 0 0 0 0 -142.54513209261859 -304.75056039659637 0 -304.75056039659637 104.3960110725593 0 0 0 0 120.63338840365941 65.526470883768667 0 65.526470883768667 37.420378975234136 0 0 0 0 481.26778014979209 157.72489820548253 0 157.72489820548253 -142.532899215219 0 0 0 0 -289.59420824922199 2.3849293912617213 0 2.3849293912617213 -165.71502151994719 0 0 0 0 91.35764394653421 53.21400712077255 0 53.21400712077255 28.20872711483786 0 0 0 0 213.72182315602549 995.05051120408098 0 995.05051120408098 -683.37985631803531 0 0 0 0 -38.054062005132437 101.37753073732529 0 101.37753073732529 -650.88935541130456 0 0 0 0 94.554361109496313 1886.2907459602757 0 1886.2907459602757 1443.7097951929654 0 0 0 0 114.02741923135181 853.81164146687115 0 853.81164146687115 609.01002136863463 0 0 0 0 -101.67021437827498 302.3110039809053 0 302.3110039809053 -442.74771587628675 0 0 0 0 -286.39832101334468 -27.658762306172321 0 -27.658762306172321 810.46563790907453 0 0 0 0 -284.46135005957331 474.91867422257019 0 474.91867422257019 461.33263235591949 0 0 0 0 1068.8810374290188 -372.41604529267352 0 -372.41604529267352 249.58200117836896 0 0 0 0 1044.4585576268873 158.00406903985095 0 158.00406903985095 -4.4129647265817766 0 0 0 0 -2.9212850452994132 0.0082478787306001777 0 0.0082478787306001777 14.241021873801113 0 0 0 0 43.756314558093436 -175.77450061481341 0 -175.77450061481341 472.30401048136491 0 0 0 0 -332.15031483185157 204.21286099609097 0 204.21286099609097 386.74382287684602 0 0 0 0 -25.662882160075242 34.949320776362356 0 34.949320776362356 -25.907440394795231 0 0 0 0 -28.438469203843852 259.08575698457594 0 259.08575698457594 -23.076546631381916 0 0 0 0 -13.183482419612119 175.3262629695646 0 175.3262629695646 384.3977968793489 0 0 0 0 570.41959764517378 502.12804217682788 0 502.12804217682788 -452.17210813345082 0 0 0 0 1778.5900747166015 348.29377915798796 0 348.29377915798796 -482.69596368807834 0 0 0 0 132.97821980182198 605.30391614421933 0 605.30391614421933 213.01299719608505 0 0 0 0 1886.3469978102366 -2818.6264052155202 0 -2818.6264052155202 -852.13895433213474 0 0 0 0 39.346234173103994 20.551176598817079 0 20.551176598817079 12.366036895495704 0 0 0 0 -212.89072974208102 607.68358084971896 0 607.68358084971896 614.00889521387035 0 0 0 0 514.18320207881334 1073.6010335152259 0 1073.6010335152259 555.89644925516586 0 0 0 0 -554.97031472920207 286.70118969675605 0 286.70118969675605 448.79819549312742 0 0 0 0 -522.09334587471676 -7.5786294617028034 0 -7.5786294617028034 -129.15658092257581 0 0 0 0 -442.84154938033316 264.97998641514278 0 264.97998641514278 554.64339678699253 0 0 0 0 -358.42300573689863 511.88427886279351 0 511.88427886279351 596.96410627923797 0 0 0 0 897.69100767141208 835.43353365035 0 835.43353365035 -623.03052110213866 0 0 0 0 28.989346928302609 5.0732590381378913 0 5.0732590381378913 0.61528105040644832 0 0 0 0 993.84911916358396 -1660.2592660202981 0 -1660.2592660202981 1643.3474964537008 0 0 0 0 1211.5484036451744 8.5607696582312656 0 8.5607696582312656 -725.61215175705547 0 0 0 0 899.84682998267817 -715.30980740227733 0 -715.30980740227733 216.64573196612628 0 0 0 0 -2.8903863527406459 -5.0669952770963391 0 -5.0669952770963391 -17.100609382137783 0 0 0 0 260.67963485785003 -99.433462879214858 0 -99.433462879214858 -80.016530146489458 0 0 0 0 -531.41454776620958 951.62870767636741 0 951.62870767636741 2011.2868571805011 0 0 0 0 1734.7816037808152 -1107.8235463422047 0 -1107.8235463422047 -17.175541027132567 0 0 0 0 131.83846315891424 -36.974592859697623 0 -36.974592859697623 -92.006318253643258 0 0 0 0 271.26540198392468 -73.902663593933539 0 -73.902663593933539 -96.483787855022001 0 0 0 0 254.00862526861602 -124.81300152581389 0 -124.81300152581389 -131.00564858386861 0 0 0 0 196.13424455732456 23.325099471585418 0 23.325099471585418 -93.314717951006969 0 0 0 0 23.076465429359814 392.94995107318573 0 392.94995107318573 -521.08501609179075 0 0 0 0 402.65013544299291 28.139329470463053 0 28.139329470463053 -514.12142127949039 0 0 0 0 347.07098901225254 166.18092791504569 0 166.18092791504569 288.44529037475149 0 0 0 0 159.27639570289466 217.57963062502949 0 217.57963062502949 700.48195334945058 0 0 0 0 249.99596802951419 -256.06509118300573 0 -256.06509118300573 246.93567395087666 0 0 0 0 724.64694115836755 495.98959521790584 0 495.98959521790584 259.22182092952607 0 0 0 0 181.33393252057431 63.413397398808229 0 63.413397398808229 195.84414757123295 0 0 0 0 233.90428868379968 63.966676252029174 0 63.966676252029174 28.939322372258175 0 0 0 0 254.40725313150324 17.082084082758229 0 17.082084082758229 135.52657621361323 0 0 0 0 236.27216728811618 -144.67367231737808 0 -144.67367231737808 52.386335576538841 0 0 0 0 2558.1775357429578 -860.37380207990736 0 -860.37380207990736 -1345.4218730549283 0 0 0 0 176.80168518979917 79.550715691506866 0 79.550715691506866 151.29828914882 0 0 0 0 535.76417501323158 -581.97213933994726 0 -581.97213933994726 -416.8060772235367 0 0 0 0 1.1828733467069741 -7.0617951328760569 0 -7.0617951328760569 2.5598657776698914 0 0 0 0 1010.5659140486387 -20.784526806912709 0 -20.784526806912709 -481.17104820041095 0 0 0 0 1073.4704979075177 -255.71965457747046 0 -255.71965457747046 -110.060725176083 0 0 0 0 1032.8838603677941 -83.627648124392181 0 -83.627648124392181 53.69387458118581 0 0 0 0 1901.0946178111553 655.55942121660291 0 655.55942121660291 -764.25754659818995 0 0 0 0 1145.1627982730861 194.37333395185851 0 194.37333395185851 -425.92641313765807 0 0 0 0 808.50056221552768 -604.73420248349726 0 -604.73420248349726 339.23347772755642 0 0 0 0 1329.2971896171512 -680.2979116791239 0 -680.2979116791239 159.98788837956863 0 0 0 0 1168.1466077708756 -417.45300250247874 0 -417.45300250247874 402.45019876982951 0 0 0 0 1210.39521449528 -186.15877640689314 0 -186.15877640689314 76.74704091741296 0 0 0 0 969.93404695096251 -104.63793673203872 0 -104.63793673203872 228.78632161382848 0 0 0 0 1.5995331054431383 -5.0550384516072882 0 -5.0550384516072882 1.0680086609276351 0 0 0 0 1594.4414509935013 -412.41834126176718 0 -412.41834126176718 64.08668225023257 0 0 0 0 1345.0248174324806 -415.31477375146096 0 -415.31477375146096 200.71938891555556 0 0 0 0 910.54173678460938 117.71639645621985 0 117.71639645621985 98.864556639306102 0 0 0 0 594.54193203628529 236.04329175601629 0 236.04329175601629 62.89749207298496 0 0 0 0 512.76202073202876 166.47598904117967 0 166.47598904117967 3.78126084298151 0 0 0 0 551.13346354621171 297.78996630579786 0 297.78996630579786 133.85128294540846 0 0 0 0 501.35601071735528 326.70402420813718 0 326.70402420813718 131.36240631199871 0 0 0 0 367.56859037982531 236.71972889946471 0 236.71972889946471 188.51555523556863 0 0 0 0 38.430275483258242 -12.025237030501387 0 -12.025237030501387 1.9193828796124182 0 0 0 0 47.97993575737928 -11.309018504696869 0 -11.309018504696869 -71.81158265460023 0 0 0 0 9.4667393236522912 42.6872576408363 0 42.6872576408363 -45.426878768683707 0 0 0 0 2179.1119919559569 1310.6005166192651 0 1310.6005166192651 767.64765515710542 0 0 0 0 -1.1643733329765382 37.520368276698257 0 37.520368276698257 -0.20080013856976769 0 0 0 0 2021.738639940042 -529.70781270001919 0 -529.70781270001919 -509.37058052658108 0 0 0 0 16.352670329161128 -2.7775261136640665 0 -2.7775261136640665 -0.21416704652685337 0 0 0 0 814.8501935233071 836.87862686232268 0 836.87862686232268 698.11870056710518 0 0 0 0 359.34367722707611 404.38025255027344 0 404.38025255027344 640.1550337603876 0 0 0 0 2242.7334436175006 241.42267280577312 0 241.42267280577312 105.79548984080024 0 0 0 0 1581.3424685455975 -397.1150174164859 0 -397.1150174164859 190.84026363601424 0 0 0 0 1730.1115373224602 -397.93605139948107 0 -397.93605139948107 -41.915114281657907 0 0 0 0 3684.3933634501882 -295.31590372138248 0 -295.31590372138248 -316.06569408025507 0 0 0 0 2752.0548344262352 446.39398464241776 0 446.39398464241776 0.31439301079103965 0 0 0 0 546.72456821025116 -15.353713871037742 0 -15.353713871037742 -289.88010458491698 0 0 0 0 622.61149027186912 -367.61548034735358 0 -367.61548034735358 419.96347174746268 0 0 0 0 1566.8011193960847 -629.01676402080602 0 -629.01676402080602 169.52551651933572 0 0 0 0 -1.0376966590951611 -2.6551138181096405 0 -2.6551138181096405 -3.7780304719596813 0 0 0 0 -244.19244774803519 -32.577108549218224 0 -32.577108549218224 87.529382654657411 0 0 0 0 229.59413104127361 -335.62441826671926 0 -335.62441826671926 -111.6077075838889 0 0 0 0 97.296879565298013 -10.250885016133495 0 -10.250885016133495 -14.306939750911489 0 0 0 0 1247.6997424114234 -46.676474089845442 0 -46.676474089845442 -111.01585013541762 0 0 0 0 250.07385323785638 157.2990095890041 0 157.2990095890041 -109.30619861325931 0 0 0 0 113.13708674061911 -21.397080169353259 0 -21.397080169353259 -13.174584258563749 0 0 0 0 268.5395176653401 93.605995704478573 0 93.605995704478573 -154.8902109005021 0 0 0 0 435.87830461671547 -33.557344666804283 0 -33.557344666804283 -1017.8707602174427 0 0 0 0 76.767742249023286 91.806596547228992 0 91.806596547228992 -150.33766346491075 0 0 0 0 123.20641422351764 209.7598901142178 0 209.7598901142178 -12.194436560286704 0 0 0 0 195.85336544333404 82.14183400331558 0 82.14183400331558 80.439134328111322 0 0 0 0 18.565113033674891 6.0107120875067039 0 6.0107120875067039 31.334786871896199 0 0 0 0 60.825906111582299 87.990182320537315 0 87.990182320537315 -15.71650260921615 0 0 0 0 250.07388853756129 37.322971148383658 0 37.322971148383658 42.807977122552757 0 0 0 0 156.98684952809708 167.20225558625475 0 167.20225558625475 181.37466818475787 0 0 0 0 273.84589222501381 -4.1965465057733127 0 -4.1965465057733127 25.323914854808436 0 0 0 0 55.490141988209757 -18.449367497046239 0 -18.449367497046239 7.8888065686645996 0 0 0 0 84.149644764052937 -25.610851047481518 0 -25.610851047481518 -3.0068222865746392 0 0 0 0 66.566253260418307 -5.1662354774520836 0 -5.1662354774520836 -1.228688457250783 0 0 0 0 17.788871568455363 -8.2173578717672058 0 -8.2173578717672058 -7.4875500589248301 0 0 0 0 48.469573942304123 -17.963078851797341 0 -17.963078851797341 -9.9047065335483939 0 0 0 0 57.577541489881696 5.2653695957596724 0 5.2653695957596724 -29.114457458222354 0 0 0 0 31.38420770673838 8.9795090040875749 0 8.9795090040875749 0.022164165280750409 0 0 0 0 59.11879295849576 -5.4561805563495662 0 -5.4561805563495662 -7.4631479226451987 0 0 0 0 64.691290885064518 -11.897341840478052 0 -11.897341840478052 -0.035949953470955295 0 0 0 0 -233.6559692183946 415.27964080302809 0 415.27964080302809 196.72955196973885 0 0 0 0 -2.928859961969124 -1.6633313262362321 0 -1.6633313262362321 -0.93579273591977141 0 0 0 0 270.20554079965223 -264.24492942829755 0 -264.24492942829755 -21.945964293415159 0 0 0 0 1375.4166418885288 107.24132135315315 0 107.24132135315315 -75.196420775257764 0 0 0 0 320.38817915317668 105.5095589076695 0 105.5095589076695 405.10104450248537 0 0 0 0 1352.5428825666895 51.804330787010024 0 51.804330787010024 -1.3326389142156001 0 0 0 0 183.96894725805032 -186.6482669984243 0 -186.6482669984243 491.83875411548428 0 0 0 0 667.10891413624631 -361.75329452796728 0 -361.75329452796728 -2.33769348399926 0 0 0 0 7.2521458171262907 -1.3954960332723516 0 -1.3954960332723516 -0.095108363666371321 0 0 0 0 -12.957351585624565 42.022117520628946 0 42.022117520628946 -35.468526953377307 0 0 0 0 -13.727339121658588 48.222096096466871 0 48.222096096466871 0.65799222442674454 0 0 0 0 72.899985216135974 -67.859872870662628 0 -67.859872870662628 -767.32985267234949 0 0 0 0 34.513125101958281 -6.2239240667746145 0 -6.2239240667746145 -1.9698945442169329 0 0 0 0 128.19933573305025 351.64164925486193 0 351.64164925486193 254.97248992387676 0 0 0 0 6.757051201204888 0.84963383046466845 0 0.84963383046466845 1.5199380438301016 0 0 0 0 1356.2508968995025 170.95949487688145 0 170.95949487688145 24.666207559181203 0 0 0 0 537.34133924864 662.42445766040703 0 662.42445766040703 -18.01021245508673 0 0 0 0 270.60300568236562 591.82377205530145 0 591.82377205530145 -456.9115741500234 0 0 0 0 117.02333523763809 455.26759181000898 0 455.26759181000898 -17.902203699765778 0 0 0 0 126.85985519984388 619.75279422308813 0 619.75279422308813 4.1912807079610275 0 0 0 0 97.365006203806843 624.86314120147335 0 624.86314120147335 849.2448343447486 0 0 0 0 65.735109952103812 -98.879192987335045 0 -98.879192987335045 936.74530401017819 0 0 0 0 -50.198795855278149 541.00521717946231 0 541.00521717946231 816.98927887858895 0 0 0 0 320.66216327715665 354.2853794017301 0 354.2853794017301 312.27185311499488 0 0 0 0 -1440.7435617201554 -1509.3137936516268 0 -1509.3137936516268 983.32455993104486 0 0 0 0 3176.3236554626019 -3215.3333736271693 0 -3215.3333736271693 4827.0154411240001 0 0 0 0 -778.51409598908504 -2337.1526897465496 0 -2337.1526897465496 1552.339650939909 0 0 0 0 13.339623844170291 8.6893694779011525 0 8.6893694779011525 -8.3798823641330777 0 0 0 0 3934.1417457091338 4397.3832479440644 0 4397.3832479440644 1525.4457475645686 0 0 0 0 1493.0151069898857 477.41563151460559 0 477.41563151460559 -1603.1620961627468 0 0 0 0 24.50629595578414 15.201201273586918 0 15.201201273586918 13.570135408335927 0 0 0 0 297.69179389637429 2515.8031396920524 0 2515.8031396920524 5035.9836239047727 0 0 0 0 55.70904635055922 -227.82836623687763 0 -227.82836623687763 4706.216531146235 0 0 0 0 349.70309548184741 1198.0731959520726 0 1198.0731959520726 2571.1309098104311 0 0 0 0 271.19524467154406 -731.82336541034783 0 -731.82336541034783 1657.5252927503407 0 0 0 0 852.01702769167605 1401.1021774277406 0 1401.1021774277406 633.61739151011636 0 0 0 0 98.2539694950392 371.91461062136977 0 371.91461062136977 821.76870793666967 0 0 0 0 440.21292656240985 1135.6968585170271 0 1135.6968585170271 1967.5647370302795 0 0 0 0 1639.0685235888232 2068.2489595431871 0 2068.2489595431871 1211.9221604008389 0 0 0 0 36.99300973839911 -13.821814001630159 0 -13.821814001630159 1.3725282099382747 0 0 0 0 545.98100227548275 607.02850543450495 0 607.02850543450495 -542.76224780506436 0 0 0 0 1037.7010184974642 -956.60680724462645 0 -956.60680724462645 -2756.940021006546 0 0 0 0 540.38450638542417 610.02612809015682 0 610.02612809015682 -531.99829345081889 0 0 0 0 -407.08873112566653 64.904217888683888 0 64.904217888683888 -651.07144390527151 0 0 0 0 1477.1233366141969 17.907813352736639 0 17.907813352736639 -2312.7198587023022 0 0 0 0 1463.9692886398989 436.2482490439229 0 436.2482490439229 -1523.9505014347324 0 0 0 0 -30.017422159726266 -312.6926528019066 0 -312.6926528019066 -147.57375720765322 0 0 0 0 -159.43637830277294 -91.008466667047486 0 -91.008466667047486 347.71949614008798 0 0 0 0 -38.814344362428528 -351.17573104769076 0 -351.17573104769076 173.55147885033557 0 0 0 0 -95.975376487433095 -5.9210448496397419 0 -5.9210448496397419 0.46590322179650911 0 0 0 0 -148.85406342011993 -51.313726655037101 0 -51.313726655037101 42.551066103191559 0 0 0 0 -14.180565442133229 6.1452973784511933 0 6.1452973784511933 -0.22077641404592463 0 0 0 0 -0.10049827025488867 -2.8836347978740662 0 -2.8836347978740662 -0.17172169967124751 0 0 0 0 1072.0058375595836 -89.926134485626562 0 -89.926134485626562 53.412176394202305 0 0 0 0 0.34916580911226447 0.089269293583726039 0 0.089269293583726039 0.012578541379288913 0 0 0 0 -14.460909386900312 5.8477549804307198 0 5.8477549804307198 0.059348513708252407 0 0 0 0 1330.3963991062192 297.16560584553929 0 297.16560584553929 411.1910948260898 0 0 0 0 2205.4619450843456 118.29937240748548 0 118.29937240748548 1.7599539240431388 0 0 0 0 1807.4480070452446 10.32973866444908 0 10.32973866444908 129.80202259996219 0 0 0 0 1797.5330289034173 -187.89051087374696 0 -187.89051087374696 667.23599287275374 0 0 0 0 1805.7322014746205 12.476212710570321 0 12.476212710570321 1024.5509768648426 0 0 0 0 1533.8215372753621 -363.99734117389085 0 -363.99734117389085 365.61369851834519 0 0 0 0 933.20604838055442 484.6871928657705 0 484.6871928657705 -35.609766729738112 0 0 0 0 4007.342121808324 1110.2702363762796 0 1110.2702363762796 -1.7111535294283833 0 0 0 0 26.146250051971037 5.1877500413128104 0 5.1877500413128104 0.43368895045348516 0 0 0 0 3075.8300225216954 1168.4880213392937 0 1168.4880213392937 1979.9064375984503 0 0 0 0 2897.7720218207105 542.46459841582305 0 542.46459841582305 254.53442213664351 0 0 0 0 2747.2945748886268 -63.109991954979535 0 -63.109991954979535 572.76017049423012 0 0 0 0 2864.0121946932632 -280.58977123517889 0 -280.58977123517889 954.24874414951739 0 0 0 0 2104.543689593891 2411.3029129044426 0 2411.3029129044426 2269.8989545630056 0 0 0 0 4216.8057617112208 998.62426276342705 0 998.62426276342705 368.30110370087448 0 0 0 0 1840.4982669527526 1152.1809871430173 0 1152.1809871430173 361.53847083286752 0 0 0 0 2310.9613996513217 1331.8553593103122 0 1331.8553593103122 223.37745259982216 0 0 0 0 2239.1435593701208 -21.362856970507039 0 -21.362856970507039 679.23340637038268 0 0 0 0 748.1020198657352 475.97417094617049 0 475.97417094617049 517.65230213047562 0 0 0 0 1087.4665665570847 152.05345164465842 0 152.05345164465842 -26.003430013969592 0 0 0 0 1272.275415217624 1453.0078555035363 0 1453.0078555035363 299.00124065511955 0 0 0 0 1949.3630826055887 -87.271315803446669 0 -87.271315803446669 -442.8441531400349 0 0 0 0 -715.44608844874892 -2303.7069160083938 0 -2303.7069160083938 1089.6026226077465 0 0 0 0 17.068194648140832 -8.8472823399108336 0 -8.8472823399108336 3.1682634958540792 0 0 0 0 2363.8007501639731 -1141.5106210468612 0 -1141.5106210468612 648.05343062310885 0 0 0 0 1852.9589284734975 -454.90556437798466 0 -454.90556437798466 187.61628541975051 0 0 0 0 1111.952634501009 -666.80892336889156 0 -666.80892336889156 1420.8083134061269 0 0 0 0 1439.5871516080806 536.14766877006332 0 536.14766877006332 148.19408925352627 0 0 0 0 -276.87381739733974 -761.73975195133653 0 -761.73975195133653 -538.6792258851774 0 0 0 0 1917.9599157907869 -1725.5246456355553 0 -1725.5246456355553 -56.372203613407692 0 0 0 0 -898.210000421328 -183.31294072563855 0 -183.31294072563855 -788.31576656855509 0 0 0 0 1171.3765935930714 -682.69237658572001 0 -682.69237658572001 -2420.5477162530947 0 0 0 0 79.286304467423122 -12.785844575753863 0 -12.785844575753863 -6.5728512100693042 0 0 0 0 130.87097279177397 23.349249163672539 0 23.349249163672539 -151.36135692887638 0 0 0 0 23.445365441500769 9.3654060209491945 0 9.3654060209491945 -30.761496256087113 0 0 0 0 -822.7953178708558 155.89700232963855 0 155.89700232963855 376.31041426535648 0 0 0 0 27.570870561045012 39.418544051655203 0 39.418544051655203 41.110191511152152 0 0 0 0 63.111354474131076 96.970424832290178 0 96.970424832290178 -20.753393746208531 0 0 0 0 75.626875762478448 0.71943911702874175 0 0.71943911702874175 64.808134665022408 0 0 0 0 26.796167207263977 -0.74601498929661147 0 -0.74601498929661147 -21.750794183642604 0 0 0 0 133.1147542988183 54.542553534819035 0 54.542553534819035 -6.5277166213531927 0 0 0 0 178.91614243146614 -28.406842838216335 0 -28.406842838216335 -346.91340154900763 0 0 0 0 433.5182155148359 685.6788868941868 0 685.6788868941868 -126.39919663064848 0 0 0 0 69.957285640839984 -3.6365643702940034 0 -3.6365643702940034 -1.1730624612208449 0 0 0 0 315.56454955568188 943.87091830588906 0 943.87091830588906 -547.49002415387804 0 0 0 0 1171.0948778104357 404.27394856268029 0 404.27394856268029 -1685.1819390575401 0 0 0 0 109.3732635518827 44.089618968483137 0 44.089618968483137 -317.80004990425221 0 0 0 0 138.10589325895126 216.84096802839372 0 216.84096802839372 16.316559553837578 0 0 0 0 137.32949534440286 236.95794382554388 0 236.95794382554388 408.12399596738351 0 0 0 0 -73.374920472982922 -39.127449741513374 0 -39.127449741513374 451.46538447277408 0 0 0 0 52.357625764252475 -28.448335495728557 0 -28.448335495728557 14.760224195775805 0 0 0 0 744.06468099058839 -386.57239548283928 0 -386.57239548283928 236.09770960775785 0 0 0 0 456.1668584842264 4.384894030864416 0 4.384894030864416 -123.9826922495954 0 0 0 0 56.446600693098844 -27.478942037136108 0 -27.478942037136108 4.5382834910089205 0 0 0 0 -1968.1586502749124 -485.15225391322474 0 -485.15225391322474 289.27948816428221 0 0 0 0 260.03764405401307 430.25615977757343 0 430.25615977757343 258.26275664406967 0 0 0 0 383.99206005648011 490.69270876902101 0 490.69270876902101 275.20043117525529 0 0 0 0 648.26301075177616 426.16239356139522 0 426.16239356139522 128.40988911796467 0 0 0 0 63.970470572661441 -36.984768749359958 0 -36.984768749359958 15.505899702201749 0 0 0 0 -56.764998680166173 -29.644755473132761 0 -29.644755473132761 60.001859957018496 0 0 0 0 5.852757076906471 11.935537559376939 0 11.935537559376939 -21.623228079425854 0 0 0 0 362.01583871788171 -47.071712071072398 0 -47.071712071072398 -230.79742117648675 0 0 0 0 181.66288701031954 182.66698175065318 0 182.66698175065318 117.56352554660589 0 0 0 0 731.44197972884285 413.99925069661367 0 413.99925069661367 10.477878300918519 0 0 0 0 423.29506051454518 336.76386974136199 0 336.76386974136199 94.734135001220238 0 0 0 0 961.86722517076123 151.16872515668319 0 151.16872515668319 -192.65655865011558 0 0 0 0 1053.4372765786247 175.50293269832969 0 175.50293269832969 -325.86238405449728 0 0 0 0 1111.6133658783365 1275.4504852028697 0 1275.4504852028697 -277.26496383861195 0 0 0 0 2614.9802861066273 -86.081757248222175 0 -86.081757248222175 -282.20064117953461 0 0 0 0 -2606.6545687161852 3587.3178603842425 0 3587.3178603842425 2821.4646915068261 0 0 0 0 3368.288518835936 1374.0172101797243 0 1374.0172101797243 -329.87449938278769 0 0 0 0 479.59414771242882 -814.20921732525767 0 -814.20921732525767 620.00373116135961 0 0 0 0 244.05961289105471 -452.14019455197013 0 -452.14019455197013 656.97660878948068 0 0 0 0 2379.9656976777478 -933.64475504325674 0 -933.64475504325674 172.59137860228202 0 0 0 0 1513.96884195038 -848.55554099891606 0 -848.55554099891606 167.17888329192351 0 0 0 0 1356.0610146960462 -604.3976567868342 0 -604.3976567868342 100.00122398476196 0 0 0 0 1262.9121988638071 -402.09117316205698 0 -402.09117316205698 8.4903338049512058 0 0 0 0 742.46132727415534 -454.53404260480056 0 -454.53404260480056 76.906649566355554 0 0 0 0 424.13990334505797 -234.09920135135599 0 -234.09920135135599 199.83350216076269 0 0 0 0 761.45619467020151 -372.76774088435559 0 -372.76774088435559 255.56490481579885 0 0 0 0 711.88605594416003 215.4124579243188 0 215.4124579243188 269.02051067928323 0 0 0 0 460.60900432703784 -160.2790885060499 0 -160.2790885060499 346.3452000464913 0 0 0 0 307.21128155573388 242.1943976890725 0 242.1943976890725 616.5240556786739 0 0 0 0 -267.80871153081534 -12.569806125072546 0 -12.569806125072546 529.99663755128677 0 0 0 0 18.448586968268501 -46.920594857053402 0 -46.920594857053402 388.70971716132772 0 0 0 0 -109.77771906875569 -333.98343210658072 0 -333.98343210658072 328.64644861747911 0 0 0 0 278.26205256162211 -159.70825141550085 0 -159.70825141550085 406.74431952129726 0 0 0 0 -685.87652675961726 -581.52027084036308 0 -581.52027084036308 64.831364775709517 0 0 0 0 293.32331465251627 -468.48220135580959 0 -468.48220135580959 317.69448444646605 0 0 0 0 223.02857681573369 -322.06762218352469 0 -322.06762218352469 281.81200254269038 0 0 0 0 259.80082639763714 -365.68205852879964 0 -365.68205852879964 28.740806480678657 0 0 0 0 14.745676837395877 -300.25095984800828 0 -300.25095984800828 71.830287866941944 0 0 0 0 267.14556310616899 -140.15550502780934 0 -140.15550502780934 111.29016401329773 0 0 0 0 527.95753610957763 -542.2053552773541 0 -542.2053552773541 279.77864842503914 0 0 0 0 97.167231537110638 260.369207845044 0 260.369207845044 -550.38476344868468 0 0 0 0 144.73627331104944 -126.76723483654587 0 -126.76723483654587 173.36445907034249 0 0 0 0 105.35330780988443 195.28872266220242 0 195.28872266220242 -270.18670535104138 0 0 0 0 109.23188739878242 104.2831947328558 0 104.2831947328558 -282.07996285483932 0 0 0 0 -96.155353769427165 63.268836274271962 0 63.268836274271962 -287.46435222761716 0 0 0 0 46.368759789345745 3.1191661994013913 0 3.1191661994013913 7.2451337000389806 0 0 0 0 128.32311383749766 998.32254687186196 0 998.32254687186196 111.24468296313171 0 0 0 0 229.57706221751869 -54.796801475340544 0 -54.796801475340544 -746.00104076651678 0 0 0 0 65.227523636451224 -411.55026878934495 0 -411.55026878934495 -644.42483469510807 0 0 0 0 -206.68926204961463 2079.8939553348837 0 2079.8939553348837 7362.332862336214 0 0 0 0 70.326009364234778 -1198.2238413382238 0 -1198.2238413382238 -570.09339381080463 0 0 0 0 124.15588534071088 -21.081960043175982 0 -21.081960043175982 -0.44373652194923707 0 0 0 0 -120.60050893072184 -258.78583011158298 0 -258.78583011158298 -53.305510386544483 0 0 0 0 1544.5007630997279 -768.8969644271765 0 -768.8969644271765 -37.978482216276461 0 0 0 0 124.70537725817121 26.709410483172178 0 26.709410483172178 507.20826093584765 0 0 0 0 109.90926835284336 119.26625393204449 0 119.26625393204449 205.39279789248803 0 0 0 0 233.65424973767949 81.123997701567532 0 81.123997701567532 265.4812889671739 0 0 0 0 65.541095148248928 16.834027118096103 0 16.834027118096103 30.280321094695246 0 0 0 0 193.54804029359366 -312.55869498742413 0 -312.55869498742413 267.50033034917942 0 0 0 0 -880.85125362372492 -2152.9463299624699 0 -2152.9463299624699 -338.80436348320342 0 0 0 0 90.3768092970775 -37.19741775311023 0 -37.19741775311023 22.388951138704176 0 0 0 0 -1805.6241210158914 2244.076897929287 0 2244.076897929287 523.78887765770469 0 0 0 0 -1120.2527627652162 3.7647662846268304 0 3.7647662846268304 6482.1000858743491 0 0 0 0 7513.0054100270499 -652.01129382073395 0 -652.01129382073395 -308.59241136467062 0 0 0 0 8103.6131784126947 -575.36230373785452 0 -575.36230373785452 -927.99214642523111 0 0 0 0 7789.3134594095318 -162.68412726801307 0 -162.68412726801307 -1026.6520703494662 0 0 0 0 7502.4936531010899 -438.79350289014474 0 -438.79350289014474 -1817.6322308945109 0 0 0 0 -1164.4536346620953 -4896.6888482156364 0 -4896.6888482156364 3052.0468196404036 0 0 0 0 8113.4552904237644 -1085.8537053890486 0 -1085.8537053890486 -461.09476278888314 0 0 0 0 5070.0029516416835 -1890.8344538777103 0 -1890.8344538777103 -1283.1443289535773 0 0 0 0 3764.2144794388441 542.59709342076258 0 542.59709342076258 427.79462867591656 0 0 0 0 38.806613157812535 -8.4453813175621093 0 -8.4453813175621093 -10.072275724696171 0 0 0 0 -531.3144444701029 488.67772904658682 0 488.67772904658682 652.6050699689431 0 0 0 0 4802.6847778270021 -673.64067767617416 0 -673.64067767617416 -804.88057801409695 0 0 0 0 40.275088457496906 -11.800000027318418 0 -11.800000027318418 0.21417529556470161 0 0 0 0 564.74515262353816 -895.19023347732355 0 -895.19023347732355 -643.01308436389104 0 0 0 0 9735.7935168726835 147.92475790678145 0 147.92475790678145 800.51652158047909 0 0 0 0 -498.45833873341326 419.40114651106637 0 419.40114651106637 28.320198025033278 0 0 0 0 2963.0732135233993 6885.4875802313236 0 6885.4875802313236 1649.9865985099696 0 0 0 0 9282.2626526714303 2988.3639873674274 0 2988.3639873674274 -1521.7725466345382 0 0 0 0 5735.2570147562583 -3346.2174998233522 0 -3346.2174998233522 950.66707953823425 0 0 0 0 936.6596317649819 -1681.092920062214 0 -1681.092920062214 1738.6159813238455 0 0 0 0 -475.34065152169205 68.085200420244291 0 68.085200420244291 1022.6181104839743 0 0 0 0 552.55597217872855 -1379.5178686953441 0 -1379.5178686953441 1807.6246110081629 0 0 0 0 286.97436476984876 -349.54450534301941 0 -349.54450534301941 456.04225402789598 0 0 0 0 79.268577288250526 -143.24034618424969 0 -143.24034618424969 639.03967013768488 0 0 0 0 220.4501965224481 -101.89991304751311 0 -101.89991304751311 -856.6630977169043 0 0 0 0 47.235835723899072 563.02933845307234 0 563.02933845307234 -453.23630794167002 0 0 0 0 6012.8376825945743 3287.043159468541 0 3287.043159468541 -1318.9189925625433 0 0 0 0 41.680495012400627 -15.47320073096104 0 -15.47320073096104 6.0897387257128095 0 0 0 0 5490.9392874152691 1388.7899872485816 0 1388.7899872485816 -414.93164821541251 0 0 0 0 4344.2386869000475 2895.8819407218421 0 2895.8819407218421 996.95694496516364 0 0 0 0 2730.6928660162957 1036.1194969034495 0 1036.1194969034495 380.64648157490217 0 0 0 0 2503.0175658395747 4436.1822658475985 0 4436.1822658475985 2464.7631885964256 0 0 0 0 4018.6358796313725 1385.6435887369514 0 1385.6435887369514 146.41560131028956 0 0 0 0 3730.4691997955088 440.53819183907876 0 440.53819183907876 -17.720493418608157 0 0 0 0 2144.1526738230896 185.24357520417971 0 185.24357520417971 2.017184413550059 0 0 0 0 1396.0517479209957 267.29929970919022 0 267.29929970919022 166.91269212350267 0 0 0 0 1159.2842925676086 743.44616730014661 0 743.44616730014661 513.16497466544911 0 0 0 0 1405.5909346666667 262.90602026355305 0 262.90602026355305 53.945698521038906 0 0 0 0 -3.4350631861016154 -68.41549348045254 0 -68.41549348045254 113.26922012937234 0 0 0 0 0.67958265124025274 -9.6508233369397782 0 -9.6508233369397782 2.7459971113967603 0 0 0 0 88.031165017251624 -44.11510006115509 0 -44.11510006115509 -19.105518194614319 0 0 0 0 53.858685114073069 -32.8832595083218 0 -32.8832595083218 3.8619560810918205 0 0 0 0 54.105081835303565 -20.054110691584356 0 -20.054110691584356 5.6206401894598583 0 0 0 0 13.312353705201531 -161.84822389172177 0 -161.84822389172177 -102.27610239009209 0 0 0 0 610.68877415859606 -434.89007048938151 0 -434.89007048938151 -164.07484108683738 0 0 0 0 843.48162209675502 434.59184946818709 0 434.59184946818709 108.75311989963302 0 0 0 0 232.83816428779392 224.14827323110876 0 224.14827323110876 133.69426208990626 0 0 0 0 184.93125754932407 -309.05223012265537 0 -309.05223012265537 -49.062885209964406 0 0 0 0 -238.84007973509142 -218.07686463849777 0 -218.07686463849777 133.17825999258139 0 0 0 0 -305.79971480055247 -71.326678289485926 0 -71.326678289485926 75.198705045001589 0 0 0 0 9.8445521255703738 -4.6109517469231491 0 -4.6109517469231491 -6.7385913691161807 0 0 0 0 -1.0607777294353582 -36.247183654956302 0 -36.247183654956302 -147.20684004217401 0 0 0 0 24.168177048093639 -90.379028154195566 0 -90.379028154195566 -187.48041420768823 0 0 0 0 131.72783536778297 -217.29440091631841 0 -217.29440091631841 -350.05329181411605 0 0 0 0 83.666523948312602 1.3680647440277713 0 1.3680647440277713 -5.14498869850246 0 0 0 0 -10.171082067148234 -3.6190144780225921 0 -3.6190144780225921 4.8266569595312951 0 0 0 0 -42.984791314927861 -132.07852047617894 0 -132.07852047617894 -161.01700506572661 0 0 0 0 35.024469890076887 -41.187715005224675 0 -41.187715005224675 -8.7531365137401806 0 0 0 0 -39.369926254294114 -44.400025560094946 0 -44.400025560094946 -1.981343566502801 0 0 0 0 28.644660576916067 51.127483424105797 0 51.127483424105797 -0.36321042714785706 0 0 0 0 43.734115196315543 20.515662160568791 0 20.515662160568791 -40.849484994152604 0 0 0 0 65.502086892840452 47.027752879514239 0 47.027752879514239 -89.034945978810725 0 0 0 0 16.655820355959165 -0.79612035608028009 0 -0.79612035608028009 0.052940709851760255 0 0 0 0 53.155745177471545 81.226183083249708 0 81.226183083249708 -43.065012209269618 0 0 0 0 6.9853805216553155 -256.00503348528264 0 -256.00503348528264 -162.35077733598382 0 0 0 0 412.74929531227099 -33.924101484564972 0 -33.924101484564972 -67.026706774578543 0 0 0 0 -3.7974337829268734 68.294847580803648 0 68.294847580803648 83.132947642395948 0 0 0 0 636.72558619228948 347.67958588432703 0 347.67958588432703 -219.4059056554479 0 0 0 0 512.49351277397363 264.70032823253217 0 264.70032823253217 91.759167393771179 0 0 0 0 42.336997450031049 150.43331273402521 0 150.43331273402521 -426.96642773323924 0 0 0 0 -87.3795004276908 453.48241774907336 0 453.48241774907336 0.51740298809983853 0 0 0 0 64.123215789355811 8.5465490057303466 0 8.5465490057303466 -0.87877145261792522 0 0 0 0 706.22595317001105 -516.9428907880573 0 -516.9428907880573 -707.13143943965542 0 0 0 0 484.56020164063375 991.52382072811974 0 991.52382072811974 1049.836962872623 0 0 0 0 1381.4947800097143 1132.3391432205035 0 1132.3391432205035 -1.8432464851659915 0 0 0 0 1975.2019947416411 1857.1416994198889 0 1857.1416994198889 514.39289455625806 0 0 0 0 865.30411986802937 193.44335783311476 0 193.44335783311476 -71.26375342713618 0 0 0 0 1037.5797595437034 961.19473533661699 0 961.19473533661699 521.96171621607948 0 0 0 0 1880.2970550940809 1204.7679013325615 0 1204.7679013325615 -26.118783964043132 0 0 0 0 1863.1203007112053 80.498217963196112 0 80.498217963196112 -16.472397903228284 0 0 0 0 3498.8349616079795 977.95099604262759 0 977.95099604262759 -179.22391572924516 0 0 0 0 1939.9343430129156 2330.9227166437504 0 2330.9227166437504 1124.7426438652637 0 0 0 0 29.024327719159828 1.224173294638323 0 1.224173294638323 -0.31002038707642265 0 0 0 0 1937.8835275273232 -128.64639865233448 0 -128.64639865233448 928.81409185715847 0 0 0 0 2460.7357816907534 1619.3911912617166 0 1619.3911912617166 896.55929737528368 0 0 0 0 3128.3983583255467 1148.8875833283091 0 1148.8875833283091 -16.137120045568736 0 0 0 0 1791.1113602615951 -690.50648710783867 0 -690.50648710783867 -425.41982375178299 0 0 0 0 955.11959018469497 582.86297851835684 0 582.86297851835684 553.90213168988566 0 0 0 0 2268.4476252869135 1135.6238204444755 0 1135.6238204444755 772.66618694731142 0 0 0 0 2089.6458844371809 468.82781506078959 0 468.82781506078959 -210.64409045068396 0 0 0 0 2152.8456740931288 42.288337038887676 0 42.288337038887676 -421.42096151808846 0 0 0 0 2202.1979614125594 1303.6056994800028 0 1303.6056994800028 511.48956458372231 0 0 0 0 2528.3817148120725 157.70340490414469 0 157.70340490414469 550.46403633118541 0 0 0 0 2899.654605039148 769.1315519340983 0 769.1315519340983 901.88119761196344 0 0 0 0 -326.05977914150571 919.10832264012333 0 919.10832264012333 1322.2640932096235 0 0 0 0 11.261787749377618 7.9726305205562369 0 7.9726305205562369 5.9438227006126017 0 0 0 0 -39.512076120081474 290.67957340988232 0 290.67957340988232 725.09936289666348 0 0 0 0 1055.1715903848963 331.97838503863181 0 331.97838503863181 -50.72597380109238 0 0 0 0 1014.0827437055705 478.88612591291667 0 478.88612591291667 627.64959279227969 0 0 0 0 12.521975015013595 -225.13640914517464 0 -225.13640914517464 479.66035753342203 0 0 0 0 -29.23118886838347 -108.59711344628147 0 -108.59711344628147 158.31604460889002 0 0 0 0 -29.539983864283528 -30.082528353947264 0 -30.082528353947264 17.094878416015035 0 0 0 0 27.921920765774303 7.0752032040568054 0 7.0752032040568054 5.0947952365247877 0 0 0 0 22.443224049164883 17.437894879487942 0 17.437894879487942 10.292696786465179 0 0 0 0 -43.202827813536715 237.14836696358137 0 237.14836696358137 -50.509689734501535 0 0 0 0 -28.884792253771593 211.93158268612038 0 211.93158268612038 590.14504987991211 0 0 0 0 144.02052677169559 607.13603671399517 0 607.13603671399517 -615.12379976757347 0 0 0 0 -460.61860959852311 173.6793671910799 0 173.6793671910799 1137.8780967952287 0 0 0 0 -24.949031794807524 577.03081249872116 0 577.03081249872116 1392.0082891904783 0 0 0 0 -34.50991490817978 456.52333617826139 0 456.52333617826139 995.64851506879768 0 0 0 0 1530.8793573377479 244.5423816182539 0 244.5423816182539 460.91880120384855 0 0 0 0 2290.0071185159177 -232.18417334281395 0 -232.18417334281395 -407.08910929405175 0 0 0 0 1812.5462157526345 641.23636923479978 0 641.23636923479978 557.04232052361181 0 0 0 0 3091.278440784532 -168.67393196250629 0 -168.67393196250629 -447.94974096894362 0 0 0 0 5485.3398842452807 -2116.8119666026046 0 -2116.8119666026046 -432.04807878190093 0 0 0 0 565.1478844977828 -1343.5553877402499 0 -1343.5553877402499 473.99481491158298 0 0 0 0 2904.7346996871165 3363.6225707979206 0 3363.6225707979206 2885.8594908594318 0 0 0 0 1489.775855896034 -1023.6110845485958 0 -1023.6110845485958 211.92422800626562 0 0 0 0 208.70752636219549 661.81664948954722 0 661.81664948954722 -859.03537135899637 0 0 0 0 13.742603340224946 -5.4119708493067264 0 -5.4119708493067264 -7.4250036145718763 0 0 0 0 28.894036039782918 -11.094439582466777 0 -11.094439582466777 4.5298916510911162 0 0 0 0 3365.0537093216553 3099.5438349718133 0 3099.5438349718133 2926.2642559454025 0 0 0 0 2701.2048896443303 -261.08551689972745 0 -261.08551689972745 -186.38129086941618 0 0 0 0 3021.6058928074635 1587.9320862201462 0 1587.9320862201462 334.11676588930595 0 0 0 0 5471.3610960240185 869.46739848559037 0 869.46739848559037 -1104.6191161804256 0 0 0 0 -443.21977121834061 -175.80593064902104 0 -175.80593064902104 532.34408567535729 0 0 0 0 -247.57963791661314 -467.46539975631759 0 -467.46539975631759 440.60859559304282 0 0 0 0 -302.71170043278835 -317.12717791389605 0 -317.12717791389605 58.656499081650026 0 0 0 0 -480.46903743581788 -71.648916954043187 0 -71.648916954043187 264.55234719457854 0 0 0 0 1087.6318534636084 2494.4653075713773 0 2494.4653075713773 3105.510133743107 0 0 0 0 25.271380335315428 7.8603197175454707 0 7.8603197175454707 3.376398161666192 0 0 0 0 5485.0469469268828 2013.1931099126989 0 2013.1931099126989 300.52612731234001 0 0 0 0 5505.5567977255632 676.30798089253926 0 676.30798089253926 -640.47137451095796 0 0 0 0 2943.6488436066284 1373.9553379855479 0 1373.9553379855479 164.28972916339984 0 0 0 0 1901.7176466125384 465.58912379252615 0 465.58912379252615 567.51874511300912 0 0 0 0 994.61047547588532 1205.6491432225844 0 1205.6491432225844 986.68920614291255 0 0 0 0 1488.6998713004796 958.31925622579865 0 958.31925622579865 1110.1859148025151 0 0 0 0 -0.80502390257544931 0.19547252284399974 0 0.19547252284399974 1.4014744915585204 0 0 0 0 -1255.1792674044173 108.95902560952446 0 108.95902560952446 1030.7494640597017 0 0 0 0 13.917403834393099 6.0343481751365857 0 6.0343481751365857 -5.311310541439056 0 0 0 0 -659.54035607015248 469.65580832128546 0 469.65580832128546 -32.557872303164459 0 0 0 0 57.772713556970757 15.866739686258104 0 15.866739686258104 -1.8451518667987288 0 0 0 0 279.60456489679927 301.25753104212299 0 301.25753104212299 354.01144522320146 0 0 0 0 1147.0452866349556 31.861949886963238 0 31.861949886963238 279.30630704933742 0 0 0 0 -219.89496902977044 193.17891291377776 0 193.17891291377776 -114.40504221129103 0 0 0 0 -20.848093675609562 28.245981867999262 0 28.245981867999262 63.738498786369746 0 0 0 0 17.740066739170359 21.017500527296647 0 21.017500527296647 -12.067867431057854 0 0 0 0 40.45145669466001 48.658857384621442 0 48.658857384621442 -38.264816388796703 0 0 0 0 181.29045963374665 125.810207466983 0 125.810207466983 70.064517556265855 0 0 0 0 34.218681796333101 11.812000690481298 0 11.812000690481298 -1.9189153832004446 0 0 0 0 109.06677541250247 137.442132134742 0 137.442132134742 111.98097089689873 0 0 0 0 221.57211834676855 607.2905335076988 0 607.2905335076988 1128.5404329269741 0 0 0 0 -85.149344652847503 696.32536546778363 0 696.32536546778363 500.55360899872312 0 0 0 0 333.98750981088961 637.96850740963202 0 637.96850740963202 -942.71176758480681 0 0 0 0 80.203087557893014 692.57274477768624 0 692.57274477768624 32.051456432676446 0 0 0 0 187.39901127172197 178.16977345795397 0 178.16977345795397 827.61334357114811 0 0 0 0 446.79601638636086 575.99450593777556 0 575.99450593777556 1157.7068511969549 0 0 0 0 2738.4486281771242 -447.96819883383068 0 -447.96819883383068 659.85482356380294 0 0 0 0 359.49032067607914 -304.17249225245075 0 -304.17249225245075 1073.4650049366833 0 0 0 0 1914.5365733730068 736.40414609861273 0 736.40414609861273 34.649703561755587 0 0 0 0 3525.06763867478 555.66767930888079 0 555.66767930888079 -2.6298803206145749 0 0 0 0 381.61007495998638 -1202.5250288878626 0 -1202.5250288878626 -11.472252722961684 0 0 0 0 21.5889823809527 -11.856032249334817 0 -11.856032249334817 6.6175833159550708 0 0 0 0 766.29107288946398 -751.25801410905228 0 -751.25801410905228 960.97046531883893 0 0 0 0 2914.2505167220879 -589.74375435616548 0 -589.74375435616548 -1387.5880158451093 0 0 0 0 2419.1651044331811 -1004.6506643353181 0 -1004.6506643353181 -174.878553931331 0 0 0 0 16.674050520175456 1.1431979102664735 0 1.1431979102664735 0.015796321728361699 0 0 0 0 990.26280087052146 -1412.0106568258873 0 -1412.0106568258873 173.3686469024633 0 0 0 0 787.02341686357977 -1359.3846606596007 0 -1359.3846606596007 729.79156671347096 0 0 0 0 -1055.0138688796433 -1521.2889419869762 0 -1521.2889419869762 262.07250677074853 0 0 0 0 128.99682417162694 -30.334410837547239 0 -30.334410837547239 -221.96363788116105 0 0 0 0 1063.9762479756027 868.84528721208164 0 868.84528721208164 306.98361487313605 0 0 0 0 1912.9182798178445 -338.7769842535273 0 -338.7769842535273 -299.35659011845746 0 0 0 0 297.37138220506313 -278.34198185223909 0 -278.34198185223909 -425.27566916675096 0 0 0 0 529.74146057254256 -21.512718110619971 0 -21.512718110619971 -577.31812992666801 0 0 0 0 291.26230537641095 -166.15155808237523 0 -166.15155808237523 -731.10581389399999 0 0 0 0 133.25409071332251 16.510533139985455 0 16.510533139985455 -501.01490693974574 0 0 0 0 -192.93123854797159 -488.09488867182154 0 -488.09488867182154 -559.37700088064867 0 0 0 0 8.0820935358252086 -8.2949553075350764 0 -8.2949553075350764 -1.2380165509039429 0 0 0 0 152.6552354336236 220.55322689514088 0 220.55322689514088 -240.5260192748683 0 0 0 0 166.48320960461933 -127.7263312023436 0 -127.7263312023436 283.43197709964625 0 0 0 0 201.83509257718106 -33.893433019806253 0 -33.893433019806253 178.84869135106419 0 0 0 0 2.4794273367604944 -3.4303190915974255 0 -3.4303190915974255 -0.62605152405104647 0 0 0 0 209.42477859878272 8.3069508807584498 0 8.3069508807584498 68.71925761550483 0 0 0 0 156.6267281434848 126.29355748260605 0 126.29355748260605 268.22860285242314 0 0 0 0 302.54011106886901 -159.70868026316066 0 -159.70868026316066 332.8481827810665 0 0 0 0 6.9164343362582485 -8.3727647497802025 0 -8.3727647497802025 -3.9395784306212569 0 0 0 0 85.690538032431505 217.34639192644227 0 217.34639192644227 -111.01785854426998 0 0 0 0 -4.1750636038923403 -45.063428528472286 0 -45.063428528472286 -86.400639175855304 0 0 0 0 57.118301729977247 59.744732870795588 0 59.744732870795588 33.874701640294006 0 0 0 0 156.93938509690634 -52.542586879873852 0 -52.542586879873852 -265.38252866385665 0 0 0 0 203.34775161513608 -131.38753514117451 0 -131.38753514117451 -525.98324434571487 0 0 0 0 135.50755321310135 46.550038275156112 0 46.550038275156112 -160.88953234485871 0 0 0 0 232.85452823391097 10.920838121117868 0 10.920838121117868 -387.04714940840449 0 0 0 0 -4.665004170066176 -0.59608817929802171 0 -0.59608817929802171 -8.65953919940101 0 0 0 0 -134.5061956808895 -327.68015687299356 0 -327.68015687299356 -96.267762124692126 0 0 0 0 316.71495442571177 143.24791602039045 0 143.24791602039045 -182.03187736448581 0 0 0 0 90.18963374523446 -2.0514811046650721 0 -2.0514811046650721 92.739780560073086 0 0 0 0 202.60105827884399 -13.900098560777678 0 -13.900098560777678 -83.837048664265808 0 0 0 0 220.4821688937518 -6.6545747255065635 0 -6.6545747255065635 -185.35791500785945 0 0 0 0 132.68446591004613 -64.202637915503828 0 -64.202637915503828 -117.45444822451191 0 0 0 0 397.33262553799432 12.174899743667424 0 12.174899743667424 -186.61222958950248 0 0 0 0 256.76641711912816 -145.34561210436664 0 -145.34561210436664 -257.17591519291454 0 0 0 0 568.87455858517933 176.76463217287633 0 176.76463217287633 -169.07541457287789 0 0 0 0 546.55703267423087 -62.720252937931946 0 -62.720252937931946 -291.4471467521704 0 0 0 0 562.59331857922371 21.548426912643208 0 21.548426912643208 -167.9746788741395 0 0 0 0 440.51548480111524 -438.31115676435206 0 -438.31115676435206 -501.03675158062651 0 0 0 0 693.48463400846231 -37.073282451381829 0 -37.073282451381829 -161.41476582769974 0 0 0 0 1499.6067183692358 267.89476107807786 0 267.89476107807786 -126.25953622969701 0 0 0 0 921.70723586008535 711.22131984623456 0 711.22131984623456 122.57324673657286 0 0 0 0 830.63513432487889 -207.15228420051952 0 -207.15228420051952 -145.04781865514997 0 0 0 0 514.95117709680926 155.53196260312552 0 155.53196260312552 708.98790402936493 0 0 0 0 437.29334431499592 460.86679889914376 0 460.86679889914376 -378.20730636328244 0 0 0 0 -132.88874435710022 220.93610271274497 0 220.93610271274497 105.64710211682905 0 0 0 0 480.66436355246697 421.81446451562761 0 421.81446451562761 -26.61309703029815 0 0 0 0 287.62337623283383 336.10525549086969 0 336.10525549086969 243.20655794745562 0 0 0 0 390.40625985869701 508.28740350386249 0 508.28740350386249 85.868358621914922 0 0 0 0 376.16217677292298 114.45712240959301 0 114.45712240959301 -87.293079846368528 0 0 0 0 -24.531916091596941 47.473831029521932 0 47.473831029521932 26.982164748173091 0 0 0 0 3.0182160508641545 19.117113561861487 0 19.117113561861487 -15.30254928960478 0 0 0 0 167.70771818199137 122.89588210117063 0 122.89588210117063 77.397039165654405 0 0 0 0 -29.034977249684744 88.235314508964336 0 88.235314508964336 -22.406741494080677 0 0 0 0 -11.575864240890951 109.8238941557438 0 109.8238941557438 97.347136995680557 0 0 0 0 -47.616860226989957 5.8598025518231225 0 5.8598025518231225 61.483392401708443 0 0 0 0 7.7281562776479404 65.416213448433837 0 65.416213448433837 93.015124325919714 0 0 0 0 21.369056885916507 20.373933941249561 0 20.373933941249561 129.5273012404723 0 0 0 0 -26.092376577264361 10.070452669145375 0 10.070452669145375 8.3195925268279325 0 0 0 0 -0.434351377825692 9.2847026485525106 0 9.2847026485525106 -1.5820994260845263 0 0 0 0 94.062491992663126 385.60135000290666 0 385.60135000290666 1186.6828380018924 0 0 0 0 -239.66318404080812 147.01344689373127 0 147.01344689373127 789.18574731818444 0 0 0 0 864.89801112475106 917.08786131485158 0 917.08786131485158 793.22237312811558 0 0 0 0 -3.6672182563779927 4.9515864474692535 0 4.9515864474692535 -0.84776109067502858 0 0 0 0 320.16771472379332 360.56093949811293 0 360.56093949811293 216.80067966291153 0 0 0 0 320.86850005431916 392.77328170898363 0 392.77328170898363 324.03873354627467 0 0 0 0 959.84021099624806 423.13444052851855 0 423.13444052851855 -21.305361207920214 0 0 0 0 428.86683018767508 199.11359303501922 0 199.11359303501922 -114.26359123659108 0 0 0 0 451.19402657012688 301.33941226249181 0 301.33941226249181 -15.459095202302251 0 0 0 0 118.75827431151993 251.61117699856368 0 251.61117699856368 231.77752017974603 0 0 0 0 134.65254056541016 236.71467528773246 0 236.71467528773246 163.34370126545855 0 0 0 0 253.83489776083297 206.10617951473097 0 206.10617951473097 -86.403150844651918 0 0 0 0 245.73083985437552 183.08676661851592 0 183.08676661851592 -81.79257196049366 0 0 0 0 398.05686163876089 169.28772346347478 0 169.28772346347478 -133.92232190716868 0 0 0 0 353.6258966770547 57.438266295747326 0 57.438266295747326 -233.38379402020814 0 0 0 0 220.2216073309537 91.565366109644742 0 91.565366109644742 -167.45559662962398 0 0 0 0 194.92467098760972 198.52094447015702 0 198.52094447015702 -86.625951879402237 0 0 0 0 283.70717069832608 76.287403078368797 0 76.287403078368797 -176.09379717748288 0 0 0 0 133.27299158083042 106.63039450751307 0 106.63039450751307 -223.5619582317758 0 0 0 0 163.63911197945708 213.0006018097589 0 213.0006018097589 -205.2125961299171 0 0 0 0 34.068215066505218 137.7795366266227 0 137.7795366266227 8.4927821586834398 0 0 0 0 -6.278147569988505 126.02429470308857 0 126.02429470308857 16.40921839713701 0 0 0 0 32.224538562833914 142.2428740180469 0 142.2428740180469 101.50644526997121 0 0 0 0 -4.2052085090035689 149.03323507157594 0 149.03323507157594 2.0189824122398932 0 0 0 0 23.946464381631813 62.771495311666513 0 62.771495311666513 -27.729484272697846 0 0 0 0 12.82523952628253 136.02720314761621 0 136.02720314761621 -101.63907254747619 0 0 0 0 -25.094330474792514 67.242642387238448 0 67.242642387238448 -28.648735525446682 0 0 0 0 126.35798813025758 -100.79858505020184 0 -100.79858505020184 -198.66750353843338 0 0 0 0 120.5430935003285 27.595517267951053 0 27.595517267951053 -21.438637571199791 0 0 0 0 265.89417816404602 17.776213393409307 0 17.776213393409307 -217.50951343045051 0 0 0 0 3923.2168501690176 88.323845306873693 0 88.323845306873693 113.96862556695982 0 0 0 0 79.736629832346807 -166.65554860937004 0 -166.65554860937004 -252.439059973859 0 0 0 0 25.306958846385697 -27.129005474051255 0 -27.129005474051255 30.258604236594568 0 0 0 0 23.545306065461617 18.231725981895721 0 18.231725981895721 -17.412811170599465 0 0 0 0 335.97541319963057 499.3667647633261 0 499.3667647633261 863.12738343521607 0 0 0 0 5491.2452480494248 -1157.5237392316649 0 -1157.5237392316649 -22.404691770325591 0 0 0 0 15.822824804082671 -1.87689888913809 0 -1.87689888913809 9.1194049947650893 0 0 0 0 5480.1069668202326 673.86838505505511 0 673.86838505505511 -1036.4434503222592 0 0 0 0 -0.43971619791848582 25.191850160668025 0 25.191850160668025 -20.192320119680474 0 0 0 0 -25.397645575823844 28.767352661398036 0 28.767352661398036 1.006764187570333 0 0 0 0 -14.302677177402074 49.137443957505184 0 49.137443957505184 1.218764325905795 0 0 0 0 -17.744684908969134 13.550166295030884 0 13.550166295030884 6.8623515003231663 0 0 0 0 -134.17491322933711 -102.97287719050647 0 -102.97287719050647 29.180172627080879 0 0 0 0 -16.192870114711695 28.170342227481342 0 28.170342227481342 -19.797134911334069 0 0 0 0 132.43609484139597 -20.435109143606837 0 -20.435109143606837 -146.65443903738594 0 0 0 0 -0.22613444843477737 5.6630001199460196 0 5.6630001199460196 -0.19182785185008733 0 0 0 0 11.694342677009899 7.3508783847801951 0 7.3508783847801951 -3.609751060463219 0 0 0 0 2087.703305895544 -1313.6113947480951 0 -1313.6113947480951 840.90744520199803 0 0 0 0 2.0863932881384244 9.6511196763010751 0 9.6511196763010751 228.08206545301951 0 0 0 0 549.86301220818132 370.92696620885727 0 370.92696620885727 128.29674001548813 0 0 0 0 6.050071963824962 -1.0246194182622759 0 -1.0246194182622759 -0.23503799754214549 0 0 0 0 538.95840454893187 -408.95411504853655 0 -408.95411504853655 -755.95079777169235 0 0 0 0 181.33790363160733 41.097079349989826 0 41.097079349989826 -277.38161598712031 0 0 0 0 1231.9210100248456 946.69061645512306 0 946.69061645512306 415.09038292001469 0 0 0 0 215.29824095507502 229.94845990878383 0 229.94845990878383 142.23028416256534 0 0 0 0 853.30363791482523 112.17314878315773 0 112.17314878315773 70.42536829736207 0 0 0 0 900.49484898806986 32.214654384393725 0 32.214654384393725 201.18750671274177 0 0 0 0 1005.1581725318829 269.258181885358 0 269.258181885358 83.004042565971474 0 0 0 0 820.78639588412625 123.02285268981404 0 123.02285268981404 -6.2498160299544452 0 0 0 0 724.54398014054459 9.9831206231108354 0 9.9831206231108354 19.238423157241414 0 0 0 0 854.62130532464653 191.122290951374 0 191.122290951374 271.08981946336849 0 0 0 0 859.81681738821499 -149.98369027379454 0 -149.98369027379454 207.22055502069327 0 0 0 0 870.25462437117858 -141.20940965144791 0 -141.20940965144791 -164.70438180966039 0 0 0 0 721.66679133014986 -141.20418113222399 0 -141.20418113222399 -138.41173401138155 0 0 0 0 1106.5732459592 25.324989504086162 0 25.324989504086162 -432.2002253051071 0 0 0 0 773.36463107532563 158.48644161707571 0 158.48644161707571 -254.13141808086448 0 0 0 0 663.49764283782861 162.53396869999995 0 162.53396869999995 -182.19327530468195 0 0 0 0 638.64759023448278 311.0820259547736 0 311.0820259547736 -191.88432152396922 0 0 0 0 396.84112464988721 224.67367485448563 0 224.67367485448563 -83.539716700659937 0 0 0 0 387.63657472349405 258.10363842432145 0 258.10363842432145 14.633043491661738 0 0 0 0 320.78806303378951 132.63016542568266 0 132.63016542568266 -82.072372279806814 0 0 0 0 629.18092303078447 377.20758088921986 0 377.20758088921986 -433.7024766559984 0 0 0 0 563.30293689106475 208.21461825610015 0 208.21461825610015 -801.09133528535153 0 0 0 0 532.54424034277326 142.77984035752615 0 142.77984035752615 -433.62235747348927 0 0 0 0 286.78331030906702 207.63641174916575 0 207.63641174916575 -573.41137866533438 0 0 0 0 56.185955363034736 -238.87074391583155 0 -238.87074391583155 -599.29953509753523 0 0 0 0 -5.6487366929175948 5.4662217380134734 0 5.4662217380134734 -5.7037399680216474 0 0 0 0 345.55396858415043 465.3182677309137 0 465.3182677309137 -255.62719443571041 0 0 0 0 -218.25913136567397 -42.424308996120999 0 -42.424308996120999 298.69953471253393 0 0 0 0 219.19084727457448 -122.69068552968611 0 -122.69068552968611 -552.56476481826917 0 0 0 0 310.17104420149371 221.85346946015653 0 221.85346946015653 -567.46288133428607 0 0 0 0 818.82692417839644 -623.14747376636262 0 -623.14747376636262 52.075751811234284 0 0 0 0 655.43647313545807 -726.79943393714348 0 -726.79943393714348 -13.554251217168158 0 0 0 0 825.70720272889594 604.3375694493518 0 604.3375694493518 -492.40473329772601 0 0 0 0 47.257525969376729 -46.24073343229216 0 -46.24073343229216 138.56527563066913 0 0 0 0 1259.6296800025448 -58.204062641132168 0 -58.204062641132168 -41.19839459638456 0 0 0 0 1983.8349157191115 -382.48789553199981 0 -382.48789553199981 103.4953805497255 0 0 0 0 821.97946477022197 -888.17069253126533 0 -888.17069253126533 425.86770632908883 0 0 0 0 1252.9497028001497 -627.33744018601033 0 -627.33744018601033 406.52578118540805 0 0 0 0 1599.6779326429823 -849.05182905134188 0 -849.05182905134188 380.19560223941312 0 0 0 0 424.32619070740839 358.54693852403875 0 358.54693852403875 -190.15985210084023 0 0 0 0 949.23115290045098 720.70486165113675 0 720.70486165113675 415.45837812975333 0 0 0 0 360.71635364163376 372.41113150995915 0 372.41113150995915 243.43217988953916 0 0 0 0 341.46836791232636 274.65580553710578 0 274.65580553710578 -244.23867850261865 0 0 0 0 620.65991427570407 250.20345336689047 0 250.20345336689047 -391.25070313574884 0 0 0 0 14.551920795828266 -2.7879724653407152 0 -2.7879724653407152 -1.3322059077369666 0 0 0 0 734.06111965371019 586.71562800735944 0 586.71562800735944 -218.58492542404838 0 0 0 0 78.21189309122019 -692.78737181757174 0 -692.78737181757174 -194.12919564479034 0 0 0 0 7.4455195201276183 -2.1394594360775017 0 -2.1394594360775017 0.63137907439546392 0 0 0 0 1940.6075705600088 -453.79721276006921 0 -453.79721276006921 -163.71662537855036 0 0 0 0 2.4296413999942104 -3.3234022826628973 0 -3.3234022826628973 1.5455781130368837 0 0 0 0 2885.9051320744184 -917.94796620524085 0 -917.94796620524085 -251.30189219230124 0 0 0 0 2887.5158819844874 -798.85364809005773 0 -798.85364809005773 415.06871931670275 0 0 0 0 2329.1265241912624 609.40198645875307 0 609.40198645875307 413.36001948128774 0 0 0 0 2361.2745607549587 -783.53202038005065 0 -783.53202038005065 690.41895258483419 0 0 0 0 2163.5534486243887 -306.51166481001178 0 -306.51166481001178 -128.43478997336115 0 0 0 0 2645.8269470094965 -799.79969206500391 0 -799.79969206500391 601.09560492441142 0 0 0 0 2224.4567465926375 -519.86165384893707 0 -519.86165384893707 415.51971787045386 0 0 0 0 173.41865353689536 32.526037245995497 0 32.526037245995497 382.35934051337426 0 0 0 0 2925.057931172938 74.309293367567534 0 74.309293367567534 -94.061910295051348 0 0 0 0 2981.1052002973593 -568.76209799200524 0 -568.76209799200524 191.49029252467517 0 0 0 0 4.6043875048297593 -1.951057958357012 0 -1.951057958357012 0.99693183551778297 0 0 0 0 2609.0679103269067 -253.16191773499668 0 -253.16191773499668 -67.460691347092506 0 0 0 0 198.71826067548318 300.69175884570882 0 300.69175884570882 194.62550129077681 0 0 0 0 2155.5564443108015 328.54466502346531 0 328.54466502346531 -82.835838140335909 0 0 0 0 2197.1036451721156 -439.7467704444939 0 -439.7467704444939 -138.57903175360616 0 0 0 0 2324.9589072988019 -430.65256362966147 0 -430.65256362966147 -307.71227094577716 0 0 0 0 2270.7763658122058 -504.31900278320802 0 -504.31900278320802 -183.67025121094684 0 0 0 0 2185.8603401565342 -335.84214136778246 0 -335.84214136778246 -280.27712312444896 0 0 0 0 4345.8092439999455 -335.89334814059021 0 -335.89334814059021 -393.68196544887269 0 0 0 0 2220.392509991012 -404.79463192357252 0 -404.79463192357252 -158.1106611094292 0 0 0 0 844.26498479457223 67.684329823020562 0 67.684329823020562 159.75667208790219 0 0 0 0 1522.0411064906366 -822.94232738568235 0 -822.94232738568235 337.30687934562957 0 0 0 0 780.28075912256918 596.52100397350478 0 596.52100397350478 293.5410200804663 0 0 0 0 1157.1388758971225 319.92154138430033 0 319.92154138430033 286.51814213795478 0 0 0 0 2207.1432057629427 -455.40621267887263 0 -455.40621267887263 -217.20306048844031 0 0 0 0 2380.8341109567409 107.22206616584253 0 107.22206616584253 41.931294709967915 0 0 0 0 950.76970861413247 -307.01264641870711 0 -307.01264641870711 34.212195349051399 0 0 0 0 1704.5662032404507 335.30119335922791 0 335.30119335922791 442.30848060577523 0 0 0 0 1214.2882447792945 427.9602998979135 0 427.9602998979135 479.96429414608701 0 0 0 0 629.71069780165271 572.65220302796388 0 572.65220302796388 535.46338518475238 0 0 0 0 393.08854908192734 312.9998638922342 0 312.9998638922342 276.30730574989866 0 0 0 0 583.12460977253795 586.210360427664 0 586.210360427664 286.0078972968206 0 0 0 0 680.73618429622002 534.06862910403197 0 534.06862910403197 0.97623377335821715 0 0 0 0 558.36976364707516 498.30417468775022 0 498.30417468775022 54.439380983089535 0 0 0 0 801.89392506085278 489.22396472377659 0 489.22396472377659 52.569330759944478 0 0 0 0 464.3307600531698 38.632072937624798 0 38.632072937624798 -49.767453017596608 0 0 0 0 727.493516217859 502.12779376228252 0 502.12779376228252 -3.9856215081745177 0 0 0 0 453.94275558048685 362.91821564782151 0 362.91821564782151 -24.503067464423111 0 0 0 0 198.07587650063215 120.92008035337813 0 120.92008035337813 -34.254136512061905 0 0 0 0 178.78137250900909 345.92503753158553 0 345.92503753158553 193.57159035420636 0 0 0 0 397.64367622069403 326.54377244645923 0 326.54377244645923 153.41486166735467 0 0 0 0 -47.373109927531914 157.90075483458008 0 157.90075483458008 410.95465772318721 0 0 0 0 -16.287573053562483 27.403770773071869 0 27.403770773071869 23.13227845620122 0 0 0 0 -219.51795657106413 -139.50559090005277 0 -139.50559090005277 106.92065891867833 0 0 0 0 -150.71292419924066 77.188524300976383 0 77.188524300976383 246.58251438046136 0 0 0 0 -51.024493776996678 -124.16701903687294 0 -124.16701903687294 -21.588876047933809 0 0 0 0 -190.90906734885357 -197.05564852838961 0 -197.05564852838961 9.9400814511093358 0 0 0 0 -139.62646251972183 -207.28816907685837 0 -207.28816907685837 -155.86026689536629 0 0 0 0 -5.8433861318547997 -0.91405401523027052 0 -0.91405401523027052 1.4873621977390963 0 0 0 0 -1.168919844829361 -278.61084339458921 0 -278.61084339458921 -566.94667357588901 0 0 0 0 -103.61813600321329 23.696303094129917 0 23.696303094129917 203.30045886889093 0 0 0 0 -99.899630641884869 -27.629834421617943 0 -27.629834421617943 -48.131433215759557 0 0 0 0 30.479773938233848 -30.297549183427691 0 -30.297549183427691 -10.14469953641219 0 0 0 0 46.068592721967434 -64.360505596542737 0 -64.360505596542737 -43.03988148708163 0 0 0 0 0.26156443781837879 0.36693729445769918 0 0.36693729445769918 -0.80645931759769152 0 0 0 0 -85.721691615020973 -172.66793829892868 0 -172.66793829892868 634.57764964056128 0 0 0 0 644.10679076725501 -320.57366748665623 0 -320.57366748665623 -853.72173864201068 0 0 0 0 53.608351263974328 -214.62879613398991 0 -214.62879613398991 15.918448395564894 0 0 0 0 -3.7489373978169169 222.48226648723585 0 222.48226648723585 -69.368668969267219 0 0 0 0 -129.82735676203447 -407.24607427093633 0 -407.24607427093633 45.486852793417711 0 0 0 0 452.19141939182737 -217.91737440392262 0 -217.91737440392262 339.45108770226398 0 0 0 0 757.484718870488 264.98177670261384 0 264.98177670261384 286.73638047492568 0 0 0 0 208.88073415003601 35.569388712686077 0 35.569388712686077 169.60667078766073 0 0 0 0 192.64905869934955 216.41457421348329 0 216.41457421348329 743.38852551876607 0 0 0 0 705.78819862050295 233.49909453753889 0 233.49909453753889 426.18448602644071 0 0 0 0 922.48954361830693 601.79001481960063 0 601.79001481960063 1027.1417617703855 0 0 0 0 1014.0738298901269 -111.54626543055247 0 -111.54626543055247 790.32291933459328 0 0 0 0 2185.7718489731778 -521.34383844917807 0 -521.34383844917807 1632.9367462270684 0 0 0 0 2397.1276583732179 1131.36352921716 0 1131.36352921716 1333.9771662314179 0 0 0 0 1614.9239312765276 387.44831867551693 0 387.44831867551693 401.86738897073701 0 0 0 0 79.785828555046464 -155.58445697376465 0 -155.58445697376465 396.77895291170893 0 0 0 0 365.87822599767969 185.02142079836085 0 185.02142079836085 -277.25409950196445 0 0 0 0 1494.0082100540312 -1520.1585743373225 0 -1520.1585743373225 596.69696239990299 0 0 0 0 27.664219652799829 -4.4059872960491191 0 -4.4059872960491191 1.3928030713086681 0 0 0 0 4216.404399751962 332.36432239196552 0 332.36432239196552 -202.76321066462879 0 0 0 0 2675.4798491865949 1995.9996591891181 0 1995.9996591891181 869.82213692412847 0 0 0 0 480.05760352723883 429.61896461624269 0 429.61896461624269 265.1292301459689 0 0 0 0 961.47005340226315 -71.105669581869961 0 -71.105669581869961 -465.25993399819708 0 0 0 0 2163.2158717512939 898.9275477759445 0 898.9275477759445 79.735866286445344 0 0 0 0 2506.4553311085256 693.52099904349609 0 693.52099904349609 -188.49028049442313 0 0 0 0 2105.5766661638627 209.97384019848926 0 209.97384019848926 12.331416359971968 0 0 0 0 2666.0188421748171 343.84762818629338 0 343.84762818629338 -64.363159738128616 0 0 0 0 1990.7951029327705 -40.940048578039743 0 -40.940048578039743 233.15067957599035 0 0 0 0 1136.4987504529927 312.43972435459216 0 312.43972435459216 -201.62003927274645 0 0 0 0 1382.5932430532703 -133.36575647659424 0 -133.36575647659424 458.07555997948248 0 0 0 0 2385.2359667673227 565.69331832515684 0 565.69331832515684 -232.3094295500714 0 0 0 0 2364.687655003203 595.93994464684306 0 595.93994464684306 -233.69424870576859 0 0 0 0 2175.6420291475442 841.66641597687578 0 841.66641597687578 -308.70787457892521 0 0 0 0 1719.7916286853433 289.93385338095459 0 289.93385338095459 -285.20925147355132 0 0 0 0 1239.3476740067999 694.28701707691278 0 694.28701707691278 43.601478942177096 0 0 0 0 344.37576091574738 -213.44347305426754 0 -213.44347305426754 111.60532354879837 0 0 0 0 263.35062085562458 -434.05488786928191 0 -434.05488786928191 -496.10912614661902 0 0 0 0 -45.759538997735945 252.58452147519984 0 252.58452147519984 215.0298511870796 0 0 0 0 3507.2035513970768 472.37065418944621 0 472.37065418944621 -459.41132671003351 0 0 0 0 1428.6876061688527 1239.4849438758852 0 1239.4849438758852 -24.528229233967522 0 0 0 0 25.943000302197333 3.8530413658214151 0 3.8530413658214151 1.1100268190723517 0 0 0 0 1970.8283395642648 -1081.2568689695879 0 -1081.2568689695879 576.39599754516257 0 0 0 0 3590.7278901840182 -586.54240328423998 0 -586.54240328423998 134.68660363570507 0 0 0 0 1204.2722399560735 -988.69234022618639 0 -988.69234022618639 757.45131469872558 0 0 0 0 3.1600666748895492 -1.3213354771600763 0 -1.3213354771600763 -0.029635072343261903 0 0 0 0 -373.03057966310007 -280.13810105852053 0 -280.13810105852053 464.24672782794391 0 0 0 0 1386.3554907702855 589.79319416454632 0 589.79319416454632 330.33351048146233 0 0 0 0 3111.4769639224105 -510.58259228160682 0 -510.58259228160682 528.08057851045442 0 0 0 0 1888.9818098031537 282.51627524168998 0 282.51627524168998 1565.9266751575542 0 0 0 0 2253.9633896489831 273.84068090344522 0 273.84068090344522 -15.295781791339778 0 0 0 0 3151.7769233729487 984.2477890886455 0 984.2477890886455 529.87127340322195 0 0 0 0 1444.2969230933813 800.76304472663367 0 800.76304472663367 238.63844697719151 0 0 0 0 1905.563294540716 212.90543658660357 0 212.90543658660357 498.14795176254756 0 0 0 0 1401.570317718928 871.52996410462538 0 871.52996410462538 575.58642816744759 0 0 0 0 1017.7801796172353 90.812303094102163 0 90.812303094102163 32.591477957702693 0 0 0 0 956.98787936240933 914.35699376619868 0 914.35699376619868 221.59434737826632 0 0 0 0 2418.5908082205206 965.25540127774809 0 965.25540127774809 288.20014259832533 0 0 0 0 2601.7023035433467 -341.74103381502283 0 -341.74103381502283 41.455796832558917 0 0 0 0 6.3792550117354949 -0.57522810489837184 0 -0.57522810489837184 -1.8638752195824004 0 0 0 0 646.32666147088457 694.83827418893861 0 694.83827418893861 604.10611505606585 0 0 0 0 1577.7959069022691 -250.32200625836504 0 -250.32200625836504 61.812794567177662 0 0 0 0 1825.7920176908301 48.842069767551379 0 48.842069767551379 -282.47183089201462 0 0 0 0 1550.5935508693947 187.37428946666978 0 187.37428946666978 -346.29091956596881 0 0 0 0 746.42455645147857 237.76391207462029 0 237.76391207462029 -120.91858193352073 0 0 0 0 1043.2728188785259 -758.34664343804252 0 -758.34664343804252 440.66485574754472 0 0 0 0 721.09986020166252 -493.91502792435676 0 -493.91502792435676 308.93009173292194 0 0 0 0 730.4300944867573 -458.25978782214122 0 -458.25978782214122 279.59452429018711 0 0 0 0 298.89594468709402 -828.8279257472044 0 -828.8279257472044 734.62810138528675 0 0 0 0 1202.9191694455512 -711.95100649146207 0 -711.95100649146207 437.45558629797779 0 0 0 0 1681.4387678970816 -958.69051939418364 0 -958.69051939418364 460.27475783664613 0 0 0 0 1995.6469935522182 -479.93021601260659 0 -479.93021601260659 255.02872394489805 0 0 0 0 2016.7010698917293 -497.84864801876665 0 -497.84864801876665 241.12926384231605 0 0 0 0 1905.5608513274929 -63.048775370622025 0 -63.048775370622025 114.00472329670538 0 0 0 0 1708.472923354595 -624.5330144880013 0 -624.5330144880013 237.66963275796661 0 0 0 0 1473.3420966135163 -436.60152736916734 0 -436.60152736916734 126.32031886095683 0 0 0 0 1309.2149699302681 -72.854302863846897 0 -72.854302863846897 -55.297994470635331 0 0 0 0 1096.4711126585462 -455.48257032427387 0 -455.48257032427387 131.1039000007022 0 0 0 0 1479.0715727104398 -357.92457522238442 0 -357.92457522238442 -67.582208951674147 0 0 0 0 850.57869216594554 -467.6097571708442 0 -467.6097571708442 109.4298582743038 0 0 0 0 1135.7266791644142 -505.30531461720886 0 -505.30531461720886 112.94297592217663 0 0 0 0 788.01867766477517 -494.41158437619879 0 -494.41158437619879 239.31480513316092 0 0 0 0 774.73300928657409 -538.74450044905507 0 -538.74450044905507 306.92185671703044 0 0 0 0 654.55828200472752 -509.39366371953247 0 -509.39366371953247 315.44817842121302 0 0 0 0 640.73405494206236 -387.04543228248258 0 -387.04543228248258 167.22819889722996 0 0 0 0 79.934281308778736 -94.580791165024948 0 -94.580791165024948 146.90107582137989 0 0 0 0 441.16426298859733 -483.99683217568145 0 -483.99683217568145 318.31243315550637 0 0 0 0 4.9046705477296086 0.75145758977794941 0 0.75145758977794941 -2.8343591770094818 0 0 0 0 -76.572092768985385 276.88769075710854 0 276.88769075710854 -21.670706553218679 0 0 0 0 -117.82170822820626 -87.435886935578765 0 -87.435886935578765 236.74341361693996 0 0 0 0 -63.319511922600213 118.37210269223851 0 118.37210269223851 -213.46132813715667 0 0 0 0 -101.0730960657238 -38.904472461617843 0 -38.904472461617843 -87.815754697723605 0 0 0 0 3.0229531873179383 0.11855935888635827 0 0.11855935888635827 -0.17279388856705147 0 0 0 0 25.633738861317397 172.67450426956611 0 172.67450426956611 -157.7539652115538 0 0 0 0 -514.06912362331059 -139.96992907242202 0 -139.96992907242202 -119.45505466670693 0 0 0 0 2.444384856412853 0.18862007171030371 0 0.18862007171030371 -3.4282549662136912 0 0 0 0 6.9594757563027088 14.973135604217077 0 14.973135604217077 -30.368778138363723 0 0 0 0 12.748669688517111 12.476895943073032 0 12.476895943073032 -29.662332379961072 0 0 0 0 253.21791094279615 98.838921527089042 0 98.838921527089042 -128.56436400509301 0 0 0 0 10.843310794458262 -2.8311481657799504 0 -2.8311481657799504 -6.760790138219706 0 0 0 0 5.0900962437929707 2.2955069998806295 0 2.2955069998806295 -2.1767607384564185 0 0 0 0 223.44475583094754 33.855484844573766 0 33.855484844573766 13.3157791992071 0 0 0 0 -30.431261230085511 47.100778089455162 0 47.100778089455162 -136.16459094678248 0 0 0 0 56.993312601101934 4.1201474946162762 0 4.1201474946162762 -18.993622020728253 0 0 0 0 29.867765527655138 32.074180640749546 0 32.074180640749546 -33.474682481301897 0 0 0 0 -1.2894100300816547 4.2213067446681976 0 4.2213067446681976 -3.4143286978936631 0 0 0 0 70.407755105261458 33.987473991600382 0 33.987473991600382 -35.484773045976226 0 0 0 0 92.23883125550492 29.266336610515964 0 29.266336610515964 -34.49116092521308 0 0 0 0 19.597334436970414 -1.1595672048827055 0 -1.1595672048827055 -13.95745328121302 0 0 0 0 -29.984910757659236 -2.3866478926356649 0 -2.3866478926356649 -11.567813926104236 0 0 0 0 7.0105104872439767 6.4772453369544678 0 6.4772453369544678 -16.99362735805979 0 0 0 0 15.149662145755258 7.240759582105909 0 7.240759582105909 -21.453130166802332 0 0 0 0 -37.778267066576518 38.50600616929114 0 38.50600616929114 -47.565989095944587 0 0 0 0 -1.8059668669448001 35.315220639815379 0 35.315220639815379 -47.660555523811126 0 0 0 0 -4.3686631490622858 25.00655828668225 0 25.00655828668225 -35.674918642865059 0 0 0 0 -24.084522697041393 67.125060299398911 0 67.125060299398911 -86.435571758692276 0 0 0 0 148.7745718385122 2.7344351476895099 0 2.7344351476895099 -152.2949570199462 0 0 0 0 -30.866853169631213 10.326846368117913 0 10.326846368117913 -43.577008839615701 0 0 0 0 -1.3713793387149167 4.4373230725182253 0 4.4373230725182253 -7.3449011841125591 0 0 0 0 -18.329295103962068 10.121830553290692 0 10.121830553290692 -44.018131431152142 0 0 0 0 1.5660254487005147 6.6857060542427291 0 6.6857060542427291 -17.723022067443377 0 0 0 0 16.301393316221947 -1.9453717791743657 0 -1.9453717791743657 -28.531491301218921 0 0 0 0 90.990299698867602 6.5490041031621331 0 6.5490041031621331 -27.254386226556335 0 0 0 0 2.3256367335488903 1.2404980973733473 0 1.2404980973733473 -27.912872371478898 0 0 0 0 12.250495187734487 7.2522768725575588 0 7.2522768725575588 -31.489323802013132 0 0 0 0 16.530912399787951 4.5020667178758913 0 4.5020667178758913 -12.52936539001643 0 0 0 0 9.7540628773567732 12.628992019759608 0 12.628992019759608 -35.437076728790544 0 0 0 0 7.423595429136185 12.630734733101235 0 12.630734733101235 -26.722632958462327 0 0 0 0 10.771354247932322 9.2874182152854701 0 9.2874182152854701 -12.769587422405493 0 0 0 0 12.269269406649983 3.3355440830264342 0 3.3355440830264342 -20.124805360904247 0 0 0 0 19.946361199239618 22.927885430985498 0 22.927885430985498 -32.645880716081365 0 0 0 0 11.686259122612171 0.81119348152631332 0 0.81119348152631332 -5.570151709457912 0 0 0 0 3.8581512180997493 -1.314559241512967 0 -1.314559241512967 -1.0116390702610865 0 0 0 0 -5.0673778918426251 -10.246656072526093 0 -10.246656072526093 -6.852635827258041 0 0 0 0 -30.080601819456206 41.821426018301395 0 41.821426018301395 30.677531333794832 0 0 0 0 -0.014410803528278393 0.35855125633067431 0 0.35855125633067431 1.4122416969755176 0 0 0 0 16.988668122619856 4.5818430267172516 0 4.5818430267172516 -28.858753732228308 0 0 0 0 4.1876577926217635 1.4065748667139673 0 1.4065748667139673 -4.0415552506695951 0 0 0 0 34.073310977572874 -48.900652368719875 0 -48.900652368719875 -59.66292471394172 0 0 0 0 -9.1653051022512955 27.167393361458835 0 27.167393361458835 -27.920800733935266 0 0 0 0 37.882877959229518 -12.76892098921553 0 -12.76892098921553 -8.9930208707296515 0 0 0 0 11.224097279991838 -204.27344211926163 0 -204.27344211926163 -174.39994500237663 0 0 0 0 16.505382398217421 4.4767499448241352 0 4.4767499448241352 -14.818746153336425 0 0 0 0 -80.278668705657765 -42.186908576553691 0 -42.186908576553691 -137.94127044883339 0 0 0 0 28.795824885263755 -0.97084753154113912 0 -0.97084753154113912 -9.2768194294663484 0 0 0 0 58.910213548502497 15.807536467799746 0 15.807536467799746 -150.25481237003123 0 0 0 0 -28.902721810867661 -202.89530366673262 0 -202.89530366673262 -258.30789507611917 0 0 0 0 -143.85448923615331 -7.0457887506540828 0 -7.0457887506540828 -117.60754386180861 0 0 0 0 61.594608457536026 5.387210868257327 0 5.387210868257327 -2.774519792261239 0 0 0 0 64.52900870594749 102.59548896188301 0 102.59548896188301 -220.22048142189942 0 0 0 0 24.124619196081767 166.49145964080435 0 166.49145964080435 -372.59740670863403 0 0 0 0 66.902181711735466 374.61213117332159 0 374.61213117332159 -183.00618330621091 0 0 0 0 392.30543767024938 -149.36964509671816 0 -149.36964509671816 -822.60081969753787 0 0 0 0 15.464362275370121 10.939130654581632 0 10.939130654581632 -9.1338327006236497 0 0 0 0 38.678740214212155 2.5987440355548301 0 2.5987440355548301 -10.196107583302418 0 0 0 0 0.55019586966594147 14.321291749751097 0 14.321291749751097 -19.744844812423551 0 0 0 0 58.353909679950448 89.721384147929029 0 89.721384147929029 -32.647374431276148 0 0 0 0 22.991864197043469 9.9493772676929719 0 9.9493772676929719 -21.872910661116713 0 0 0 0 37.162247389256152 -4.3697209780317721 0 -4.3697209780317721 -11.766627405904122 0 0 0 0 3785.4032473387488 -723.56133980302639 0 -723.56133980302639 -1107.1855710842369 0 0 0 0 5498.6613526903602 -693.91509729154791 0 -693.91509729154791 -1256.6574578694674 0 0 0 0 1636.2296408313123 -159.95860359725827 0 -159.95860359725827 -301.0316856489103 0 0 0 0 2707.2026806256617 -269.24918500638029 0 -269.24918500638029 -531.06639863758301 0 0 0 0 3248.0947193727916 -1338.8989459997447 0 -1338.8989459997447 -80.937338842324266 0 0 0 0 1300.8773583958391 -472.08179902713886 0 -472.08179902713886 265.44641849026954 0 0 0 0 1881.4924514265294 -625.17647651273728 0 -625.17647651273728 97.027114968374235 0 0 0 0 1706.5698283964448 -835.03645179296893 0 -835.03645179296893 36.780265880103684 0 0 0 0 5307.1974273936066 -1654.1674362050658 0 -1654.1674362050658 -904.86829747272873 0 0 0 0 5497.9457240467746 -2353.3119434384648 0 -2353.3119434384648 774.19641956521184 0 0 0 0 -887.44709458584839 -863.0569095146293 0 -863.0569095146293 831.27690864913893 0 0 0 0 7217.2880920105235 -1701.0048579015991 0 -1701.0048579015991 624.22482172327796 0 0 0 0 3133.3107295762893 -2850.7537373240789 0 -2850.7537373240789 1173.859098867988 0 0 0 0 -50.241316918167286 -1542.9464074472116 0 -1542.9464074472116 1153.0125255569144 0 0 0 0 855.96058933937456 -826.80952861642709 0 -826.80952861642709 411.06897545257198 0 0 0 0 5505.8486433641401 716.30425481294787 0 716.30425481294787 171.0915885707895 0 0 0 0 4.8885166833458555 -8.4959746667282019 0 -8.4959746667282019 11.92546281404816 0 0 0 0 -589.89782727525017 -206.80595288164909 0 -206.80595288164909 159.65784556718972 0 0 0 0 62.978528977328097 95.605702003525948 0 95.605702003525948 -336.09652649421412 0 0 0 0 546.06454363266312 209.84697101571976 0 209.84697101571976 -199.13178642848015 0 0 0 0 207.18658105123905 -105.95713233527886 0 -105.95713233527886 -404.90943010398496 0 0 0 0 216.02376207170892 -155.40163813790332 0 -155.40163813790332 65.873942443542546 0 0 0 0 737.47075411340484 -24.150590228045473 0 -24.150590228045473 97.316755401763658 0 0 0 0 546.69733889012423 -213.09729979817394 0 -213.09729979817394 484.34917257466327 0 0 0 0 247.75895953520376 198.23102261997531 0 198.23102261997531 238.0303446606502 0 0 0 0 182.47638652684691 47.392087780303882 0 47.392087780303882 67.232385642594409 0 0 0 0 755.28688449232322 183.58630902094328 0 183.58630902094328 98.390046184960283 0 0 0 0 273.95273321433342 152.79373767890525 0 152.79373767890525 -52.112890153186527 0 0 0 0 345.83468896353224 356.5310714806194 0 356.5310714806194 -607.50996359188775 0 0 0 0 143.40152112803355 41.960040687436944 0 41.960040687436944 -11.471117424119141 0 0 0 0 82.50835208632634 104.29601374703748 0 104.29601374703748 -216.91805922227377 0 0 0 0 75.229140443057986 102.38951614170105 0 102.38951614170105 -137.54902362188636 0 0 0 0 67.867161854723236 -329.07428533419079 0 -329.07428533419079 45.30741547888374 0 0 0 0 378.28895324435143 -206.29781077439429 0 -206.29781077439429 -451.35547726983759 0 0 0 0 113.18299159427988 240.4283012897273 0 240.4283012897273 14.97506648688568 0 0 0 0 97.499285480531398 178.67880998623059 0 178.67880998623059 569.58899370224663 0 0 0 0 196.62593389204994 399.56403298549412 0 399.56403298549412 292.60510710846734 0 0 0 0 96.260218482027994 179.54036927292236 0 179.54036927292236 222.89930732362532 0 0 0 0 46.074758490256499 49.033866051165717 0 49.033866051165717 -28.685876736476075 0 0 0 0 -4.8959514857940576 -2.1163967940065511 0 -2.1163967940065511 1.2446794729767798 0 0 0 0 250.99673978509236 37.441870799798977 0 37.441870799798977 -622.09106124953814 0 0 0 0 200.45106643970212 274.45387861408574 0 274.45387861408574 305.5113209052214 0 0 0 0 -112.27979659447738 165.50031045274386 0 165.50031045274386 -247.35732003826502 0 0 0 0 432.14629585764487 229.73538877730982 0 229.73538877730982 -499.21380281822417 0 0 0 0 1300.8354804217315 -11.796081961651689 0 -11.796081961651689 -460.18783755329133 0 0 0 0 321.10323251160298 214.72634044528172 0 214.72634044528172 -83.033924506645008 0 0 0 0 379.39258738318131 312.20428476215727 0 312.20428476215727 -62.757360550412841 0 0 0 0 1706.1958499325992 -21.698059599456883 0 -21.698059599456883 -320.13733899970464 0 0 0 0 366.85721020869823 240.87212449814342 0 240.87212449814342 -391.35607513987668 0 0 0 0 -317.58756165717205 465.23073132008517 0 465.23073132008517 -53.797101590744887 0 0 0 0 161.01820849687647 412.7748223315084 0 412.7748223315084 -85.731854221748108 0 0 0 0 -43.092176972655579 3.8901135087110106 0 3.8901135087110106 19.409025437686523 0 0 0 0 2.9446708501927787 50.291810666581455 0 50.291810666581455 110.40164930394167 0 0 0 0 -3.2181685436573488 19.197161439383294 0 19.197161439383294 2.9488526177309562 0 0 0 0 -39.492959758157667 -70.569985768836688 0 -70.569985768836688 -167.01092025847106 0 0 0 0 -334.19690720422659 106.66003436798496 0 106.66003436798496 57.657208773426987 0 0 0 0 -128.44278404253419 22.812949458749557 0 22.812949458749557 -2.4690419043500356 0 0 0 0 -32.173023365874542 -170.94984631256102 0 -170.94984631256102 -34.935700061445914 0 0 0 0 -13.70469006006897 -84.975693042595367 0 -84.975693042595367 -88.256465607669952 0 0 0 0 24.087916486314498 -160.04038367043813 0 -160.04038367043813 60.546068340482421 0 0 0 0 -84.972528431666433 -128.83612876313555 0 -128.83612876313555 -67.493669297797169 0 0 0 0 69.373558330611559 46.964571467380665 0 46.964571467380665 -3.6705814492179343 0 0 0 0 26.509020364523167 25.027188298061901 0 25.027188298061901 22.581098755592393 0 0 0 0 10.348667145660002 0.84532827218144746 0 0.84532827218144746 -3.5516361704079973 0 0 0 0 -48.98671537150949 -24.733913558210133 0 -24.733913558210133 -107.39682712352078 0 0 0 0 36.40306722454261 39.813983648838985 0 39.813983648838985 -33.821718843119015 0 0 0 0 10.171571730192454 -5.0062901061242684 0 -5.0062901061242684 -6.1877934547983742 0 0 0 0 59.422161210852209 27.114913575751416 0 27.114913575751416 -30.080126647724683 0 0 0 0 58.917380354876514 29.016661359657519 0 29.016661359657519 -34.180372818231262 0 0 0 0 51.807661927887239 34.818112875687802 0 34.818112875687802 -32.77845395654731 0 0 0 0 56.060892858375155 28.852251342176714 0 28.852251342176714 -42.450144743026613 0 0 0 0 43.478005755518097 30.217823126298754 0 30.217823126298754 -34.2718467315201 0 0 0 0 65.360520524671301 18.349636105169338 0 18.349636105169338 -31.316099502277211 0 0 0 0 67.706219047569903 25.126641514638322 0 25.126641514638322 -36.296710239705135 0 0 0 0 57.647517830628203 33.646364698974139 0 33.646364698974139 -35.008302016212838 0 0 0 0 79.984687932272209 37.058667788155162 0 37.058667788155162 -25.070051531980425 0 0 0 0 1.5350487642658095 24.367686652594955 0 24.367686652594955 -8.5705814970464473 0 0 0 0 -3.2869435731481644 94.077805494012864 0 94.077805494012864 -62.537623690015948 0 0 0 0 76.072329478076426 51.27855870791899 0 51.27855870791899 -77.903745141154218 0 0 0 0 -30.623699215284432 0.94974782863300788 0 0.94974782863300788 17.777216200751582 0 0 0 0 -161.20012380593835 87.984115342086625 0 87.984115342086625 -2.2908799050587731 0 0 0 0 -62.822051815979648 48.764260161298807 0 48.764260161298807 -119.15563161721457 0 0 0 0 -254.60614565484775 594.55247502257066 0 594.55247502257066 193.45195126436079 0 0 0 0 152.14531203547034 58.529243301972755 0 58.529243301972755 -8.4816562001051476 0 0 0 0 -3.1921104082758518 15.800159173676832 0 15.800159173676832 -2.9812802133357659 0 0 0 0 -4.0145236440842496 12.894372910447956 0 12.894372910447956 -2.8697876598582717 0 0 0 0 66.88942012192274 84.80098647987495 0 84.80098647987495 -108.21763635991488 0 0 0 0 74.799525630805874 153.88001972316943 0 153.88001972316943 -80.18201815852899 0 0 0 0 171.23309598045648 51.754562224363198 0 51.754562224363198 -33.212676083035525 0 0 0 0 238.21275624462578 33.945506009637938 0 33.945506009637938 -101.96705766855962 0 0 0 0 245.50776369588857 43.343777519920877 0 43.343777519920877 -109.65936818270757 0 0 0 0 225.79304348042933 50.344899104433694 0 50.344899104433694 -103.03936658395816 0 0 0 0 222.18695599262719 25.042974285643822 0 25.042974285643822 -96.892960396622883 0 0 0 0 194.20512717249221 20.113800495805435 0 20.113800495805435 -97.139479433706356 0 0 0 0 200.97620741840365 38.759839639830034 0 38.759839639830034 -99.581290746169998 0 0 0 0 294.23761246800132 -66.564772797737078 0 -66.564772797737078 -29.457755458938664 0 0 0 0 34.547637048822111 3.5299244465678896 0 3.5299244465678896 -23.129581333765127 0 0 0 0 330.44204025086219 44.147139803695268 0 44.147139803695268 -53.271325913201508 0 0 0 0 188.13002853136277 -83.876534355619697 0 -83.876534355619697 61.171254183120709 0 0 0 0 184.39753948778161 21.746763676948888 0 21.746763676948888 -9.9911410777112906 0 0 0 0 113.38838473771466 52.740940946149749 0 52.740940946149749 -4.7170814754535968 0 0 0 0 168.80124130038894 4.5953871846877519 0 4.5953871846877519 0.53759073930632439 0 0 0 0 191.61919459831552 91.066628259226945 0 91.066628259226945 27.301265533882543 0 0 0 0 209.35944724603905 69.874089496172473 0 69.874089496172473 -23.570299098355463 0 0 0 0 142.80322477489244 33.538466848071039 0 33.538466848071039 72.009640777552704 0 0 0 0 78.353643361260765 43.854774180308596 0 43.854774180308596 -46.793933011758782 0 0 0 0 67.225953811779618 36.742366146510903 0 36.742366146510903 -33.556613281463797 0 0 0 0 90.145529273844716 33.774059901247284 0 33.774059901247284 -6.2552057875444866 0 0 0 0 159.74942105903756 9.6546479617536534 0 9.6546479617536534 -4.2455243521922057 0 0 0 0 44.491568428268664 -20.091268055874366 0 -20.091268055874366 -7.686229416908497 0 0 0 0 16.778104742232244 47.951210176497625 0 47.951210176497625 -105.12245517272731 0 0 0 0 35.803731437206807 15.969683263403795 0 15.969683263403795 -6.9736114923292067 0 0 0 0 55.318963844154496 38.894966123610175 0 38.894966123610175 -46.632316321611142 0 0 0 0 32.286061751516115 71.570404398025971 0 71.570404398025971 -11.080712562091438 0 0 0 0 46.206962058960926 37.417754653239172 0 37.417754653239172 -31.935467703751783 0 0 0 0 80.12761473588472 59.552629074381436 0 59.552629074381436 -29.714483718713172 0 0 0 0 49.117899205186404 20.921503183511959 0 20.921503183511959 -2.6571320329749142 0 0 0 0 180.42109673644882 20.422553800837704 0 20.422553800837704 -48.367474409367787 0 0 0 0 62.996630085224751 4.5549151474624523 0 4.5549151474624523 -37.660775291335995 0 0 0 0 95.81000289188205 -0.26525757945510975 0 -0.26525757945510975 -14.158044631150398 0 0 0 0 36.413849832057792 -2.6146716746300882 0 -2.6146716746300882 -14.07928825162433 0 0 0 0 139.58700285441591 153.65045214124984 0 153.65045214124984 -48.266369428805774 0 0 0 0 95.26847409652737 -28.68186896200249 0 -28.68186896200249 -13.53993622986879 0 0 0 0 74.359562963159988 -4.2063917342184141 0 -4.2063917342184141 -31.594582029258163 0 0 0 0 62.492899497896445 6.1364584818640111 0 6.1364584818640111 -3.1219779286932212 0 0 0 0 93.83976845455517 -3.9936135930898899 0 -3.9936135930898899 -11.154702969024285 0 0 0 0 217.59059082210297 -156.89759790061726 0 -156.89759790061726 66.386413679152611 0 0 0 0 -10.671548247773899 -112.0283521926691 0 -112.0283521926691 113.49527702366004 0 0 0 0 -24.708892562412075 -203.76140819237844 0 -203.76140819237844 -41.052248188654289 0 0 0 0 185.60022076460882 102.40483551710577 0 102.40483551710577 29.450418264738801 0 0 0 0 87.222278321985129 -23.476094314096173 0 -23.476094314096173 2.3529408203787341 0 0 0 0 173.51146186214828 -64.17891516389767 0 -64.17891516389767 -23.060885661222528 0 0 0 0 63.236464964851621 100.36905992045695 0 100.36905992045695 -93.48252749992389 0 0 0 0 29.126533571081836 -2.5097303917457339 0 -2.5097303917457339 -5.5500030370951272 0 0 0 0 15.659068026330658 3.5857892914061438 0 3.5857892914061438 -9.545651541717735 0 0 0 0 102.35852094487564 -44.144994928512432 0 -44.144994928512432 11.827261744640055 0 0 0 0 247.9355352280545 6.7206418771966128 0 6.7206418771966128 121.90688321290509 0 0 0 0 154.18745127820148 -0.065890621513744918 0 -0.065890621513744918 -55.936241815825269 0 0 0 0 57.552394782498595 84.3595348963172 0 84.3595348963172 -137.56819000061478 0 0 0 0 294.97186775624868 -55.531935672934196 0 -55.531935672934196 -518.95184982668343 0 0 0 0 182.12889290889143 217.80073036032627 0 217.80073036032627 -28.050531048041194 0 0 0 0 -65.837549111362023 -68.046014184207252 0 -68.046014184207252 325.2259965082817 0 0 0 0 68.072817721469505 -12.454486108320836 0 -12.454486108320836 1.5905683515559037 0 0 0 0 3.6532229461166139 3.9908365926034364 0 3.9908365926034364 2.7232760481905252 0 0 0 0 1250.9120224175531 -396.06592080583891 0 -396.06592080583891 276.27742455687439 0 0 0 0 13.792785158978518 1.7471205761347974 0 1.7471205761347974 0.37240420804301699 0 0 0 0 11.296203226869693 107.87324993723905 0 107.87324993723905 -340.45088912692427 0 0 0 0 63.490595556075277 -87.866447056187098 0 -87.866447056187098 116.32910944047808 0 0 0 0 167.24280265666312 -17.760837528881893 0 -17.760837528881893 -424.44766864708663 0 0 0 0 23.007672667197767 -88.135718278279569 0 -88.135718278279569 -150.82823977608496 0 0 0 0 -34.534862981112383 -57.212156210816261 0 -57.212156210816261 -143.9789945232078 0 0 0 0 287.28767705592327 -246.7924291442198 0 -246.7924291442198 -268.25193570950228 0 0 0 0 168.00938449271052 -72.78788488188593 0 -72.78788488188593 260.83322891623999 0 0 0 0 163.87892019709398 -9.3362619015582311 0 -9.3362619015582311 93.290237635401766 0 0 0 0 31.368197387520922 -189.70672798547685 0 -189.70672798547685 60.226073608800107 0 0 0 0 23.613225295310258 416.60453216644396 0 416.60453216644396 155.98240666353627 0 0 0 0 1192.857895789828 565.25075212016179 0 565.25075212016179 60.402009908236565 0 0 0 0 609.27445443623583 377.96117252453678 0 377.96117252453678 354.80891038577607 0 0 0 0 212.49490265686836 -51.267673632653384 0 -51.267673632653384 129.02925767334091 0 0 0 0 -10.933350829756819 248.6706668046545 0 248.6706668046545 349.59497632532998 0 0 0 0 976.65088066471799 127.88434534075486 0 127.88434534075486 176.47252821733309 0 0 0 0 1570.4539938431553 667.20497588091416 0 667.20497588091416 83.093530901594704 0 0 0 0 2432.9156462676438 306.72913893958338 0 306.72913893958338 -193.40932385321048 0 0 0 0 1684.4618009745391 1387.4698692509539 0 1387.4698692509539 402.64121852369817 0 0 0 0 1312.8546711710733 443.42972615672716 0 443.42972615672716 722.71719683565254 0 0 0 0 -696.78787540306075 1217.0471497837329 0 1217.0471497837329 478.96169194655567 0 0 0 0 6.7919267563112271 7.3187451036854014 0 7.3187451036854014 6.8860210132875128 0 0 0 0 861.96954676822497 -16.357005082074465 0 -16.357005082074465 -231.45584043189638 0 0 0 0 -329.04445058185956 720.48532804118042 0 720.48532804118042 -872.36989793781834 0 0 0 0 16.713665812756517 167.15605080567207 0 167.15605080567207 -343.22210698191566 0 0 0 0 -153.67744934270377 78.915501324133402 0 78.915501324133402 16.864878478604624 0 0 0 0 -420.61859895348607 246.62950187261424 0 246.62950187261424 -265.14357270942469 0 0 0 0 10.899264235536975 321.42346481215594 0 321.42346481215594 -407.30496552520447 0 0 0 0 -253.45479674505441 155.08615838971079 0 155.08615838971079 -437.23211451419638 0 0 0 0 -303.73062436693363 17.853637611578435 0 17.853637611578435 -160.32876798581151 0 0 0 0 -285.68570849687967 353.71304066971084 0 353.71304066971084 -599.51570224140505 0 0 0 0 16.97511483262511 16.437742731242707 0 16.437742731242707 10.980399523373721 0 0 0 0 4.3300257813916687 316.58479726945637 0 316.58479726945637 -8.4851770053185192 0 0 0 0 -257.40831455669104 89.164790557904368 0 89.164790557904368 73.144717626644649 0 0 0 0 -106.95966018986655 -57.999373623868294 0 -57.999373623868294 -11.381974231200346 0 0 0 0 99.770658820743847 115.49629001731665 0 115.49629001731665 116.22778033744831 0 0 0 0 -84.82784530549543 -65.207921306245808 0 -65.207921306245808 174.92089740641825 0 0 0 0 -154.2525416463468 36.536049702611621 0 36.536049702611621 86.266516378944175 0 0 0 0 -859.66427111254598 707.27995590877504 0 707.27995590877504 -423.71383387795004 0 0 0 0 -593.23011566440982 741.67668455322917 0 741.67668455322917 -624.9220422764497 0 0 0 0 -9.0091851791369351 -0.44669883997549675 0 -0.44669883997549675 2.6662456668479386 0 0 0 0 13.436034533605067 18.99416241450723 0 18.99416241450723 9.724588888074388 0 0 0 0 -636.26527294267544 362.62623933612923 0 362.62623933612923 63.857581435657721 0 0 0 0 -16.611062349387794 55.044278848655324 0 55.044278848655324 -339.46343225607541 0 0 0 0 1470.7262791700559 158.4743808420784 0 158.4743808420784 -363.59774772271101 0 0 0 0 810.13396831131831 942.88371779699457 0 942.88371779699457 50.021698754076198 0 0 0 0 216.9328969509661 469.27055626001481 0 469.27055626001481 172.90456327716083 0 0 0 0 62.224822930067603 -82.242804049879965 0 -82.242804049879965 -132.980412733717 0 0 0 0 -411.61267398086056 269.31316610555098 0 269.31316610555098 -220.78860830499843 0 0 0 0 53.450717059132785 -37.721308280501937 0 -37.721308280501937 -284.87555434903493 0 0 0 0 -19.535630270620459 45.099192405657277 0 45.099192405657277 -323.55937046463157 0 0 0 0 -71.196763247426134 63.427123630374126 0 63.427123630374126 -89.474918328375907 0 0 0 0 -47.440511516746483 168.68640406311397 0 168.68640406311397 -225.45157051476895 0 0 0 0 -1050.1136194667815 375.24604843718049 0 375.24604843718049 -20.991874411837586 0 0 0 0 6.8878933236555184 9.8737632700751732 0 9.8737632700751732 6.8708775255826282 0 0 0 0 6215.8012963697911 799.64354021134602 0 799.64354021134602 -314.18794130962783 0 0 0 0 5499.0999456351528 541.30322688234298 0 541.30322688234298 -395.10212246472338 0 0 0 0 5499.4644231757156 953.82042276716527 0 953.82042276716527 -201.37514433794325 0 0 0 0 3637.9396178276638 -24.141707049138883 0 -24.141707049138883 -712.45859705214855 0 0 0 0 3703.0847622150832 746.49147887406946 0 746.49147887406946 -605.16900764623085 0 0 0 0 1610.842767680977 447.24724156443278 0 447.24724156443278 -452.40689925734682 0 0 0 0 3564.7167172995833 -160.14636272368341 0 -160.14636272368341 -662.99123909204241 0 0 0 0 3784.8426265615581 250.29095949702943 0 250.29095949702943 -829.34177489460217 0 0 0 0 4912.4136407782244 461.57360834874908 0 461.57360834874908 -1532.9187762902611 0 0 0 0 1965.3170800360022 374.53228315712624 0 374.53228315712624 -594.46798265329232 0 0 0 0 1952.5386270923518 280.78963365879815 0 280.78963365879815 -1236.8747192851774 0 0 0 0 -47.651899347376457 -31.835428196766088 0 -31.835428196766088 -72.255924261372456 0 0 0 0 -80.360376801067105 1731.2890034371326 0 1731.2890034371326 -1740.6287171075653 0 0 0 0 32.062280645371274 31.169024654669183 0 31.169024654669183 12.733083277478119 0 0 0 0 673.54168534136261 1792.2661163712391 0 1792.2661163712391 2105.3685383076322 0 0 0 0 5075.1738577739306 -1021.4870042859784 0 -1021.4870042859784 -1292.2674215356139 0 0 0 0 5503.3333372053567 -129.20977081922288 0 -129.20977081922288 -1846.7703214731837 0 0 0 0 19.695816026882511 9.8774560477778444 0 9.8774560477778444 5.26396122812762 0 0 0 0 1539.8143624386794 -1334.6074338498897 0 -1334.6074338498897 -980.54917807633683 0 0 0 0 6994.9270670930564 1854.3414116843669 0 1854.3414116843669 634.96380602084128 0 0 0 0 5500.1998413000147 1098.3169555525626 0 1098.3169555525626 2237.4157213167373 0 0 0 0 5772.6808450576445 1690.1069527910979 0 1690.1069527910979 -339.04920757696362 0 0 0 0 3301.6558202174274 2840.6767795135875 0 2840.6767795135875 1177.455962941227 0 0 0 0 3331.3924192917293 967.69613852008433 0 967.69613852008433 -241.38291338050351 0 0 0 0 2917.1905324961626 1283.5046339424971 0 1283.5046339424971 168.23740801214194 0 0 0 0 7.7334454588058925 24.354929350022744 0 24.354929350022744 16.5526324590518 0 0 0 0 -100.43915145112987 -340.72172095278177 0 -340.72172095278177 1139.5002407759043 0 0 0 0 2194.2030577752885 498.17633413494627 0 498.17633413494627 -174.60445179215526 0 0 0 0 -197.7272887577783 238.85915380963297 0 238.85915380963297 -161.37943300641064 0 0 0 0 -797.17232029959814 177.35073062699473 0 177.35073062699473 137.67442200997857 0 0 0 0 -139.2094108415331 67.942437740511537 0 67.942437740511537 197.64505471047141 0 0 0 0 167.14098912747795 417.71129058288352 0 417.71129058288352 267.70731440089912 0 0 0 0 379.96046386034141 100.71775069279784 0 100.71775069279784 -41.371602709888066 0 0 0 0 -146.04680980084231 462.77378129350927 0 462.77378129350927 149.37230100967275 0 0 0 0 -563.99400677044468 348.73484672117638 0 348.73484672117638 146.06131355937441 0 0 0 0 22.500321054877201 31.926348417140886 0 31.926348417140886 8.1958038012382062 0 0 0 0 -321.22627690334775 190.27349627147578 0 190.27349627147578 -116.69648026497816 0 0 0 0 14.570865143752016 1.8700676636212705 0 1.8700676636212705 -14.257590711447328 0 0 0 0 555.42537086713855 -28.458195031596802 0 -28.458195031596802 -544.09081003395352 0 0 0 0 -171.37580764290033 546.87081017920673 0 546.87081017920673 -376.64881792746064 0 0 0 0 59.932980758881641 49.287852504201425 0 49.287852504201425 23.046379263538142 0 0 0 0 814.57486649027851 -286.24472488086303 0 -286.24472488086303 -387.40945134085064 0 0 0 0 -266.52352291865463 394.45278267805179 0 394.45278267805179 -0.47841563997462799 0 0 0 0 2266.8278490943194 63.293566899480538 0 63.293566899480538 -619.45908909148352 0 0 0 0 1892.8506480638753 645.58673289996295 0 645.58673289996295 -510.75920876207852 0 0 0 0 1727.470155724448 689.73300196432501 0 689.73300196432501 -404.13260500147226 0 0 0 0 2935.7649819353828 1212.9632085388785 0 1212.9632085388785 -388.5946243974746 0 0 0 0 1931.7462675177376 1833.2622393437082 0 1833.2622393437082 1079.6157932921683 0 0 0 0 897.11104387033265 818.61674018536223 0 818.61674018536223 198.52493970498654 0 0 0 0 901.34514451772156 752.98079175620683 0 752.98079175620683 334.25569057735629 0 0 0 0 1944.5104019147257 1058.5942086973419 0 1058.5942086973419 -447.25044900482317 0 0 0 0 2223.0899620869541 593.86644403227342 0 593.86644403227342 -471.1292746035233 0 0 0 0 1767.769931690942 1012.9267690792874 0 1012.9267690792874 -446.23490904675782 0 0 0 0 1536.5004769701573 313.08743502254049 0 313.08743502254049 -583.46567835653877 0 0 0 0 1574.036759855655 953.63604621416653 0 953.63604621416653 -248.79842575028215 0 0 0 0 1381.6213912721287 580.37894771399488 0 580.37894771399488 -411.40892107947877 0 0 0 0 703.09691834344267 695.30613986988374 0 695.30613986988374 278.69587326354394 0 0 0 0 470.99918123568204 231.26395482242287 0 231.26395482242287 160.51219105061637 0 0 0 0 716.59562329814798 910.5003363119215 0 910.5003363119215 1153.891963855318 0 0 0 0 360.69150890296442 498.22580293629608 0 498.22580293629608 178.17601358957336 0 0 0 0 203.58428262585949 -143.30038739333622 0 -143.30038739333622 61.50365428258101 0 0 0 0 947.38441432147374 192.43830607098835 0 192.43830607098835 302.17300214535862 0 0 0 0 747.24627261782825 1516.064027601928 0 1516.064027601928 637.06370884510034 0 0 0 0 2117.3089437443996 1326.1757107917847 0 1326.1757107917847 -3.5490765208132871 0 0 0 0 5.2046923823774591 -0.36401555646094153 0 -0.36401555646094153 -3.073033641171655 0 0 0 0 29.915382306207903 1828.7092120967841 0 1828.7092120967841 711.4898261974422 0 0 0 0 147.01950903316174 1119.1055224625684 0 1119.1055224625684 596.15236604928293 0 0 0 0 -136.21944055788117 517.01289784714413 0 517.01289784714413 92.511978224149061 0 0 0 0 847.74038460121665 1480.1321697552107 0 1480.1321697552107 365.97532063516246 0 0 0 0 1428.8639797955475 1063.6733553587887 0 1063.6733553587887 552.17611593361653 0 0 0 0 566.94254057850048 119.07412161000047 0 119.07412161000047 192.3936566002244 0 0 0 0 9.2261749033212084 -1.4884276140551975 0 -1.4884276140551975 -4.2651071401645844 0 0 0 0 138.90627888095332 -6.2481260684753579 0 -6.2481260684753579 -64.716102292848518 0 0 0 0 141.55931061358206 33.846290225496432 0 33.846290225496432 239.89871072644564 0 0 0 0 -155.62484227163077 -54.615499615353201 0 -54.615499615353201 -874.16524560055223 0 0 0 0 240.66209161534789 381.77502267422551 0 381.77502267422551 -449.5800848620911 0 0 0 0 6.0332827312419539 8.3424834875454508 0 8.3424834875454508 8.8188381393421622 0 0 0 0 -925.25792052422184 1121.9416385054938 0 1121.9416385054938 571.25334751392074 0 0 0 0 -1495.5811319571512 422.78426932367074 0 422.78426932367074 91.422837286342784 0 0 0 0 11.338123075517103 15.987176634879532 0 15.987176634879532 14.893531736100396 0 0 0 0 -818.46107066490003 785.36278625836917 0 785.36278625836917 344.99688269637954 0 0 0 0 -461.15800279680116 -64.126071880123618 0 -64.126071880123618 -34.330954492419096 0 0 0 0 -490.055859644468 799.22251017187773 0 799.22251017187773 -363.67364635937656 0 0 0 0 -235.38136507448144 76.211422486572246 0 76.211422486572246 -329.85651215337384 0 0 0 0 -436.0378331313841 -133.27014167115203 0 -133.27014167115203 -0.061640357040687377 0 0 0 0 -267.88324605912203 322.91273185753835 0 322.91273185753835 -245.71049220593068 0 0 0 0 -321.21000492019812 112.17942275991936 0 112.17942275991936 725.89398735575878 0 0 0 0 29.991164488441427 -126.85656197204844 0 -126.85656197204844 -282.40080285797399 0 0 0 0 -153.21741022111382 -244.92959114675364 0 -244.92959114675364 422.86069174493423 0 0 0 0 -189.77650343302048 -84.453959873130998 0 -84.453959873130998 -278.95650852696781 0 0 0 0 -518.48310350602151 175.85704281778487 0 175.85704281778487 -174.04772070240142 0 0 0 0 7.9519150162911103 9.4567852288289629 0 9.4567852288289629 7.3501792273568505 0 0 0 0 -256.7104368083601 141.52122539953052 0 141.52122539953052 -186.02064070308734 0 0 0 0 -150.19364606872114 157.8584487938133 0 157.8584487938133 -290.1126732857465 0 0 0 0 -219.07754613124416 221.33767229592195 0 221.33767229592195 -348.15951680493708 0 0 0 0 -29.134624156875361 203.03096698479294 0 203.03096698479294 -358.87595076620528 0 0 0 0 -95.57791050675587 125.18322087336674 0 125.18322087336674 -277.93618454853276 0 0 0 0 39.504180375835858 183.05713375492451 0 183.05713375492451 -253.15110293613725 0 0 0 0 42.243734023810248 188.44763892079845 0 188.44763892079845 -280.33582780922006 0 0 0 0 115.32891499723883 114.51186864184911 0 114.51186864184911 -120.66614205147482 0 0 0 0 146.80349948122659 68.08051274158214 0 68.08051274158214 21.556504709305585 0 0 0 0 28.128670920657925 -10.534974520329911 0 -10.534974520329911 -25.878268962695692 0 0 0 0 37.183966963950411 83.897183965869033 0 83.897183965869033 -297.96297266623151 0 0 0 0 -148.53912572387554 26.540516027778956 0 26.540516027778956 -413.84485622732609 0 0 0 0 6.1952835588599555 123.95188945191421 0 123.95188945191421 -289.43322378942321 0 0 0 0 20.986374404994422 116.40779974356701 0 116.40779974356701 -374.91555405198233 0 0 0 0 200.20884382269651 -452.56208357170999 0 -452.56208357170999 330.38767642489802 0 0 0 0 -194.73888903079205 444.55982122234582 0 444.55982122234582 -778.66141720070482 0 0 0 0 157.19418745626717 45.834853218493208 0 45.834853218493208 -972.75040505307334 0 0 0 0 1.6978834903433722 -1.3719494915144708 0 -1.3719494915144708 -7.3361613573652491 0 0 0 0 422.27524623033241 -73.471881689427391 0 -73.471881689427391 -495.19680535066618 0 0 0 0 -252.02240386013727 -21.39987266115304 0 -21.39987266115304 11.080531476351098 0 0 0 0 161.2926149717519 64.628555187529713 0 64.628555187529713 24.779126653627792 0 0 0 0 807.50111110434318 532.37797262089271 0 532.37797262089271 -344.49265880041787 0 0 0 0 -21.250556514583877 38.630863053369467 0 38.630863053369467 142.15972762669867 0 0 0 0 615.95379951485666 223.71101369248026 0 223.71101369248026 -659.44874413120488 0 0 0 0 2238.815220687924 -505.72812704570424 0 -505.72812704570424 32.0725815882397 0 0 0 0 -0.081319745616212913 0.47091173356609772 0 0.47091173356609772 -0.55358481994421993 0 0 0 0 169.944803156337 2527.933451107876 0 2527.933451107876 -1354.453583860226 0 0 0 0 321.48123092125752 -365.12378179102143 0 -365.12378179102143 -655.70274744236849 0 0 0 0 -455.70070747184582 207.71320358675689 0 207.71320358675689 -89.250641988015559 0 0 0 0 2016.0892363166931 -983.04545392339423 0 -983.04545392339423 384.49580179742225 0 0 0 0 324.22894200400242 256.81664361444206 0 256.81664361444206 2452.5722535369878 0 0 0 0 343.51916917470226 24.747969685426142 0 24.747969685426142 145.63869282421001 0 0 0 0 22.9358400239758 17.520583911739784 0 17.520583911739784 13.842881777002953 0 0 0 0 782.81936640333151 1923.6672255978683 0 1923.6672255978683 2182.6437803078279 0 0 0 0 3185.0033325264521 1509.5801813179692 0 1509.5801813179692 -1257.9728912931189 0 0 0 0 -292.44292351041804 776.61489826704928 0 776.61489826704928 2788.1147411881202 0 0 0 0 -1180.2981648048444 1004.3763043258086 0 1004.3763043258086 2070.0920298198398 0 0 0 0 89.661155257483188 580.81734560471841 0 580.81734560471841 73.703109392146871 0 0 0 0 -186.28696912181476 680.23077569294082 0 680.23077569294082 1691.8580463839012 0 0 0 0 9.7817946663269737 2.5434336786054672 0 2.5434336786054672 1.1155919797748037 0 0 0 0 -1349.8167915613112 160.04441283228249 0 160.04441283228249 34.62409514452338 0 0 0 0 -1131.8025434372685 2770.6454451688023 0 2770.6454451688023 549.17104582853426 0 0 0 0 -2031.2792136371281 2681.3781839024718 0 2681.3781839024718 656.73762111459882 0 0 0 0 542.98584429898256 967.79901634030921 0 967.79901634030921 2078.6158481654998 0 0 0 0 1518.4944405536153 1544.6335637792909 0 1544.6335637792909 513.42923824358877 0 0 0 0 -357.39132486446761 86.84193384295213 0 86.84193384295213 274.66725462442082 0 0 0 0 -6.4041193296060044 14.582015466358147 0 14.582015466358147 7.0851791018720958 0 0 0 0 -100.04520215279808 8.8232862040617874 0 8.8232862040617874 164.20513469590333 0 0 0 0 -739.28820667650143 297.17423895981847 0 297.17423895981847 240.07514513486603 0 0 0 0 225.84597764180216 1636.4669205198952 0 1636.4669205198952 -207.15773946319086 0 0 0 0 152.73587284036418 61.260907454732902 0 61.260907454732902 21.04183068836932 0 0 0 0 300.11789251730079 662.83974863404296 0 662.83974863404296 -378.0192162546773 0 0 0 0 2419.8229967550851 1865.063953567003 0 1865.063953567003 -772.8372727377398 0 0 0 0 9.3166390219908521 6.9916271773847614 0 6.9916271773847614 4.2164139050463678 0 0 0 0 526.30078265692828 287.08910088462744 0 287.08910088462744 -210.29473598948459 0 0 0 0 -1646.5393523036964 -734.65750205805307 0 -734.65750205805307 -133.0633468015244 0 0 0 0 835.94973519899031 714.04082027109189 0 714.04082027109189 308.77272789252856 0 0 0 0 163.08538613239762 80.363525063064117 0 80.363525063064117 637.25830851186208 0 0 0 0 933.05382453352922 535.23672285746579 0 535.23672285746579 559.93759175559398 0 0 0 0 -1251.2964135023867 1005.9600200022307 0 1005.9600200022307 461.70372024532116 0 0 0 0 -301.96831978096452 204.62325777997285 0 204.62325777997285 163.50315049155961 0 0 0 0 -546.9518292855862 -1111.9163008463179 0 -1111.9163008463179 189.73769078145688 0 0 0 0 89.84281686614122 157.18298214707102 0 157.18298214707102 -0.16425870979401225 0 0 0 0 115.24785127375907 42.330201192801646 0 42.330201192801646 21.093451210269286 0 0 0 0 1458.3769330530395 148.38864908547112 0 148.38864908547112 -1352.4561643380223 0 0 0 0 1689.3909025668218 -619.52454066338498 0 -619.52454066338498 193.95082303855702 0 0 0 0 1113.7249810724036 -2019.404629273107 0 -2019.404629273107 1261.5265288717501 0 0 0 0 3792.6264604563689 -3376.4118679726571 0 -3376.4118679726571 1651.2914731458836 0 0 0 0 5491.447484869951 -2950.9668316087846 0 -2950.9668316087846 136.06459358550052 0 0 0 0 5470.4794189796085 4.2205570444353002 0 4.2205570444353002 40.212613200827832 0 0 0 0 -653.04807577993779 -867.49611137154898 0 -867.49611137154898 2510.0053778432975 0 0 0 0 20.974171568523065 -3.562466442074379 0 -3.562466442074379 16.626803935462533 0 0 0 0 5288.4133186551044 1465.2513087961713 0 1465.2513087961713 204.46115096672096 0 0 0 0 23.720359193402203 12.520710447026207 0 12.520710447026207 6.3504088023833845 0 0 0 0 4.8078862087345726 -2.132656977729888 0 -2.132656977729888 13.700282312279704 0 0 0 0 1859.5944594642424 2037.3233788424593 0 2037.3233788424593 4365.6297727935535 0 0 0 0 131.16900653114681 8.2250959396925545 0 8.2250959396925545 71.523611563796209 0 0 0 0 -26.767187332159665 9.8497620938420418 0 9.8497620938420418 27.11615484743286 0 0 0 0 1528.3446574952031 468.21503317147358 0 468.21503317147358 71.912101482089383 0 0 0 0 -1092.9833450235892 901.45644747700112 0 901.45644747700112 1319.1585670831598 0 0 0 0 5487.8677757661917 2003.2258636928811 0 2003.2258636928811 142.10157635544056 0 0 0 0 995.23159766390745 -449.26344315904907 0 -449.26344315904907 -449.46244773022875 0 0 0 0 858.44987363785913 -679.08040630266851 0 -679.08040630266851 -795.55851611522212 0 0 0 0 1373.4631622241577 -479.62878881065535 0 -479.62878881065535 -799.23290761496423 0 0 0 0 1153.2361271444606 -201.38462888429922 0 -201.38462888429922 -559.37911065023218 0 0 0 0 865.52594497319546 18.181647531975706 0 18.181647531975706 -573.56589617698046 0 0 0 0 877.66337460640352 -324.18349454512543 0 -324.18349454512543 -581.21695922989034 0 0 0 0 262.70102505116665 50.055848767387943 0 50.055848767387943 -220.17871927862507 0 0 0 0 -3.187725402545766 90.123182419268574 0 90.123182419268574 -321.73417885304059 0 0 0 0 289.88035862690595 27.21503211882424 0 27.21503211882424 -379.66744988041341 0 0 0 0 -2.8018424773709114 2.5833198483544013 0 2.5833198483544013 -3.6190863297512372 0 0 0 0 -78.131153437669127 93.105578112743785 0 93.105578112743785 -359.01832289941194 0 0 0 0 -0.37781119655281259 0.22395633953782479 0 0.22395633953782479 -0.25216506463679145 0 0 0 0 404.33183378063404 -244.52614465508339 0 -244.52614465508339 -699.54903988195815 0 0 0 0 75.060528453192092 102.68911580010626 0 102.68911580010626 -24.887860744498539 0 0 0 0 64.520794965079403 6.8161204725879543 0 6.8161204725879543 -103.13204301301403 0 0 0 0 15.161164139447919 -1.6782510463239291 0 -1.6782510463239291 -4.0258003429101485 0 0 0 0 7.7613275470066583 42.59382715096217 0 42.59382715096217 89.676742989229069 0 0 0 0 11.28138823149493 -6.7505791416087391 0 -6.7505791416087391 -7.0017273403644253 0 0 0 0 6.802712985794642 1.6003113855722404 0 1.6003113855722404 -52.658636955015936 0 0 0 0 -0.23057132356552756 18.637469279366229 0 18.637469279366229 -22.772116183320577 0 0 0 0 21.9011655862476 1.1288525775787903 0 1.1288525775787903 -5.7891894436773521 0 0 0 0 26.605539229727583 2.9794035854647518 0 2.9794035854647518 -36.458001773879914 0 0 0 0 9.5001656058535104 -1.8384734407061956 0 -1.8384734407061956 -17.353466188370245 0 0 0 0 13.553697062510764 -3.7066140572743507 0 -3.7066140572743507 -16.685811900017072 0 0 0 0 19.326088955555093 -8.352397341986574 0 -8.352397341986574 -12.254329213227534 0 0 0 0 8.1619088051375002 -16.60526266485158 0 -16.60526266485158 -26.710136879757556 0 0 0 0 7.6879123712133151 -32.821540025149261 0 -32.821540025149261 -34.022369464110398 0 0 0 0 -27.66120028977457 -5.1490458915307045 0 -5.1490458915307045 3.2961608993573464 0 0 0 0 24.606252874276834 6.5612110182385095 0 6.5612110182385095 -0.18186732592039334 0 0 0 0 8.655570838065529 -5.9279943806749742 0 -5.9279943806749742 -7.5739792929064791 0 0 0 0 19.205406828325067 2.2107089797341217 0 2.2107089797341217 -19.917450366918956 0 0 0 0 5.1267554392397869 9.5686622142897022 0 9.5686622142897022 -22.974565866950911 0 0 0 0 8.0740322832288598 6.058355300342015 0 6.058355300342015 -15.822878259155866 0 0 0 0 20.375309245777316 1.9348289872777968 0 1.9348289872777968 19.326931347273785 0 0 0 0 6.1850608511740575 6.8438447276088361 0 6.8438447276088361 -18.300946203984523 0 0 0 0 5.736739570969803 -4.7123180815691512 0 -4.7123180815691512 31.919165161190904 0 0 0 0 6.0114854284035459 3.2517204721227131 0 3.2517204721227131 -12.351486005574518 0 0 0 0 1.2433164348956893 3.327451965085471 0 3.327451965085471 -2.7855707166938921 0 0 0 0 4.588618578389287 25.407137494970812 0 25.407137494970812 -8.1571265381489866 0 0 0 0 -87.1772955943743 -107.9238741424092 0 -107.9238741424092 16.876234296692914 0 0 0 0 678.60471726680407 -200.62173697985645 0 -200.62173697985645 -17.08113380473651 0 0 0 0 285.21116390562383 144.25349929438084 0 144.25349929438084 -69.828785194932607 0 0 0 0 874.01735663473664 11.979125239074619 0 11.979125239074619 -153.25709469477079 0 0 0 0 3.3873473282376096 -0.10060586626190116 0 -0.10060586626190116 -3.3917439801084441 0 0 0 0 101.1817846605627 86.457930079618109 0 86.457930079618109 57.086738678131951 0 0 0 0 559.92730833110545 -452.7367066691545 0 -452.7367066691545 135.64469321559136 0 0 0 0 5.550303422507767 -1.3407868546496342 0 -1.3407868546496342 0.48344429100030739 0 0 0 0 1098.2247723596083 -340.43926424385108 0 -340.43926424385108 -445.30315937895881 0 0 0 0 826.9376104592011 -570.06947878659219 0 -570.06947878659219 165.47350445051734 0 0 0 0 673.99623142271594 -311.56513924023034 0 -311.56513924023034 236.4664136218048 0 0 0 0 1085.4144583835732 -387.80266924912041 0 -387.80266924912041 -120.73447253608538 0 0 0 0 584.41456452147395 -279.10350357152515 0 -279.10350357152515 -0.97153642942248553 0 0 0 0 760.44094589806627 -495.55366989311642 0 -495.55366989311642 63.644419007669057 0 0 0 0 836.36396576248808 -438.63840708959219 0 -438.63840708959219 59.65241878985853 0 0 0 0 775.58115396022913 -483.91828482852134 0 -483.91828482852134 45.1307654226772 0 0 0 0 786.5566052965296 -334.54800588430999 0 -334.54800588430999 -11.676598533484821 0 0 0 0 1114.1587137949682 -421.78001357324956 0 -421.78001357324956 9.1301214421300756 0 0 0 0 1084.0324551968806 -209.73577103646767 0 -209.73577103646767 -118.44869995397494 0 0 0 0 851.10919329118042 -154.43020352117901 0 -154.43020352117901 -53.486626590571859 0 0 0 0 924.41357493597025 -240.2495340873254 0 -240.2495340873254 45.910884871045255 0 0 0 0 746.24816175585875 -335.34113409212091 0 -335.34113409212091 -116.99678514852349 0 0 0 0 542.93511080359167 -175.58584714797416 0 -175.58584714797416 36.716370464913552 0 0 0 0 1081.2319971773904 17.794890855464473 0 17.794890855464473 -13.434993798905452 0 0 0 0 761.01393987872871 154.10369753205487 0 154.10369753205487 161.34413297819992 0 0 0 0 806.54024018299242 245.88817584920093 0 245.88817584920093 -115.02781147151723 0 0 0 0 1.6213214631298634 -0.62761701693798955 0 -0.62761701693798955 -6.840354599265682 0 0 0 0 973.43105850865504 92.651112461273783 0 92.651112461273783 -25.864429749474766 0 0 0 0 675.81164525128406 16.644482923889427 0 16.644482923889427 38.662410143736452 0 0 0 0 835.91409684963583 -182.5931211199786 0 -182.5931211199786 28.610731893450065 0 0 0 0 540.0998044336302 -191.54422139003873 0 -191.54422139003873 87.45905827811066 0 0 0 0 980.04759992867184 -64.156458639274206 0 -64.156458639274206 -343.53508475912258 0 0 0 0 232.4303886957681 160.72903067311989 0 160.72903067311989 -19.00756014086528 0 0 0 0 2.0274880233194148 -0.0023301261898609482 0 -0.0023301261898609482 -15.385446808293086 0 0 0 0 1050.1638674035453 45.590128786741822 0 45.590128786741822 -249.77992599884055 0 0 0 0 253.79049270130781 47.200939052870126 0 47.200939052870126 240.15933155967423 0 0 0 0 133.10700695641572 517.48081708980408 0 517.48081708980408 79.408222896845018 0 0 0 0 209.33369214215782 -429.9722049533425 0 -429.9722049533425 -131.39919972421592 0 0 0 0 481.83867112106236 -58.791261496250854 0 -58.791261496250854 -231.67032481637534 0 0 0 0 737.21152689425071 -189.96652054252945 0 -189.96652054252945 -164.38202849365598 0 0 0 0 332.81229265018919 -600.54623411967282 0 -600.54623411967282 -610.95354608065759 0 0 0 0 971.77856043332213 -569.07899440621293 0 -569.07899440621293 -53.627083745277105 0 0 0 0 0.10124117396243548 0.30610738722633357 0 0.30610738722633357 -7.0978347058569646 0 0 0 0 731.66376402354217 -439.51305686941441 0 -439.51305686941441 -112.40420465045099 0 0 0 0 306.85834640753455 -412.23935954551598 0 -412.23935954551598 -347.59626531830963 0 0 0 0 -941.37592245865744 -549.68796801808094 0 -549.68796801808094 -112.43779080876084 0 0 0 0 -250.59317814054884 177.46945779117846 0 177.46945779117846 -163.33360856997069 0 0 0 0 -245.00444448301278 -274.22786735734826 0 -274.22786735734826 -306.84259368537914 0 0 0 0 0.11080205170217994 4.2397701481287271 0 4.2397701481287271 -26.415135527516551 0 0 0 0 795.21116023584182 -89.324483250737899 0 -89.324483250737899 -354.20605473067462 0 0 0 0 -448.71876509962021 132.22480543878962 0 132.22480543878962 1058.1244364408205 0 0 0 0 474.39489964198583 445.4362638188195 0 445.4362638188195 -403.53966774528089 0 0 0 0 450.07287060129602 338.88861620247189 0 338.88861620247189 -259.17384117902247 0 0 0 0 1.0800179263392913 -0.46119703366572651 0 -0.46119703366572651 -8.5995146697090377 0 0 0 0 703.08969554627402 -376.37556752988712 0 -376.37556752988712 -496.64101067684987 0 0 0 0 259.19441858499522 -103.40947562679492 0 -103.40947562679492 -535.44476622550246 0 0 0 0 51.162323839569581 50.984011273132637 0 50.984011273132637 -161.08262055597152 0 0 0 0 249.22018603132165 17.546170492245437 0 17.546170492245437 -552.08878519972973 0 0 0 0 -54.923735949534603 -13.363097731406924 0 -13.363097731406924 -138.45214656214011 0 0 0 0 449.929599308256 346.55233881324875 0 346.55233881324875 -663.25430935431541 0 0 0 0 -135.25856633755029 -554.07075744160466 0 -554.07075744160466 469.79342678177636 0 0 0 0 -396.292326225941 477.97286628147185 0 477.97286628147185 -337.42038399539888 0 0 0 0 -311.22121122387762 192.66101302255993 0 192.66101302255993 -233.384329087683 0 0 0 0 562.04279138719721 -736.49386587463869 0 -736.49386587463869 61.478791461478977 0 0 0 0 1.2027793315522644 1.4979995384003217 0 1.4979995384003217 2.2366099733114169 0 0 0 0 558.10633177621276 27.646772148009859 0 27.646772148009859 -186.75670766707481 0 0 0 0 716.26015866684611 -415.93175824388254 0 -415.93175824388254 -69.964368951088773 0 0 0 0 -81.168658369533659 137.19418772223662 0 137.19418772223662 111.14945273385638 0 0 0 0 232.00057470524916 68.344274580773344 0 68.344274580773344 -317.02601671514913 0 0 0 0 -22.983098226191942 379.33982439024658 0 379.33982439024658 -455.00759085467689 0 0 0 0 170.76196150446049 228.425480850653 0 228.425480850653 -340.9620173557887 0 0 0 0 -155.20117618524091 215.69315992395059 0 215.69315992395059 -255.43565619577021 0 0 0 0 26.832081648382882 395.17718638020881 0 395.17718638020881 350.11205955631976 0 0 0 0 1.7744057985610198 555.6222390242192 0 555.6222390242192 596.1544263129199 0 0 0 0 -7.8921227897656649 4.8651562531988333 0 4.8651562531988333 -3.8668088128669451 0 0 0 0 -12.984550678651431 -75.334751652281057 0 -75.334751652281057 -47.720373730482493 0 0 0 0 -39.162066878663609 6.4035265818083644 0 6.4035265818083644 -50.169480823791673 0 0 0 0 409.27516618391383 595.71077519600703 0 595.71077519600703 79.206623678746837 0 0 0 0 142.31959492820897 465.40530575535195 0 465.40530575535195 274.75217451467142 0 0 0 0 -7.3851671699396064 15.030549482119639 0 15.030549482119639 -47.612112878980206 0 0 0 0 -6.6501818425563215 2.0029643898014626 0 2.0029643898014626 -31.055088575562301 0 0 0 0 180.21766029324499 312.58607170627329 0 312.58607170627329 232.78089698823169 0 0 0 0 186.31140672608308 311.73061448631529 0 311.73061448631529 41.375232286574828 0 0 0 0 323.86991702613886 750.40035839598136 0 750.40035839598136 421.22416394722904 0 0 0 0 162.31171080264903 508.21455096539194 0 508.21455096539194 83.201387308714402 0 0 0 0 819.84352002639207 619.63167680988113 0 619.63167680988113 -99.228283275030435 0 0 0 0 767.1943932576105 -389.45417723527567 0 -389.45417723527567 69.350795000122844 0 0 0 0 495.48190362647074 -405.95604134507494 0 -405.95604134507494 101.57970555341399 0 0 0 0 1408.8484858614756 -555.64889752973613 0 -555.64889752973613 96.419062391996704 0 0 0 0 944.98848559397447 -41.158801026470428 0 -41.158801026470428 -417.64494588258003 0 0 0 0 959.89425720577128 -1481.850071059325 0 -1481.850071059325 2447.9547148376196 0 0 0 0 2902.6952157222986 -859.70786865771584 0 -859.70786865771584 207.00406450963817 0 0 0 0 612.37380701874645 -295.2496575499141 0 -295.2496575499141 497.69741074198987 0 0 0 0 1114.6827825025248 -1274.1136915247444 0 -1274.1136915247444 1003.9750470300357 0 0 0 0 1214.48820020329 814.89258819938084 0 814.89258819938084 1587.9960883765466 0 0 0 0 314.72432651427516 659.47723415985888 0 659.47723415985888 110.98514300837769 0 0 0 0 27.896335150913018 1.2116706700363835 0 1.2116706700363835 -0.2502459210600394 0 0 0 0 1372.9550719945837 696.23255340712501 0 696.23255340712501 -194.93001166221075 0 0 0 0 2452.382024045095 -622.58059149461405 0 -622.58059149461405 -424.20137952985488 0 0 0 0 -11.231764856071095 143.36605942323388 0 143.36605942323388 -288.76323224081057 0 0 0 0 346.34099319607958 -221.83012279699437 0 -221.83012279699437 -46.832823381130765 0 0 0 0 -0.1755039290249556 0.072073453459509551 0 0.072073453459509551 -0.40468246587396095 0 0 0 0 281.17062249981973 -13.441206342259875 0 -13.441206342259875 94.15633752129088 0 0 0 0 691.02788259339286 4.5014360254745043 0 4.5014360254745043 -225.27958415948586 0 0 0 0 -149.29203235563182 -163.81899302429633 0 -163.81899302429633 55.399131969950076 0 0 0 0 252.59543859577389 -291.40959213182111 0 -291.40959213182111 -344.80321062209123 0 0 0 0 363.38725374089699 -99.580804141427279 0 -99.580804141427279 -12.926921833824053 0 0 0 0 334.37662343490229 -761.21433854081488 0 -761.21433854081488 1317.2326291449726 0 0 0 0 727.37786897987826 493.7526822919117 0 493.7526822919117 -414.81614304299455 0 0 0 0 74.080854460821371 8.8054752150561839 0 8.8054752150561839 -0.14292584958525367 0 0 0 0 337.54784341088089 -323.71193036056093 0 -323.71193036056093 920.88976293051701 0 0 0 0 336.60275063868517 -352.07396629493348 0 -352.07396629493348 579.99903595787237 0 0 0 0 631.77865136989203 -739.68992310806789 0 -739.68992310806789 812.85285019700314 0 0 0 0 519.30290728464024 -621.66401290068006 0 -621.66401290068006 803.11022599210548 0 0 0 0 585.32954742907896 -582.2624210462086 0 -582.2624210462086 356.33056404157105 0 0 0 0 595.34546037123073 -557.95840608453227 0 -557.95840608453227 357.94509712938634 0 0 0 0 428.75648201197328 -467.5223167231934 0 -467.5223167231934 413.68140128660525 0 0 0 0 439.48096841205552 -590.95231816107207 0 -590.95231816107207 746.29997608470831 0 0 0 0 431.41344899978867 -485.53640730505595 0 -485.53640730505595 410.90668574370102 0 0 0 0 350.39951483982441 -447.46405723182033 0 -447.46405723182033 585.06119703760305 0 0 0 0 350.02822604742141 -430.16309901307841 0 -430.16309901307841 421.77967549975983 0 0 0 0 339.49902861114242 -363.28120731271065 0 -363.28120731271065 550.80995989490202 0 0 0 0 398.78505976288579 -379.26811075257501 0 -379.26811075257501 368.58367577211902 0 0 0 0 389.83625918743201 -396.83896964568248 0 -396.83896964568248 374.937034260769 0 0 0 0 37.450293991598301 11.367869775749568 0 11.367869775749568 -67.923014763048286 0 0 0 0 51.050885371565045 23.831388651215896 0 23.831388651215896 6.31938088326757 0 0 0 0 116.07145008460793 -11.81878739491367 0 -11.81878739491367 -97.526324520504204 0 0 0 0 382.89813157066965 -325.43016707650509 0 -325.43016707650509 357.26319596228632 0 0 0 0 567.32474383639055 -225.63453142679236 0 -225.63453142679236 148.93695797694272 0 0 0 0 448.22366436393349 -347.35454429315996 0 -347.35454429315996 300.08550971193836 0 0 0 0 60.507538229048841 14.322253885314243 0 14.322253885314243 -18.636236310087146 0 0 0 0 418.42240558229969 -386.58083590407659 0 -386.58083590407659 336.25721529519615 0 0 0 0 382.26675497178803 -337.61908473376275 0 -337.61908473376275 426.84261420194252 0 0 0 0 21.862445693594054 50.602829601380108 0 50.602829601380108 22.586367945358688 0 0 0 0 42.704333025005155 16.476847819198596 0 16.476847819198596 4.0917687126207287 0 0 0 0 -13.076252913917415 -42.859225348274776 0 -42.859225348274776 90.450491384405041 0 0 0 0 25.028724300093018 -50.511802523741153 0 -50.511802523741153 27.569632811228075 0 0 0 0 51.468498356625787 51.586075474318704 0 51.586075474318704 -58.07964176027599 0 0 0 0 -298.24682916278834 -391.7998844120832 0 -391.7998844120832 -34.242453500500233 0 0 0 0 330.01227588381153 -369.00722812175241 0 -369.00722812175241 552.71857972436464 0 0 0 0 6.8233364520697819 -1.1129660029986326 0 -1.1129660029986326 -0.53522886937623859 0 0 0 0 175.80513960102689 76.950886463277129 0 76.950886463277129 -23.716240973373715 0 0 0 0 110.19723708241771 19.292771631103523 0 19.292771631103523 -9.3197509335348023 0 0 0 0 43.795422597214781 -20.092216196223404 0 -20.092216196223404 -31.781194024059793 0 0 0 0 58.632219714658618 21.869606580429977 0 21.869606580429977 4.932599386600649 0 0 0 0 44.126197870165925 49.830192915274438 0 49.830192915274438 -80.51501089799217 0 0 0 0 27.19087601465435 93.334289210035422 0 93.334289210035422 -167.88326231584142 0 0 0 0 42.040589065800305 -17.88211834923618 0 -17.88211834923618 67.283431686222457 0 0 0 0 -147.08867221974651 103.82597675667785 0 103.82597675667785 -276.68837200145208 0 0 0 0 67.399053643548086 61.068990553282106 0 61.068990553282106 27.953233269529054 0 0 0 0 2.8567343564274381 6.647511698730785 0 6.647511698730785 1.0346043558390594 0 0 0 0 50.40718594675127 -6.4156948202962667 0 -6.4156948202962667 -159.64413681510632 0 0 0 0 12.071904030337464 75.254895389320154 0 75.254895389320154 -309.997533046233 0 0 0 0 95.429383847658755 72.390962352648785 0 72.390962352648785 -195.60737418363806 0 0 0 0 50.038627242065161 19.310153013167973 0 19.310153013167973 8.4474290729463224 0 0 0 0 38.831646243255818 72.846118973768171 0 72.846118973768171 -53.606565365720598 0 0 0 0 70.436286018288229 80.82690090721826 0 80.82690090721826 -161.00746780848931 0 0 0 0 32.838674155515037 83.506729517305757 0 83.506729517305757 14.554709515536615 0 0 0 0 83.718149341315439 40.29363115753597 0 40.29363115753597 -94.505490327675943 0 0 0 0 75.822902930485725 84.376235761668454 0 84.376235761668454 -157.00646512322373 0 0 0 0 0.28827487303351518 75.711644734253468 0 75.711644734253468 14.848802499380781 0 0 0 0 35.062890597488149 62.854200292463929 0 62.854200292463929 -162.48268731616668 0 0 0 0 24.249001855060669 142.87679969872016 0 142.87679969872016 -291.72471176824592 0 0 0 0 -48.107363869814435 73.355489376614059 0 73.355489376614059 -93.185986186769696 0 0 0 0 30.531065116010723 48.855401944144205 0 48.855401944144205 -224.964268070039 0 0 0 0 26.609757161088055 86.761598505721508 0 86.761598505721508 -220.60060393257163 0 0 0 0 26.331358709194319 232.58433710942299 0 232.58433710942299 -699.43208812041883 0 0 0 0 -41.490960083594473 53.179428613399985 0 53.179428613399985 -234.10662471672413 0 0 0 0 -19.054801818623673 134.01023563914146 0 134.01023563914146 -348.80394982415874 0 0 0 0 -41.8656839729083 105.22177812977611 0 105.22177812977611 -368.97283415113839 0 0 0 0 -48.166174046391461 165.31123473084449 0 165.31123473084449 -317.68108961286953 0 0 0 0 5.7451904899498913 34.484568487660738 0 34.484568487660738 -312.58498486268127 0 0 0 0 51.380497840589669 49.23536104555663 0 49.23536104555663 -511.66714234543224 0 0 0 0 6.7954696885085184 -1.1562914611100581 0 -1.1562914611100581 -1.8923930413112657 0 0 0 0 129.06575412721577 45.314710735797007 0 45.314710735797007 16.357988755900124 0 0 0 0 -30.989395131662604 46.280598525989944 0 46.280598525989944 -43.301549449832066 0 0 0 0 80.654592510683869 -47.382599890417396 0 -47.382599890417396 -78.906054846204825 0 0 0 0 45.654779810196487 26.297841640114029 0 26.297841640114029 -110.84952235787887 0 0 0 0 -19.535340391419595 16.346695310716882 0 16.346695310716882 -107.83924290245159 0 0 0 0 -2.987353128977702 103.32195553710676 0 103.32195553710676 -201.28605344023777 0 0 0 0 30.185852933038404 58.439627225193817 0 58.439627225193817 -274.90222492260045 0 0 0 0 -16.741444718558341 54.501385022458862 0 54.501385022458862 -276.09232225401524 0 0 0 0 -18.686900901579065 88.422246331289671 0 88.422246331289671 -260.83929512099735 0 0 0 0 -7.6569714324723464 133.35295461938063 0 133.35295461938063 -386.93665336650633 0 0 0 0 31.257752330988296 122.50937192522287 0 122.50937192522287 -386.68727497244981 0 0 0 0 -19.01982606331876 112.11774849310359 0 112.11774849310359 -383.2907181687101 0 0 0 0 32.481800403562374 92.812767452948322 0 92.812767452948322 -503.48986315118373 0 0 0 0 -42.772341647578287 169.64799441761852 0 169.64799441761852 -405.12801597170272 0 0 0 0 -3.5797953213914298 1.3327330210922241 0 1.3327330210922241 -7.0643641716380898 0 0 0 0 -1.2752468317387411 -2.6186342534735445 0 -2.6186342534735445 -2.7584259092007248 0 0 0 0 -1.8525395308043926 -1.2922673012141246 0 -1.2922673012141246 -3.3592703234487842 0 0 0 0 -44.767494644642284 162.90845031588515 0 162.90845031588515 -425.59738021384049 0 0 0 0 -77.163879754552909 32.320117803275963 0 32.320117803275963 34.877110669217018 0 0 0 0 -154.45514360717789 155.16376259232425 0 155.16376259232425 -415.94754053299948 0 0 0 0 -15.557260770525318 166.04791675893171 0 166.04791675893171 -453.87944399399635 0 0 0 0 -64.703976312937812 121.18538223874745 0 121.18538223874745 -375.22717761961985 0 0 0 0 -110.47623773211672 421.27313158945401 0 421.27313158945401 -675.54314050739629 0 0 0 0 -239.14491346850991 249.97522333859854 0 249.97522333859854 -392.8299141343291 0 0 0 0 -69.323121977430219 229.66264078528164 0 229.66264078528164 -524.12690166844595 0 0 0 0 -0.86571638554966057 -0.85379931114064789 0 -0.85379931114064789 -1.9355530378208756 0 0 0 0 228.32964018608436 -131.56030195488086 0 -131.56030195488086 -27.904267930072933 0 0 0 0 232.90178163257769 -143.66183068750283 0 -143.66183068750283 -246.37719901687262 0 0 0 0 0.88490374697968832 1.2718432789728453 0 1.2718432789728453 0.31136886844078926 0 0 0 0 2.6528844482012914 0.57748698066241388 0 0.57748698066241388 -1.4031666656162867 0 0 0 0 345.58543441117217 -121.81486313762366 0 -121.81486313762366 -74.525881960582069 0 0 0 0 196.91916023175872 -129.19123782179668 0 -129.19123782179668 -38.132074397498627 0 0 0 0 -26.509782200475456 -34.270784423725047 0 -34.270784423725047 -17.041951250624606 0 0 0 0 461.98005763394758 2.7841316232879763 0 2.7841316232879763 -60.191357408196382 0 0 0 0 303.29398068480077 -26.617804434562913 0 -26.617804434562913 -11.098461487066515 0 0 0 0 -62.561327584204264 -14.54721120139493 0 -14.54721120139493 111.7379580803663 0 0 0 0 383.03143978801381 -123.32928702940239 0 -123.32928702940239 -7.9714227736531029 0 0 0 0 1.2942113023158015 0.6940357479637953 0 0.6940357479637953 -0.1872016128339189 0 0 0 0 102.55356730654603 46.250773130944253 0 46.250773130944253 -103.45255956366691 0 0 0 0 83.938667983777123 -138.83487152611337 0 -138.83487152611337 276.37608372071054 0 0 0 0 18.468493549211416 49.83692745316057 0 49.83692745316057 -54.332741138937081 0 0 0 0 -13.22673282296455 88.678024083837727 0 88.678024083837727 152.18348896955331 0 0 0 0 270.53087562002111 63.997986834134565 0 63.997986834134565 152.79503779850165 0 0 0 0 399.41485309106065 4.3121389437660582 0 4.3121389437660582 -36.954630163442744 0 0 0 0 42.782836168415088 142.88015701988718 0 142.88015701988718 -68.948619911489004 0 0 0 0 -68.115952123640454 -82.482487956352543 0 -82.482487956352543 -43.910540922119765 0 0 0 0 181.09330004054937 18.390265560380612 0 18.390265560380612 -221.92119000356843 0 0 0 0 246.3884525137255 -121.12571192162795 0 -121.12571192162795 -249.77125738383711 0 0 0 0 45.304502907458527 -6.3439757284280525 0 -6.3439757284280525 0.83471754869824188 0 0 0 0 -26.659939887082146 31.396150146952095 0 31.396150146952095 27.676202361983997 0 0 0 0 52.816276312223636 6.3387314270476054 0 6.3387314270476054 -75.926874828600603 0 0 0 0 41.900936113869363 -5.7999577706339807 0 -5.7999577706339807 -2.6497735548702952 0 0 0 0 18.736460009749862 -68.526905922515425 0 -68.526905922515425 -52.658509961343725 0 0 0 0 11.198756849664335 -4.6837896412464488 0 -4.6837896412464488 -9.0923669856573976 0 0 0 0 0.91413277379535884 -9.4410467658816231 0 -9.4410467658816231 -6.027072555941773 0 0 0 0 8.089487120276317 -7.2802680206214063 0 -7.2802680206214063 -3.9474819466054214 0 0 0 0 2.7340411721622502 -3.2981280381651601 0 -3.2981280381651601 -18.32963161655535 0 0 0 0 3.2673057418732014 0.27235082009570988 0 0.27235082009570988 -3.0806504638371397 0 0 0 0 -18.920235035941005 -68.652687455249179 0 -68.652687455249179 -29.844507146108754 0 0 0 0 -51.639352495563799 -36.263343700941732 0 -36.263343700941732 87.755260406404432 0 0 0 0 13.959761571059062 -3.448422135450528 0 -3.448422135450528 -5.5537157446756282 0 0 0 0 8.1684202744800132 2.6387858830428286 0 2.6387858830428286 -7.5671521292169928 0 0 0 0 11.089613115327666 7.4966551274337689 0 7.4966551274337689 -6.2900113342816297 0 0 0 0 783.21870843539364 -23.169569896172789 0 -23.169569896172789 -156.91056107981603 0 0 0 0 567.30201984796804 -109.2579791722859 0 -109.2579791722859 -156.96156955120796 0 0 0 0 245.92973417721805 156.62216650964592 0 156.62216650964592 128.12544516907656 0 0 0 0 828.24683536029261 -12.939592771117873 0 -12.939592771117873 -111.65133218358096 0 0 0 0 2.1855645936175847 1.0642340664994947 0 1.0642340664994947 -3.5272268728378489 0 0 0 0 532.27861733509053 386.70434422155404 0 386.70434422155404 137.83188133152908 0 0 0 0 16.213333586776571 0.387187794772899 0 0.387187794772899 -8.6997475000771374 0 0 0 0 20.166890387772582 -2.9625265390241111 0 -2.9625265390241111 -9.534382373569315 0 0 0 0 7.8985143366416253 -0.35328865769660922 0 -0.35328865769660922 -1.8043451516476541 0 0 0 0 -18.621089447886334 -27.698010402780596 0 -27.698010402780596 22.733154107147584 0 0 0 0 49.644856805316522 23.987882356569116 0 23.987882356569116 -24.503351632658507 0 0 0 0 88.132787114474922 33.468551028106049 0 33.468551028106049 -178.07254729641704 0 0 0 0 41.587154022412165 -6.0011647732682967 0 -6.0011647732682967 0.21786176947460101 0 0 0 0 21.744075356415124 96.251812274848135 0 96.251812274848135 27.528074116118248 0 0 0 0 4.7497584487688869 -0.087325961085312542 0 -0.087325961085312542 -1.4351640694645273 0 0 0 0 51.402088949165773 36.679738864329465 0 36.679738864329465 14.15630391459672 0 0 0 0 2.7911944859806681 -1.3994388771611739 0 -1.3994388771611739 -8.7261684133632116 0 0 0 0 6.9692991498304764 -3.8735098405220469 0 -3.8735098405220469 -37.955631772889319 0 0 0 0 6.0782959027856123 9.8506905131761187 0 9.8506905131761187 -17.155661379870509 0 0 0 0 3.048383020240351 1.9967703847890377 0 1.9967703847890377 0.50250250419353892 0 0 0 0 -2.1744712798390538 7.8253840236803569 0 7.8253840236803569 6.0219549364240947 0 0 0 0 -3.3366618571744766 25.337645862304157 0 25.337645862304157 -24.133610399840563 0 0 0 0 31.751235654228367 30.485934477398473 0 30.485934477398473 -178.8095019050748 0 0 0 0 -24.018358758446993 -1.3295676493908672 0 -1.3295676493908672 -101.95497612356925 0 0 0 0 13.963910320795549 89.338692352741617 0 89.338692352741617 -249.67255511944609 0 0 0 0 89.684322298446205 52.916802479157127 0 52.916802479157127 -281.66655689809613 0 0 0 0 -146.99158669176541 191.89478272244105 0 191.89478272244105 -231.32742408989276 0 0 0 0 -34.583701951367402 59.453349813492196 0 59.453349813492196 -83.530034721041716 0 0 0 0 5.2207380301234139 3.0507650712555439 0 3.0507650712555439 -1.3098329351780538 0 0 0 0 12.125392052854295 4.6762374020062225 0 4.6762374020062225 -9.5226154135267507 0 0 0 0 14.440641191038594 6.0238864491024628 0 6.0238864491024628 -9.5671036162388532 0 0 0 0 8.337359867458872 4.5285186193662526 0 4.5285186193662526 -7.5787179979697612 0 0 0 0 799.70091155137925 -385.21859753521449 0 -385.21859753521449 150.13960819174963 0 0 0 0 2.1452699345980246 0.90657309351630033 0 0.90657309351630033 -6.8002448961445348 0 0 0 0 276.63362940372463 -134.9883794317409 0 -134.9883794317409 94.431126442455934 0 0 0 0 233.65304702916637 162.1259886171803 0 162.1259886171803 106.74159142829785 0 0 0 0 4.1472320305935568 2.2106454063823513 0 2.2106454063823513 -2.0749642582309265 0 0 0 0 1.9479244373608715 -0.98390085907712432 0 -0.98390085907712432 -3.6842415053359807 0 0 0 0 900.30474506141036 -110.19419420961208 0 -110.19419420961208 -410.1385619009294 0 0 0 0 559.04126754695608 106.93723245713477 0 106.93723245713477 -495.40587077106687 0 0 0 0 63.435215776014957 99.327524678010718 0 99.327524678010718 -410.77710634990473 0 0 0 0 42.293985866417643 76.324392928629322 0 76.324392928629322 -240.05483777253949 0 0 0 0 -15.312533779455407 34.338502757660308 0 34.338502757660308 -269.23770785098532 0 0 0 0 25.79748459757684 52.597941649856125 0 52.597941649856125 -189.15637815746732 0 0 0 0 0.58957685740006127 148.18916356451427 0 148.18916356451427 -257.76131542911253 0 0 0 0 249.81832585608936 45.992226801789684 0 45.992226801789684 -252.88762937487718 0 0 0 0 54.841982372672646 109.44760485116137 0 109.44760485116137 -329.13209016678525 0 0 0 0 93.614810146216769 46.569954294139109 0 46.569954294139109 -381.87142120058132 0 0 0 0 58.393377659314865 74.572903443672658 0 74.572903443672658 -295.64090534596585 0 0 0 0 58.039651873870753 34.899963160186644 0 34.899963160186644 -251.62413824406599 0 0 0 0 85.061435331983375 91.952360069737779 0 91.952360069737779 -284.32597922605987 0 0 0 0 83.438896392984589 67.864453696101833 0 67.864453696101833 -293.51877040891964 0 0 0 0 66.920943001940032 124.38668419180658 0 124.38668419180658 -236.50188010861802 0 0 0 0 40.042820122165722 51.260314949118992 0 51.260314949118992 -44.630713105748896 0 0 0 0 61.491710402769968 50.680623671980584 0 50.680623671980584 -160.10428285068315 0 0 0 0 68.806860830893129 91.895619082083272 0 91.895619082083272 -118.55706851889045 0 0 0 0 47.969534020972787 0.58701606948989138 0 0.58701606948989138 -36.173753878257457 0 0 0 0 67.171169531140549 82.341552450527871 0 82.341552450527871 -193.2808756109257 0 0 0 0 33.504075732882484 39.668576996944012 0 39.668576996944012 -122.15001604748659 0 0 0 0 63.387811426640837 32.596709227971132 0 32.596709227971132 -125.73078201691283 0 0 0 0 74.992159119462002 -82.680788349601997 0 -82.680788349601997 -19.404757794489001 0 0 0 0 76.4792155042378 210.87918811340842 0 210.87918811340842 56.754646836885058 0 0 0 0 33.874211842528894 71.597559240453165 0 71.597559240453165 52.696863344222493 0 0 0 0 103.61321163727935 38.328284904131422 0 38.328284904131422 13.35943000757309 0 0 0 0 19.313126002601734 11.572437119957936 0 11.572437119957936 9.2771259655997476 0 0 0 0 7.7938517776501897 -8.0351058150263182 0 -8.0351058150263182 -12.006476330495378 0 0 0 0 96.167055272620928 57.398283298559477 0 57.398283298559477 -44.168300522724167 0 0 0 0 55.130561076093727 57.733998620455566 0 57.733998620455566 -377.04183691330195 0 0 0 0 44.557700798823475 -2.1124918871127178 0 -2.1124918871127178 -1.7974904241981986 0 0 0 0 64.754660892256652 135.1898987364084 0 135.1898987364084 -243.59582904522995 0 0 0 0 46.732939266556059 30.322228669492915 0 30.322228669492915 -197.10013071856429 0 0 0 0 40.18463749404691 54.585672419991283 0 54.585672419991283 -188.9660690303881 0 0 0 0 30.768081367423292 18.238504216825731 0 18.238504216825731 -123.90799584122487 0 0 0 0 26.658976390252064 42.318483978503082 0 42.318483978503082 -101.48706329720608 0 0 0 0 35.228404213600044 -7.0529373407486133 0 -7.0529373407486133 -0.15983415193367545 0 0 0 0 -1086.2017947815038 -288.5927406072625 0 -288.5927406072625 145.69297593518141 0 0 0 0 -352.88508290270693 829.76839907121757 0 829.76839907121757 316.47975765556964 0 0 0 0 -2083.8258629280899 315.69458191137824 0 315.69458191137824 1349.9876052937525 0 0 0 0 975.82867397015798 2378.050392425901 0 2378.050392425901 958.42402624601709 0 0 0 0 5135.874931302591 -769.02935126881243 0 -769.02935126881243 -742.03894881574411 0 0 0 0 -1195.5563503472331 1868.6441622530022 0 1868.6441622530022 1957.471620507371 0 0 0 0 3123.6624958347529 354.5322792203865 0 354.5322792203865 -503.65074430351854 0 0 0 0 1660.8683003461483 -962.06700973102033 0 -962.06700973102033 216.50386426666455 0 0 0 0 -1158.3759344776263 853.86957626238586 0 853.86957626238586 1015.509566263449 0 0 0 0 50.234688428445992 -1.0014908993338683 0 -1.0014908993338683 3.5621814586996323 0 0 0 0 396.35171033536608 -707.5081309839893 0 -707.5081309839893 946.48509574661466 0 0 0 0 20.205256124686457 1.945078091171041 0 1.945078091171041 -0.926137019879262 0 0 0 0 480.97565620062232 -533.63280621183026 0 -533.63280621183026 -105.32333342812439 0 0 0 0 -6.1698861393560946 -69.678473677973471 0 -69.678473677973471 -154.20944818958742 0 0 0 0 -201.42629209328152 1536.4368614099476 0 1536.4368614099476 1402.7768487548904 0 0 0 0 1632.1395659866575 -1169.6420108878715 0 -1169.6420108878715 877.72584943089055 0 0 0 0 43.047574415126292 -188.07083442365615 0 -188.07083442365615 223.53635758258997 0 0 0 0 135.39668273234656 93.449803287692305 0 93.449803287692305 -76.853211500521411 0 0 0 0 234.29804334427172 8.5454718837008841 0 8.5454718837008841 -252.61549385820263 0 0 0 0 132.7811904768526 -18.879680650643405 0 -18.879680650643405 -12.72231806509809 0 0 0 0 -50.993828481758101 37.56039652356003 0 37.56039652356003 -49.534420782756115 0 0 0 0 21.875077925028169 -59.281947530502045 0 -59.281947530502045 -32.161039461895392 0 0 0 0 -241.71768031455576 44.688769327409887 0 44.688769327409887 715.35342598356249 0 0 0 0 37.959005931990589 -27.060032928754183 0 -27.060032928754183 -87.122415470886892 0 0 0 0 444.00345939511863 -300.63270283503857 0 -300.63270283503857 113.84109426011491 0 0 0 0 637.10321791525348 199.08694124493604 0 199.08694124493604 -631.97717696647442 0 0 0 0 812.47220364512759 618.44440890384703 0 618.44440890384703 225.72479835575061 0 0 0 0 -123.68387759532925 -154.72878497425307 0 -154.72878497425307 -101.34599706732115 0 0 0 0 14.114849706093082 73.861085134944105 0 73.861085134944105 -83.887577942266091 0 0 0 0 268.21063666316331 -126.51558149689623 0 -126.51558149689623 -458.31360458409608 0 0 0 0 1003.9873524393042 63.91745725732784 0 63.91745725732784 -463.07087674732111 0 0 0 0 654.04504319929401 305.65665371502314 0 305.65665371502314 -166.20416550417826 0 0 0 0 398.72948098846246 6.3923146064926186 0 6.3923146064926186 -54.791557801152521 0 0 0 0 -1.0077647488979267 1.3670885489899689 0 1.3670885489899689 0.024992624218938886 0 0 0 0 371.35260848475446 -103.70861835752839 0 -103.70861835752839 -102.82867346445892 0 0 0 0 393.31307194102192 -140.511084158215 0 -140.511084158215 -44.84173823690071 0 0 0 0 324.25896083097905 18.340765008681046 0 18.340765008681046 -252.42319256192422 0 0 0 0 586.15647073386936 -258.52386888872206 0 -258.52386888872206 5.9903320803950919 0 0 0 0 361.2060604330909 -122.64636205590978 0 -122.64636205590978 -48.229718469883665 0 0 0 0 381.17050157679478 108.19791958500446 0 108.19791958500446 -255.22723111831942 0 0 0 0 -7.1840199129810998 -9.7750805243366869 0 -9.7750805243366869 -63.597824024011459 0 0 0 0 632.19670265726018 77.065464630153286 0 77.065464630153286 -442.09232679696265 0 0 0 0 634.41804704006063 78.942913557515908 0 78.942913557515908 -466.30462136353196 0 0 0 0 765.70518846517371 -134.86684940620762 0 -134.86684940620762 -382.71632079369886 0 0 0 0 820.43885412046802 -89.364784195983702 0 -89.364784195983702 -393.29438941358376 0 0 0 0 769.28938599770481 -173.53485194603763 0 -173.53485194603763 -301.88787612110309 0 0 0 0 730.27957843686454 -246.18336023595373 0 -246.18336023595373 -364.7549783440636 0 0 0 0 691.32913861461566 -186.41036529735555 0 -186.41036529735555 -410.40876700409376 0 0 0 0 305.21339182014344 -217.78170452755168 0 -217.78170452755168 -99.942429345320079 0 0 0 0 832.06531593001273 -353.61140265726158 0 -353.61140265726158 -417.80360405717431 0 0 0 0 1339.9877754132904 -440.37423874732144 0 -440.37423874732144 -441.72573623310251 0 0 0 0 1586.479603527725 55.711963170448684 0 55.711963170448684 -518.6052260469952 0 0 0 0 911.9478607166966 -47.04952324785728 0 -47.04952324785728 -522.46268490238549 0 0 0 0 996.72214921057457 -103.34649442556605 0 -103.34649442556605 -487.14003690487579 0 0 0 0 273.57022251492469 -31.872131932934266 0 -31.872131932934266 -252.06799290803065 0 0 0 0 188.75041821982086 -45.171959463538769 0 -45.171959463538769 15.992946094727813 0 0 0 0 239.65802716971666 -54.428405650462082 0 -54.428405650462082 35.11840557575124 0 0 0 0 144.93265420408264 -29.911204907010504 0 -29.911204907010504 16.091061378818249 0 0 0 0 327.4273157084159 -129.24302838193483 0 -129.24302838193483 -673.58638628976041 0 0 0 0 302.22026818121049 43.73448840007768 0 43.73448840007768 -271.70274567297474 0 0 0 0 30.190351697781125 -12.302041838189243 0 -12.302041838189243 0.20958569051707343 0 0 0 0 312.40692342307011 141.15409062436083 0 141.15409062436083 -387.95809936640217 0 0 0 0 235.8255640381949 69.99890763786243 0 69.99890763786243 -251.85032956230862 0 0 0 0 297.92022556991287 3.6177165182343742 0 3.6177165182343742 -184.93844212601471 0 0 0 0 411.99561740807803 52.936573532351758 0 52.936573532351758 -315.0584421450767 0 0 0 0 907.25089360780248 -16.562335172625353 0 -16.562335172625353 -198.89810216071055 0 0 0 0 722.46379134056315 -375.36681001221768 0 -375.36681001221768 -105.50404073721438 0 0 0 0 392.86647086937865 -267.44289975151059 0 -267.44289975151059 -136.54780539614148 0 0 0 0 80.504850704090131 -167.48788224591135 0 -167.48788224591135 134.26605986732739 0 0 0 0 407.23984596043329 -197.87794938511342 0 -197.87794938511342 -275.75515778799672 0 0 0 0 96.259368098698843 -54.658764230223767 0 -54.658764230223767 15.015379686702623 0 0 0 0 221.8291247641755 -48.675642533253267 0 -48.675642533253267 -39.791981778278569 0 0 0 0 322.21525080805441 -40.35530749947975 0 -40.35530749947975 -28.00688220707525 0 0 0 0 381.23280391895969 -76.675156090830569 0 -76.675156090830569 -18.108731232860009 0 0 0 0 54.276158851212585 -4.1620542276756964 0 -4.1620542276756964 1.3815083103615251 0 0 0 0 242.43778179385231 -38.893839494482009 0 -38.893839494482009 -0.67241357096278609 0 0 0 0 144.34948621009482 -24.749631110778758 0 -24.749631110778758 6.2944732754482793 0 0 0 0 206.54760504221485 -46.289055184121025 0 -46.289055184121025 -59.743644092191971 0 0 0 0 191.38754204883298 -32.248597181236619 0 -32.248597181236619 37.868366089495339 0 0 0 0 133.1442598532567 -34.14704728971401 0 -34.14704728971401 9.2898557988228276 0 0 0 0 121.67728769736405 0.25812261915719326 0 0.25812261915719326 -16.218145058944053 0 0 0 0 272.34195364103607 36.741963796254367 0 36.741963796254367 -31.250918457207263 0 0 0 0 339.58304256574593 -73.397486710590329 0 -73.397486710590329 -45.811358441557786 0 0 0 0 251.37565510056405 -49.075048274660503 0 -49.075048274660503 -13.94247355374546 0 0 0 0 326.19777696805249 -146.76725704594173 0 -146.76725704594173 -76.803090811996071 0 0 0 0 48.728290493685108 -22.44401103140094 0 -22.44401103140094 2.5032325558877062 0 0 0 0 148.46980811166577 -81.098888192806953 0 -81.098888192806953 -55.809575560055237 0 0 0 0 224.30881827979465 -68.307906177742552 0 -68.307906177742552 -118.91439565495239 0 0 0 0 52.554541431876714 21.433300755092205 0 21.433300755092205 -106.47623353244126 0 0 0 0 116.5460335600219 161.63473593001618 0 161.63473593001618 -244.77770315927773 0 0 0 0 258.63037128350697 -45.347977175089909 0 -45.347977175089909 -102.98128119538251 0 0 0 0 167.74319616374851 -21.142266098211621 0 -21.142266098211621 -100.19696269667475 0 0 0 0 229.98275789781474 -98.635259301070619 0 -98.635259301070619 -14.648837536504288 0 0 0 0 237.66119925237581 -121.39295243187871 0 -121.39295243187871 -41.809831262267835 0 0 0 0 195.74334256068687 -68.132418190249155 0 -68.132418190249155 -77.56500008182411 0 0 0 0 213.76297265657922 -102.28033740708452 0 -102.28033740708452 -41.63262039986148 0 0 0 0 213.49237655907928 -118.34309225992729 0 -118.34309225992729 -60.073935551379691 0 0 0 0 226.36414949485334 -140.71118624007431 0 -140.71118624007431 6.088834683476307 0 0 0 0 259.33860322492546 -167.5533150684023 0 -167.5533150684023 8.1320487088469235 0 0 0 0 184.78426407510415 -142.05604805931853 0 -142.05604805931853 29.679976035193249 0 0 0 0 201.67565914176521 -65.427141869435218 0 -65.427141869435218 -89.6673065445475 0 0 0 0 195.49599311817474 -54.418816128910748 0 -54.418816128910748 -35.296071711982222 0 0 0 0 693.27969647262762 -81.721675081556668 0 -81.721675081556668 -92.40808012942216 0 0 0 0 43.551644234343257 -111.96916981685899 0 -111.96916981685899 10.478942556012043 0 0 0 0 -1.6179934945353125 3.872154638562364 0 3.872154638562364 2.4976353244699681 0 0 0 0 230.11164772586926 -190.30376103230719 0 -190.30376103230719 42.669934156394447 0 0 0 0 307.75802477335674 -206.7605077396347 0 -206.7605077396347 8.3308970462458092 0 0 0 0 468.94009058154188 -85.240278533767196 0 -85.240278533767196 -46.708625767209014 0 0 0 0 4.6018101832741394 -7.6142775724667473 0 -7.6142775724667473 -13.012571453133617 0 0 0 0 268.73817966405477 -39.44688112762924 0 -39.44688112762924 108.86730957146938 0 0 0 0 0.41239352015418262 -86.342581209063496 0 -86.342581209063496 37.650925398389518 0 0 0 0 3.1369113908965449 -2.6514432749933263 0 -2.6514432749933263 8.4375801141749633 0 0 0 0 38.11941980144838 -45.803665752975192 0 -45.803665752975192 12.695004142998101 0 0 0 0 274.43934021562745 -84.309158997439226 0 -84.309158997439226 35.537711300779847 0 0 0 0 68.415763776984505 17.922718517911129 0 17.922718517911129 -9.7991380293196499 0 0 0 0 -52.606215594219975 28.77750815143736 0 28.77750815143736 4.1535394070015172 0 0 0 0 938.87179532973823 -139.55223911114081 0 -139.55223911114081 -155.49640482663744 0 0 0 0 -193.01243228305975 -124.37910969219502 0 -124.37910969219502 117.57593295467086 0 0 0 0 0.24408330491990249 1.5165332374923821 0 1.5165332374923821 2.571303817887113 0 0 0 0 804.4487178160125 60.092613978440568 0 60.092613978440568 -67.328536068434914 0 0 0 0 953.89413587534364 -89.45712319494487 0 -89.45712319494487 71.885777566269098 0 0 0 0 362.54453349580581 21.778815957184179 0 21.778815957184179 195.29127114784205 0 0 0 0 409.65975908120618 -111.74047307079093 0 -111.74047307079093 30.123867647838779 0 0 0 0 128.76037526287837 73.796054628541242 0 73.796054628541242 -112.40816870279923 0 0 0 0 349.84345160523662 -156.31469371203912 0 -156.31469371203912 -23.246300210870686 0 0 0 0 272.19251616296242 -117.72149726982934 0 -117.72149726982934 -34.777515470204889 0 0 0 0 263.466837316897 -161.67417924042093 0 -161.67417924042093 3.1123673924157629 0 0 0 0 263.47006306004187 -154.90502214234584 0 -154.90502214234584 2.7765632760419976 0 0 0 0 277.41586141654261 -136.01033093598289 0 -136.01033093598289 28.376206575660035 0 0 0 0 -1.3748653649548999 -4.7558355369299363 0 -4.7558355369299363 -12.348720416862434 0 0 0 0 261.64390905824257 -145.4215520211219 0 -145.4215520211219 37.837361084424629 0 0 0 0 121.23035421179065 -87.523437154065618 0 -87.523437154065618 -47.272892487271747 0 0 0 0 225.69577781655244 -136.82783353565173 0 -136.82783353565173 43.511872171475261 0 0 0 0 -21.243159842899331 -116.27103756432143 0 -116.27103756432143 61.978745551074098 0 0 0 0 -1.0975628938033282 0.065072201771755545 0 0.065072201771755545 0.13176207612979596 0 0 0 0 316.82465449738083 -129.328378746402 0 -129.328378746402 34.217246050335234 0 0 0 0 243.06977186945733 -108.81046050581062 0 -108.81046050581062 32.925369986900478 0 0 0 0 252.6700764002162 -135.69182654214819 0 -135.69182654214819 55.750129451934299 0 0 0 0 236.15641146566486 -130.36259001403414 0 -130.36259001403414 57.604159350558803 0 0 0 0 254.60548750148882 -135.9512796542258 0 -135.9512796542258 43.411444899018534 0 0 0 0 264.20548735535704 -136.47993639634296 0 -136.47993639634296 41.400081994168431 0 0 0 0 250.06126033027249 -146.30805440936456 0 -146.30805440936456 34.895155928523309 0 0 0 0 262.05589439630057 -142.24172527815631 0 -142.24172527815631 23.795619988202816 0 0 0 0 235.57989281133632 -157.96615436536013 0 -157.96615436536013 14.506341642976622 0 0 0 0 242.8979431296757 -132.02721804227031 0 -132.02721804227031 10.639612800849136 0 0 0 0 250.79154445655422 -132.52393756044887 0 -132.52393756044887 41.41436068035182 0 0 0 0 272.7911374812029 -124.02911192061038 0 -124.02911192061038 0.34831159719760763 0 0 0 0 263.26690967488321 -103.34418786570905 0 -103.34418786570905 -1.7423681396030588 0 0 0 0 247.380904906051 -145.70419331024823 0 -145.70419331024823 30.496891081753347 0 0 0 0 269.1689901255595 -150.42357374370749 0 -150.42357374370749 52.051989633604535 0 0 0 0 273.07564027522494 -137.25419599843099 0 -137.25419599843099 43.411473998683505 0 0 0 0 277.04280969179672 -183.72046431620288 0 -183.72046431620288 44.757513218457461 0 0 0 0 242.09763992603985 -142.84642980357057 0 -142.84642980357057 58.919462958079748 0 0 0 0 252.54029405560141 -137.55908007000517 0 -137.55908007000517 53.026857983812079 0 0 0 0 238.80765553134916 -146.71386790597217 0 -146.71386790597217 47.084491320980305 0 0 0 0 224.79043687450394 -182.21013196090416 0 -182.21013196090416 46.421028307036977 0 0 0 0 331.41947125637671 -188.4561571325039 0 -188.4561571325039 10.340392294880075 0 0 0 0 184.5654281466268 -255.8300472178671 0 -255.8300472178671 15.623828094709097 0 0 0 0 108.76703881871072 -126.49242194971703 0 -126.49242194971703 47.182499420357999 0 0 0 0 167.89071670689736 -152.91463122767709 0 -152.91463122767709 58.859980333332715 0 0 0 0 33.132084459291946 -8.6600780790040517 0 -8.6600780790040517 -38.944646713391194 0 0 0 0 127.59320001518063 -90.452446517561839 0 -90.452446517561839 36.469790208494487 0 0 0 0 168.83594232866017 -90.722276409478582 0 -90.722276409478582 40.410445534464088 0 0 0 0 1.3868571292529452 0.60876899466987311 0 0.60876899466987311 -4.8581646983551821 0 0 0 0 184.26755850041809 -101.98872712734192 0 -101.98872712734192 48.052929675221094 0 0 0 0 189.42848517856328 -79.369939652389803 0 -79.369939652389803 22.952067811318557 0 0 0 0 214.70161622980959 -85.588855300915384 0 -85.588855300915384 22.364216836445848 0 0 0 0 232.085802881993 -107.15442591786632 0 -107.15442591786632 38.738098514928424 0 0 0 0 218.82317583740223 -92.352641606299585 0 -92.352641606299585 28.628053962424019 0 0 0 0 219.70785734953824 -116.29712653722345 0 -116.29712653722345 50.079527739620971 0 0 0 0 216.79780342361482 -148.0257955236757 0 -148.0257955236757 53.181579580248581 0 0 0 0 211.77729809479933 -116.40431575215462 0 -116.40431575215462 52.26762617858185 0 0 0 0 245.36199030202988 -127.66156319567745 0 -127.66156319567745 51.204028465250303 0 0 0 0 220.05540547291457 -116.17831142266186 0 -116.17831142266186 49.304149135197804 0 0 0 0 2.8517212244646544 0.22126115648963207 0 0.22126115648963207 -7.1184581190232095 0 0 0 0 260.99404131525807 -115.52306926314941 0 -115.52306926314941 31.075658252379071 0 0 0 0 -1.2998267695222268 -2.0428281522162877 0 -2.0428281522162877 -3.7553783274899786 0 0 0 0 231.95245398774568 -105.91528207541887 0 -105.91528207541887 42.990746718722221 0 0 0 0 19.360725614635157 -10.107913154253765 0 -10.107913154253765 22.789655732063693 0 0 0 0 181.57538275737897 -58.874215879548501 0 -58.874215879548501 60.263078316289864 0 0 0 0 290.82711213295988 -169.23538376856322 0 -169.23538376856322 18.110025700952065 0 0 0 0 369.97186391377181 -100.20627553007398 0 -100.20627553007398 24.350598598173633 0 0 0 0 246.51009155617794 -123.57430001946159 0 -123.57430001946159 27.378887196791766 0 0 0 0 6.2224321359295232 0.97829115380928044 0 0.97829115380928044 -7.262177002426462 0 0 0 0 242.29870018042038 -170.41523506160843 0 -170.41523506160843 46.62614708872934 0 0 0 0 167.88141588114377 -3.5035864096498699 0 -3.5035864096498699 84.620183930270287 0 0 0 0 220.57066573940392 -182.44888023723615 0 -182.44888023723615 41.343010955328282 0 0 0 0 387.47427489416441 58.911895442539389 0 58.911895442539389 84.056900510357082 0 0 0 0 280.14912878634641 -187.59455993862866 0 -187.59455993862866 54.149560327074141 0 0 0 0 94.336800143479195 -226.25538583741445 0 -226.25538583741445 56.645346129564132 0 0 0 0 604.90906572290987 -403.75504648116112 0 -403.75504648116112 55.334386485603318 0 0 0 0 550.83073901013267 -78.614954874805107 0 -78.614954874805107 25.090246527983936 0 0 0 0 810.57299825786322 -65.778788195886591 0 -65.778788195886591 -92.793932329729159 0 0 0 0 1075.145126691059 38.870703278907513 0 38.870703278907513 -65.030251877356022 0 0 0 0 648.09106691836496 -38.94933006717838 0 -38.94933006717838 243.39632736310637 0 0 0 0 767.49237608636759 -356.09070242414913 0 -356.09070242414913 -76.409715728379524 0 0 0 0 618.39468668119298 -151.93960627610247 0 -151.93960627610247 -57.64251063269603 0 0 0 0 483.46115316110809 -95.539116341777913 0 -95.539116341777913 -80.586871583778702 0 0 0 0 347.98555973802286 -98.679988787306684 0 -98.679988787306684 2.0143004527180892 0 0 0 0 340.78120710043004 -142.14739048538286 0 -142.14739048538286 14.642895630740895 0 0 0 0 1.103383485038627 -6.7747201941740229 0 -6.7747201941740229 -42.168662343992921 0 0 0 0 508.24150631316297 -158.24385110425783 0 -158.24385110425783 -15.215613870363995 0 0 0 0 359.60653729381738 -143.47021791113548 0 -143.47021791113548 30.072713319435934 0 0 0 0 371.1809983114872 -182.72150365474499 0 -182.72150365474499 30.856723114327906 0 0 0 0 355.76659453250249 -244.0202389868416 0 -244.0202389868416 -88.194392246779898 0 0 0 0 520.8188191766385 -105.22106453041306 0 -105.22106453041306 5.8369163872630452 0 0 0 0 597.07141148457595 -111.32957391099308 0 -111.32957391099308 -196.47521029086238 0 0 0 0 496.96877260388283 -177.25527895534015 0 -177.25527895534015 124.33472173822292 0 0 0 0 1.2460779220891496 -1.703581460227241 0 -1.703581460227241 -20.781460807486511 0 0 0 0 932.90834611965693 -178.19469216454218 0 -178.19469216454218 -116.78904715018297 0 0 0 0 751.39812262995838 -121.30700507965571 0 -121.30700507965571 -125.12624037219211 0 0 0 0 853.58680644709239 16.793847254891261 0 16.793847254891261 -139.10876382777315 0 0 0 0 1728.218982583232 68.784214394698211 0 68.784214394698211 -111.05975453110614 0 0 0 0 960.03823831897898 -153.09370853809332 0 -153.09370853809332 764.45828283192714 0 0 0 0 1227.8393631728977 157.87706310211979 0 157.87706310211979 53.528477484845098 0 0 0 0 944.76972771796864 31.161378870135422 0 31.161378870135422 128.47813581440505 0 0 0 0 816.36825548420893 181.2133189725073 0 181.2133189725073 216.83339170960062 0 0 0 0 328.81358087261106 492.52479529562629 0 492.52479529562629 1021.5994709023726 0 0 0 0 1.3407592577335308 0.74181501356119384 0 0.74181501356119384 -5.1586052255812405 0 0 0 0 980.44978916287255 -151.71241855145496 0 -151.71241855145496 -130.58062334340866 0 0 0 0 734.49039503633685 -163.55043994300286 0 -163.55043994300286 -311.38054732410728 0 0 0 0 678.1612241470466 -394.74290892022441 0 -394.74290892022441 -161.47152061023189 0 0 0 0 463.64813787103049 -260.74763744567736 0 -260.74763744567736 -86.308470571774819 0 0 0 0 277.87703172684269 -404.8906467124616 0 -404.8906467124616 -20.974714915804725 0 0 0 0 545.22515487598139 -371.75451634097226 0 -371.75451634097226 -135.87022656782801 0 0 0 0 106.62266910984181 -296.98757184746046 0 -296.98757184746046 -35.87668239803827 0 0 0 0 300.17813529392879 -487.95692555296262 0 -487.95692555296262 335.89241668438535 0 0 0 0 -16.63498911804345 -204.54255401098999 0 -204.54255401098999 106.65263544468868 0 0 0 0 441.05219049513835 -553.76036373852639 0 -553.76036373852639 43.781205730134388 0 0 0 0 1181.4754883047135 -274.79456531408232 0 -274.79456531408232 -295.1373113859006 0 0 0 0 928.19662542414881 -624.75500804018588 0 -624.75500804018588 -59.786253403286537 0 0 0 0 1328.0840484849941 -427.90298689527276 0 -427.90298689527276 160.03919897347259 0 0 0 0 1656.0348934842477 293.90855950663229 0 293.90855950663229 96.982438923085283 0 0 0 0 827.52999241669022 682.17685184590664 0 682.17685184590664 662.60338144610887 0 0 0 0 16.584471401009125 -4.7098178355261169 0 -4.7098178355261169 2.1983315809353154 0 0 0 0 834.48919967556139 303.97002739635764 0 303.97002739635764 77.214425840903459 0 0 0 0 195.61113215700607 338.83735879690335 0 338.83735879690335 492.47988820241017 0 0 0 0 1054.91111372655 -48.282093962754061 0 -48.282093962754061 39.584462355713185 0 0 0 0 716.44656110747019 164.14752027726809 0 164.14752027726809 127.3596096707962 0 0 0 0 557.19217258205754 -173.68637152878182 0 -173.68637152878182 168.06731123594662 0 0 0 0 507.82125398085918 -153.71138847168413 0 -153.71138847168413 168.32699516092032 0 0 0 0 441.97985758564027 -168.55680146890427 0 -168.55680146890427 338.27015109983859 0 0 0 0 804.80382575852855 -118.17741853433063 0 -118.17741853433063 344.78585769965503 0 0 0 0 575.67312543637672 -239.8322073222289 0 -239.8322073222289 241.09226610014321 0 0 0 0 129.63553833628976 19.511244502415593 0 19.511244502415593 -348.41901079458194 0 0 0 0 -145.3292253968184 -93.964065377796146 0 -93.964065377796146 0.22478241789940512 0 0 0 0 4.6032500590816881 1.24836798463528 0 1.24836798463528 -6.7043068153009351 0 0 0 0 39.630271475056361 -89.713519185149607 0 -89.713519185149607 -4.8714190833679822 0 0 0 0 277.15749362429779 -113.81691179542759 0 -113.81691179542759 66.958978605534412 0 0 0 0 326.20556985750591 -185.99173391131671 0 -185.99173391131671 133.92465254340459 0 0 0 0 368.89139982014603 -122.27541113968027 0 -122.27541113968027 115.78277112569776 0 0 0 0 390.21183509367256 -196.1309556586391 0 -196.1309556586391 123.33545604478059 0 0 0 0 508.07429456240789 -250.85141678500577 0 -250.85141678500577 17.725903086395192 0 0 0 0 452.0558781492 -181.57848053667385 0 -181.57848053667385 122.94018725429896 0 0 0 0 4.0734225605316112 1.2583007195785996 0 1.2583007195785996 -4.928086714007561 0 0 0 0 1.2389151771612177 1.508512625393621 0 1.508512625393621 -2.2007585909479133 0 0 0 0 -373.26753878587624 -191.95344272963871 0 -191.95344272963871 -36.260648249125552 0 0 0 0 610.96834455573116 -220.57195895838015 0 -220.57195895838015 -73.69178600946907 0 0 0 0 505.10228347624798 -114.62418467913676 0 -114.62418467913676 105.38898842654453 0 0 0 0 -348.92776955646696 -65.708423307060912 0 -65.708423307060912 76.267780172056518 0 0 0 0 431.91649313459493 -107.36648383940019 0 -107.36648383940019 118.40470708705834 0 0 0 0 405.77576324468828 -149.65424105419379 0 -149.65424105419379 42.887740369864332 0 0 0 0 26.387081385233614 -1.9880098448666104 0 -1.9880098448666104 -65.176170880187783 0 0 0 0 6.5260013853621786 -7.0381970530456783 0 -7.0381970530456783 35.792937053669448 0 0 0 0 0.80082989732522947 0.040333626873561457 0 0.040333626873561457 -3.5127789972421866 0 0 0 0 1.465743133682011 1.4094418617256537 0 1.4094418617256537 -2.8268255133460478 0 0 0 0 140.88027543890712 -120.42547023310703 0 -120.42547023310703 29.29408226411033 0 0 0 0 -318.16607233868854 -250.90388050821366 0 -250.90388050821366 48.987172618542559 0 0 0 0 -74.236555081763072 -47.086235323637084 0 -47.086235323637084 5.4809177851075219 0 0 0 0 24.378058062062337 -303.11878450299059 0 -303.11878450299059 38.903506823648058 0 0 0 0 108.7706980027433 -242.19716272234928 0 -242.19716272234928 13.636139736708628 0 0 0 0 -59.167100619510165 -57.663456088026123 0 -57.663456088026123 -192.75138175916629 0 0 0 0 -23.493490508539253 -430.24236206581236 0 -430.24236206581236 -48.729356361927785 0 0 0 0 -231.58253156123101 -247.57099205935174 0 -247.57099205935174 -387.27456522685679 0 0 0 0 97.129243760875397 75.470798033835877 0 75.470798033835877 140.40419734429361 0 0 0 0 180.83491386703099 189.63727590084636 0 189.63727590084636 211.80794788314915 0 0 0 0 110.25711052614497 103.73259618633665 0 103.73259618633665 75.568581171639835 0 0 0 0 155.89756851040875 77.234024070807209 0 77.234024070807209 62.803291549924324 0 0 0 0 150.22272046544822 137.94109528726494 0 137.94109528726494 85.285830535744935 0 0 0 0 150.18511934962589 106.92291527866473 0 106.92291527866473 57.948175690786229 0 0 0 0 46.832565720076673 63.817124595856967 0 63.817124595856967 61.04531090794444 0 0 0 0 153.97639373457059 82.743689302798884 0 82.743689302798884 -11.528034622473569 0 0 0 0 47.143257964608182 -13.047508934362874 0 -13.047508934362874 3.2458157936889829 0 0 0 0 89.124693037883844 -193.41442986029892 0 -193.41442986029892 -463.81837912305605 0 0 0 0 -51.48801220941823 -160.16291071467617 0 -160.16291071467617 -353.73728026636911 0 0 0 0 484.08353326379438 -423.33556336961101 0 -423.33556336961101 -368.89449737163068 0 0 0 0 98.274805949506117 36.628749841163653 0 36.628749841163653 -496.2408161559797 0 0 0 0 107.24686630434735 76.765475892903282 0 76.765475892903282 -317.71227588023612 0 0 0 0 42.410556435817853 -114.10424137318546 0 -114.10424137318546 -337.15468035148888 0 0 0 0 44.500808586541098 -138.15015141937556 0 -138.15015141937556 -405.9467474552041 0 0 0 0 112.56085771752987 -87.527036209785138 0 -87.527036209785138 -369.3089239171087 0 0 0 0 125.07105031045649 -45.583435157888744 0 -45.583435157888744 -132.77996515099312 0 0 0 0 74.02153863026399 -19.270895400054989 0 -19.270895400054989 4.8046463664862245 0 0 0 0 48.939627329018549 -38.047809377926569 0 -38.047809377926569 -45.581327050143045 0 0 0 0 34.076211297186092 -112.25986351803363 0 -112.25986351803363 -159.98811421678784 0 0 0 0 352.19162436503393 99.62204455774804 0 99.62204455774804 -339.9016911573276 0 0 0 0 232.42844608804444 -31.408877567512718 0 -31.408877567512718 -35.908433775407502 0 0 0 0 165.52019050170202 -22.71903012065377 0 -22.71903012065377 -34.515307690826376 0 0 0 0 198.57794051830206 26.29745662628693 0 26.29745662628693 -46.903826271225626 0 0 0 0 180.89086986554321 -35.688893436008584 0 -35.688893436008584 -55.307217339957788 0 0 0 0 128.19962457611109 15.069374404255541 0 15.069374404255541 -105.75722686302561 0 0 0 0 110.33133092324715 -26.57208001120398 0 -26.57208001120398 -51.306717245752225 0 0 0 0 56.002413636909296 -15.32925940941675 0 -15.32925940941675 -69.474860088108471 0 0 0 0 159.04258527889033 -16.527831420152324 0 -16.527831420152324 -73.160319807920587 0 0 0 0 142.67280279648548 -2.827541660116367 0 -2.827541660116367 -59.089687348303414 0 0 0 0 179.0189972378721 45.294409788185476 0 45.294409788185476 -48.161441137744077 0 0 0 0 129.50245613980223 -0.027521533905201068 0 -0.027521533905201068 -73.320195860260355 0 0 0 0 159.23031237229588 58.837819041244984 0 58.837819041244984 -23.734234178244606 0 0 0 0 156.92691654882219 66.135052801268557 0 66.135052801268557 -40.089614354797959 0 0 0 0 223.23547689519728 103.22090634473861 0 103.22090634473861 -29.725213908877777 0 0 0 0 259.72427095605235 97.780906940177829 0 97.780906940177829 -63.150816374631063 0 0 0 0 225.59741557668895 33.678055917960592 0 33.678055917960592 -61.149672345614817 0 0 0 0 196.27154141830397 25.579260657183568 0 25.579260657183568 -40.838488156909079 0 0 0 0 258.67256863045623 35.810940954684156 0 35.810940954684156 -40.921298135577224 0 0 0 0 345.82969537648023 100.93976790543547 0 100.93976790543547 -63.175021436506427 0 0 0 0 346.89660479586746 161.10575157003132 0 161.10575157003132 -83.710671991963864 0 0 0 0 267.56678666234075 161.1084122590778 0 161.1084122590778 -45.493263134530025 0 0 0 0 188.4446746936228 134.73675909234316 0 134.73675909234316 9.940063604275565 0 0 0 0 237.59620107931551 199.52825333117926 0 199.52825333117926 53.113236635427256 0 0 0 0 278.48500966056599 174.4077257709987 0 174.4077257709987 -32.02373902015097 0 0 0 0 184.0095990854461 142.10123453769484 0 142.10123453769484 -1.3810696879609168 0 0 0 0 273.09608401524019 217.66890605579556 0 217.66890605579556 8.1929780252758064 0 0 0 0 297.62269451959583 289.86446210848635 0 289.86446210848635 125.17856058409598 0 0 0 0 250.79825488432834 203.96034611296955 0 203.96034611296955 5.1331010054364015 0 0 0 0 332.71871988006751 241.60679173767403 0 241.60679173767403 -70.013425888887468 0 0 0 0 370.09425118540821 218.63320166117683 0 218.63320166117683 -90.42433656504727 0 0 0 0 336.72470938263723 291.97414334678615 0 291.97414334678615 -180.13281223088643 0 0 0 0 496.71161445851249 205.20325374414551 0 205.20325374414551 -267.18924047217297 0 0 0 0 461.50008183867612 177.60870654635801 0 177.60870654635801 -243.69986531414361 0 0 0 0 573.35896615967795 206.85197840010096 0 206.85197840010096 -335.89640928558447 0 0 0 0 584.1582296515262 34.468090784090236 0 34.468090784090236 -194.05914421670025 0 0 0 0 552.99618869066762 50.813579320959434 0 50.813579320959434 -193.25418626757164 0 0 0 0 530.92386734848151 -69.593011283790133 0 -69.593011283790133 -51.947251015237271 0 0 0 0 415.51107257060357 -90.580326597175372 0 -90.580326597175372 3.8659449860224413 0 0 0 0 396.60992178326705 12.515721486191978 0 12.515721486191978 -101.41021427917258 0 0 0 0 364.62116870615864 49.2633236588199 0 49.2633236588199 -77.780338616690642 0 0 0 0 446.9838796833792 104.03893861861343 0 104.03893861861343 -115.09229627049262 0 0 0 0 422.72204995306674 134.69712931812182 0 134.69712931812182 -153.8300692215962 0 0 0 0 329.43975365605729 134.39483955303331 0 134.39483955303331 -116.04674364984749 0 0 0 0 284.15317879759823 61.671088932118437 0 61.671088932118437 -57.009425515678231 0 0 0 0 368.57346976434928 39.236291916691698 0 39.236291916691698 -52.47771917828959 0 0 0 0 320.63591670180904 10.293199629074479 0 10.293199629074479 -38.728032073820941 0 0 0 0 287.71040996348074 16.387175153149201 0 16.387175153149201 -34.522572634210519 0 0 0 0 321.92736888051149 -38.240270674210024 0 -38.240270674210024 11.503208804315364 0 0 0 0 402.22413982992293 -33.481411268861848 0 -33.481411268861848 -31.414530895143457 0 0 0 0 317.77529002974916 13.499515520247769 0 13.499515520247769 -36.838310567858571 0 0 0 0 412.84717763189474 -109.65974469967557 0 -109.65974469967557 58.169350594755088 0 0 0 0 453.07467530276335 -156.96596308212611 0 -156.96596308212611 35.440093244396849 0 0 0 0 307.03892634465592 -111.85548660453787 0 -111.85548660453787 125.07904483165476 0 0 0 0 306.32726376071514 -141.35390647736585 0 -141.35390647736585 123.86202466563191 0 0 0 0 323.33950898534385 -43.934315771965885 0 -43.934315771965885 33.716762637077409 0 0 0 0 364.61019625977497 -71.636736921951524 0 -71.636736921951524 30.887331451132923 0 0 0 0 254.40178272285266 -48.067246632384922 0 -48.067246632384922 87.338049448205425 0 0 0 0 272.71561101777479 -76.107643514855226 0 -76.107643514855226 89.78013243199598 0 0 0 0 256.79137160860409 -95.97928975324794 0 -95.97928975324794 170.72387576003166 0 0 0 0 192.24055272203987 -82.050403057624862 0 -82.050403057624862 186.32246643520011 0 0 0 0 187.16577880369732 -44.24796307397628 0 -44.24796307397628 185.40279045085481 0 0 0 0 191.79115771091892 -82.52142261359586 0 -82.52142261359586 219.45442679108237 0 0 0 0 255.47198435122846 -58.657904782306105 0 -58.657904782306105 100.16521776364425 0 0 0 0 223.35283179610269 -47.333336437231083 0 -47.333336437231083 104.9027915374736 0 0 0 0 229.47766815178329 -44.890365719183137 0 -44.890365719183137 24.899252590491415 0 0 0 0 243.38960117713577 -15.276438050693059 0 -15.276438050693059 40.879365148466604 0 0 0 0 270.22029110137373 -12.761717210061761 0 -12.761717210061761 15.980920118081485 0 0 0 0 272.84601056238171 -10.429502584395323 0 -10.429502584395323 -10.840258022721173 0 0 0 0 215.09664221192361 -19.934102116217673 0 -19.934102116217673 -12.396228996374703 0 0 0 0 199.41658242274298 -15.592707639375675 0 -15.592707639375675 -1.9030518985746312 0 0 0 0 268.62865853164567 -213.80990765477398 0 -213.80990765477398 -145.64375370659491 0 0 0 0 502.17729249993863 -86.718090728429615 0 -86.718090728429615 -80.627735533042369 0 0 0 0 453.70587210904705 -246.22236227777529 0 -246.22236227777529 -115.3185544369444 0 0 0 0 539.77106661923608 -135.98364600146897 0 -135.98364600146897 -48.312397940032497 0 0 0 0 626.18980806312175 -142.72260126564674 0 -142.72260126564674 -57.084203659110244 0 0 0 0 675.134168845354 110.74355878630035 0 110.74355878630035 -68.533726236783878 0 0 0 0 525.37271558672364 7.871572596804981 0 7.871572596804981 33.89473641142024 0 0 0 0 445.82465680908354 290.36243506245546 0 290.36243506245546 76.783515675296883 0 0 0 0 401.59595675072342 229.1588473576378 0 229.1588473576378 1.5100361329104999 0 0 0 0 451.13739877064654 219.21291794660874 0 219.21291794660874 -90.917961327372723 0 0 0 0 323.43150498948671 245.67475164429766 0 245.67475164429766 4.9744051564739493 0 0 0 0 316.64934977031226 126.73105475533475 0 126.73105475533475 -98.620362410671987 0 0 0 0 362.34103498747209 86.898462933696806 0 86.898462933696806 -64.640027299841677 0 0 0 0 339.37662208819165 114.48690131335206 0 114.48690131335206 -138.33118569477392 0 0 0 0 232.89220437068434 194.49015655224957 0 194.49015655224957 -93.388850133626875 0 0 0 0 400.14173117011524 364.72814910623356 0 364.72814910623356 -480.60234128591674 0 0 0 0 -364.94318971245229 119.55321993079451 0 119.55321993079451 -138.34673997516802 0 0 0 0 233.68750215246109 -119.0831015588883 0 -119.0831015588883 -168.701143782293 0 0 0 0 247.88802319749084 -186.31851120748934 0 -186.31851120748934 -541.12763545587563 0 0 0 0 468.33140756844659 -179.9471839265193 0 -179.9471839265193 -256.84922717506424 0 0 0 0 464.97493191419562 -180.86154971022665 0 -180.86154971022665 -172.89579250465977 0 0 0 0 572.56742503683199 92.2794719762353 0 92.2794719762353 20.609149079053623 0 0 0 0 556.80043374436354 -197.79966359499713 0 -197.79966359499713 -196.82879842745842 0 0 0 0 2.971281344668057 -4.6019377865574143 0 -4.6019377865574143 4.9083876999409917 0 0 0 0 211.21940056696621 -69.271990371366655 0 -69.271990371366655 -120.02486576418778 0 0 0 0 375.84543395491346 -92.964732923404199 0 -92.964732923404199 -117.44088194497999 0 0 0 0 443.52431167619943 -202.22983588628176 0 -202.22983588628176 -187.51628215944584 0 0 0 0 429.01783361463822 -229.76906532825569 0 -229.76906532825569 -157.16962147689992 0 0 0 0 220.93874078802764 -130.39294965969839 0 -130.39294965969839 -78.10833373086416 0 0 0 0 229.32188963338331 -266.38867647706087 0 -266.38867647706087 -149.0539728998192 0 0 0 0 407.538808412246 -263.81229702940516 0 -263.81229702940516 17.063353117066981 0 0 0 0 783.3304113355407 -226.17845431077649 0 -226.17845431077649 -73.950262503273734 0 0 0 0 988.59104093424685 -297.84625175252222 0 -297.84625175252222 -50.347100474236413 0 0 0 0 1.5424292401858395 -2.5389943200598566 0 -2.5389943200598566 3.2182670694474034 0 0 0 0 -463.5643262825688 -152.00779656272698 0 -152.00779656272698 191.27858505755421 0 0 0 0 151.17031766147556 -245.45732011422729 0 -245.45732011422729 48.527076175980255 0 0 0 0 -149.05580137888319 -293.73789448999014 0 -293.73789448999014 -41.288461398301479 0 0 0 0 3.1007967808335337 -5.6502871680442013 0 -5.6502871680442013 6.3876351191711471 0 0 0 0 294.35285978596221 -70.67979882319969 0 -70.67979882319969 144.16201320762048 0 0 0 0 295.39005403232659 -144.50731837175738 0 -144.50731837175738 245.90151180023622 0 0 0 0 149.89091325034678 117.66678745851277 0 117.66678745851277 36.711254548005584 0 0 0 0 -110.9366635700535 -79.788054286119859 0 -79.788054286119859 71.555134442142844 0 0 0 0 -15.053747707068396 78.590046997419222 0 78.590046997419222 33.574198245110892 0 0 0 0 478.44506823772826 91.447915676435059 0 91.447915676435059 44.453880582238071 0 0 0 0 701.18481665442232 -329.4068540311614 0 -329.4068540311614 15.575831554855085 0 0 0 0 160.26113182730933 -335.16365167684341 0 -335.16365167684341 283.77616169958947 0 0 0 0 173.89277057097934 -134.96525253574237 0 -134.96525253574237 89.4344659351882 0 0 0 0 3.343847134555034 -2.6447254892718917 0 -2.6447254892718917 3.330089217018056 0 0 0 0 392.13477458361012 122.30441192099579 0 122.30441192099579 69.225244320476122 0 0 0 0 -0.048526086087804288 -148.20778810561114 0 -148.20778810561114 239.65526957345241 0 0 0 0 -45.807659031299409 -45.880573205920882 0 -45.880573205920882 198.48628293836555 0 0 0 0 -46.550635468011023 18.765178961913989 0 18.765178961913989 12.106192167892004 0 0 0 0 904.14660738232487 -213.6096993319652 0 -213.6096993319652 19.25164053780145 0 0 0 0 840.68911592190125 -353.71226313327907 0 -353.71226313327907 -31.15872944954026 0 0 0 0 49.406736546981847 -40.918269178094306 0 -40.918269178094306 41.202409408260806 0 0 0 0 15.733212040562648 69.614119829486299 0 69.614119829486299 -58.549888426674443 0 0 0 0 -4.967949980222329 -41.603464538807657 0 -41.603464538807657 67.557162023242199 0 0 0 0 -3.9334853841764357 -6.0556092964017409 0 -6.0556092964017409 -3.9191685690445244 0 0 0 0 18.526668587815948 -11.740374903657766 0 -11.740374903657766 -55.98946111179248 0 0 0 0 -249.57855932037637 -70.939956771524066 0 -70.939956771524066 -22.028693901168026 0 0 0 0 -3.7295447717975705 -6.0377996953587569 0 -6.0377996953587569 -8.8771750082586642 0 0 0 0 -13.519402003686992 -30.935592670910296 0 -30.935592670910296 -42.27434044372103 0 0 0 0 6.9574044509972879 -18.661479832065396 0 -18.661479832065396 -26.295144674249805 0 0 0 0 -17.210681263798449 -2.6581042963319277 0 -2.6581042963319277 -0.98651853858745131 0 0 0 0 -64.6837046238943 -29.965940410583016 0 -29.965940410583016 31.592610341154796 0 0 0 0 7.7360245572282906 -9.8762274698395913 0 -9.8762274698395913 3.497999100623943 0 0 0 0 55.233668190106982 6.5587263522102148 0 6.5587263522102148 12.171941573202275 0 0 0 0 10.2901971370311 -39.451587556611059 0 -39.451587556611059 -60.713828841363465 0 0 0 0 -5.9290654010521848 -6.2202871785599712 0 -6.2202871785599712 1.3352540361659386 0 0 0 0 -37.375737547117751 -35.646087934905154 0 -35.646087934905154 68.318148577192915 0 0 0 0 -51.539703158952761 49.592738659745919 0 49.592738659745919 39.943861381869283 0 0 0 0 -84.057562278692785 -65.128302424599497 0 -65.128302424599497 33.07832818739189 0 0 0 0 15.452988382370677 -60.414032179756305 0 -60.414032179756305 -190.13727694743648 0 0 0 0 15.463004762656055 -110.4683628842904 0 -110.4683628842904 -36.435954108950682 0 0 0 0 173.71135258543654 36.179514747069334 0 36.179514747069334 40.547641923760239 0 0 0 0 -19.264647737058112 -87.783618229375861 0 -87.783618229375861 22.688524176335704 0 0 0 0 24.00167132721981 41.590443363580562 0 41.590443363580562 174.01769228074409 0 0 0 0 49.531082467874512 35.387077001463695 0 35.387077001463695 88.547349597696666 0 0 0 0 24.001671327161603 41.590443363613304 0 41.590443363613304 174.01769228071134 0 0 0 0 24.00167132721981 41.590443363624217 0 41.590443363624217 174.01769228064222 0 0 0 0 22.653040738630807 124.05982262742418 0 124.05982262742418 196.35639250290114 0 0 0 0 -8.4891871037398232 -109.59748411848182 0 -109.59748411848182 -82.483468179882721 0 0 0 0 20.187634712885938 -3.6409775954061985 0 -3.6409775954061985 -13.555449320452869 0 0 0 0 22.113788925517895 -1.8810008581481554 0 -1.8810008581481554 -6.9818799939595717 0 0 0 0 -32.001021571923047 -15.916472219398202 0 -15.916472219398202 -43.130132797534657 0 0 0 0 28.90533428857313 -17.853762662914079 0 -17.853762662914079 -19.632728441655747 0 0 0 0 93.369473130907863 110.60065505373586 0 110.60065505373586 198.25338613767235 0 0 0 0 -4.2261331260961015 -40.059406095074337 0 -40.059406095074337 102.39282337582608 0 0 0 0 -22.845229520724388 -228.48889743160089 0 -228.48889743160089 -41.921627622890696 0 0 0 0 2.9068275992646591 -1.3489866352641684 0 -1.3489866352641684 0.39505614149154411 0 0 0 0 -50.250560741347726 -8.0377170265719542 0 -8.0377170265719542 102.85315556170099 0 0 0 0 -89.2064834307821 99.109964335433688 0 99.109964335433688 13.414184739513075 0 0 0 0 69.394812479760731 -0.30752455592755723 0 -0.30752455592755723 -15.983283751657837 0 0 0 0 -38.814926131079119 -173.43379578569352 0 -173.43379578569352 -140.08365057036463 0 0 0 0 5.9988203847121326 -2.7775902584377974 0 -2.7775902584377974 0.62321281368962111 0 0 0 0 -11.687954181237728 41.691957234527763 0 41.691957234527763 -138.8401715891614 0 0 0 0 842.03497682658781 40.127636143286963 0 40.127636143286963 -62.188171185486681 0 0 0 0 129.52421840604802 52.127005360398925 0 52.127005360398925 117.15695942306411 0 0 0 0 415.20058681151932 -13.908649731016283 0 -13.908649731016283 52.057045015599215 0 0 0 0 132.57004832559323 3.1993929511627357 0 3.1993929511627357 144.96255475070302 0 0 0 0 90.686745016588247 -49.077923391906666 0 -49.077923391906666 95.256043119950846 0 0 0 0 24.397537029602972 28.306862539564008 0 28.306862539564008 67.891350376989067 0 0 0 0 46.702332068467513 63.272302672115984 0 63.272302672115984 93.979783970250779 0 0 0 0 134.24979244081715 44.3388017341031 0 44.3388017341031 53.477179148116193 0 0 0 0 92.554441916159703 68.174973406682966 0 68.174973406682966 13.232852109750638 0 0 0 0 40.30922131362604 17.093752957045581 0 17.093752957045581 60.275062258667276 0 0 0 0 16.362335240759421 57.908945172441008 0 57.908945172441008 72.143691222114285 0 0 0 0 106.23976907419274 -18.990373208544497 0 -18.990373208544497 -12.780899919751846 0 0 0 0 277.14799592997588 62.378663283712285 0 62.378663283712285 25.332471967723905 0 0 0 0 37.813047213730897 -45.475061673604614 0 -45.475061673604614 -169.69041743347043 0 0 0 0 18.003398056040169 51.928340144618687 0 51.928340144618687 -4.9339124459829691 0 0 0 0 0.98809903530494125 0.098974552430235008 0 0.098974552430235008 -0.82269929126098162 0 0 0 0 5.2685193920706013 -2.7166068161696302 0 -2.7166068161696302 -0.17853080765037532 0 0 0 0 -7.7516101632209029 4.1222389068884695 0 4.1222389068884695 45.983709208528126 0 0 0 0 -9.9901116663386347 17.443967960932696 0 17.443967960932696 109.32342453494766 0 0 0 0 2.4504950742702931 -38.810749739403036 0 -38.810749739403036 -197.15481622999505 0 0 0 0 6.9908864755416289 35.512736130015583 0 35.512736130015583 28.847351330609854 0 0 0 0 -5.4485980040553841 51.417752757612107 0 51.417752757612107 43.885165143814447 0 0 0 0 34.053103673446458 66.269789340990428 0 66.269789340990428 11.748453537120213 0 0 0 0 -15.078258584708237 -14.672424948614093 0 -14.672424948614093 19.889126138474239 0 0 0 0 4.2938948884006152 -0.41824481244157141 0 -0.41824481244157141 -6.3961424563793781 0 0 0 0 43.93834401377535 57.575049133061384 0 57.575049133061384 18.084874738031431 0 0 0 0 26.013591396447737 30.184885787259191 0 30.184885787259191 57.709871069511337 0 0 0 0 98.857982858324249 47.661696974020174 0 47.661696974020174 -55.131422043659768 0 0 0 0 21.772766732989112 41.073621329959678 0 41.073621329959678 9.6607693972374591 0 0 0 0 4.6191993893007748 7.7225235443765996 0 7.7225235443765996 -77.695864885835363 0 0 0 0 19.115860373887699 75.668832673989527 0 75.668832673989527 -51.510989182662343 0 0 0 0 -15.790713683411013 17.855506451574001 0 17.855506451574001 -48.206696256578653 0 0 0 0 20.833247705697431 76.643544272001236 0 76.643544272001236 6.7465249200131439 0 0 0 0 23.265279332852515 -2.9445547995971992 0 -2.9445547995971992 -241.24170368423165 0 0 0 0 13.053816804479197 0.25056508471175221 0 0.25056508471175221 -0.05685136419694814 0 0 0 0 -57.893348836922087 -6.8713029962427754 0 -6.8713029962427754 -51.371335520982029 0 0 0 0 -35.507497321726987 68.348357959264831 0 68.348357959264831 -39.210726980066738 0 0 0 0 49.099650191899855 84.587694103503964 0 84.587694103503964 -59.970746106017032 0 0 0 0 29.507558404584415 -98.325220850699679 0 -98.325220850699679 -167.4203058500043 0 0 0 0 234.42116533889566 20.467852282874674 0 20.467852282874674 -107.95128310000291 0 0 0 0 -53.081693355677999 18.181024932309811 0 18.181024932309811 -58.017789497979948 0 0 0 0 -10.231923117913539 73.296709526519408 0 73.296709526519408 -108.93559167283638 0 0 0 0 22.696483804247691 -1.220972568680736 0 -1.220972568680736 -55.656207237565468 0 0 0 0 227.00513639958808 -81.796976330641428 0 -81.796976330641428 -309.18214911848463 0 0 0 0 4.3871779788780714 0.48179621279150098 0 0.48179621279150098 -0.45855023438156195 0 0 0 0 -203.02405474852276 104.38279023164296 0 104.38279023164296 217.37854733157747 0 0 0 0 480.08235309536394 -38.302467657636953 0 -38.302467657636953 -449.11585475790957 0 0 0 0 -86.257611191671458 -9.4315599652773017 0 -9.4315599652773017 28.007181848792243 0 0 0 0 257.94437292055773 -50.216933591412385 0 -50.216933591412385 -127.80088010456075 0 0 0 0 299.42714960512967 24.001723631275581 0 24.001723631275581 -171.8335990806172 0 0 0 0 150.71962505382544 78.405555217009805 0 78.405555217009805 11.121742158187772 0 0 0 0 -62.710349091415992 -113.41166360377974 0 -113.41166360377974 -1.5437647503681546 0 0 0 0 61.431878652947489 -106.55237994948402 0 -106.55237994948402 -47.489752137928008 0 0 0 0 -124.27851516804367 -181.72558900555805 0 -181.72558900555805 -11.996212296109661 0 0 0 0 -55.711145489935006 -171.06099237893295 0 -171.06099237893295 -175.17579779408061 0 0 0 0 4.2752024908757988 -3.3606435876201317 0 -3.3606435876201317 4.7576194186186882 0 0 0 0 -148.79149861453334 -107.40247695161042 0 -107.40247695161042 -40.248166273685911 0 0 0 0 23.518753773532808 -6.1339293081728101 0 -6.1339293081728101 -22.396161811713228 0 0 0 0 29.003000861905093 -5.8216651294460569 0 -5.8216651294460569 0.91722549681917442 0 0 0 0 23.566449434256079 -7.1109177373738532 0 -7.1109177373738532 -0.46186923665822377 0 0 0 0 602.96936051234661 338.67132797929162 0 338.67132797929162 268.6073071696228 0 0 0 0 7.4263035334008123 -1.112599954360455 0 -1.112599954360455 0.99266241293919277 0 0 0 0 548.51010988434427 -466.74723173536859 0 -466.74723173536859 313.01839165578599 0 0 0 0 100.91303444359801 -191.84626452496946 0 -191.84626452496946 364.45099208039301 0 0 0 0 1220.4244723826594 -339.22770245892059 0 -339.22770245892059 -21.382982519226061 0 0 0 0 -210.73949663137319 -93.579663936397992 0 -93.579663936397992 53.138002010424316 0 0 0 0 733.04741862171795 -274.22378040003241 0 -274.22378040003241 16.021203611945282 0 0 0 0 701.27929926374054 -68.620532997424107 0 -68.620532997424107 10.938847582253402 0 0 0 0 -54.501544886467855 -170.84372238594858 0 -170.84372238594858 1.6738726302901341 0 0 0 0 -186.40007642525597 -309.22947953978064 0 -309.22947953978064 318.6385117712889 0 0 0 0 -0.28456191873192083 -1.0938936780555935 0 -1.0938936780555935 2.5418383319640085 0 0 0 0 -487.90499027662736 -8.7645527319104986 0 -8.7645527319104986 108.15650510993601 0 0 0 0 882.31824605810834 -442.88335989925849 0 -442.88335989925849 205.73279423593522 0 0 0 0 274.2716731759283 -55.261225609930989 0 -55.261225609930989 183.0238246449544 0 0 0 0 655.88175232295907 -359.34120734612384 0 -359.34120734612384 334.25688030422134 0 0 0 0 77.268315616849577 -445.15578718028746 0 -445.15578718028746 383.90609972093171 0 0 0 0 7.5573010111111216 -349.39751842433407 0 -349.39751842433407 272.57616525552521 0 0 0 0 441.53874377328793 -279.50644804744491 0 -279.50644804744491 364.50021739860495 0 0 0 0 339.20713726975373 11.357816330459173 0 11.357816330459173 160.22076492672113 0 0 0 0 297.59929545113118 23.360405816913044 0 23.360405816913044 -65.123849763045655 0 0 0 0 280.65853332995584 -80.130211475188972 0 -80.130211475188972 64.932852970641761 0 0 0 0 164.40089793569859 -177.9548480858582 0 -177.9548480858582 88.165394172931883 0 0 0 0 489.29239876025895 -247.44133215897887 0 -247.44133215897887 99.886945691295296 0 0 0 0 24.211155669225263 -34.591242189307195 0 -34.591242189307195 -45.332795956840528 0 0 0 0 
</DataArray>
<DataArray type="Float64" Name="cross_section_updated" format="ascii">
1 1 0.01000807901034529 1 1 1 1 1 1 1 1 1 1 1 1 1 1 1 1 1 1 1 1 1 1 1 1 1 1 1 1 1 1 1 1 1 1 1 1 1 0.011558004176404249 1 1 0.0099830261958257505 1 0.012505498849457833 0.0099599242325123238 1 1 1 1 0.013085954552153917 1 0.009921730110117169 0.035162861389004527 1 1 1 0.012045236715326911 1 1 1 0.010606576667249852 1 1 1 1 1 1 1 1 1 1 0.011913800984141628 1 1 1 1 1 1 1 0.019604403703520512 0.0074086763520562308 1 1 0.010469162267104995 1 1 0.016114316407164899 0.025349751054793458 1 1 0.010390492215227313 1 1 1 1 1 1 1 1 1 1 1 1 1 0.010888874422974598 1 1 1 1 1 1 1 0.0097435570603297151 1 1 1 0.01024509247595976 1 1 1 1 0.012087732891306274 1 1 1 1 1 1 1 1 0.012079204726418935 1 1 0.013954931405515982 1 1 1 1 1 1 1 1 1 1 1 0.011405944221097367 1 1 0.014295282021823418 1 1 1 1 1 1 1 1 1 1 1 1 1 1 1 0.013253879955536119 1 1 1 1 1 1 1 1 0.014306378475425589 1 1 1 0.020419452533828923 1 1 1 1 1 1 1 1 1 0.0092097461893276313 1 1 1 1 1 1 0.0099902868561896358 1 1 1 1 1 1 1 0.0090721311789671889 0.0089912973258185376 1 1 1 1 1 0.0093352166361396448 0.0072879181936469223 0.01531108985469002 0.015932263075470465 1 1 1 0.0099995765291133534 1 1 1 0.018700092745577532 1 1 1 1 0.010193775913326165 1 1 1 0.0099880270141492929 1 0.010069408910314152 1 1 1 1 1 1 1 0.0099955202497198515 1 1 1 1 1 1 0.0097136465507011577 1 1 1 1 0.010416869646571153 1 1 0.0085778961670968587 1 1 0.021690175835879899 1 1 1 1 1 0.022018526335445664 1 1 1 1 1 0.023039154418362098 1 1 1 0.0060786548338108461 1 1 1 1 0.0076796105276247285 1 1 1 1 1 1 1 1 1 1 1 1 1 1 0.022397229321972439 1 1 0.015574565239007122 1 0.020178554742240437 0.0053271371364885453 1 0.010114502331193619 1 1 1 1 1 1 0.014534927976404259 1 1 1 1 1 1 0.015550558584994292 1 0.011524472082378613 1 1 1 0.013671977820441304 1 1 0.011879025970578782 0.016998500305824116 1 1 1 0.010820566522085056 1 0.01065123305488979 1 0.010480454322011253 1 1 1 1 0.015510195802046774 1 1 1 0.010110599706728951 0.013045333764377748 1 0.010429338753059264 1 1 1 0.0098813767318942959 1 1 0.012096284663222115 1 1 1 1 1 1 1 1 1 1 1 1 1 1 1 1 1 0.010252262549788435 1 1 1 1 1 1 1 0.0087154937273392543 1 1 1 1 1 1 1 1 1 1 1 1 1 1 1 1 1 1 1 1 1 1 1 1 1 1 1 1 1 1 1 1 1 1 1 1 1 1 1 1 1 1 0.012127128690620485 0.0095812928916728032 1 0.010772386764297023 1 1 1 1 1 1 1 1 1 1 1 1 0.0099514449822973444 1 1 1 1 1 1 1 0.00925795713738067 1 1 1 1 0.018483232063069406 1 1 1 1 1 1 1 1 1 0.0088344510936367027 1 1 1 1 1 1 1 0.022185178179902176 1 1 1 1 1 1 0.024941583916660546 1 1 1 1 1 1 0.0096059534125604151 1 0.0064259598365284821 1 1 1 1 1 1 0.006485980110412369 1 1 1 1 0.015134861063045423 1 1 0.01517509350099459 1 1 1 1 1 1 1 0.0091166007139323393 1 1 1 1 0.0075902545274498176 1 0.02016815677027628 0.011349943077714905 1 1 1 0.0080076727151016224 0.0082101112926413426 0.013135669996682503 1 1 0.012761972016901671 1 0.011903656518467547 1 0.01624530990859922 0.0076315113892040255 1 1 1 0.013046625903492679 1 1 0.015175109291004742 1 1 1 1 1 1 1 1 1 1 1 1 1 0.011214856681357587 1 0.0099881912422542882 1 1 0.019210908856809275 1 0.014441867380516366 1 0.021552391514317912 1 1 1 1 0.012785406775939293 1 1 1 1 1 1 1 1 1 1 1 1 1 0.014699018306277904 1 1 1 0.0089737538221655207 1 0.0099635790076995391 1 1 1 1 1 1 1 1 1 1 1 0.013165867664198565 1 1 1 1 1 1 1 1 1 1 1 1 1 1 1 1 1 1 1 1 1 1 1 1 1 1 1 1 1 1 1 1 1 1 1 1 1 1 1 1 1 0.014005699442315353 1 1 1 1 1 1 0.013475160161837668 0.0099541223916658136 1 1 1 1 1 0.016561926034983677 1 1 1 1 1 1 1 1 1 1 1 0.014709649443397789 1 1 0.011833842517689102 1 1 1 1 1 1 1 1 1 1 1 1 1 1 1 1 1 1 1 1 1 1 1 1 1 1 1 1 1 1 1 1 1 1 1 1 1 1 1 1 1 1 1 0.0102309355268558 1 0.011526178852850229 1 1 0.0027283917008894829 0.022855433336484089 1 1 1 1 1 1 1 1 1 1 1 1 1 1 1 1 0.019492775126356183 1 1 1 1 0.0058154363312603189 1 1 1 1 1 1 1 1 1 1 1 1 0.0098905059369611987 1 0.010813463842304206 0.010943791045321765 0.017634634660704418 1 1 1 1 0.013134971460158998 0.011388452944537926 0.018448162418168393 1 1 1 1 0.0084895977201500106 1 1 0.013759747457730028 1 1 1 1 1 1 1 1 1 1 1 1 1 1 1 1 1 1 1 1 0.010347431321684579 1 1 1 1 1 1 0.013912683577487924 1 1 1 1 0.011597267921842569 1 1 1 1 1 1 1 1 1 1 1 1 1 1 1 1 1 1 1 1 0.010017261073954726 1 1 1 1 1 1 1 1 0.0099272253342328511 1 1 1 0.011003866990600231 1 1 0.0080900158382430643 0.010398641142419446 1 1 1 1 1 0.0068290971053271907 1 1 1 0.010006084384430384 0.0073048500041827894 0.01048625535497532 1 1 1 1 1 0.0090817315596783705 1 1 1 1 1 1 1 1 1 1 1 1 1 1 0.010018958217737106 1 1 1 1 1 1 1 1 1 1 1 1 1 1 1 1 1 1 0.014782685916431148 1 1 1 1 1 1 1 1 1 1 1 1 1 1 1 0.010529305964706678 1 1 1 1 1 0.013651206951836508 1 1 1 0.011201417437504226 1 1 1 1 0.01132270557235392 1 0.011072188049196911 1 1 1 1 0.010476505885110246 1 1 1 1 1 1 1 1 1 1 1 1 1 1 1 1 1 1 0.0084447140958379581 1 1 1 1 0.0096191819730781798 0.0094887285121750594 1 1 1 0.015130056230338846 1 1 1 0.0087152805491077859 1 1 1 1 1 1 1 1 0.01153389496380053 1 0.012751485679501341 1 1 1 1 0.008262145884235756 1 1 1 1 1 1 1 0.011747249218432081 1 1 1 1 1 1 1 1 1 1 1 1 1 1 1 0.007099295812374104 1 1 0.010035852543844172 1 1 1 0.0084498405206014822 1 1 1 1 1 1 0.011561334482649564 0.01062042134272298 1 1 0.010377586321022219 1 1 1 1 1 0.011890486779815138 0.010522159877032249 1 1 1 1 1 1 1 1 0.01063140227244504 1 1 1 1 1 1 0.025121982263431732 1 1 1 1 1 0.0043619995580173026 1 1 1 1 1 1 0.014321175371634872 1 0.0099934937667851241 1 1 0.019148160972056898 1 1 1 1 1 1 1 1 1 1 1 0.011109288365692173 0.013023282985783525 1 1 0.015069518879446688 1 1 0.0091565930068285041 1 1 0.00825327949216733 1 -2.0816681711721685e-17 1 1 1 1 1 0.01393373904783627 1 1 1 1 1 1 1 1 1 1 1 1 1 1 1 1 1 0.026047753343747287 1 1 0.015894763063080082 1 1 0.009993368891834789 1 1 1 1 1 0.015061191308052757 1 1 1 1 1 0.01168153098436832 1 1 1 0.006401870329807588 1 1 0.029177916018767583 1 1 1 1 0.031672144052032641 1 1 1 1 1 1 1 0.0096652349628278782 0.034250667525176762 1 1 1 1 0.0090824158935906996 1 1 1 1 1 1 1 1 1 1 1 1 1 1 1 1 1 1 0.018531290367433676 1 1 1 1 1 1 1 0.016122047591709349 1 1 1 1 0.025076319982845163 1 1 1 1 1 1 1 1 1 2.0816681711721685e-17 1 1 0.028393339583173027 1 1 1 1 1 0.010002284416982848 0.010037763397988588 0.0059418485821224583 0.011036750749554184 1 0.018941716383829764 0.020586775554790888 1 1 1 0.017819405504585925 1 1 1 0.015044320379854264 1 0.017715177104622993 1 1 0.0099977011546488852 1 1 1 0.013873357212598499 1 1 1 1 0.014728983642237117 1 0.014373039716410777 1 0.010057475008222181 1 1 0.0099793943808958452 1 0.017321279903941007 1 1 1 1 1 1 1 1 1 1 1 1 1 1 0.01050835292628283 1 1 1 0.017235257621997367 1 1 1 1 1 1 1 1 1 1 1 1 1 0.014380923166926352 1 1 1 1 1 1 1 1 1 1 1 0.012674269367654156 1 1 1 0.016233302449159333 1 1 1 1 1 1 1 1 1 1 1 1 1 1 1 1 1 1 1 1 1 1 1 1 1 1 1 1 0.0087000454251909415 1 1 1 1 1 0.011255177525946937 1 1 1 0.012157985510388387 1 1 1 1 1 1 1 1 1 1 1 1 1 1 1 1 1 1 1 1 1 1 0.011309107611852231 1 1 1 1 0.019041020576694229 0.0097937161748444627 1 1 1 1 1 1 1 1 1 0.0099840725858620742 1 1 1 1 1 1 1 1 1 0.016099175991183049 1 1 1 1 1 0.014244756425844621 1 1 0.018863201430124509 1 0.010947706959301088 1 1 0.0099102710355394568 0.019476311738787427 1 0.018750371846236347 1 1 1 0.017873778498774397 1 1 0.013742411407546043 1 1 1 0.010240781788149762 1 0.012296917507756584 1 1 1 1 1 1 1 1 1 1 0.010167157647220025 1 1 1 1 1 1 1 1 1 1 1 1 1 1 1 1 1 1 1 1 1 1 0.010414839704677371 1 1 1 1 1 0.010099545018163047 1 1 1 1 1 0.0099785823237107212 1 1 1 1 1 1 1 1 1 1 1 1 1 1 1 1 1 1 1 1 1 1 1 0.0094886782420516638 1 1 0.0098210031225798022 1 1 1 1 1 1 1 1 1 1 1 1 1 0.0073029742586676188 1 1 1 1 1 1 1 0.017987773751529029 0.018225010037534808 0.019793676296236518 1 0.010079456551877081 1 1 1 1 1 1 0.024752664948933519 1 0.009827390415638319 0.01217008958835906 1 1 1 1 1 1 1 1 1 1 1 1 1 1 1 1 1 1 1 1 0.013203880752066039 0.016774620165070073 1 1 1 0.011048577764771687 0.020346598656720553 1 1 1 1 1 1 1 1 1 1 1 1 1 1 1 0.022947002379024931 1 0.032587568617680855 1 1 1 0.009934353954905828 1 1 0.027579602416736255 1 1 1 1 1 1 0.020833514757051932 1 0.025108316796554266 1 1 1 1 1 1 1 1 1 1 0.010028544948214028 1 1 1 1 1 1 1 1 1 0.014188407958234294 0.013456588484869055 1 1 1 1 1 1 1 0.018451154979041134 0.013393596372709043 1 1 1 0.013210601880579381 1 0.033384352886547605 1 1 1 1 1 0.039914685737651487 1 0.049809401853902507 1 1 0.0096664459705101402 1 1 1 1 1 1 1 0.012458438340506806 1 1 0.017295598045552384 1 1 1 1 1 1 1 1 0.01963622050464164 1 1 1 1 1 1 0.0084791675877230153 1 1 1 1 1 0.0097235251280301943 1 1 1 1 1 0.0098841913617635745 1 1 1 1 0.019913766541933855 1 1 1 1 0.023344403335836691 0.019412205982654945 0.0098598157163830025 1 1 0.030365762654591337 1 0.010017654853100338 1 1 1 1 1 1 1 1 1 0.011866618708498576 1 1 1 0.015864315992311431 1 1 1 0.006504825838543166 0.010244235385491759 1 1 1 0.010967807832565204 1 1 1 1 1 1 1 1 1 1 1 1 1 1 1 1 0.010036175378688459 1 1 1 1 1 1 1 1 1 1 1 1 1 1 1 1 1 1 1 1 1 1 1 0.010358614299601561 1 1 1 0.010164475436272278 1 1 1 1 1 1 1 1 1 1 1 1 0.01109619560894445 1 1 0.0097027532776579137 1 1 1 1 1 1 1 1 1 1 1 1 1 1 1 1 1 1 1 1 1 1 1 1 1 1 1 1 1 1 1 1 1 1 1 1 1 1 0.010215814753346639 1 1 1 1 1 1 1 1 0.012558924869734804 1 1 1 1 1 1 1 1 1 1 1 1 1 1 1 1 1 1 1 1 1 0.018765725529913527 1 1 1 0.01036436508985308 1 1 1 0.010212583483643938 0.01649224532186068 1 1 1 1 1 1 1 1 1 1 1 1 1 1 1 1 1 1 1 1 0.011104698799118405 1 1 1 1 1 1 1 1 0.010620363801763948 1 1 1 0.0098313102514269654 1 1 1 1 0.0086206265772627595 1 0.012778133803725375 1 1 0.0099358775748117426 1 1 1 0.02052084992612237 1 0.0095701986913559224 1 0.0098564000967223987 1 1 1 1 1 1 1 1 1 1 1 0.019959584313880563 1 1 0.010151781606209147 1 1 1 1 1 1 1 0.010194138863329285 1 1 1 1 1 1 1 1 1 1 1 1 1 1 1 1 1 1 1 1 1 1 1 1 1 1 1 1 1 1 0.010099895521407672 1 1 1 0.016922700519459023 1 1 1 1 1 1 1 0.010909912681102113 1 1 1 1 0.010346409582896562 1 1 1 1 0.020371655564480305 1 0.017607741404523407 1 1 1 1 1 1 0.0028142762008221273 0.01690538332831484 1 1 1 1 1 1 0.012351757544874858 1 1 1 1 1 1 1 1 1 1 1 0.0040815408790404106 1 1 1 1 0.0099173722049854321 1 1 1 0.011148026962639971 1 1 1 1 1 1 1 1 1 1 1 1 1 1 1 1 1 1 1 1 1 1 1 1 1 1 1 1 1 1 1 1 1 1 1 0.0096555916793868157 1 1 1 1 1 1 1 1 1 1 1 1 1 1 1 1 1 1 1 1 1 0.0089727044819509355 1 1 1 1 1 1 1 1 1 1 1 1 1 1 0.0096138737108113596 1 1 1 1 1 1 1 1 1 1 1 1 1 1 1 1 0.02487370010749634 1 1 0.010384528015711551 1 1 1 1 1 1 1 1 1 1 0.014706850363680222 1 0.016505974627052535 0.02779919803485462 0.0080978054869558572 1 1 0.012365749962887624 0.0099037067339555109 1 1 0.01400785006538831 1 1 1 0.0099867217370480064 1 1 1 1 1 1 1 1 0.010752783873625981 1 1 1 1 1 0.030747418856997284 1 1 1 1 0.015991500114809525 1 0.010516114544187201 1 1 0.0099955260302838495 0.021935705724726966 0.0096304768193529282 1 1 1 1 1 1 1 1 1 1 1 1 1 1 1 1 1 1 1 0.0090717366890575683 1 1 1 0.010043908537541807 1 1 0.016335641458303841 1 1 0.026583846884972017 1 1 0.013211880682906968 1 1 1 0.014251768677825315 1 1 1 0.010065903317524442 1 1 1 1 1 1 1 1 1 0.0098262958950198348 1 1 1 1 1 1 1 1 1 1 1 1 1 1 1 1 1 1 1 1 1 1 0.010201413446761239 1 1 1 1 1 1 1 1 1 1 1 1 1 1 1 1 1 1 1 1 1 1 1 0.015002897317495319 1 0.0092427761427713064 0.010125565338645517 1 0.0098540814356699903 1 1 1 1 0.011550441135575452 1 1 1 1 1 1 1 0.01210918416457182 0.01023536682244898 1 1 1 1 1 1 1 1 1 0.010611610283100561 1 1 1 0.011096401036790958 1 1 1 0.012356957068519782 1 1 1 1 1 1 1 1 1 1 1 1 1 1 1 1 1 1 1 1 1 1 1 1 1 1 1 1 1 1 1 1 1 1 1 1 1 1 1 1 1 1 0.010386040472745148 1 1 1 1 1 0.011053750816866256 1 1 1 1 1 1 1 1 1 1 1 1 1 1 1 1 0.009869727581917568 0.010558039078482236 1 0.013250829212440909 1 1 1 1 0.015023842803452502 1 0.010016239381199686 1 1 1 1 1 1 1 1 1 1 0.017654544260831004 1 1 1 1 0.017659970334185947 1 1 1 1 1 1 1 1 0.016921864571861619 1 1 1 0.015618549245038651 1 1 1 1 1 1 1 1 0.012505303536173761 1 1 0.010972622539474512 1 1 1 1 1 1 1 1 1 1 1 1 1 1 1 0.012252116913673235 1 0.011568290101063649 1 1 1 1 0.0099907320375264841 1 1 1 1 1 0.010286691086215499 1 0.014602227542702434 1 1 1 1 1 1 1 1 1 1 1 1 1 1 1 1 1 1 1 1 1 1 1 1 1 1 1 1 1 1 0.013161514847175133 1 1 1 1 1 1 0.015694478719366516 1 1 0.010490213567502966 0.01384980743158145 1 1 1 1 1 1 0.012254647426278728 1 0.0098516916977651435 1 1 1 0.012496358938308819 1 1 1 1 1 1 1 0.011570005145486395 1 1 0.01682920129030966 1 1 1 1 1 1 0.010536352273735269 1 1 1 1 1 1 1 1 1 1 0.022804903354294383 1 1 0.0098705024322489308 1 1 0.0099280464842668795 1 1 1 1 1 1 1 1 1 1 1 0.010618934373791897 1 1 1 1 1 1 1 1 1 1 1 1 1 1 1 0.011673890024812249 1 1 0.01225707384975867 1 1 0.010002217936317422 1 0.012520364642971564 1 1 1 1 1 1 1 1 1 0.012625253960370994 0.0095288297345177877 1 1 1 1 1 1 1 1 0.011735912512042375 1 1 1 1 1 1 0.010750481281677313 0.0085783027601576411 1 1 0.010002243342041073 1 1 1 1 1 0.017045327142454332 1 1 0.016179925538109305 1 0.012001737224127389 1 1 0.011032202402458974 1 1 1 0.010299709405129073 1 1 1 0.0097382618938104317 1 1 1 1 1 0.010391965754110596 1 1 1 0.011628262237895343 1 1 1 0.012841330320286323 1 1 0.0097205011330046831 0.010519820741560632 1 1 0.0099947705034537232 1 1 1 1 1 1 1 1 1 0.012658257038482494 1 1 1 1 1 1 1 1 1 1 1 1 1 1 1 1 1 1 1 1 1 0.023673066744763424 1 1 0.023984329399098468 1 1 1 1 1 1 0.010508748686530893 1 1 1 1 1 1 1 1 1 1 0.017314987450237837 1 1 1 0.023660162140500672 1 1 1 1 0.010108386508692398 0.010009893482904965 1 1 1 0.014674994150345635 1 1 1 1 1 1 1 0.009967271174683455 1 1 1 1 1 1 0.010256534344950156 1 1 1 0.010129148199391445 1 1 1 1 1 1 1 1 1 1 1 1 1 0.01635935525600745 0.010012791851660173 1 1 1 0.010017601442228213 1 1 1 1 0.014352653647457088 1 1 1 1 1 1 1 1 1 1 1 1 1 1 0.016228682799198063 1 1 1 1 1 1 0.010039632231821421 1 1 0.015990359066042507 1 1 1 1 0.009998836448893586 1 1 1 1 0.012799237282995229 1 1 1 1 0.010008111118328521 0.015709036982142481 1 1 1 1 1 1 1 1 0.011979504976448577 1 0.012836258083465439 1 1 0.012809142391488199 1 1 1 0.011783348371823599 0.011825677854039499 0.010219554400238341 0.0099081349188440346 1 1 1 1 1 1 0.012122029403635971 1 1 0.014621291475903221 1 1 1 1 1 1 0.0095171035285250734 1 1 1 0.01339734640303249 1 0.01505850584935501 1 1 1 0.010040211040864153 1 0.018296659065559225 1 1 0.0087255616312153991 0.0099521029644411164 1 1 1 1 1 0.010943150733830828 1 1 1 1 0.013219501631483208 1 1 1 1 0.010329409251711996 1 1 1 0.0097791251692547938 1 0.0096965780657612462 0.010967479075661354 1 1 1 1 1 1 1 0.0099898861388662084 1 1 1 1 0.0095484803716780649 0.010143017580566793 1 0.010740063656048961 1 0.0099972306461071549 0.009444663506821346 0.0088318199501951113 1 1 1 1 0.0087082509058988809 1 1 0.010038214638038827 1 0.01017042909687527 1 1 0.010494773327852772 1 1 1 1 1 1 1 0.0093914492916214662 1 1 0.0082482051186179711 1 1 1 1 1 1 1 1 1 0.010444567809191613 1 1 1 1 1 0.01056198828870715 1 0.011181118363107763 1 0.011196603558802715 1 1 0.009933256558729231 1 1 1 0.011812477102197821 1 1 1 0.01000363489808391 1 1 1 0.010350456105504481 1 1 1 1 1 0.010126763667975026 1 1 1 1 1 0.012823829923347033 1 1 0.01041064741284619 0.010005786085464624 1 1 0.011167851590980854 1 1 1 0.010018501495699855 1 1 1 1 1 1 0.011615277557306222 0.010007057378623625 1 0.010020190000260751 1 1 0.01000068674421168 1 1 1 0.010029378318644283 1 1 1 1 1 1 1 1 1 1 1 1 1 1 1 1 1 1 0.010858207590426029 1 1 1 0.0098843324263417839 1 1 1 1 1 0.0097250485814995291 1 1 1 1 1 1 1 1 1 1 1 1 1 0.010117309428435924 1 1 1 1 1 1 1 1 1 1 1 1 1 1 1 1 1 1 1 1 0.010622132913254687 1 1 1 1 1 1 0.011591114696404899 1 1 1 1 1 1 1 1 1 1 1 1 1 1 0.019757058947785892 1 1 1 1 1 0.022388862891414139 1 1 1 1 1 1 1 1 1 1 1 1 1 1 1 1 1 0.016258804094315273 1 1 1 0.012194068323252934 1 1 1 1 1 1 1 1 1 1 1 1 1 1 1 1 1 1 1 1 1 1 1 1 1 1 1 1 0.0094722717961061142 1 1 0.010022042196358182 1 0.034902668288800773 0.023163580836810971 1 1 1 0.011103882035707275 1 1 1 1 1 1 1 1 1 1 1 1 1 1 1 1 0.021553412366451235 1 0.021791003561741185 1 1 1 1 1 1 0.010972287100234393 1 1 1 1 1 1 1 1 1 1 0.010093896409991764 1 1 0.019768611008025537 1 0.012543036309216101 0.012646229947457718 1 1 1 0.033209591043066249 1 1 1 1 1 1 1 0.034224017237303214 1 1 1 1 1 0.012333781381667672 1 0.010258331859485745 1 0.037377660729384359 1 0.010032165553552859 1 1 1 1 1 1 1 0.014839572435893665 1 1 1 1 1 1 0.013908207670838522 1 1 0.011783324797714941 1 1 1 0.021717306755894408 1 1 1 1 1 1 0.0098867210100376645 1 1 1 1 1 1 1 0.014368432767591637 1 1 0.029703659278563388 0.022458377861601764 1 1 0.009938127180975552 0.010380625514874843 1 1 0.010229547843067939 1 1 1 1 1 1 1 1 1 0.011756855582274527 0.0099971266964399667 1 0.0097025241061301365 1 1 0.007519654336924613 1 0.0099820280748035336 1 1 1 1 1 1 1 1 1 1 1 1 1 1 1 0.024211420698480715 1 1 1 1 1 1 1 1 1 0.009759687110874455 0.0092851224803620833 1 0.0097495428052009128 1 0.014803409924837686 0.010368449802034468 1 1 1 1 0.0082170553397116208 1 0.026361451942308722 1 1 0.017605410136059686 1 1 1 1 0.0095924686483416371 0.0085904008821532409 0.017096034183696204 0.0099864621534245714 1 1 0.0089140920488819733 0.009943033014091527 1 1 0.0077748777999650789 1 0.0095019030029615363 0.015400534451844463 1 1 0.0071698153948083505 1 0.0028649048312581315 1 1 1 0.017216916412156922 1 1 0.010015833078621245 0.018584982221512975 1 1 1 1 1 1 1 1 1 1 1 1 0.012465364254564189 1 1 1 1 0.013585876358742069 1 1 0.012509190547614991 1 1 0.013327237106760115 1 0.017396114021240507 1 1 0.017968933068787777 0.016215521084212224 1 1 0.0103282536038449 1 1 0.010074314164631342 1 1 1 0.012839097795361997 1 1 1 1 1 1 1 1 1 0.01131452590148622 1 1 1 1 1 0.023713692376163206 1 0.01661280578806637 1 1 0.017183706413741145 1 1 1 0.010138745217287056 1 1 1 1 0.014196756117720125 1 0.0099997335233053403 0.013404416512965967 1 1 1 1 1 1 1 1 1 1 1 1 1 0.010532867154814982 1 1 1 1 1 1 1 1 1 1 1 0.016088804961262845 1 1 1 1 0.0065885288233325911 0.010338936844622658 1 1 0.010003020892639302 1 1 0.014991288357487269 1 1 0.011264998595685674 1 1 1 0.0092728299128618345 1 0.010009012422433614 1 0.010312054920329522 0.011053632097018755 1 1 1 1 0.010017599951020167 1 0.010631464448822514 1 1 1 1 1 1 1 0.0096584849226358498 1 1 1 1 0.010852275772748089 0.010832131486841437 1 1 0.020950670836542104 1 0.016304832273005998 0.0096859888303076139 1 1 1 1 1 1 1 1 1 1 1 1 1 0.024745191144569384 1 1 0.016740116916871751 1 1 1 1 1 1 1 1 1 1 1 1 1 1 1 1 1 1 1 0.010429466977451127 1 0.010282949935143559 1 1 1 0.010923953944691108 1 0.026440051169370309 1 0.012155761079184042 1 1 1 1 1 1 1 1 1 1 1 1 1 1 0.010432766991896381 1 1 1 0.010611708559866014 1 1 0.013216543174465675 1 1 0.010077710441443462 1 1 1 1 1 1 1 1 1 1 1 1 1 0.012739824323065529 1 1 0.016489803677251051 1 1 1 1 1 1 1 0.013509431070130258 1 1 1 1 0.0099455951329743345 1 1 0.013820719323034338 1 0.0095946603952926247 1 1 1 1 1 0.011322241749159259 1 1 1 1 0.016461478518231938 1 1 1 0.010152564537604724 1 1 0.010727771373929666 1 1 1 1 0.0099374955010202229 1 1 1 1 1 1 1 0.0099996590659328071 1 1 1 1 1 1 1 1 1 1 1 1 1 0.015476426514514183 1 1 1 1 1 1 1 1 1 1 1 1 1 1 1 1 1 0.011305707752789695 1 1 1 1 0.010493822972688627 1 1 1 1 1 1 1 1 0.010998647444909325 1 1 1 1 1 1 1 1 1 1 1 1 1 1 1 1 1 1 1 1 1 1 1 1 1 1 1 1 1 1 1 1 1 1 1 1 0.011822768175326279 1 1 1 1 1 1 1 1 1 1 1 1 1 1 1 1 1 0.011857731086691095 1 1 1 1 0.014903805747655229 1 0.012281176558770868 1 1 1 1 1 1 1 1 1 1 0.010527293071482785 1 0.0099720375759276853 1 1 1 1 1 0.011398431117481927 1 1 1 0.0099224610986949572 1 0.011170285705271656 1 0.010965278461667555 1 1 1 1 1 1 1 1 1 1 1 1 1 1 1 1 1 0.010659241945527066 1 1 1 1 1 1 1 0.0099985837585112106 0.0095990445754098597 1 1 1 0.011205740142448559 0.010009715513458819 1 0.010117384570025777 1 1 1 1 0.011280442422331741 1 1 1 0.01006394875824735 0.010471927869039152 1 1 1 1 1 1 1 1 1 1 1 0.0091696992625873164 1 1 0.008625741939264589 1 1 0.012330219368325748 1 1 1 1 1 1 0.010077148447988314 1 1 1 1 1 1 1 1 1 1 1 1 1 1 1 1 1 1 1 1 0.01041129172182171 1 1 0.012616672255235824 1 1 1 0.011093790439834073 0.011275684280707868 1 1 1 0.010016094639524124 1 1 1 0.023895754247378623 1 1 1 1 0.0097099788397469102 1 1 1 1 1 1 1 1 1 1 1 1 1 1 1 1 0.015258862939516477 1 0.012305457130854021 1 1 1 1 1 1 1 1 1 0.011101916763141361 1 1 0.016914216272854443 1 1 1 1 0.017179147110765729 1 1 1 1 1 0.010300311203656711 1 1 1 1 1 1 1 1 1 1 1 1 1 1 0.012430435115047055 1 1 1 1 1 0.012280820711142709 1 1 1 0.023716561155634246 1 1 0.026565109505213597 1 1 0.015096118592129917 1 1 1 1 1 1 1 1 1 0.014220677035762914 1 1 1 1 0.017926392423586884 0.0099842083463200348 1 1 1 0.015517289586405138 1 0.018913145693913287 1 1 1 1 1 1 1 1 1 1 1 1 1 1 1 1 1 0.018807041346523057 1 0.0098918679707645368 1 1 0.012827448450916545 1 1 1 0.014128083426808869 1 1 0.011437965608689586 1 1 1 1 1 1 1 0.012183721147983672 1 1 1 1 1 1 1 1 1 1 1 1 0.016816265586809941 1 1 1 1 1 0.0099887011644606317 1 1 0.018503262789281095 1 1 1 0.011489674987309569 1 1 0.011248367937747765 1 1 0.010306123450165513 1 0.011136150042993597 1 0.0096182021781903611 1 1 1 1 0.015048609700847121 0.013447090465728843 1 1 1 1 1 1 1 1 1 1 0.02253645099039131 1 1 1 0.022851957549379784 1 0.013171697229385416 1 1 1 0.0077380231557997864 1 1 1 0.0090679320257838619 1 1 0.010227130085473539 0.010476714532613479 1 1 1 1 1 1 1 1 1 1 1 0.015929085683313526 1 1 1 0.0099211902256996394 0.015183229455536032 1 1 0.0097642473672700167 1 1 1 1 1 0.019548819616083624 0.010002285177732564 1 1 1 1 1 1 1 1 0.023437987002577092 1 1 0.021040378364745156 1 1 1 0.013056280835232449 1 1 1 1 1 1 1 1 1 0.024244821221751423 1 1 1 0.0098654596296710168 1 1 1 1 0.0096390506423667116 1 1 1 1 1 1 1 0.010103795400830062 1 1 1 1 1 0.016451592401774726 1 1 1 1 1 1 1 1 1 1 1 1 1 1 1 1 1 0.015415380525943226 1 1 1 1 1 1 0.012329360632386953 1 1 1 1 1 1 1 1 1 1 1 1 1 1 1 1 1 1 1 1 1 1 1 0.021873636619894762 1 0.014843153279099991 1 1 1 1 1 1 1 1 1 0.011006347894725812 1 1 1 0.010297473999110717 1 1 1 1 1 1 1 1 1 1 1 1 1 1 1 1 1 1 1 1 1 1 1 1 1 1 1 1 1 0.0091293722510710218 1 1 1 1 1 1 1 1 1 0.010570393396317566 1 1 1 1 1 1 1 1 1 1 1 1 1 1 1 1 1 1 1 1 1 1 1 1 0.010036837233158321 0.0072902852673672148 1 1 1 1 1 1 1 1 1 1 0.0099500022790076185 1 1 1 1 1 0.0099068487731452555 1 1 1 0.0080906379133498987 1 1 0.022110133431501568 1 1 1 1 1 0.0097333117942741305 1 1 1 1 1 1 0.018589396578874762 1 1 0.016127431760712123 1 1 0.014228708978773727 1 0.010053101169052539 1 1 0.0085776744812885337 0.012312775905909269 1 1 0.014176127754356361 0.0096749630420568129 1 0.016677678026971007 1 1 1 1 1 1 0.010562774957266931 1 1 1 1 1 0.010006138419022625 1 0.0093527896231285872 1 1 0.0080201308144650391 0.010122922218399832 1 1 1 1 1 1 1 1 1 1 1 1 1 0.0092588252390960121 1 0.010066024943091017 1 1 1 1 1 1 1 1 1 1 1 1 1 1 1 1 1 1 1 1 0.013942922635825005 0.0079258897241852866 1 1 1 1 1 1 1 1 1 1 0.0092752494748385636 1 1 1 1 1 1 1 1 1 0.01072214173098493 1 1 1 0.012318833963986153 1 1 0.01398295951736812 1 0.0089157009096524076 1 1 1 0.0094661752029237371 1 1 0.01141252927616416 1 1 1 1 1 1 1 1 1 1 1 1 1 1 1 1 1 1 1 1 1 0.013374472520416063 1 1 1 1 1 1 1 1 1 1 1 1 1 1 1 1 0.0097250125772080954 1 1 1 1 1 1 1 1 0.0098576640236918613 1 1 1 1 1 1 1 1 1 0.016263228729154186 1 1 1 1 1 1 0.015786525588481402 1 0.0092173337913048544 1 1 1 1 1 1 1 1 1 1 1 0.010606967765653431 1 0.011778083252072191 1 1 0.010307931075013892 0.01289290997307093 1 1 1 1 1 0.010361505772624711 1 1 1 1 1 1 1 1 0.010342459063358497 1 1 0.01009187346648476 1 1 1 1 1 0.017634525352114929 1 1 1 1 1 1 1 1 1 0.011210423816893937 1 1 0.01112099273631513 0.011841442707664983 1 1 1 1 0.011181386780692424 1 1 1 1 1 1 1 1 1 1 1 1 1 0.013712391391247875 1 1 1 1 0.017063572023634697 1 1 0.010612570449890842 1 1 1 1 0.015683446973402307 1 1 1 1 1 0.010280506933916876 1 1 1 1 0.010014867171234721 1 1 0.014265040242901272 1 1 1 1 1 0.015234907046790324 0.010074842630308493 1 1 1 1 0.013347564046886055 0.01617228424506658 1 1 0.010668398965897424 1 1 1 1 1 1 1 1 1 0.010106650497588666 1 1 1 1 1 1 1 1 1 1 1 1 1 1 1 1 1 1 0.017327613527810704 1 1 1 1 1 1 0.0092578113762738397 1 1 1 0.010511862087567546 1 1 1 1 1 1 1 0.013776852774435524 1 1 0.016843131813843636 1 1 1 1 1 1 1 1 1 1 1 1 1 1 1 0.011197297306042906 1 1 0.0096756103647158871 1 1 1 0.018499806599521343 1 1 0.0080750632888223171 0.025353734893632525 1 1 1 1 1 1 0.013606827807386484 1 1 1 1 1 1 1 1 1 1 1 1 1 1 0.015673934846438205 1 1 1 1 1 1 0.010224534177389211 1 1 1 1 0.010117883679800547 1 1 1 1 1 1 1 1 1 1 1 1 1 1 1 1 1 1 1 1 1 1 1 1 1 1 1 1 1 1 1 1 0.0097310934679887221 1 1 1 1 0.016505520419658533 1 1 0.012488153732447618 1 0.010123310944552679 1 1 0.0095929571831507802 1 1 1 1 1 0.012975460454937943 1 1 1 1 1 1 1 1 1 1 1 1 1 0.010540480025986964 1 1 1 1 1 0.011115161737885619 1 0.0093794529464685718 1 1 1 1 1 1 1 1 1 1 1 1 0.02389614834885528 0.011395878037538443 1 0.013607311579716831 1 1 1 1 0.010377139865911107 1 1 1 0.010593534142688569 1 1 1 1 0.010475255273711293 1 1 1 1 1 0.0086082475106721169 1 0.0095476278230690464 1 1 1 1 1 1 1 1 1 1 1 1 1 1 1 1 1 1 1 1 0.010689987772321236 1 1 1 1 1 1 1 1 1 0.010170317153801331 1 1 1 1 1 1 1 1 1 1 1 1 0.010004485606132102 1 1 1 1 1 0.014856854173935348 0.014835693446780183 1 1 1 1 1 0.010100636296715907 1 0.010379139784398233 1 1 1 1 1 1 1 1 0.010354009078218871 1 1 0.010287180076016141 1 1 1 0.010120952305211713 1 1 1 1 1 1 1 1 1 1 1 1 1 1 1 1 1 1 1 1 1 1 0.01031360428857471 1 1 1 1 0.014328944449564979 1 1 1 1 0.010203654664909887 1 1 1 1 1 1 1 1 1 1 1 0.011882436297467854 1 1 1 1 1 1 1 1 1 1 1 1 1 1 1 1 1 1 1 1 1 1 1 1 1 1 1 0.015100041992442439 1 1 0.010816395794177376 1 1 1 1 1 1 1 1 1 1 1 1 1 1 1 1 0.0099796754900558157 1 0.014111750407970332 1 1 1 1 1 0.015861108176736839 1 1 1 0.0070424161621733634 1 1 1 0.011703388559403853 1 1 1 1 0.010156428488899468 0.017955840850093656 1 1 1 0.012973807201546252 1 0.014122694775305325 0.010997893718969368 1 1 1 1 1 1 0.0076770869140692505 1 1 1 1 0.021688522034010189 1 1 0.010500584100056517 1 1 1 1 0.010641459914692524 1 1 0.011432699813582385 1 1 0.010149717762983347 1 1 1 1 1 1 0.022728232640227108 1 1 0.010168278165515287 0.017123265496978898 1 0.0099167740804454001 1 1 1 1 1 1 0.0081080636457844767 0.010145441549732407 0.010697341099546996 1 0.013769018830486063 0.0072698454127997263 1 1 1 1 1 1 1 1 1 1 1 1 1 1 1 1 1 1 1 1 1 1 1 1 1 1 1 1 1 1 1 1 1 1 1 0.0093297793705453599 1 1 1 0.012559046691253828 1 1 1 1 1 1 1 1 1 1 1 1 1 1 1 0.010928223684676601 1 1 1 1 1 1 1 1 1 1 1 0.012073708631391318 1 1 0.011634181762009674 1 0.01039319514539761 1 1 1 1 1 0.01239208396914172 1 1 1 1 0.0084794213751106413 1 1 1 0.015646135274453441 1 1 1 1 1 1 1 1 1 1 1 1 1 1 1 1 1 1 1 1 1 1 1 1 1 1 1 1 1 1 0.010027330708317374 1 1 1 1 1 1 1 1 1 1 1 1 1 1 1 1 1 1 1 1 1 1 1 1 1 1 1 0.010272467667328172 1 1 1 1 0.010542342000891738 1 1 0.010469992726227811 1 1 1 1 1 1 1 1 1 1 0.0093825535635377148 1 1 1 1 1 1 0.010540761088121147 1 0.012435766375619167 1 0.012313277094949207 1 1 1 1 1 1 1 1 1 1 1 1 1 1 1 1 1 1 1 1 0.015487897100071354 1 0.011134403261187991 1 1 1 1 1 1 1 1 0.017553524391453381 1 1 1 1 0.0099153547804322773 1 0.0098156347550748726 1 1 1 1 0.01041885255824781 1 1 1 1 1 1 1 1 1 1 1 1 1 1 1 0.011122127936495002 1 1 1 1 1 1 0.010200118392664246 1 1 1 1 1 1 1 1 1 1 1 1 1 1 1 1 1 1 1 1 1 1 1 1 1 1 1 1 1 1 1 0.010289075219620327 0.0098726025409980028 1 1 1 1 1 1 1 1 1 1 1 1 0.011103943994269182 1 0.010192091620242059 1 1 1 1 1 1 1 0.012071589240978169 1 1 1 1 1 1 1 1 1 1 1 1 1 1 1 1 1 1 1 0.012737711843407022 1 1 1 1 1 1 1 1 1 1 1 1 1 1 1 1 1 1 1 1 1 1 1 1 1 1 1 1 1 1 1 1 1 1 1 1 1 1 1 1 1 1 1 1 1 1 1 1 1 1 1 1 1 1 1 1 1 1 1 1 1 1 1 1 1 1 1 1 1 1 1 1 1 1 1 1 1 1 1 1 1 1 1 1 1 1 1 1 1 1 1 1 1 1 1 1 1 1 1 1 1 1 1 1 1 1 1 1 1 1 1 0.010018965825092697 1 1 0.011020870678803587 1 1 1 1 1 1 1 1 1 1 1 1 1 1 1 1 1 1 1 1 1 1 1 1 1 1 1 1 1 1 1 1 1 1 1 1 1 1 1 1 1 1 0.010227736791653987 0.0099770621444983335 1 1 1 1 1 1 1 1 0.010652258858853025 1 1 1 1 1 1 1 1 1 1 1 1 1 0.010107419150926111 1 1 1 1 0.010054820113513274 1 1 1 1 1 1 1 1 1 1 1 1 1 1 1 1 1 1 1 1 1 1 0.010206998619747627 0.010059423959826801 1 1 1 1 1 1 1 1 1 1 1 0.014904648613703705 1 1 1 1 1 1 1 1 1 1 1 1 1 0.010395650275450769 1 1 1 1 1 1 1 1 1 1 1 1 1 1 1 1 1 1 0.014657883016861774 1 0.013949609599566983 1 1 1 1 1 1 1 1 1 1 1 1 1 1 1 1 1 1 0.010401936925428078 1 1 1 1 0.011084522828135549 1 1 1 1 1 1 1 1 1 1 0.012978898073180862 1 1 1 1 1 1 0.012639842693914088 1 1 1 1 1 1 0.013739312585382673 1 0.010631634883396199 1 1 0.012539657117960542 1 1 1 1 0.0099374398040935064 1 1 1 1 1 1 1 1 1 1 1 1 1 1 1 0.01087994609480944 0.020868442014862532 1 1 1 0.012185387442831366 1 0.030299005946743455 0.010015404565310771 1 1 1 0.021961281734482238 1 1 1 1 1 1 1 1 0.010254242995534837 1 1 1 1 1 1 0.020844781941596356 1 1 1 1 1 1 1 1 1 1 1 1 1 1 1 1 1 1 1 1 1 0.011922355627712718 0.011574710231797772 1 1 1 0.010014107244161659 1 0.010316891626919926 1 1 1 0.015436570916054566 1 0.010333611994609835 0.0099770202390451531 1 0.0091401980490931293 1 1 1 0.010010656031244364 1 1 1 1 1 1 1 1 0.016514774812971575 1 1 1 1 1 1 1 0.0094682725782816515 0.010004376808753653 1 1 0.0097790529217691019 0.017907314986930409 1 1 1 1 1 1 1 1 1 1 1 1 1 1 1 1 1 1 1 1 1 1 1 1 1 1 1 1 1 1 1 1 1 1 1 1 1 1 1 1 1 1 1 1 1 1 1 1 1 1 1 1 1 1 1 1 1 1 1 1 1 0.010761927956247147 0.01451597691886109 1 1 1 0.010246598068662068 1 1 1 1 1 1 1 1 1 1 1 1 1 1 1 1 1 1 1 1 1 1 1 1 1 1 1 1 1 1 1 0.017545987335044855 1 1 1 1 1 1 1 1 0.0075927242277731913 1 1 1 1 0.01003994808373831 1 1 1 0.018953931315817438 1 1 1 0.020124424059283733 1 1 1 1 1 1 1 1 1 1 1 0.010656362451451754 1 1 0.011760838974528398 1 1 1 0.011609674187070384 0.010542849657556714 0.0096622827750140368 1 1 0.0093377232145540577 1 1 0.011651715508595048 1 1 0.010746942655052109 1 1 1 1 1 1 1 0.010296708695787238 1 1 1 1 0.012427030566269964 1 0.010240681606146978 1 1 1 0.013164882534682051 1 1 1 0.0066143623603090833 1 0.014847011928575227 1 1 1 1 1 1 1 1 1 1 1 0.010507747394459876 1 1 1 1 1 1 1 1 1 1 1 1 1 1 1 1 1 1 1 1 1 1 1 1 1 1 1 1 1 1 1 1 1 1 1 1 1 1 1 1 1 1 1 1 1 1 1 1 1 1 0.011468755459870555 1 1 1 1 1 1 1 1 1 1 1 1 1 1 1 1 0.010613679711041393 1 1 1 1 1 1 1 1 1 1 1 0.011431126233898792 1 1 1 1 1 0.013906065038178286 1 1 1 1 1 1 0.011953212110307743 1 1 1 1 0.010937509823109677 1 1 1 1 1 1 1 1 1 1 1 1 1 1 1 1 1 1 1 1 1 1 1 1 1 1 1 1 1 1 1 1 1 1 1 1 1 1 1 1 1 1 1 1 1 1 1 1 1 1 1 1 1 0.011015702287198068 1 1 1 1 1 1 1 1 1 1 1 1 1 1 0.010025755983073946 1 1 1 0.01244081537723373 1 1 1 1 0.010635136047967481 0.026572410258529047 1 1 1 0.018097282674639885 0.012496556386836773 0.028397264640001293 1 1 1 0.025835113133425583 1 1 1 1 1 1 1 0.016846976822323854 1 1 0.014250675635401347 1 1 0.010780717797762658 1 1 1 1 1 1 1 1 1 1 1 1 1 1 1 1 1 1 1 1 1 1 1 1 0.0091568249335722621 1 1 0.020545726674590235 1 1 1 0.022850372582610391 1 0.024619522707851848 1 1 1 1 1 1 1 1 1 1 1 1 1 1 1 0.010518364233462361 1 1 1 1 0.0096768609798329464 1 0.0092943189461248219 1 1 1 1 1 1 1 1 1 1 1 1 1 0.013529248211642447 1 1 0.015005012597551878 1 1 1 1 0.011256552228009921 1 1 1 1 1 1 1 1 0.018908994184587042 1 1 1 1 1 0.019226965695787773 1 1 1 1 1 1 1 1 1 1 1 1 1 1 1 1 1 1 1 1 1 0.0099124870722549826 1 1 1 1 1 1 0.018665650277856806 1 1 1 1 1 1 1 1 1 1 1 1 1 1 1 0.020280991958244229 1 1 1 0.0094008059394734313 1 1 1 1 1 1 1 0.0097537328463216267 1 0.0097679101921553345 1 1 1 1 1 1 1 1 1 1 0.0094784847638538939 1 1 1 1 1 1 1 1 1 1 1 1 1 1 1 1 1 1 1 1 1 0.011232924592586898 0.011796079252415253 1 1 1 1 1 1 1 1 1 1 1 1 1 1 1 1 1 1 1 1 1 1 1 1 1 1 1 1 1 0.010817758058317539 1 1 1 1 1 1 1 1 1 1 1 1 1 1 1 1 1 1 1 1 1 1 1 1 0.013630580612184154 1 1 1 1 1 0.011358383330037849 1 1 1 0.010502941557156508 1 1 1 1 1 1 1 1 1 1 1 0.010334547986334246 0.010247773906604557 1 1 1 1 1 1 0.0102621631636538 1 1 1 1 1 0.011046688816710616 1 1 1 1 1 1 1 1 1 1 1 1 0.010239727974321725 1 1 1 1 0.011437053937526247 1 0.013251161949048969 1 1 1 1 1 0.011203613804562283 1 1 1 1 1 1 0.012695305086643509 1 1 1 1 0.0093533021959714049 1 0.009854528954883611 1 1 1 1 1 0.010129039374016952 1 0.013332884553473708 0.010477539503348288 1 1 0.010565171876961392 1 1 1 1 1 1 1 1 1 1 1 1 1 1 0.010359886389285179 1 0.021861698772792378 1 1 1 0.019920138195740913 1 1 1 0.018040745393415422 1 1 1 1 1 1 1 1 0.010727415793978698 1 0.010307953136799606 1 1 1 1 0.010799171340474152 1 1 1 1 1 1 1 1 0.011618133826705596 1 1 1 1 0.012417726747446733 1 1 1 1 1 0.012907927929290899 1 1 1 1 1 1 0.010014423998667758 1 1 1 1 1 0.0098279951271741627 1 1 0.010004247031155218 1 1 1 1 1 1 1 1 1 1 1 1 1 1 1 1 0.013746178411290812 1 1 1 1 1 0.0094892902944086668 0.0095147160166673527 1 0.011072878141467306 1 0.010323289337086343 1 1 1 1 1 1 1 1 0.010590442412166421 1 1 1 0.010367529404693519 1 1 1 1 1 1 0.010226396673786097 1 1 1 1 0.012704166779675782 1 1 1 1 1 1 0.011799011247232838 1 1 1 1 1 1 1 1 1 0.011067811248521233 1 1 1 1 0.01000205514433743 1 1 0.010687174720798904 1 1 1 1 1 0.01023945263614048 1 1 1 1 1 1 1 1 1 1 1 1 1 1 1 1 1 1 1 1 1 1 1 1 1 1 1 1 1 1 1 1 1 1 1 1 1 1 1 1 1 1 1 1 1 1 1 0.0091632122831451501 1 0.012668602434414204 1 1 1 1 1 1 1 1 1 0.012854061894440834 1 1 1 1 1 1 1 0.010383939039564156 1 1 1 1 0.010003265200996477 1 1 1 1 0.012485265847799127 1 1 1 0.010076096834005802 1 1 1 1 1 1 1 1 1 1 1 1 1 1 0.010565981943946584 1 1 1 1 1 1 1 1 1 1 1 1 0.011698967784944713 1 1 1 1 1 1 1 1 0.010555204960609776 1 1 1 1 1 0.031182294489597688 1 0.010996115702620006 1 1 1 0.033017786450931098 1 1 0.009879902546534345 1 1 1 1 1 1 0.0094514651380249604 1 0.023025680982149063 1 0.025006222534259073 1 0.015244590464087864 1 1 1 1 0.013457058479423446 1 1 1 1 1 1 1 1 1 1 1 1 1 1 0.011233712077450858 1 1 1 1 1 1 1 1 1 1 1 1 0.010876542184204259 1 1 1 0.01157815055564549 1 1 1 1 1 1 1 1 1 1 1 1 1 1 1 1 0.01070160837144123 1 1 1 1 1 1 0.021385099342149119 1 1 0.014280056534455993 1 0.010431790918438157 0.01031444763309825 0.027980490119528866 1 1 1 1 1 1 1 1 1 1 1 1 1 1 1 1 1 1 1 0.010279368748050143 1 1 1 1 1 1 0.0105270977180911 0.013182227508521591 0.01011419143864028 1 1 1 1 1 1 1 1 1 1 0.010761025785416959 1 1 1 1 1 1 0.023034769568129543 1 1 1 1 0.023163976294486206 1 1 1 0.012306672361672532 1 1 1 1 0.012909699591548768 1 1 0.010073975977086924 1 0.022488069061213239 1 1 1 1 1 1 1 1 1 1 1 1 1 1 0.0098533992142512145 0.0099274439491035139 1 1 1 1 1 1 1 1 1 1 1 1 1 1 1 1 1 1 1 1 1 1 1 1 1 1 0.010078505061904691 1 0.0099987763286904403 1 1 1 1 1 1 1 1 1 1 1 1 0.01236364484699661 1 1 1 1 1 1 0.010797956560513102 1 1 1 1 1 1 0.01677020144382339 1 1 1 1 0.01025325133305036 1 1 1 1 1 1 1 0.015561941090558785 1 0.010856459596361747 1 1 1 1 1 0.013865299024503888 1 0.013956438933855612 1 1 1 1 0.011599231190788328 1 1 0.012155851808383265 1 0.012694769447559023 0.013495387794458321 1 0.011021292638735893 0.011287327143440414 1 0.011549543339505069 1 0.01109017816755669 1 1 1 0.01013892540646202 1 1 1 0.010993058146382677 0.010451738262707268 1 1 1 0.0126692127356853 1 0.01000069102154446 1 1 0.0096959886009801051 1 0.017030060886919648 1 1 1 1 0.013658681451010193 1 1 1 1 0.016649447741664731 0.020106080676169487 1 1 1 0.010258250925245732 0.009892789714902709 1 1 1 1 0.011328516158542223 1 1 1 1 1 0.010565617453454539 1 1 1 1 1 1 1 0.010650432149000306 1 1 1 0.015003216175242813 0.010457595338642182 0.010190486466457196 0.0087381159384495363 1 1 1 1 0.013946515448820956 1 1 1 1 1 1 1 1 1 1 1 1 1 1 1 1 1 1 1 1 1 1 1 1 0.012853813153668878 1 1 0.016363452800641311 1 1 1 1 1 1 1 0.019938938414424678 1 0.0099578448895455921 1 1 1 0.017072974240558893 1 1 1 1 1 1 1 1 1 1 1 1 0.0097307484562751661 1 1 0.019706200372285102 1 0.0090161087240154952 1 1 1 1 1 0.012157479920390266 0.0099761962848995481 1 1 1 0.013935690098595722 1 1 1 0.01097530676978129 0.012704948505669106 1 0.019766788651708889 1 1 1 1 1 0.011320052459986248 1 1 1 1 0.019883201455836906 1 1 1 1 0.010266896379482582 1 1 1 1 1 1 1 1 1 1 1 1 1 1 1 1 1 1 1 1 1 0.010795908238930901 1 1 1 1 0.0097776588107659785 1 1 0.0099820038534771428 1 1 1 1 1 1 1 0.011654261581158978 1 1 1 1 1 0.010320770416488823 1 1 1 1 0.010854114496233965 0.009490793646096363 1 1 1 1 1 1 0.014676468588094425 1 1 0.0094505159451435013 1 1 1 0.013432442203749482 1 1 1 1 1 1 0.012930511206450574 1 1 1 1 1 0.0094266933909360334 1 1 1 1 1 0.0091524798129949021 1 0.010104326232670831 1 1 1 1 1 0.0099354691157929383 1 1 1 1 1 1 1 1 0.018458887179765803 1 1 1 1 1 1 1 1 1 1 1 1 1 1 1 1 1 1 1 1 0.015683248121781089 1 1 1 0.010046894434908572 0.010255650536511686 1 0.0099363081559890928 1 1 1 1 1 1 1 1 1 1 1 1 0.010045508178765499 1 1 1 1 0.011408449220488517 1 1 1 1 0.01052982657935784 1 1 1 1 1 1 1 1 1 1 1 1 1 1 1 1 1 1 1 1 1 0.011955506631626769 1 0.010041907572335567 1 1 1 1 1 1 1 0.010819731518976382 1 1 1 1 1 1 1 1 1 1 1 1 1 1 1 1 1 1 0.0096979402930855857 1 1 1 1 1 1 1 1 0.011109777723593638 1 1 1 1 0.013367935991851175 1 1 1 1 1 1 1 1 1 1 1 1 1 1 1 1 1 0.01128307954343279 1 1 0.0087806874267640778 1 0.0097141584721849722 1 1 1 1 1 1 1 1 0.0088084930215375761 1 1 0.0098292444934417328 1 0.011742887298957609 1 1 1 1 1 1 1 1 1 1 1 1 1 1 0.010647805950180153 1 1 1 1 1 1 1 1 1 1 1 1 0.017988929149198148 1 1 1 1 1 1 0.013906472866024269 0.015814740341157197 1 1 1 1 1 0.0079766739435730132 1 0.016082381883654427 1 0.011095965247227717 1 0.0086266201376504308 0.010148292126017117 1 1 1 1 1 0.010919570435403696 1 1 1 1 0.0099593828282665137 1 1 0.010172898653743316 1 1 1 1 1 1 1 1 1 1 1 1 0.016088011519753184 1 0.010001205710806345 1 1 1 1 1 1 1 0.016815755098078658 1 0.01744250178633102 1 1 1 0.0098922550807025739 1 1 1 1 1 1 1 1 1 1 1 1 0.012280754471661257 1 1 1 1 0.01073077687190685 1 1 1 1 1 0.0099998460311490258 1 0.018016673231473497 1 1 1 0.0099999889483247117 1 1 1 0.010002324640567328 1 0.016877951636589172 1 1 1 1 0.010035397813733426 1 1 0.01274786119354061 0.015277351993801737 1 1 1 1 1 1 0.010093890475279546 1 1 1 1 0.010105385140070909 1 1 0.0087151962082192211 1 1 1 0.0083348528379411368 1 1 1 0.013821995287288426 1 0.012762585775558256 1 1 0.0095972529596884786 0.018761367930894737 1 1 1 1 1 0.0099107788815536897 1 1 1 1 0.0097253409823913426 1 1 1 0.0082435799846352284 1 1 1 1 0.011560568646345821 1 1 0.010057510609478838 1 1 1 1 1 0.01002349097873715 1 1 1 1 1 1 1 1 1 1 1 1 1 1 1 0.0084777849175878706 1 0.01098922589249797 1 1 1 0.0099069155476504186 1 1 0.011278982330073992 1 0.011106716198030712 1 1 1 1 1 1 1 1 1 0.012392774048874018 1 1 1 1 1 1 1 1 1 1 1 1 1 1 1 1 1 1 1 1 1 1 0.010214697269531507 1 1 1 1 1 1 1 0.010344792390259261 1 0.015036043942878718 1 1 0.0079669303929922278 1 0.023145889872519226 1 0.010023015378444453 0.010086553297187295 1 1 1 0.014708289635577874 1 1 1 1 1 1 1 1 1 1 0.022047748027552314 1 1 1 1 1 1 0.011327046414174785 1 1 1 1 1 1 1 1 1 1 0.011124763897721948 1 1 0.009910726469760588 1 0.00919979508879646 0.013388181583991278 1 1 1 1 1 1 0.012614981576476753 1 0.016232445864221345 1 1 1 1 0.020443761495158315 1 1 1 1 0.017647572160506372 0.012359120428106649 1 1 1 1 1 1 0.012112686965785872 1 1 1 0.014914066514289046 1 1 1 1 1 1 1 1 1 1 1 1 1 1 1 1 0.014406195314737536 0.011561710507405183 1 0.010537072968564605 1 1 1 1 1 1 0.012850110003914408 0.01103890947162655 1 1 1 1 1 0.012829821161537216 1 1 1 1 1 1 1 1 1 0.016503200611586263 1 1 1 1 1 1 1 1 1 1 1 1 1 1 1 1 1 0.012021227824758177 1 1 1 1 1 1 1 1 1 1 1 0.010688006970250463 0.010572259008394896 1 1 1 1 1 0.010812931735282048 1 1 1 0.012982656885318772 1 0.010265367870370119 1 1 1 1 1 1 1 1 0.011008251585682098 1 1 1 1 0.0099977740769900889 0.014302374601382721 1 1 1 1 1 0.011483610232356348 1 1 1 0.016295942150935636 1 1 1 1 0.010030602109697424 1 0.010027549556571203 1 1 1 0.014288690430486847 0.012550251099882573 1 0.0095909846919646595 0.014895032307460709 1 0.013134334658352757 1 1 1 0.012989221746951645 1 0.010911724655232088 1 1 1 1 1 1 1 1 0.01342769870245546 1 1 1 1 1 1 1 1 1 1 1 0.010275471835074997 1 1 1 1 1 1 0.018013598826293352 1 1 1 1 1 1 0.013698803989334254 1 1 1 1 1 1 0.012971432408463313 1 0.018791350171856892 1 1 0.016974277930680227 1 1 1 1 1 1 1 1 1 0.010033111226196099 1 1 0.01940077775598345 1 1 0.021277334087462844 1 0.010757982301068716 1 1 1 1 1 0.022991631488059043 1 1 0.014092318299720233 1 1 1 1 1 1 1 0.014540345512961754 1 1 1 0.011433521121977219 1 1 1 1 1 1 1 1 1 1 1 1 1 1 1 1 1 1 1 0.018268095983417259 1 1 0.01344398688638225 1 1 1 0.0097134566340555985 1 1 1 1 1 1 1 0.011335662594877033 1 1 1 1 1 1 1 1 1 1 1 1 0.011837824381399922 1 1 1 1 1 1 1 1 1 1 0.012304235094145181 1 1 1 1 0.011798215581680045 1 1 1 1 0.0091730657422096594 1 1 1 0.0098978551815745042 0.0096340289179049771 1 1 0.011931138390925806 1 1 1 1 1 1 1 1 0.013096389169229332 1 1 0.016635058711734544 1 1 1 1 1 1 1 0.010000775074588714 1 1 1 0.016176580996234646 1 1 1 1 1 1 1 1 1 1 1 1 1 1 1 1 1 1 1 0.010727734227953775 1 1 1 1 1 1 1 1 1 1 1 1 1 1 1 1 1 1 0.010214024721293522 1 1 1 1 1 1 1 1 0.011153364249512916 1 0.012189656872750081 1 1 1 1 1 1 1 1 1 0.010993012540319355 1 1 1 1 1 1 1 1 0.014259018399866229 1 1 1 1 1 1 1 1 1 1 0.013360319156692016 1 1 0.0095365777731082069 1 1 0.0098435751492709361 1 1 1 1 1 0.0099502098786321616 1 1 1 1 1 1 0.010319380312617372 0.015151835834886933 1 1 0.010007781804587911 0.010003166301632629 1 0.00696969068556718 1 0.010790245828476749 1 1 0.019849072184200109 1 0.009818401580848804 1 1 1 1 0.010306172452038256 1 1 1 0.01100382636097029 1 1 0.01381629284856653 1 1 1 1 0.011459848120028197 1 1 1 1 1 1 1 1 1 0.010096277713007737 1 1 1 1 1 1 1 1 1 1 1 0.015812212396327817 1 1 1 1 0.012504656381758628 1 1 1 0.010428924200173453 1 1 1 1 1 1 1 0.016541335454656601 1 1 0.011826005723907171 1 1 1 1 0.010001510568777593 1 0.0098416024720723722 1 1 1 1 1 1 1 1 1 1 1 1 1 1 1 1 1 1 1 1 1 1 1 1 1 1 1 1 1 1 1 1 1 1 1 1 0.0099876212933664339 0.01190844130988503 1 1 0.012007761086262966 1 1 1 1 1 1 1 1 1 1 1 1 1 0.014893509814044597 1 1 1 1 1 1 1 0.015470401617737979 1 1 1 1 0.012278950682591012 0.010934328217416668 1 1 1 1 1 0.011452479132372845 0.012574628920847132 1 1 0.011994690052599146 1 1 1 1 1 1 1 0.010161704205342566 1 1 0.009998475840620925 1 1 1 0.015904984519481566 1 1 1 0.013411041217506733 1 0.014874894367305269 1 0.0099446870159463335 0.0099958762329067953 1 1 0.0095955332070738544 1 1 1 1 1 1 1 0.010241311614747789 1 1 1 1 1 0.013169593349610868 0.010475183616934431 0.012506261383857928 1 1 0.01112761663644616 1 1 1 1 0.015400253076879233 1 1 1 1 1 1 1 0.015424079197266299 1 1 1 1 1 1 1 1 1 1 1 1 1 1 1 0.01564364527600199 1 1 0.010466064230903412 1 1 1 1 1 0.012436840629961338 1 1 1 1 1 1 1 1 1 1 1 1 0.013525279407890382 1 1 1 1 1 0.0097493370075574549 1 1 1 1 1 1 0.011120405442372756 1 1 1 0.0088165136540813913 0.010048640054493164 0.011658150501124807 0.01379379351730526 1 1 1 1 1 1 1 0.0099935370462350872 0.010004106084079332 0.0096990638689437875 1 0.010085560775939695 1 0.010846142094241187 1 1 1 1 1 1 1 1 1 1 1 1 1 1 1 1 1 0.010324753765733261 1 1 1 1 1 1 1 1 0.010604489989883413 1 1 1 1 0.01032500571764345 1 1 1 1 1 0.0098838393478138317 1 1 0.0096230557648147759 1 0.011701789817960231 1 1 1 1 0.0087560137167204278 1 1 1 1 1 1 1 1 1 0.010312661961887057 1 1 1 1 1 1 1 1 1 1 1 1 1 1 1 0.011526108880648867 1 1 1 1 0.011918441519594924 1 1 1 0.0078172690079712295 1 0.010445456345344571 1 0.0081352747039980522 1 1 1 1 1 1 1 1 1 0.0071137396288945692 1 1 1 1 1 1 1 1 0.010002837540817378 0.0064672567823147731 0.010579621029134921 1 1 0.012131225840189261 1 1 1 0.0094889081747836328 1 1 1 0.022963471560309569 1 1 1 0.018174217457283245 1 1 1 1 1 1 1 0.015040759324855831 1 1 0.0096672188901719136 1 1 1 0.010883086900637932 1 0.018614932410911389 1 1 1 1 0.0089216898104887803 1 1 1 1 1 0.016431747829988443 1 1 1 1 0.0126521172718293 1 1 1 0.0099540055091686241 0.014163204002799971 1 1 1 1 1 1 1 1 1 1 1 1 1 1 1 1 1 1 0.015418374512806671 1 1 1 0.016437776846017962 1 0.0087570020321429964 1 1 0.0062281563758706665 1 1 1 0.009778682432609917 1 1 1 1 1 1 1 1 0.0093340858042551891 1 1 1 1 1 1 0.0088373655864336029 1 1 0.010036463232468339 0.010217526437117621 1 0.0094246113516714136 1 1 1 1 1 1 1 1 1 1 1 1 1 1 1 1 0.025516046557506403 1 1 1 1 1 1 1 0.010196590095194533 1 1 1 0.019526825425275146 1 1 1 0.022986136653058112 1 1 0.0069942450780655667 1 1 1 1 1 1 1 1 1 1 1 1 1 1 1 1 1 1 1 1 1 0.0091547419192678156 1 1 1 1 1 1 1 1 1 1 1 1 1 1 1 1 1 1 1 1 1 1 1 1 1 1 1 1 1 1 1 1 0.012172756633218398 0.014435401764411038 1 1 1 1 1 1 1 1 1 1 1 1 1 1 0.01354925354184755 1 1 1 1 1 1 1 1 0.011998853732008943 1 1 1 1 1 1 1 1 0.010105636982164061 1 1 1 0.0097651319642935649 1 1 1 1 1 1 1 1 1 1 1 1 1 1 1 1 1 1 1 1 1 1 1 0.010269086670396575 1 1 1 0.010266825873656587 1 1 1 1 1 1 1 1 1 1 1 1 1 1 1 1 1 1 1 1 1 1 1 1 0.0093406203730086231 1 1 1 1 1 1 1 1 1 1 0.011460321283111962 1 1 1 0.01313488284509777 1 1 1 1 0.011572564646132384 1 1 1 1 1 1 1 1 0.027099382714143125 1 1 1 0.0055395870687818625 1 1 1 1 0.010731519996449515 1 1 0.0067279349790248452 1 0.012043945728744954 1 0.003241739557489548 1 1 1 1 1 1 0.028301131014990238 1 1 1 1 0.012637484760599251 1 1 1 0.013501941191346144 1 1 1 1 1 0.010089377769529232 1 1 1 1 1 1 1 1 1 1 1 1 1 1 1 0.012746005820151479 1 1 1 0.01107693100489549 1 1 0.025603300257620351 1 1 0.022137689888497569 1 1 1 1 1 1 1 1 1 0.011212941124618743 1 1 1 1 1 1 1 1 1 0.01501954869680229 1 1 1 1 1 1 1 0.012839858226275466 1 1 1 0.0082893957749047079 1 1 1 1 1 1 1 1 1 1 1 1 1 1 1 1 1 1 1 1 0.010255228797318433 1 1 1 1 1 1 1 1 1 1 0.010106258468468115 1 1 1 1 1 1 1 1 0.014012515911342047 1 1 1 1 1 0.011486228887235522 1 1 1 1 1 1 1 1 1 1 0.0094803114302694017 1 1 0.018012144506848217 1 1 0.02019595864400079 1 1 1 1 1 0.013371275879503979 1 1 1 1 0.016003726556030294 1 1 0.0090225953095568797 1 1 1 1 1 1 0.0097724405734186254 1 1 1 1 1 1 0.01069162065028692 1 1 1 0.013228413238529323 1 0.010671308418232314 1 1 1 1 1 1 1 1 1 1 1 1 0.0089301184409691231 1 1 0.013517937439932966 1 1 1 1 1 1 1 1 0.014097444646833483 1 1 1 1 1 1 1 1 1 1 1 1 0.0098088153797437419 1 0.010036801989113067 1 1 1 1 1 1 1 1 1 0.012553874372957394 1 1 1 1 1 1 1 1 1 1 1 1 1 1 0.012136771875321417 1 1 1 1 1 1 1 1 0.01811340181000741 1 0.0073820028738348538 1 1 1 1 0.0090038772748085305 1 1 1 0.016968061392868349 1 1 1 1 1 1 0.016700921690040817 1 1 0.016575714518556373 1 1 1 1 0.018314728124451344 1 0.0074649510111771192 1 1 1 1 1 1 1 1 1 1 1 1 1 1 1 1 1 1 1 1 1 1 1 1 1 1 1 1 1 1 1 1 1 1 1 1 1 1 0.013706723752086265 1 1 1 1 1 0.02131087166477643 1 1 1 1 1 0.017014718525322513 1 1 0.020601950099159348 1 1 1 1 1 1 1 1 1 1 0.014016160499082934 1 1 0.013875498259592244 1 1 1 1 1 1 1 1 1 1 1 1 1 1 0.014649630973590407 1 1 1 1 1 1 1 1 1 1 1 0.010168627763035676 1 0.016428340570818378 0.015245115119607813 1 1 1 1 1 1 1 0.0092544369987172144 1 1 1 0.018328504196709061 0.010010382574167177 1 0.0083918000487452037 1 1 1 1 0.010005077769755361 1 1 1 1 1 1 1 1 0.016306130475347624 1 1 1 1 1 1 1 1 1 1 0.012820245211302872 1 1 1 1 1 1 1 1 1 1 1 1 0.011698022038482823 1 1 1 1 1 1 0.012611106771315675 0.013475335137792713 1 1 1 1 1 1 1 1 1 1 1 1 1 1 1 0.010043900062822346 0.012907374945798092 1 1 1 1 1 1 1 1 1 0.01257374482502574 1 1 1 1 1 1 0.010141840692300192 1 0.0096051905210309159 1 0.015869869247280642 1 1 1 1 0.0092322547867218323 1 1 0.01349159506842737 1 1 1 1 1 1 1 1 1 1 1 1 0.012791174464540374 1 1 1 0.011672888643898732 1 1 1 1 1 1 1 1 1 1 1 0.010702386844255805 1 1 1 0.010302492365924119 1 1 1 0.010467390871065225 1 1 1 1 1 1 1 0.0091573871232517937 1 1 1 1 1 1 1 1 1 1 1 1 1 1 1 1 1 1 1 1 1 1 1 1 0.0088606284378035007 1 1 1 1 1 1 0.0082966812513160237 0.010485575925166406 1 1 1 0.010009188419686562 1 1 1 1 1 1 1 1 1 1 1 1 1 1 1 1 1 1 1 1 1 1 1 1 0.01994165607199384 1 1 1 0.013816554047542888 0.0078113855979670488 1 1 0.011183084058753651 1 0.0072803799014663148 1 1 0.009242388030167567 1 1 1 0.0098133800691052979 0.011454171452319147 1 1 1 0.010531106697751886 1 1 1 1 1 1 1 1 1 1 1 1 1 1 1 1 1 1 1 1 1 1 1 1 1 0.008970876372511781 1 1 1 1 1 1 1 1 1 1 1 1 1 1 1 1 1 1 0.011285854644873857 1 1 0.010754747947121973 1 0.010431639676772152 1 1 1 1 1 1 1 1 1 1 0.010350923096956229 1 1 1 1 1 1 1 1 1 1 1 1 1 1 1 1 1 1 1 1 1 1 1 1 1 1 1 1 1 1 1 1 1 1 1 1 1 0.009556741295191809 1 1 1 1 1 0.0099907786914565783 1 1 1 1 1 1 1 1 1 1 1 1 1 1 1 1 1 1 0.012811301142601778 1 1 1 1 1 1 1 1 1 1 1 1 1 1 1 1 1 1 1 1 1 0.012651855273103006 1 1 1 0.010200370781367617 1 1 1 1 1 1 1 1 1 1 1 1 1 0.010199111862613346 1 1 1 1 1 1 1 1 1 1 1 1 1 1 1 1 1 1 1 1 1 1 1 1 1 1 1 0.010454278706888701 1 1 1 1 0.010210890271662202 1 1 0.0099837448095752186 1 1 1 0.010721628657289099 0.010490271956785027 1 1 1 1 0.010197601389173038 1 1 1 1 0.0084642866168838302 0.010655798185078329 1 1 0.005101197623322791 1 1 1 0.010073124378506697 1 0.0082210638359510643 1 1 1 1 0.011620965884359329 1 1 1 1 1 0.011159805251278736 0.010342742798066143 1 1 0.010010420854514021 1 0.010001028264456296 1 1 1 1 0.009918336541527387 1 0.011966335837147575 1 1 1 0.016188323009871837 1 1 1 1 0.0099388207295193019 0.012357238384718767 0.0078083485944182036 1 1 0.013516755209152683 1 1 1 1 1 1 1 1 1 1 1 1 1 1 1 1 0.011427914482606749 1 1 1 1 1 1 1 1 1 1 1 1 0.023152504184586354 1 1 1 1 1 1 1 1 1 0.0096566645726818851 1 1 1 1 1 1 1 1 1 1 1 1 1 0.0097071085892163969 1 1 1 1 1 1 1 1 1 0.0098416569014103446 1 1 0.010002832637991765 1 1 1 1 1 1 1 1 1 0.0085071828089243618 1 1 1 1 1 1 0.025396329234014657 0.0088950072627499207 0.010577941025464752 1 1 0.0056644467755718143 1 1 1 1 1 1 1 0.0076981676816051114 1 1 1 1 1 1 1 1 1 1 0.018996294977831743 1 0.010825634465647912 1 0.01409970811056083 1 0.0093746121848663731 1 0.014315630087065798 1 1 1 0.018863231512864623 0.01000933695808646 1 0.020232537143098674 1 0.014649858921285492 0.011184251354920408 1 1 1 1 0.019327688356748217 1 1 0.010297812014907219 0.0093371269831481109 1 1 1 1 1 1 1 0.016985855804368177 0.010620272625982453 1 0.01134002829014495 1 1 1 1 1 1 1 1 1 1 1 1 1 1 1 1 1 1 1 1 0.011407730038289696 1 1 1 1 1 1 1 1 1 0.012975600267672888 1 1 1 1 1 1 1 1 0.0097288096861063798 0.013006053521988522 1 1 1 1 1 1 1 1 1 1 1 1 0.011003820420039357 1 1 1 1 1 1 1 1 1 1 1 1 1 0.015373447555537019 1 1 1 0.01246985971199868 1 1 1 1 1 1 1 0.012413118377610305 1 1 1 1 1 1 1 1 1 0.011881361705244614 1 0.0087103734686174768 1 1 0.019278405349561187 1 1 1 1 1 1 1 1 1 1 1 1 1 1 1 1 1 1 1 1 1 1 1 0.01005888892588803 1 1 1 1 1 1 0.01025800078850138 1 1 1 1 0.011554135475789347 1 1 0.012827908289364668 1 1 1 1 1 1 1 1 1 1 1 0.011603093750063149 1 1 1 1 1 1 1 1 0.027549452671876539 0.0088911086431836747 1 1 1 1 1 1 1 0.0095527258136469621 1 1 0.028664266173015839 1 1 1 1 0.010013765926644744 1 1 1 1 1 1 0.01355160595109867 1 1 1 1 1 1 0.010412902011588851 1 1 1 1 1 1 0.009088028027906106 1 1 1 0.02765193747558814 1 1 0.01136639049247141 1 1 1 1 1 1 1 1 1 0.023134390496860283 1 1 1 1 1 1 1 0.012280792843991521 1 0.01211103941025744 0.010444114549494635 1 1 0.0083611814302649787 1 1 1 1 1 1 1 1 1 1 1 1 0.009658855824531333 1 0.0099572013602861591 1 1 1 0.011521800973873954 1 1 1 1 0.012075179329663847 1 0.010942483138466534 1 0.0097454843510754834 1 1 1 1 0.0097918036972132801 1 1 0.010540327854229647 1 1 1 0.010315870738122269 0.010003156119329148 1 1 1 1 1 0.0098870751132808937 1 1 0.01058377312276701 1 1 1 1 1 1 1 1 1 1 1 1 1 1 1 1 1 1 0.009319604690177466 1 1 1 1 1 1 0.008462541835745796 1 1 1 1 1 1 1 1 0.0093582269910270771 1 1 1 1 1 0.0074051434100071241 1 1 1 1 0.009142937145568332 1 1 1 1 1 1 1 1 1 1 0.010329320936487829 1 1 1 1 1 1 1 1 1 0.0089639045563235254 1 1 1 1 0.0047393250099768396 0.007722220324076913 1 1 1 1 1 1 1 1 1 1 1 1 1 1 1 0.012574614029349453 1 1 1 1 0.0099736801936602653 1 1 1 1 1 1 1 0.017181403024832155 1 1 1 1 1 1 1 1 1 1 1 1 1 1 1 0.016092237987424048 1 1 1 1 0.012033895116241099 1 1 1 0.014875243961203259 1 1 1 1 1 0.010506856019976451 1 0.020964942280641528 0.0073850257104133982 0.016632897662888065 1 1 1 1 0.013976909464637982 0.0099964711847951061 1 1 1 0.015748931578314133 1 1 1 1 1 1 1 1 1 1 1 1 1 1 1 1 1 1 0.0099833840028646179 1 1 1 1 1 1 1 1 1 1 1 1 1 1 1 0.0095492732935331202 0.009645805356739149 1 1 1 1 1 1 1 1 0.0097994256968305677 1 1 0.01012345040855306 0.010112662394412599 1 1 1 1 1 1 1 0.010111327115101642 1 1 1 1 1 1 1 1 1 1 0.014618111547622919 1 1 0.0142610533587486 1 0.010032028214466193 0.0088575258235447409 1 0.010321159533400235 0.010311785852459716 1 1 1 1 1 1 1 1 1 0.009661333593505534 1 1 1 0.010575485491847643 1 1 1 0.014243284558103735 1 0.010326351225729481 1 1 1 1 0.010356333091494342 1 1 1 1 1 1 1 1 0.010595306413779024 1 1 1 1 0.0093332894543592462 1 1 0.010464717591015731 0.0096221659342770258 1 1 1 1 1 1 1 1 1 1 1 1 1 1 1 1 1 1 1 1 1 1 1 1 1 0.02176236902884399 0.01139575603568717 0.010088985076464481 1 1 0.014328223204354361 1 1 1 1 1 0.013655175827908712 1 1 1 1 1 1 1 1 1 0.015016378523389183 1 0.011839592676657847 1 1 1 1 1 1 1 0.023463188955070581 1 0.0046590280977094334 1 0.00072745227274740839 1 1 1 1 1 1 1 1 1 0.010089285640543337 1 1 1 1 1 1 0.0034836230800410848 1 1 1 1 1 1 1 1 1 1 1 1 1 1 1 1 0.024830606048868744 1 1 0.0099706108234768592 1 1 1 1 1 1 1 1 1 0.013380097345435098 1 1 1 0.010394460312117387 0.034649622727024022 0.02470042761885978 1 1 1 0.015058639316410846 1 1 0.035667630162736497 1 0.010238045768473879 1 1 1 1 1 1 1 1 1 1 1 1 1 1 1 1 1 1 0.010120658609445946 1 1 1 0.0084165685999277873 1 1 0.010832387636007322 0.011078239340388433 1 0.011334343970673434 1 1 1 0.01026339738522305 1 1 1 1 1 1 1 1 1 1 0.0085884975640879088 1 1 1 1 0.010008880855753901 1 1 1 1 1 1 1 1 1 1 1 1 1 1 1 1 1 1 1 1 1 1 1 1 1 1 1 1 0.0096422656983552665 1 1 1 1 1 1 1 1 1 1 0.0094408776315245101 1 0.0095421139809123874 1 1 1 1 1 1 0.0097433502224777042 1 1 1 1 1 1 1 1 1 1 1 1 1 1 1 1 0.0056916304660867018 1 1 1 1 1 1 1 0.0079443124415058339 1 1 1 1 1 1 1 1 1 0.0095399992186475571 1 1 1 1 1 1 1 1 1 1 1 1 1 1 1 0.01179817272529881 1 1 1 1 1 1 1 1 1 1 1 0.0097618824141376404 1 1 1 1 1 1 1 0.0098751671036151258 0.0098723053594891481 1 1 1 1 1 1 1 1 0.0096765653759813761 0.0098736894909671157 1 1 1 1 1 1 1 1 1 1 1 1 1 1 1 1 0.015063596215351947 1 1 1 1 1 1 1 1 1 0.01787705521306579 1 1 1 1 1 1 1 1 1 1 1 1 1 1 1 1 1 1 1 1 1 1 1 1 1 1 1 1 1 1 1 1 1 1 1 1 1 1 1 1 1 1 1 1 1 1 1 1 1 1 1 1 1 1 1 1 1 1 1 1 1 1 1 1 1 1 1 1 1 1 1 1 1 1 1 1 1 1 1 1 1 1 1 1 1 1 1 1 1 1 1 1 1 1 1 1 0.01077286104750416 1 1 1 1 1 1 1 1 1 0.010469703217690654 1 1 1 0.010973477594798244 1 1 1 1 1 1 1 1 1 0.010594189212738872 1 1 1 1 1 1 1 1 1 0.0099908119779481969 1 1 0.0090221888857999581 1 0.0071024140985329201 0.0086314413131153983 1 0.011571181134791214 1 1 0.010034097841859803 1 1 1 1 1 1 1 1 1 1 1 1 1 0.011453993771685884 0.011196971729071636 1 0.012647041625878264 1 1 1 0.01033226162850125 1 1 1 1 0.010678459693618806 1 1 1 1 1 1 1 1 1 1 1 1 1 1 1 1 0.0099664247003990319 0.010597165671470801 1 1 1 1 1 1 1 0.0097413788484080853 1 1 1 1 1 1 1 1 1 0.011260337123767922 1 1 1 1 1 1 1 1 1 0.010409217882527456 1 1 1 1 1 1 1 1 1 1 0.010437142855181087 1 1 0.013010748640082309 0.0098803264565616115 1 0.010761224436320476 1 1 1 1 1 1 1 1 0.010240736340870863 1 1 1 1 1 1 1 1 1 1 1 1 1 
</DataArray>
</CellData>
</Piece>
</UnstructuredGrid>
</VTKFile>
