<?xml version="1.0"?>
<VTKFile type="UnstructuredGrid" version="0.1" byte_order="LittleEndian">
<UnstructuredGrid>
<Piece NumberOfPoints="31813" NumberOfCells="11180">
<Points>
<DataArray type="Float64" NumberOfComponents="3" format="ascii">
-0.49139343443251582 -0.49999999999999839 0 -0.5 -0.5 0 -0.50000000000000056 -0.47562667174827022 0 -0.49139343443251582 -0.49999999999999839 0 -0.50000000000000056 -0.47562667174827022 0 -0.47850263425084882 -0.48525027758814371 0 -0.49139343443251582 -0.49999999999999839 0 -0.50000000000000056 -0.47562667174827022 0 -0.50000000000000056 -0.47562667174827022 0 -0.47850263425084882 -0.48525027758814371 0 -0.48434419105359161 -0.4651705384935732 0 -0.47054422082893821 -0.46977730108729387 0 -0.47850263425084882 -0.48525027758814371 0 -0.48434419105359161 -0.4651705384935732 0 -0.49139343443251582 -0.49999999999999839 0 -0.47850263425084882 -0.48525027758814371 0 -0.46580362415586668 -0.5 0 -0.47850263425084882 -0.48525027758814371 0 -0.46580362415586668 -0.5 0 -0.45448878248193902 -0.48114293740516451 0 -0.46580362415586668 -0.5 0 -0.45448878248193902 -0.48114293740516451 0 -0.44021381387921771 -0.5 0 -0.47054422082893821 -0.46977730108729387 0 -0.45448878248193902 -0.48114293740516451 0 -0.45599111851540708 -0.45922452501911287 0 -0.47054422082893821 -0.46977730108729387 0 -0.47850263425084882 -0.48525027758814371 0 -0.45448878248193902 -0.48114293740516451 0 -0.45448878248193902 -0.48114293740516451 0 -0.43956037519421548 -0.46422026953265022 0 -0.43189849771334943 -0.48186974677089522 0 -0.45448878248193902 -0.48114293740516451 0 -0.44021381387921771 -0.5 0 -0.43189849771334943 -0.48186974677089522 0 -0.44327742225890632 -0.44774107078683789 0 -0.44738440085003378 -0.4333050043561712 0 -0.43119929719675892 -0.43314373550882362 0 -0.44327742225890632 -0.44774107078683789 0 -0.45599111851540708 -0.45922452501911287 0 -0.45540181014027381 -0.44384343399733361 0 -0.44327742225890632 -0.44774107078683789 0 -0.45540181014027381 -0.44384343399733361 0 -0.44738440085003378 -0.4333050043561712 0 -0.45448878248193902 -0.48114293740516451 0 -0.43956037519421548 -0.46422026953265022 0 -0.45599111851540708 -0.45922452501911287 0 -0.44327742225890632 -0.44774107078683789 0 -0.43956037519421548 -0.46422026953265022 0 -0.45599111851540708 -0.45922452501911287 0 -0.47054422082893821 -0.46977730108729387 0 -0.45599111851540708 -0.45922452501911287 0 -0.47267410018816991 -0.44862213730539791 0 -0.45540181014027381 -0.44384343399733361 0 -0.47267410018816991 -0.44862213730539791 0 -0.46248478419179118 -0.43142547585537111 0 -0.45599111851540708 -0.45922452501911287 0 -0.45540181014027381 -0.44384343399733361 0 -0.47267410018816991 -0.44862213730539791 0 -0.47267410018816991 -0.44862213730539791 0 -0.5 -0.44657630473876031 0 -0.47920769610045699 -0.42772424494715588 0 -0.47054422082893821 -0.46977730108729387 0 -0.47267410018816991 -0.44862213730539791 0 -0.48434419105359161 -0.4651705384935732 0 -0.50000000000000056 -0.47562667174827022 0 -0.48434419105359161 -0.4651705384935732 0 -0.5 -0.44657630473876031 0 -0.47267410018816991 -0.44862213730539791 0 -0.48434419105359161 -0.4651705384935732 0 -0.5 -0.44657630473876031 0 -0.5 -0.44657630473876031 0 -0.5 -0.41752593772925028 0 -0.47920769610045699 -0.42772424494715588 0 -0.5 -0.41752593772925028 0 -0.48534793553653249 -0.41005112990957748 0 -0.47920769610045699 -0.42772424494715588 0 -0.48534793553653249 -0.41005112990957748 0 -0.46923544402122158 -0.41730895764522469 0 -0.47081121050442382 -0.40235441825306412 0 -0.48534793553653249 -0.41005112990957748 0 -0.46923544402122158 -0.41730895764522469 0 -0.47920769610045699 -0.42772424494715588 0 -0.46923544402122158 -0.41730895764522469 0 -0.47920769610045699 -0.42772424494715588 0 -0.46248478419179118 -0.43142547585537111 0 -0.47267410018816991 -0.44862213730539791 0 -0.47920769610045699 -0.42772424494715588 0 -0.46248478419179118 -0.43142547585537111 0 -0.5 -0.38847557071974043 0 -0.48295555290768682 -0.39479589828087203 0 -0.48203682752202581 -0.38420413469909931 0 -0.5 -0.38847557071974043 0 -0.48203682752202581 -0.38420413469909931 0 -0.48481916321343949 -0.37255726279857859 0 -0.48534793553653249 -0.41005112990957748 0 -0.5 -0.38847557071974043 0 -0.48295555290768682 -0.39479589828087203 0 -0.5 -0.41752593772925028 0 -0.48534793553653249 -0.41005112990957748 0 -0.5 -0.38847557071974043 0 -0.47081121050442382 -0.40235441825306412 0 -0.47520950664356632 -0.39045303366665018 0 -0.46963832642687919 -0.38568932188692762 0 -0.48534793553653249 -0.41005112990957748 0 -0.47081121050442382 -0.40235441825306412 0 -0.48295555290768682 -0.39479589828087203 0 -0.47081121050442382 -0.40235441825306412 0 -0.48295555290768682 -0.39479589828087203 0 -0.47520950664356632 -0.39045303366665018 0 -0.46963832642687919 -0.38568932188692762 0 -0.46751478583854977 -0.38021634328338277 0 -0.48481916321343949 -0.37255726279857859 0 -0.48295555290768682 -0.39479589828087203 0 -0.48203682752202581 -0.38420413469909931 0 -0.47520950664356632 -0.39045303366665018 0 -0.48203682752202581 -0.38420413469909931 0 -0.47520950664356632 -0.39045303366665018 0 -0.46963832642687919 -0.38568932188692762 0 -0.46963832642687919 -0.38568932188692762 0 -0.48481916321343949 -0.37255726279857859 0 -0.48203682752202581 -0.38420413469909931 0 -0.46963832642687919 -0.38568932188692762 0 -0.48481916321343949 -0.37255726279857859 0 -0.46751478583854977 -0.38021634328338277 0 -0.45450916059225221 -0.39300806230202973 0 -0.46236315574057119 -0.37381909956812109 0 -0.46751478583854977 -0.38021634328338277 0 -0.46236315574057119 -0.37381909956812109 0 -0.46963832642687919 -0.38568932188692762 0 -0.46751478583854977 -0.38021634328338277 0 -0.45450916059225221 -0.39300806230202973 0 -0.46963832642687919 -0.38568932188692762 0 -0.45450916059225221 -0.39300806230202973 0 -0.46963832642687919 -0.38568932188692762 0 -0.44797295585072228 -0.4044307740596359 0 -0.46963832642687919 -0.38568932188692762 0 -0.45450916059225221 -0.39300806230202973 0 -0.44797295585072228 -0.4044307740596359 0 -0.47081121050442382 -0.40235441825306412 0 -0.46963832642687919 -0.38568932188692762 0 -0.44797295585072228 -0.4044307740596359 0 -0.45450916059225221 -0.39300806230202973 0 -0.44797295585072228 -0.4044307740596359 0 -0.43870872886004669 -0.40065152788093772 0 -0.45450916059225221 -0.39300806230202973 0 -0.43870872886004669 -0.40065152788093772 0 -0.43776516026735618 -0.3889005012942427 0 -0.45450916059225221 -0.39300806230202973 0 -0.43870872886004669 -0.40065152788093772 0 -0.44797295585072228 -0.4044307740596359 0 -0.43870872886004669 -0.40065152788093772 0 -0.43915974222813392 -0.40626836392262911 0 -0.43870872886004669 -0.40065152788093772 0 -0.43915974222813392 -0.40626836392262911 0 -0.43870872886004669 -0.40065152788093772 0 -0.43776516026735618 -0.3889005012942427 0 -0.43776516026735618 -0.3889005012942427 0 -0.46236315574057119 -0.37381909956812109 0 -0.44648350541528198 -0.37181574165404191 0 -0.43776516026735618 -0.3889005012942427 0 -0.44648350541528198 -0.37181574165404191 0 -0.43594652692611602 -0.3662515821699337 0 -0.45450916059225221 -0.39300806230202973 0 -0.43776516026735618 -0.3889005012942427 0 -0.46236315574057119 -0.37381909956812109 0 -0.43776516026735618 -0.3889005012942427 0 -0.46236315574057119 -0.37381909956812109 0 -0.46923544402122158 -0.41730895764522469 0 -0.46248478419179118 -0.43142547585537111 0 -0.45100525385059131 -0.41774907688094393 0 -0.46248478419179118 -0.43142547585537111 0 -0.45100525385059131 -0.41774907688094393 0 -0.44738440085003378 -0.4333050043561712 0 -0.45540181014027381 -0.44384343399733361 0 -0.46248478419179118 -0.43142547585537111 0 -0.44738440085003378 -0.4333050043561712 0 -0.47081121050442382 -0.40235441825306412 0 -0.45100525385059131 -0.41774907688094393 0 -0.47081121050442382 -0.40235441825306412 0 -0.44797295585072228 -0.4044307740596359 0 -0.45100525385059131 -0.41774907688094393 0 -0.46923544402122158 -0.41730895764522469 0 -0.47081121050442382 -0.40235441825306412 0 -0.45100525385059131 -0.41774907688094393 0 -0.45100525385059131 -0.41774907688094393 0 -0.44526084636181013 -0.41067579395599629 0 -0.44290543351779282 -0.4142549609607763 0 -0.44797295585072228 -0.4044307740596359 0 -0.45100525385059131 -0.41774907688094393 0 -0.44526084636181013 -0.41067579395599629 0 -0.44526084636181013 -0.41067579395599629 0 -0.43915974222813392 -0.40626836392262911 0 -0.44290543351779282 -0.4142549609607763 0 -0.43915974222813392 -0.40626836392262911 0 -0.44290543351779282 -0.4142549609607763 0 -0.43584666185464249 -0.41251727139330568 0 -0.44797295585072228 -0.4044307740596359 0 -0.44526084636181013 -0.41067579395599629 0 -0.43915974222813392 -0.40626836392262911 0 -0.43870872886004669 -0.40065152788093772 0 -0.43915974222813392 -0.40626836392262911 0 -0.43584666185464249 -0.41251727139330568 0 -0.45100525385059131 -0.41774907688094393 0 -0.44290543351779282 -0.4142549609607763 0 -0.43622485872243949 -0.42001567757339148 0 -0.44290543351779282 -0.4142549609607763 0 -0.43622485872243949 -0.42001567757339148 0 -0.43584666185464249 -0.41251727139330568 0 -0.45100525385059131 -0.41774907688094393 0 -0.43119929719675892 -0.43314373550882362 0 -0.45100525385059131 -0.41774907688094393 0 -0.44738440085003378 -0.4333050043561712 0 -0.43119929719675892 -0.43314373550882362 0 -0.45100525385059131 -0.41774907688094393 0 -0.43119929719675892 -0.43314373550882362 0 -0.43622485872243949 -0.42001567757339148 0 -0.43119929719675892 -0.43314373550882362 0 -0.42219929698725189 -0.42095684271133033 0 -0.4176116377209616 -0.43586553649527909 0 -0.43119929719675892 -0.43314373550882362 0 -0.43622485872243949 -0.42001567757339148 0 -0.42219929698725189 -0.42095684271133033 0 -0.43870872886004669 -0.40065152788093772 0 -0.43584666185464249 -0.41251727139330568 0 -0.42219929698725189 -0.42095684271133033 0 -0.43870872886004669 -0.40065152788093772 0 -0.42219929698725189 -0.42095684271133033 0 -0.41509500708480401 -0.41207467584537028 0 -0.43622485872243949 -0.42001567757339148 0 -0.43584666185464249 -0.41251727139330568 0 -0.42219929698725189 -0.42095684271133033 0 -0.43870872886004669 -0.40065152788093772 0 -0.42219929698725189 -0.42095684271133033 0 -0.43870872886004669 -0.40065152788093772 0 -0.41509500708480401 -0.41207467584537028 0 -0.41509500708480401 -0.41207467584537028 0 -0.4178044934585422 -0.40113868692985438 0 -0.39784382664972712 -0.4133768725654644 0 -0.42219929698725189 -0.42095684271133033 0 -0.41509500708480401 -0.41207467584537028 0 -0.40743509312720888 -0.42548358414514542 0 -0.4178044934585422 -0.40113868692985438 0 -0.39784382664972712 -0.4133768725654644 0 -0.42219929698725189 -0.42095684271133033 0 -0.4176116377209616 -0.43586553649527909 0 -0.40565461615690951 -0.44082317362425938 0 -0.42219929698725189 -0.42095684271133033 0 -0.40743509312720888 -0.42548358414514542 0 -0.40565461615690951 -0.44082317362425938 0 -0.42219929698725189 -0.42095684271133033 0 -0.40565461615690951 -0.44082317362425938 0 -0.43776516026735618 -0.3889005012942427 0 -0.43594652692611602 -0.3662515821699337 0 -0.43776516026735618 -0.3889005012942427 0 -0.42113768120611189 -0.38398378931088067 0 -0.43594652692611602 -0.3662515821699337 0 -0.43870872886004669 -0.40065152788093772 0 -0.43776516026735618 -0.3889005012942427 0 -0.4178044934585422 -0.40113868692985438 0 -0.43776516026735618 -0.3889005012942427 0 -0.4178044934585422 -0.40113868692985438 0 -0.43776516026735618 -0.3889005012942427 0 -0.4178044934585422 -0.40113868692985438 0 -0.42113768120611189 -0.38398378931088067 0 -0.43870872886004669 -0.40065152788093772 0 -0.41509500708480401 -0.41207467584537028 0 -0.4178044934585422 -0.40113868692985438 0 -0.4178044934585422 -0.40113868692985438 0 -0.42113768120611189 -0.38398378931088067 0 -0.40565406465956222 -0.39188163054600272 0 -0.4178044934585422 -0.40113868692985438 0 -0.40361681480193962 -0.40174305335809962 0 -0.39784382664972712 -0.4133768725654644 0 -0.4178044934585422 -0.40113868692985438 0 -0.40565406465956222 -0.39188163054600272 0 -0.40361681480193962 -0.40174305335809962 0 -0.42113768120611189 -0.38398378931088067 0 -0.40602302264042339 -0.37732426995432877 0 -0.41943866505217348 -0.36750342236141398 0 -0.42113768120611189 -0.38398378931088067 0 -0.40602302264042339 -0.37732426995432877 0 -0.40565406465956222 -0.39188163054600272 0 -0.40602302264042339 -0.37732426995432877 0 -0.39175108836483941 -0.38574476631688509 0 -0.39178334408848031 -0.36960617836201132 0 -0.40602302264042339 -0.37732426995432877 0 -0.39175108836483941 -0.38574476631688509 0 -0.40565406465956222 -0.39188163054600272 0 -0.39175108836483941 -0.38574476631688509 0 -0.40565406465956222 -0.39188163054600272 0 -0.39316487443992698 -0.40057502339107692 0 -0.40565406465956222 -0.39188163054600272 0 -0.40361681480193962 -0.40174305335809962 0 -0.39316487443992698 -0.40057502339107692 0 -0.40361681480193962 -0.40174305335809962 0 -0.39316487443992698 -0.40057502339107692 0 -0.39784382664972712 -0.4133768725654644 0 -0.39316487443992698 -0.40057502339107692 0 -0.37834895934104051 -0.39578975150806378 0 -0.372134276508442 -0.41016758619988603 0 -0.39316487443992698 -0.40057502339107692 0 -0.372134276508442 -0.41016758619988603 0 -0.39175108836483941 -0.38574476631688509 0 -0.39316487443992698 -0.40057502339107692 0 -0.37834895934104051 -0.39578975150806378 0 -0.39175108836483941 -0.38574476631688509 0 -0.39178334408848031 -0.36960617836201132 0 -0.3744698982774699 -0.37974097138814089 0 -0.39175108836483941 -0.38574476631688509 0 -0.37834895934104051 -0.39578975150806378 0 -0.3744698982774699 -0.37974097138814089 0 -0.39148128530956211 -0.4234978238098045 0 -0.39990738587926461 -0.43238296320380498 0 -0.38586071947480721 -0.44116691944556802 0 -0.40743509312720888 -0.42548358414514542 0 -0.39148128530956211 -0.4234978238098045 0 -0.39990738587926461 -0.43238296320380498 0 -0.40743509312720888 -0.42548358414514542 0 -0.39990738587926461 -0.43238296320380498 0 -0.40565461615690951 -0.44082317362425938 0 -0.41509500708480401 -0.41207467584537028 0 -0.40743509312720888 -0.42548358414514542 0 -0.39148128530956211 -0.4234978238098045 0 -0.41509500708480401 -0.41207467584537028 0 -0.39148128530956211 -0.4234978238098045 0 -0.41509500708480401 -0.41207467584537028 0 -0.39148128530956211 -0.4234978238098045 0 -0.39784382664972712 -0.4133768725654644 0 -0.39316487443992698 -0.40057502339107692 0 -0.39784382664972712 -0.4133768725654644 0 -0.38525653435975199 -0.41243363508937542 0 -0.39784382664972712 -0.4133768725654644 0 -0.38525653435975199 -0.41243363508937542 0 -0.37788315984091192 -0.42561505820107443 0 -0.39784382664972712 -0.4133768725654644 0 -0.37788315984091192 -0.42561505820107443 0 -0.39148128530956211 -0.4234978238098045 0 -0.39784382664972712 -0.4133768725654644 0 -0.37788315984091192 -0.42561505820107443 0 -0.39316487443992698 -0.40057502339107692 0 -0.38525653435975199 -0.41243363508937542 0 -0.372134276508442 -0.41016758619988603 0 -0.38525653435975199 -0.41243363508937542 0 -0.37788315984091192 -0.42561505820107443 0 -0.372134276508442 -0.41016758619988603 0 -0.39148128530956211 -0.4234978238098045 0 -0.38586071947480721 -0.44116691944556802 0 -0.36786756353432021 -0.43492097177423872 0 -0.39148128530956211 -0.4234978238098045 0 -0.36786756353432021 -0.43492097177423872 0 -0.39148128530956211 -0.4234978238098045 0 -0.37788315984091192 -0.42561505820107443 0 -0.36786756353432021 -0.43492097177423872 0 -0.38586071947480721 -0.44116691944556802 0 -0.3828963646518691 -0.45423828058396459 0 -0.37092248870559519 -0.45276020952732282 0 -0.38586071947480721 -0.44116691944556802 0 -0.39194647292744411 -0.44776387556657182 0 -0.3828963646518691 -0.45423828058396459 0 -0.39194647292744411 -0.44776387556657182 0 -0.40565461615690951 -0.44082317362425938 0 -0.38910993532656712 -0.46068950453718849 0 -0.38586071947480721 -0.44116691944556802 0 -0.39584229860960629 -0.44053423296005101 0 -0.39194647292744411 -0.44776387556657182 0 -0.39990738587926461 -0.43238296320380498 0 -0.38586071947480721 -0.44116691944556802 0 -0.39584229860960629 -0.44053423296005101 0 -0.39584229860960629 -0.44053423296005101 0 -0.39194647292744411 -0.44776387556657182 0 -0.40565461615690951 -0.44082317362425938 0 -0.40565461615690951 -0.44082317362425938 0 -0.38910993532656712 -0.46068950453718849 0 -0.41139334054292642 -0.44853839413670338 0 -0.40565461615690951 -0.44082317362425938 0 -0.38910993532656712 -0.46068950453718849 0 -0.39990738587926461 -0.43238296320380498 0 -0.39584229860960629 -0.44053423296005101 0 -0.40565461615690951 -0.44082317362425938 0 -0.39158738388909381 -0.46393305276458319 0 -0.38910993532656712 -0.46068950453718849 0 -0.41139334054292642 -0.44853839413670338 0 -0.39158738388909381 -0.46393305276458319 0 -0.41139334054292642 -0.44853839413670338 0 -0.40331531996838699 -0.46257985902180809 0 -0.39158738388909381 -0.46393305276458319 0 -0.41139334054292642 -0.44853839413670338 0 -0.40331531996838699 -0.46257985902180809 0 -0.39778077028208669 -0.46736244632508461 0 -0.40285904655783678 -0.47049892318900238 0 -0.39778077028208669 -0.46736244632508461 0 -0.39158738388909381 -0.46393305276458319 0 -0.39350905942780739 -0.4735920978482443 0 -0.40331531996838699 -0.46257985902180809 0 -0.39778077028208669 -0.46736244632508461 0 -0.39158738388909381 -0.46393305276458319 0 -0.39158738388909381 -0.46393305276458319 0 -0.38910993532656712 -0.46068950453718849 0 -0.37601908872064488 -0.46589307015621528 0 -0.39194647292744411 -0.44776387556657182 0 -0.38910993532656712 -0.46068950453718849 0 -0.3828963646518691 -0.45423828058396459 0 -0.38910993532656712 -0.46068950453718849 0 -0.3828963646518691 -0.45423828058396459 0 -0.37601908872064488 -0.46589307015621528 0 -0.3828963646518691 -0.45423828058396459 0 -0.37601908872064488 -0.46589307015621528 0 -0.37092248870559519 -0.45276020952732282 0 -0.39158738388909381 -0.46393305276458319 0 -0.39350905942780739 -0.4735920978482443 0 -0.37178142723526131 -0.47932771139246289 0 -0.39350905942780739 -0.4735920978482443 0 -0.3977689308804917 -0.48316999198838478 0 -0.37178142723526131 -0.47932771139246289 0 -0.39158738388909381 -0.46393305276458319 0 -0.37601908872064488 -0.46589307015621528 0 -0.37178142723526131 -0.47932771139246289 0 -0.39158738388909381 -0.46393305276458319 0 -0.37178142723526131 -0.47932771139246289 0 -0.38903419332591949 -0.50000000000000011 0 -0.3977689308804917 -0.48316999198838478 0 -0.37178142723526131 -0.47932771139246289 0 -0.38903419332591949 -0.50000000000000011 0 -0.37026881101799552 -0.49117273716825038 0 -0.37178142723526131 -0.47932771139246289 0 -0.38903419332591949 -0.50000000000000011 0 -0.37178142723526131 -0.47932771139246289 0 -0.38903419332591949 -0.50000000000000011 0 -0.3977689308804917 -0.48316999198838478 0 -0.41462400360256862 -0.5 0 -0.3977689308804917 -0.48316999198838478 0 -0.40285904655783678 -0.47049892318900238 0 -0.41480585513355472 -0.47560121950060108 0 -0.39778077028208669 -0.46736244632508461 0 -0.39350905942780739 -0.4735920978482443 0 -0.40285904655783678 -0.47049892318900238 0 -0.39350905942780739 -0.4735920978482443 0 -0.3977689308804917 -0.48316999198838478 0 -0.40285904655783678 -0.47049892318900238 0 -0.40285904655783678 -0.47049892318900238 0 -0.41480585513355472 -0.47560121950060108 0 -0.41295605856999129 -0.46256647869366702 0 -0.41480585513355472 -0.47560121950060108 0 -0.41462400360256862 -0.5 0 -0.43189849771334943 -0.48186974677089522 0 -0.3977689308804917 -0.48316999198838478 0 -0.41480585513355472 -0.47560121950060108 0 -0.41462400360256862 -0.5 0 -0.44021381387921771 -0.5 0 -0.41462400360256862 -0.5 0 -0.43189849771334943 -0.48186974677089522 0 -0.41480585513355472 -0.47560121950060108 0 -0.43189849771334943 -0.48186974677089522 0 -0.42503905750116611 -0.46497192396693632 0 -0.43956037519421548 -0.46422026953265022 0 -0.43189849771334943 -0.48186974677089522 0 -0.42503905750116611 -0.46497192396693632 0 -0.44327742225890632 -0.44774107078683789 0 -0.43956037519421548 -0.46422026953265022 0 -0.42950957151361507 -0.45140780292210309 0 -0.42503905750116611 -0.46497192396693632 0 -0.42950957151361507 -0.45140780292210309 0 -0.41972450703192471 -0.45687114992985239 0 -0.43956037519421548 -0.46422026953265022 0 -0.42503905750116611 -0.46497192396693632 0 -0.42950957151361507 -0.45140780292210309 0 -0.44327742225890632 -0.44774107078683789 0 -0.43119929719675892 -0.43314373550882362 0 -0.42950957151361507 -0.45140780292210309 0 -0.43119929719675892 -0.43314373550882362 0 -0.42950957151361507 -0.45140780292210309 0 -0.41139334054292642 -0.44853839413670338 0 -0.43119929719675892 -0.43314373550882362 0 -0.41139334054292642 -0.44853839413670338 0 -0.42950957151361507 -0.45140780292210309 0 -0.41139334054292642 -0.44853839413670338 0 -0.41972450703192471 -0.45687114992985239 0 -0.43119929719675892 -0.43314373550882362 0 -0.4176116377209616 -0.43586553649527909 0 -0.41139334054292642 -0.44853839413670338 0 -0.4176116377209616 -0.43586553649527909 0 -0.40565461615690951 -0.44082317362425938 0 -0.41139334054292642 -0.44853839413670338 0 -0.40331531996838699 -0.46257985902180809 0 -0.41139334054292642 -0.44853839413670338 0 -0.41295605856999129 -0.46256647869366702 0 -0.40331531996838699 -0.46257985902180809 0 -0.40285904655783678 -0.47049892318900238 0 -0.41295605856999129 -0.46256647869366702 0 -0.42503905750116611 -0.46497192396693632 0 -0.41295605856999129 -0.46256647869366702 0 -0.41972450703192471 -0.45687114992985239 0 -0.41480585513355472 -0.47560121950060108 0 -0.42503905750116611 -0.46497192396693632 0 -0.41295605856999129 -0.46256647869366702 0 -0.41139334054292642 -0.44853839413670338 0 -0.41295605856999129 -0.46256647869366702 0 -0.41972450703192471 -0.45687114992985239 0 -0.44834391481084968 -0.26632932161570583 0 -0.45246753597763961 -0.23912196796794549 0 -0.43757215116835091 -0.25601866082990721 0 -0.44834391481084968 -0.26632932161570583 0 -0.45246753597763961 -0.23912196796794549 0 -0.44834391481084968 -0.26632932161570583 0 -0.44422029364406102 -0.29353667526346622 0 -0.43031106073052838 -0.27751238326795769 0 -0.43757215116835091 -0.25601866082990721 0 -0.44834391481084968 -0.26632932161570583 0 -0.43031106073052838 -0.27751238326795769 0 -0.44834391481084968 -0.26632932161570583 0 -0.44422029364406102 -0.29353667526346622 0 -0.44834391481084968 -0.26632932161570583 0 -0.46752420245236692 -0.27127310494074203 0 -0.46015897192138527 -0.28971978293875023 0 -0.44834391481084968 -0.26632932161570583 0 -0.46752420245236692 -0.27127310494074203 0 -0.46183596954241413 -0.25471882930936679 0 -0.46752420245236692 -0.27127310494074203 0 -0.46183596954241413 -0.25471882930936679 0 -0.47397569958379548 -0.2579348728082968 0 -0.44834391481084968 -0.26632932161570583 0 -0.46183596954241413 -0.25471882930936679 0 -0.45246753597763961 -0.23912196796794549 0 -0.46183596954241413 -0.25471882930936679 0 -0.47397569958379548 -0.2579348728082968 0 -0.47243335829366068 -0.2430338505120013 0 -0.47397569958379548 -0.2579348728082968 0 -0.48708423363442932 -0.25555355077311548 0 -0.48202111474048498 -0.27034747700214917 0 -0.47397569958379548 -0.2579348728082968 0 -0.48708423363442932 -0.25555355077311548 0 -0.47243335829366068 -0.2430338505120013 0 -0.48708423363442932 -0.25555355077311548 0 -0.4999999999999985 -0.27570205516225837 0 -0.5 -0.24632963614993081 0 -0.4999999999999985 -0.27570205516225837 0 -0.49638945263120188 -0.2810435400699281 0 -0.47609765019870959 -0.28590289061403362 0 -0.4999999999999985 -0.27570205516225837 0 -0.47609765019870959 -0.28590289061403362 0 -0.4999999999999985 -0.27570205516225837 0 -0.48202111474048498 -0.27034747700214917 0 -0.47609765019870959 -0.28590289061403362 0 -0.48708423363442932 -0.25555355077311548 0 -0.4999999999999985 -0.27570205516225837 0 -0.48202111474048498 -0.27034747700214917 0 -0.46752420245236692 -0.27127310494074203 0 -0.47397569958379548 -0.2579348728082968 0 -0.48202111474048498 -0.27034747700214917 0 -0.46752420245236692 -0.27127310494074203 0 -0.48202111474048498 -0.27034747700214917 0 -0.47609765019870959 -0.28590289061403362 0 -0.47609765019870959 -0.28590289061403362 0 -0.48828967916354687 -0.29476911467295441 0 -0.4762501209799796 -0.30900477953748018 0 -0.47609765019870959 -0.28590289061403362 0 -0.4762501209799796 -0.30900477953748018 0 -0.45967522511350312 -0.29291150932332338 0 -0.49638945263120188 -0.2810435400699281 0 -0.47609765019870959 -0.28590289061403362 0 -0.49638945263120188 -0.2810435400699281 0 -0.47609765019870959 -0.28590289061403362 0 -0.48828967916354687 -0.29476911467295441 0 -0.4999999999999985 -0.27570205516225837 0 -0.49638945263120188 -0.2810435400699281 0 -0.5 -0.30109821778643281 0 -0.49638945263120188 -0.2810435400699281 0 -0.48828967916354687 -0.29476911467295441 0 -0.5 -0.30109821778643281 0 -0.48828967916354687 -0.29476911467295441 0 -0.5 -0.30109821778643281 0 -0.489852452451707 -0.31321702243580068 0 -0.48828967916354687 -0.29476911467295441 0 -0.4762501209799796 -0.30900477953748018 0 -0.489852452451707 -0.31321702243580068 0 -0.45967522511350312 -0.29291150932332338 0 -0.44325280002829648 -0.29992012803261281 0 -0.45764442663122962 -0.31359622532837111 0 -0.4762501209799796 -0.30900477953748018 0 -0.45967522511350312 -0.29291150932332338 0 -0.45764442663122962 -0.31359622532837111 0 -0.47609765019870959 -0.28590289061403362 0 -0.45967522511350312 -0.29291150932332338 0 -0.47609765019870959 -0.28590289061403362 0 -0.46015897192138527 -0.28971978293875023 0 -0.45967522511350312 -0.29291150932332338 0 -0.46015897192138527 -0.28971978293875023 0 -0.44422029364406102 -0.29353667526346622 0 -0.46752420245236692 -0.27127310494074203 0 -0.47609765019870959 -0.28590289061403362 0 -0.46015897192138527 -0.28971978293875023 0 -0.47609765019870959 -0.28590289061403362 0 -0.45967522511350312 -0.29291150932332338 0 -0.46015897192138527 -0.28971978293875023 0 -0.45967522511350312 -0.29291150932332338 0 -0.44422029364406102 -0.29353667526346622 0 -0.44325280002829648 -0.29992012803261281 0 -0.44834391481084968 -0.26632932161570583 0 -0.46015897192138527 -0.28971978293875023 0 -0.44422029364406102 -0.29353667526346622 0 -0.45967522511350312 -0.29291150932332338 0 -0.44325280002829648 -0.29992012803261281 0 -0.46015897192138527 -0.28971978293875023 0 -0.44422029364406102 -0.29353667526346622 0 -0.44422029364406102 -0.29353667526346622 0 -0.44325280002829648 -0.29992012803261281 0 -0.44325280002829648 -0.29992012803261281 0 -0.44009164693116742 -0.32077718710022562 0 -0.44167681486674681 -0.30059271317344932 0 -0.44325280002829648 -0.29992012803261281 0 -0.44009164693116742 -0.32077718710022562 0 -0.44325280002829648 -0.29992012803261281 0 -0.44009164693116742 -0.32077718710022562 0 -0.45764442663122962 -0.31359622532837111 0 -0.44422029364406102 -0.29353667526346622 0 -0.44167681486674681 -0.30059271317344932 0 -0.44325280002829648 -0.29992012803261281 0 -0.44167681486674681 -0.30059271317344932 0 -0.44325280002829648 -0.29992012803261281 0 -0.44009164693116742 -0.32077718710022562 0 -0.45808010155577777 -0.33738180317033267 0 -0.45764442663122962 -0.31359622532837111 0 -0.44009164693116742 -0.32077718710022562 0 -0.43889884463227918 -0.32886406429597448 0 -0.44474094585002111 -0.33307115757737038 0 -0.44009164693116742 -0.32077718710022562 0 -0.43889884463227918 -0.32886406429597448 0 -0.43651828024189421 -0.32485855308720668 0 -0.44009164693116742 -0.32077718710022562 0 -0.45808010155577777 -0.33738180317033267 0 -0.44474094585002111 -0.33307115757737038 0 -0.45808010155577777 -0.33738180317033267 0 -0.43735520171359871 -0.34276446759961349 0 -0.43889884463227918 -0.32886406429597448 0 -0.44474094585002111 -0.33307115757737038 0 -0.43369569368652788 -0.33822012643344712 0 -0.45808010155577777 -0.33738180317033267 0 -0.45401661080961819 -0.34785526026376112 0 -0.43735520171359871 -0.34276446759961349 0 -0.44009164693116742 -0.32077718710022562 0 -0.44474094585002111 -0.33307115757737038 0 -0.45808010155577777 -0.33738180317033267 0 -0.45808010155577777 -0.33738180317033267 0 -0.43735520171359871 -0.34276446759961349 0 -0.44474094585002111 -0.33307115757737038 0 -0.43369569368652788 -0.33822012643344712 0 -0.43735520171359871 -0.34276446759961349 0 -0.45808010155577777 -0.33738180317033267 0 -0.46775367498621928 -0.32298022495666351 0 -0.4790400507778903 -0.33193809179047012 0 -0.45808010155577777 -0.33738180317033267 0 -0.46413201376906682 -0.34296814623807831 0 -0.4790400507778903 -0.33193809179047012 0 -0.45808010155577777 -0.33738180317033267 0 -0.4790400507778903 -0.33193809179047012 0 -0.45808010155577777 -0.33738180317033267 0 -0.46413201376906682 -0.34296814623807831 0 -0.45401661080961819 -0.34785526026376112 0 -0.45808010155577777 -0.33738180317033267 0 -0.46413201376906682 -0.34296814623807831 0 -0.4762501209799796 -0.30900477953748018 0 -0.46775367498621928 -0.32298022495666351 0 -0.45764442663122962 -0.31359622532837111 0 -0.45808010155577777 -0.33738180317033267 0 -0.46775367498621928 -0.32298022495666351 0 -0.45764442663122962 -0.31359622532837111 0 -0.4762501209799796 -0.30900477953748018 0 -0.46775367498621928 -0.32298022495666351 0 -0.4790400507778903 -0.33193809179047012 0 -0.4762501209799796 -0.30900477953748018 0 -0.489852452451707 -0.31321702243580068 0 -0.4790400507778903 -0.33193809179047012 0 -0.5 -0.30109821778643281 0 -0.489852452451707 -0.31321702243580068 0 -0.50000000000000266 -0.32649438041060708 0 -0.489852452451707 -0.31321702243580068 0 -0.50000000000000266 -0.32649438041060708 0 -0.4790400507778903 -0.33193809179047012 0 -0.50000000000000266 -0.32649438041060708 0 -0.49018401006707762 -0.33942039934154322 0 -0.4790400507778903 -0.33193809179047012 0 -0.50000000000000266 -0.32649438041060708 0 -0.4790400507778903 -0.33193809179047012 0 -0.50000000000000266 -0.32649438041060708 0 -0.49018401006707762 -0.33942039934154322 0 -0.50000000000000222 -0.35074338315056558 0 -0.49018401006707762 -0.33942039934154322 0 -0.4790400507778903 -0.33193809179047012 0 -0.47879914410969138 -0.34720224026420171 0 -0.46413201376906682 -0.34296814623807831 0 -0.4790400507778903 -0.33193809179047012 0 -0.47879914410969138 -0.34720224026420171 0 -0.46413201376906682 -0.34296814623807831 0 -0.47879914410969138 -0.34720224026420171 0 -0.46505861350438632 -0.35540296187956222 0 -0.47879914410969138 -0.34720224026420171 0 -0.48118157787028648 -0.36228124135934298 0 -0.46505861350438632 -0.35540296187956222 0 -0.50000000000000222 -0.35074338315056558 0 -0.50000000000000044 -0.35942520371023029 0 -0.48118157787028648 -0.36228124135934298 0 -0.50000000000000222 -0.35074338315056558 0 -0.48118157787028648 -0.36228124135934298 0 -0.49018401006707762 -0.33942039934154322 0 -0.47879914410969138 -0.34720224026420171 0 -0.50000000000000222 -0.35074338315056558 0 -0.47879914410969138 -0.34720224026420171 0 -0.50000000000000222 -0.35074338315056558 0 -0.48118157787028648 -0.36228124135934298 0 -0.50000000000000044 -0.35942520371023029 0 -0.48481916321343949 -0.37255726279857859 0 -0.48118157787028648 -0.36228124135934298 0 -0.5 -0.38847557071974043 0 -0.50000000000000044 -0.35942520371023029 0 -0.48481916321343949 -0.37255726279857859 0 -0.50000000000000044 -0.35942520371023029 0 -0.48481916321343949 -0.37255726279857859 0 -0.46751478583854977 -0.38021634328338277 0 -0.48118157787028648 -0.36228124135934298 0 -0.46236315574057119 -0.37381909956812109 0 -0.46751478583854977 -0.38021634328338277 0 -0.48481916321343949 -0.37255726279857859 0 -0.48118157787028648 -0.36228124135934298 0 -0.48118157787028648 -0.36228124135934298 0 -0.46236315574057119 -0.37381909956812109 0 -0.48118157787028648 -0.36228124135934298 0 -0.46236315574057119 -0.37381909956812109 0 -0.46505861350438632 -0.35540296187956222 0 -0.46236315574057119 -0.37381909956812109 0 -0.46505861350438632 -0.35540296187956222 0 -0.44985917872708392 -0.35829178358386821 0 -0.46236315574057119 -0.37381909956812109 0 -0.44985917872708392 -0.35829178358386821 0 -0.46413201376906682 -0.34296814623807831 0 -0.46505861350438632 -0.35540296187956222 0 -0.45401661080961819 -0.34785526026376112 0 -0.46505861350438632 -0.35540296187956222 0 -0.45401661080961819 -0.34785526026376112 0 -0.44985917872708392 -0.35829178358386821 0 -0.45401661080961819 -0.34785526026376112 0 -0.44985917872708392 -0.35829178358386821 0 -0.43735520171359871 -0.34276446759961349 0 -0.44985917872708392 -0.35829178358386821 0 -0.43735520171359871 -0.34276446759961349 0 -0.43412789358488252 -0.34360266304562398 0 -0.44985917872708392 -0.35829178358386821 0 -0.43594652692611602 -0.3662515821699337 0 -0.43412789358488252 -0.34360266304562398 0 -0.44985917872708392 -0.35829178358386821 0 -0.43735520171359871 -0.34276446759961349 0 -0.46236315574057119 -0.37381909956812109 0 -0.44985917872708392 -0.35829178358386821 0 -0.44648350541528198 -0.37181574165404191 0 -0.44985917872708392 -0.35829178358386821 0 -0.44648350541528198 -0.37181574165404191 0 -0.43594652692611602 -0.3662515821699337 0 -0.43594652692611602 -0.3662515821699337 0 -0.4240202573072443 -0.35702954802377868 0 -0.41943866505217348 -0.36750342236141398 0 -0.42113768120611189 -0.38398378931088067 0 -0.43594652692611602 -0.3662515821699337 0 -0.41943866505217348 -0.36750342236141398 0 -0.43594652692611602 -0.3662515821699337 0 -0.4240202573072443 -0.35702954802377868 0 -0.43412789358488252 -0.34360266304562398 0 -0.43594652692611602 -0.3662515821699337 0 -0.43412789358488252 -0.34360266304562398 0 -0.4240202573072443 -0.35702954802377868 0 -0.40656794366580729 -0.35076052451814299 0 -0.43412789358488252 -0.34360266304562398 0 -0.4240202573072443 -0.35702954802377868 0 -0.40656794366580729 -0.35076052451814299 0 -0.41943866505217348 -0.36750342236141398 0 -0.40656794366580729 -0.35076052451814299 0 -0.41892942640344089 -0.33753136528393851 0 -0.43412789358488252 -0.34360266304562398 0 -0.40656794366580729 -0.35076052451814299 0 -0.43412789358488252 -0.34360266304562398 0 -0.40602302264042339 -0.37732426995432877 0 -0.40656794366580729 -0.35076052451814299 0 -0.41943866505217348 -0.36750342236141398 0 -0.40602302264042339 -0.37732426995432877 0 -0.40656794366580729 -0.35076052451814299 0 -0.39178334408848031 -0.36960617836201132 0 -0.40656794366580729 -0.35076052451814299 0 -0.39178334408848031 -0.36960617836201132 0 -0.37900799374673211 -0.35791838599066178 0 -0.39178334408848031 -0.36960617836201132 0 -0.37900799374673211 -0.35791838599066178 0 -0.3744698982774699 -0.37974097138814089 0 -0.40656794366580729 -0.35076052451814299 0 -0.37900799374673211 -0.35791838599066178 0 -0.40656794366580729 -0.35076052451814299 0 -0.37900799374673211 -0.35791838599066178 0 -0.38809654586609199 -0.34078667746628988 0 -0.40656794366580729 -0.35076052451814299 0 -0.40079204094926552 -0.33452670981333982 0 -0.38809654586609199 -0.34078667746628988 0 -0.40079204094926552 -0.33452670981333982 0 -0.38809654586609199 -0.34078667746628988 0 -0.38810718983415909 -0.32548609165290771 0 -0.37900799374673211 -0.35791838599066178 0 -0.38809654586609199 -0.34078667746628988 0 -0.37221431464370341 -0.33189786574299418 0 -0.38809654586609199 -0.34078667746628988 0 -0.38810718983415909 -0.32548609165290771 0 -0.37221431464370341 -0.33189786574299418 0 -0.37930655539219132 -0.3188155219629486 0 -0.38810718983415909 -0.32548609165290771 0 -0.3902313954728272 -0.30646558991148037 0 -0.37930655539219132 -0.3188155219629486 0 -0.38810718983415909 -0.32548609165290771 0 -0.37221431464370341 -0.33189786574299418 0 -0.38810718983415909 -0.32548609165290771 0 -0.4009347483986368 -0.31821321836562533 0 -0.3902313954728272 -0.30646558991148037 0 -0.40079204094926552 -0.33452670981333982 0 -0.38810718983415909 -0.32548609165290771 0 -0.4009347483986368 -0.31821321836562533 0 -0.4009347483986368 -0.31821321836562533 0 -0.41946356013072361 -0.32054680260913848 0 -0.40523142657491917 -0.30287347878482979 0 -0.40079204094926552 -0.33452670981333982 0 -0.4009347483986368 -0.31821321836562533 0 -0.41946356013072361 -0.32054680260913848 0 -0.40656794366580729 -0.35076052451814299 0 -0.40079204094926552 -0.33452670981333982 0 -0.41892942640344089 -0.33753136528393851 0 -0.40079204094926552 -0.33452670981333982 0 -0.41946356013072361 -0.32054680260913848 0 -0.41892942640344089 -0.33753136528393851 0 -0.41946356013072361 -0.32054680260913848 0 -0.41892942640344089 -0.33753136528393851 0 -0.43369569368652788 -0.33822012643344712 0 -0.41946356013072361 -0.32054680260913848 0 -0.43369569368652788 -0.33822012643344712 0 -0.41946356013072361 -0.32054680260913848 0 -0.43369569368652788 -0.33822012643344712 0 -0.4328672839997294 -0.32790326729935498 0 -0.41892942640344089 -0.33753136528393851 0 -0.43369569368652788 -0.33822012643344712 0 -0.43412789358488252 -0.34360266304562398 0 -0.43369569368652788 -0.33822012643344712 0 -0.43735520171359871 -0.34276446759961349 0 -0.43369569368652788 -0.33822012643344712 0 -0.43735520171359871 -0.34276446759961349 0 -0.43412789358488252 -0.34360266304562398 0 -0.43369569368652788 -0.33822012643344712 0 -0.43412789358488252 -0.34360266304562398 0 -0.43735520171359871 -0.34276446759961349 0 -0.43412789358488252 -0.34360266304562398 0 -0.43889884463227918 -0.32886406429597448 0 -0.43369569368652788 -0.33822012643344712 0 -0.4328672839997294 -0.32790326729935498 0 -0.43369569368652788 -0.33822012643344712 0 -0.4328672839997294 -0.32790326729935498 0 -0.4328672839997294 -0.32790326729935498 0 -0.43438198858655153 -0.32079019401291847 0 -0.4274975089365789 -0.3186923575012135 0 -0.43889884463227918 -0.32886406429597448 0 -0.43651828024189421 -0.32485855308720668 0 -0.4328672839997294 -0.32790326729935498 0 -0.43651828024189421 -0.32485855308720668 0 -0.4328672839997294 -0.32790326729935498 0 -0.43438198858655153 -0.32079019401291847 0 -0.44009164693116742 -0.32077718710022562 0 -0.43651828024189421 -0.32485855308720668 0 -0.43438198858655153 -0.32079019401291847 0 -0.44009164693116742 -0.32077718710022562 0 -0.43438198858655153 -0.32079019401291847 0 -0.4288009762533368 -0.31035509939499051 0 -0.43438198858655153 -0.32079019401291847 0 -0.4274975089365789 -0.3186923575012135 0 -0.4288009762533368 -0.31035509939499051 0 -0.44009164693116742 -0.32077718710022562 0 -0.4288009762533368 -0.31035509939499051 0 -0.4274975089365789 -0.3186923575012135 0 -0.4288009762533368 -0.31035509939499051 0 -0.4199391459259264 -0.31066690883799047 0 -0.41946356013072361 -0.32054680260913848 0 -0.4274975089365789 -0.3186923575012135 0 -0.4199391459259264 -0.31066690883799047 0 -0.41946356013072361 -0.32054680260913848 0 -0.4328672839997294 -0.32790326729935498 0 -0.4274975089365789 -0.3186923575012135 0 -0.44167681486674681 -0.30059271317344932 0 -0.44009164693116742 -0.32077718710022562 0 -0.4288009762533368 -0.31035509939499051 0 -0.44167681486674681 -0.30059271317344932 0 -0.4288009762533368 -0.31035509939499051 0 -0.41751030557550722 -0.29993301168975423 0 -0.44422029364406102 -0.29353667526346622 0 -0.44167681486674681 -0.30059271317344932 0 -0.41751030557550722 -0.29993301168975423 0 -0.4288009762533368 -0.31035509939499051 0 -0.41751030557550722 -0.29993301168975423 0 -0.4288009762533368 -0.31035509939499051 0 -0.41751030557550722 -0.29993301168975423 0 -0.4199391459259264 -0.31066690883799047 0 -0.44422029364406102 -0.29353667526346622 0 -0.41751030557550722 -0.29993301168975423 0 -0.44422029364406102 -0.29353667526346622 0 -0.41751030557550722 -0.29993301168975423 0 -0.43031106073052838 -0.27751238326795769 0 -0.41440515332275552 -0.28227025819429918 0 -0.41751030557550722 -0.29993301168975423 0 -0.3988804428465802 -0.28273633056799857 0 -0.41751030557550722 -0.29993301168975423 0 -0.40523142657491917 -0.30287347878482979 0 -0.3988804428465802 -0.28273633056799857 0 -0.41751030557550722 -0.29993301168975423 0 -0.3988804428465802 -0.28273633056799857 0 -0.41440515332275552 -0.28227025819429918 0 -0.41751030557550722 -0.29993301168975423 0 -0.43031106073052838 -0.27751238326795769 0 -0.41946356013072361 -0.32054680260913848 0 -0.4199391459259264 -0.31066690883799047 0 -0.40523142657491917 -0.30287347878482979 0 -0.41751030557550722 -0.29993301168975423 0 -0.40523142657491917 -0.30287347878482979 0 -0.41946356013072361 -0.32054680260913848 0 -0.40523142657491917 -0.30287347878482979 0 -0.41751030557550722 -0.29993301168975423 0 -0.4199391459259264 -0.31066690883799047 0 -0.40523142657491917 -0.30287347878482979 0 -0.40523142657491917 -0.30287347878482979 0 -0.3902313954728272 -0.30646558991148037 0 -0.39375726055065591 -0.28862497198396397 0 -0.4009347483986368 -0.31821321836562533 0 -0.40523142657491917 -0.30287347878482979 0 -0.3902313954728272 -0.30646558991148037 0 -0.40523142657491917 -0.30287347878482979 0 -0.3902313954728272 -0.30646558991148037 0 -0.37523136437073529 -0.31005770103813107 0 -0.3789905949627963 -0.29141574199940312 0 -0.37189005046323009 -0.29962249423418807 0 -0.37523136437073529 -0.31005770103813107 0 -0.39375726055065591 -0.28862497198396397 0 -0.3902313954728272 -0.30646558991148037 0 -0.37523136437073529 -0.31005770103813107 0 -0.39375726055065591 -0.28862497198396397 0 -0.3902313954728272 -0.30646558991148037 0 -0.37523136437073529 -0.31005770103813107 0 -0.37930655539219132 -0.3188155219629486 0 -0.3902313954728272 -0.30646558991148037 0 -0.37523136437073529 -0.31005770103813107 0 -0.37523136437073529 -0.31005770103813107 0 -0.3789905949627963 -0.29141574199940312 0 -0.39375726055065591 -0.28862497198396397 0 -0.3774026656632844 -0.28248374780429703 0 -0.3789905949627963 -0.29141574199940312 0 -0.37106937899341341 -0.29078480333094903 0 -0.3774026656632844 -0.28248374780429703 0 -0.3789905949627963 -0.29141574199940312 0 -0.38411895227533049 -0.27665621532492918 0 -0.39375726055065591 -0.28862497198396397 0 -0.38411895227533049 -0.27665621532492918 0 -0.3789905949627963 -0.29141574199940312 0 -0.39375726055065591 -0.28862497198396397 0 -0.38411895227533049 -0.27665621532492918 0 -0.39375726055065591 -0.28862497198396397 0 -0.3988804428465802 -0.28273633056799857 0 -0.39233620115288043 -0.27669553256386142 0 -0.40523142657491917 -0.30287347878482979 0 -0.39375726055065591 -0.28862497198396397 0 -0.3988804428465802 -0.28273633056799857 0 -0.39375726055065591 -0.28862497198396397 0 -0.3988804428465802 -0.28273633056799857 0 -0.40523142657491917 -0.30287347878482979 0 -0.39375726055065591 -0.28862497198396397 0 -0.3988804428465802 -0.28273633056799857 0 -0.39686630688573621 -0.26893839063975478 0 -0.4109188041384062 -0.26889930725148642 0 -0.3988804428465802 -0.28273633056799857 0 -0.4109188041384062 -0.26889930725148642 0 -0.39686630688573621 -0.26893839063975478 0 -0.40032979896953019 -0.26013322076077078 0 -0.4109188041384062 -0.26889930725148642 0 -0.39686630688573621 -0.26893839063975478 0 -0.39233620115288043 -0.27669553256386142 0 -0.38826904474408042 -0.2680091126959171 0 -0.3988804428465802 -0.28273633056799857 0 -0.39686630688573621 -0.26893839063975478 0 -0.39233620115288043 -0.27669553256386142 0 -0.3988804428465802 -0.28273633056799857 0 -0.39233620115288043 -0.27669553256386142 0 -0.39233620115288043 -0.27669553256386142 0 -0.38411895227533049 -0.27665621532492918 0 -0.38826904474408042 -0.2680091126959171 0 -0.39375726055065591 -0.28862497198396397 0 -0.39233620115288043 -0.27669553256386142 0 -0.38411895227533049 -0.27665621532492918 0 -0.38411895227533049 -0.27665621532492918 0 -0.3744806440000063 -0.26468745866589372 0 -0.38411895227533049 -0.27665621532492918 0 -0.38826904474408042 -0.2680091126959171 0 -0.3744806440000063 -0.26468745866589372 0 -0.38411895227533049 -0.27665621532492918 0 -0.3744806440000063 -0.26468745866589372 0 -0.3710864222381412 -0.27797477495073958 0 -0.3774026656632844 -0.28248374780429703 0 -0.38411895227533049 -0.27665621532492918 0 -0.3710864222381412 -0.27797477495073958 0 -0.3815886507475249 -0.25685554792399468 0 -0.36909614358114728 -0.25447947052818581 0 -0.37807327786879408 -0.24521479883112249 0 -0.3815886507475249 -0.25685554792399468 0 -0.3882865294424136 -0.2498244867825489 0 -0.37807327786879408 -0.24521479883112249 0 -0.38826904474408042 -0.2680091126959171 0 -0.3815886507475249 -0.25685554792399468 0 -0.3744806440000063 -0.26468745866589372 0 -0.3815886507475249 -0.25685554792399468 0 -0.3744806440000063 -0.26468745866589372 0 -0.36909614358114728 -0.25447947052818581 0 -0.38826904474408042 -0.2680091126959171 0 -0.3815886507475249 -0.25685554792399468 0 -0.39132626484870803 -0.25891796004030032 0 -0.3815886507475249 -0.25685554792399468 0 -0.39132626484870803 -0.25891796004030032 0 -0.3882865294424136 -0.2498244867825489 0 -0.39705766789495928 -0.25105344411440789 0 -0.39132626484870803 -0.25891796004030032 0 -0.3882865294424136 -0.2498244867825489 0 -0.40032979896953019 -0.26013322076077078 0 -0.40547995107984119 -0.25285700175790488 0 -0.4109188041384062 -0.26889930725148642 0 -0.39705766789495928 -0.25105344411440789 0 -0.39132626484870803 -0.25891796004030032 0 -0.40032979896953019 -0.26013322076077078 0 -0.39686630688573621 -0.26893839063975478 0 -0.38826904474408042 -0.2680091126959171 0 -0.39132626484870803 -0.25891796004030032 0 -0.39686630688573621 -0.26893839063975478 0 -0.39132626484870803 -0.25891796004030032 0 -0.40032979896953019 -0.26013322076077078 0 -0.39705766789495928 -0.25105344411440789 0 -0.40032979896953019 -0.26013322076077078 0 -0.40547995107984119 -0.25285700175790488 0 -0.4109188041384062 -0.26889930725148642 0 -0.42295716543023337 -0.25506228393497521 0 -0.41457584860192409 -0.24925828221297019 0 -0.40547995107984119 -0.25285700175790488 0 -0.4109188041384062 -0.26889930725148642 0 -0.41457584860192409 -0.24925828221297019 0 -0.4109188041384062 -0.26889930725148642 0 -0.42295716543023337 -0.25506228393497521 0 -0.4109188041384062 -0.26889930725148642 0 -0.43031106073052838 -0.27751238326795769 0 -0.42295716543023337 -0.25506228393497521 0 -0.41440515332275552 -0.28227025819429918 0 -0.4109188041384062 -0.26889930725148642 0 -0.43031106073052838 -0.27751238326795769 0 -0.41440515332275552 -0.28227025819429918 0 -0.3988804428465802 -0.28273633056799857 0 -0.4109188041384062 -0.26889930725148642 0 -0.43757215116835091 -0.25601866082990721 0 -0.43031106073052838 -0.27751238326795769 0 -0.42295716543023337 -0.25506228393497521 0 -0.43757215116835091 -0.25601866082990721 0 -0.42295716543023337 -0.25506228393497521 0 -0.43378107889250272 -0.24206734736295191 0 -0.31447374353419461 -0.25288678371517498 0 -0.32927156741263591 -0.25711333387582608 0 -0.30872004842627848 -0.27006258464879029 0 -0.31447374353419461 -0.25288678371517498 0 -0.32927156741263591 -0.25711333387582608 0 -0.32213089999030081 -0.24086328174933441 0 -0.32927156741263591 -0.25711333387582608 0 -0.30872004842627848 -0.27006258464879029 0 -0.32215675400820842 -0.27336040545883977 0 -0.32927156741263591 -0.25711333387582608 0 -0.30872004842627848 -0.27006258464879029 0 -0.32215675400820842 -0.27336040545883977 0 -0.31382540015854737 -0.28256866382776158 0 -0.30872004842627848 -0.27006258464879029 0 -0.32215675400820842 -0.27336040545883977 0 -0.32635299775248511 -0.284624843917818 0 -0.31382540015854737 -0.28256866382776158 0 -0.32215675400820842 -0.27336040545883977 0 -0.33334941380187849 -0.27252754802911539 0 -0.32635299775248511 -0.284624843917818 0 -0.33334941380187849 -0.27252754802911539 0 -0.34581195074366239 -0.26569645124526919 0 -0.3431537990924009 -0.28184270564782371 0 -0.32215675400820842 -0.27336040545883977 0 -0.33334941380187849 -0.27252754802911539 0 -0.32927156741263591 -0.25711333387582608 0 -0.33334941380187849 -0.27252754802911539 0 -0.3431537990924009 -0.28184270564782371 0 -0.32635299775248511 -0.284624843917818 0 -0.33334941380187849 -0.27252754802911539 0 -0.32927156741263591 -0.25711333387582608 0 -0.34581195074366239 -0.26569645124526919 0 -0.32927156741263591 -0.25711333387582608 0 -0.34581195074366239 -0.26569645124526919 0 -0.3406178786116239 -0.24514116923050019 0 -0.35550970838397372 -0.25214485579249551 0 -0.34581195074366239 -0.26569645124526919 0 -0.3406178786116239 -0.24514116923050019 0 -0.35550970838397372 -0.25214485579249551 0 -0.36131443342849162 -0.26334729825500308 0 -0.34581195074366239 -0.26569645124526919 0 -0.35550970838397372 -0.25214485579249551 0 -0.36131443342849162 -0.26334729825500308 0 -0.36909614358114728 -0.25447947052818581 0 -0.36131443342849162 -0.26334729825500308 0 -0.3744806440000063 -0.26468745866589372 0 -0.36909614358114728 -0.25447947052818581 0 -0.36131443342849162 -0.26334729825500308 0 -0.3744806440000063 -0.26468745866589372 0 -0.3710864222381412 -0.27797477495073958 0 -0.36131443342849162 -0.26334729825500308 0 -0.3710864222381412 -0.27797477495073958 0 -0.35618055755856459 -0.27500607328499721 0 -0.3710864222381412 -0.27797477495073958 0 -0.35618055755856459 -0.27500607328499721 0 -0.35994108819543902 -0.28726105323970591 0 -0.35618055755856459 -0.27500607328499721 0 -0.34581195074366239 -0.26569645124526919 0 -0.3431537990924009 -0.28184270564782371 0 -0.36131443342849162 -0.26334729825500308 0 -0.35618055755856459 -0.27500607328499721 0 -0.34581195074366239 -0.26569645124526919 0 -0.35091140229509971 -0.29471886258843838 0 -0.35994108819543902 -0.28726105323970591 0 -0.3431537990924009 -0.28184270564782371 0 -0.35091140229509971 -0.29471886258843838 0 -0.35994108819543902 -0.28726105323970591 0 -0.36250725928322358 -0.30422672508436199 0 -0.35618055755856459 -0.27500607328499721 0 -0.35994108819543902 -0.28726105323970591 0 -0.3431537990924009 -0.28184270564782371 0 -0.35091140229509971 -0.29471886258843838 0 -0.33843488635024738 -0.29655918944295978 0 -0.3431537990924009 -0.28184270564782371 0 -0.35994108819543902 -0.28726105323970591 0 -0.37106937899341341 -0.29078480333094903 0 -0.36250725928322358 -0.30422672508436199 0 -0.3789905949627963 -0.29141574199940312 0 -0.37106937899341341 -0.29078480333094903 0 -0.37189005046323009 -0.29962249423418807 0 -0.3710864222381412 -0.27797477495073958 0 -0.35994108819543902 -0.28726105323970591 0 -0.37106937899341341 -0.29078480333094903 0 -0.3774026656632844 -0.28248374780429703 0 -0.3710864222381412 -0.27797477495073958 0 -0.37106937899341341 -0.29078480333094903 0 -0.37523136437073529 -0.31005770103813107 0 -0.36250725928322358 -0.30422672508436199 0 -0.36977866316021613 -0.31618623245336069 0 -0.37523136437073529 -0.31005770103813107 0 -0.37189005046323009 -0.29962249423418807 0 -0.36250725928322358 -0.30422672508436199 0 -0.37106937899341341 -0.29078480333094903 0 -0.37189005046323009 -0.29962249423418807 0 -0.36250725928322358 -0.30422672508436199 0 -0.36250725928322358 -0.30422672508436199 0 -0.35925821435096528 -0.3140055180464158 0 -0.36977866316021613 -0.31618623245336069 0 -0.36250725928322358 -0.30422672508436199 0 -0.34938071800289738 -0.30593176263872662 0 -0.35925821435096528 -0.3140055180464158 0 -0.34938071800289738 -0.30593176263872662 0 -0.34809118877520723 -0.31664895684296551 0 -0.35925821435096528 -0.3140055180464158 0 -0.35091140229509971 -0.29471886258843838 0 -0.36250725928322358 -0.30422672508436199 0 -0.34938071800289738 -0.30593176263872662 0 -0.35091140229509971 -0.29471886258843838 0 -0.34938071800289738 -0.30593176263872662 0 -0.33843488635024738 -0.29655918944295978 0 -0.34938071800289738 -0.30593176263872662 0 -0.33708135696264191 -0.30943132382721827 0 -0.34809118877520723 -0.31664895684296551 0 -0.33708135696264191 -0.30943132382721827 0 -0.32215102059083561 -0.30296311925419889 0 -0.33047664102311808 -0.32335757468063853 0 -0.33708135696264191 -0.30943132382721827 0 -0.33843488635024738 -0.29655918944295978 0 -0.32215102059083561 -0.30296311925419889 0 -0.34938071800289738 -0.30593176263872662 0 -0.33708135696264191 -0.30943132382721827 0 -0.33843488635024738 -0.29655918944295978 0 -0.33843488635024738 -0.29655918944295978 0 -0.32635299775248511 -0.284624843917818 0 -0.32215102059083561 -0.30296311925419889 0 -0.33843488635024738 -0.29655918944295978 0 -0.3431537990924009 -0.28184270564782371 0 -0.32635299775248511 -0.284624843917818 0 -0.31382540015854737 -0.28256866382776158 0 -0.32215102059083561 -0.30296311925419889 0 -0.30353658855560628 -0.29112172248899593 0 -0.32635299775248511 -0.284624843917818 0 -0.31382540015854737 -0.28256866382776158 0 -0.32215102059083561 -0.30296311925419889 0 -0.31382540015854737 -0.28256866382776158 0 -0.32215102059083561 -0.30296311925419889 0 -0.32635299775248511 -0.284624843917818 0 -0.31382540015854737 -0.28256866382776158 0 -0.32215102059083561 -0.30296311925419889 0 -0.33047664102311808 -0.32335757468063853 0 -0.31227201288449269 -0.3188257869666436 0 -0.32215102059083561 -0.30296311925419889 0 -0.33047664102311808 -0.32335757468063853 0 -0.33047664102311808 -0.32335757468063853 0 -0.30042584490990493 -0.33904748220165748 0 -0.31227201288449269 -0.3188257869666436 0 -0.33047664102311808 -0.32335757468063853 0 -0.32533516803607632 -0.35374209087279901 0 -0.30042584490990493 -0.33904748220165748 0 -0.33047664102311808 -0.32335757468063853 0 -0.34306789325070203 -0.34632178196532371 0 -0.32533516803607632 -0.35374209087279901 0 -0.33047664102311808 -0.32335757468063853 0 -0.34770912969502482 -0.33086058122572842 0 -0.34306789325070203 -0.34632178196532371 0 -0.33708135696264191 -0.30943132382721827 0 -0.33047664102311808 -0.32335757468063853 0 -0.34809118877520723 -0.31664895684296551 0 -0.33047664102311808 -0.32335757468063853 0 -0.34809118877520723 -0.31664895684296551 0 -0.34770912969502482 -0.33086058122572842 0 -0.34809118877520723 -0.31664895684296551 0 -0.35871104809508569 -0.32522563247391761 0 -0.34770912969502482 -0.33086058122572842 0 -0.34809118877520723 -0.31664895684296551 0 -0.35871104809508569 -0.32522563247391761 0 -0.35925821435096528 -0.3140055180464158 0 -0.35871104809508569 -0.32522563247391761 0 -0.35925821435096528 -0.3140055180464158 0 -0.36977866316021613 -0.31618623245336069 0 -0.35871104809508569 -0.32522563247391761 0 -0.36977866316021613 -0.31618623245336069 0 -0.37221431464370341 -0.33189786574299418 0 -0.37930655539219132 -0.3188155219629486 0 -0.36977866316021613 -0.31618623245336069 0 -0.37221431464370341 -0.33189786574299418 0 -0.37930655539219132 -0.3188155219629486 0 -0.37523136437073529 -0.31005770103813107 0 -0.36977866316021613 -0.31618623245336069 0 -0.37523136437073529 -0.31005770103813107 0 -0.36977866316021613 -0.31618623245336069 0 -0.35871104809508569 -0.32522563247391761 0 -0.37221431464370341 -0.33189786574299418 0 -0.35819887733101052 -0.34274896016579698 0 -0.35871104809508569 -0.32522563247391761 0 -0.35819887733101052 -0.34274896016579698 0 -0.34770912969502482 -0.33086058122572842 0 -0.35819887733101052 -0.34274896016579698 0 -0.34770912969502482 -0.33086058122572842 0 -0.34306789325070203 -0.34632178196532371 0 -0.35819887733101052 -0.34274896016579698 0 -0.35144804382765699 -0.36507624746318051 0 -0.34306789325070203 -0.34632178196532371 0 -0.37900799374673211 -0.35791838599066178 0 -0.35819887733101052 -0.34274896016579698 0 -0.35144804382765699 -0.36507624746318051 0 -0.37900799374673211 -0.35791838599066178 0 -0.37221431464370341 -0.33189786574299418 0 -0.35819887733101052 -0.34274896016579698 0 -0.37900799374673211 -0.35791838599066178 0 -0.35144804382765699 -0.36507624746318051 0 -0.3744698982774699 -0.37974097138814089 0 -0.37900799374673211 -0.35791838599066178 0 -0.35144804382765699 -0.36507624746318051 0 -0.35144804382765699 -0.36507624746318051 0 -0.32533516803607632 -0.35374209087279901 0 -0.32177544039937822 -0.38048946625275848 0 -0.35144804382765699 -0.36507624746318051 0 -0.34306789325070203 -0.34632178196532371 0 -0.32533516803607632 -0.35374209087279901 0 -0.32533516803607632 -0.35374209087279901 0 -0.30481714480569749 -0.3681599926732354 0 -0.32177544039937822 -0.38048946625275848 0 -0.32533516803607632 -0.35374209087279901 0 -0.30481714480569749 -0.3681599926732354 0 -0.30042584490990493 -0.33904748220165748 0 -0.30481714480569749 -0.3681599926732354 0 -0.30042584490990493 -0.33904748220165748 0 -0.30481714480569749 -0.3681599926732354 0 -0.27918128829152911 -0.35982433670777092 0 -0.30042584490990493 -0.33904748220165748 0 -0.30481714480569749 -0.3681599926732354 0 -0.27918128829152911 -0.35982433670777092 0 -0.28640023664263992 -0.38657886851248707 0 -0.27918128829152911 -0.35982433670777092 0 -0.25843233435567581 -0.36297159007713697 0 -0.26374132527587169 -0.3843029380437154 0 -0.25843233435567581 -0.36297159007713697 0 -0.26374132527587169 -0.3843029380437154 0 -0.2451961535316893 -0.3740197755715004 0 -0.26292295584756192 -0.34710356142720222 0 -0.2521673248915059 -0.33395535852616198 0 -0.2397580319780461 -0.35356785715680489 0 -0.25843233435567581 -0.36297159007713697 0 -0.26292295584756192 -0.34710356142720222 0 -0.2397580319780461 -0.35356785715680489 0 -0.27918128829152911 -0.35982433670777092 0 -0.25843233435567581 -0.36297159007713697 0 -0.26292295584756192 -0.34710356142720222 0 -0.27918128829152911 -0.35982433670777092 0 -0.26292295584756192 -0.34710356142720222 0 -0.27695780858390168 -0.3310153167620587 0 -0.26292295584756192 -0.34710356142720222 0 -0.27695780858390168 -0.3310153167620587 0 -0.2521673248915059 -0.33395535852616198 0 -0.2521673248915059 -0.33395535852616198 0 -0.26457661780496478 -0.31434285989551852 0 -0.27695780858390168 -0.3310153167620587 0 -0.2521673248915059 -0.33395535852616198 0 -0.26457661780496478 -0.31434285989551852 0 -0.2521673248915059 -0.33395535852616198 0 -0.26457661780496478 -0.31434285989551852 0 -0.24581712956767751 -0.32186579194246001 0 -0.26457661780496478 -0.31434285989551852 0 -0.24581712956767751 -0.32186579194246001 0 -0.24878468441748261 -0.30782709535157249 0 -0.27695780858390168 -0.3310153167620587 0 -0.26457661780496478 -0.31434285989551852 0 -0.28006326262924658 -0.31040955103181439 0 -0.27695780858390168 -0.3310153167620587 0 -0.30042584490990493 -0.33904748220165748 0 -0.29603454501411219 -0.3099349717300795 0 -0.27695780858390168 -0.3310153167620587 0 -0.29603454501411219 -0.3099349717300795 0 -0.28006326262924658 -0.31040955103181439 0 -0.27918128829152911 -0.35982433670777092 0 -0.27695780858390168 -0.3310153167620587 0 -0.30042584490990493 -0.33904748220165748 0 -0.30042584490990493 -0.33904748220165748 0 -0.29603454501411219 -0.3099349717300795 0 -0.30042584490990493 -0.33904748220165748 0 -0.31227201288449269 -0.3188257869666436 0 -0.29603454501411219 -0.3099349717300795 0 -0.32215102059083561 -0.30296311925419889 0 -0.31227201288449269 -0.3188257869666436 0 -0.29603454501411219 -0.3099349717300795 0 -0.32215102059083561 -0.30296311925419889 0 -0.30353658855560628 -0.29112172248899593 0 -0.29603454501411219 -0.3099349717300795 0 -0.31382540015854737 -0.28256866382776158 0 -0.30353658855560628 -0.29112172248899593 0 -0.29402873189621731 -0.27931939637443509 0 -0.30353658855560628 -0.29112172248899593 0 -0.29603454501411219 -0.3099349717300795 0 -0.29164324511831918 -0.28082246125850152 0 -0.28618174087002551 -0.29897433632131748 0 -0.27698591071842371 -0.29473036126487512 0 -0.29164324511831918 -0.28082246125850152 0 -0.29603454501411219 -0.3099349717300795 0 -0.29164324511831918 -0.28082246125850152 0 -0.29603454501411219 -0.3099349717300795 0 -0.28618174087002551 -0.29897433632131748 0 -0.29164324511831918 -0.28082246125850152 0 -0.30353658855560628 -0.29112172248899593 0 -0.29164324511831918 -0.28082246125850152 0 -0.29402873189621731 -0.27931939637443509 0 -0.2777128501463102 -0.28132388157543542 0 -0.27674001241067431 -0.28522141531844453 0 -0.29164324511831918 -0.28082246125850152 0 -0.29603454501411219 -0.3099349717300795 0 -0.28618174087002551 -0.29897433632131748 0 -0.28006326262924658 -0.31040955103181439 0 -0.28618174087002551 -0.29897433632131748 0 -0.28006326262924658 -0.31040955103181439 0 -0.27698591071842371 -0.29473036126487512 0 -0.26457661780496478 -0.31434285989551852 0 -0.27698591071842371 -0.29473036126487512 0 -0.27021396476790061 -0.29432477830503662 0 -0.26457661780496478 -0.31434285989551852 0 -0.27698591071842371 -0.29473036126487512 0 -0.26457661780496478 -0.31434285989551852 0 -0.28006326262924658 -0.31040955103181439 0 -0.27698591071842371 -0.29473036126487512 0 -0.27021396476790061 -0.29432477830503662 0 -0.24878468441748261 -0.30782709535157249 0 -0.26457661780496478 -0.31434285989551852 0 -0.27021396476790061 -0.29432477830503662 0 -0.24878468441748261 -0.30782709535157249 0 -0.25500487631019841 -0.28800787195402933 0 -0.27021396476790061 -0.29432477830503662 0 -0.24878468441748261 -0.30782709535157249 0 -0.25500487631019841 -0.28800787195402933 0 -0.26738998961016691 -0.28441454013480449 0 -0.26461232662777873 -0.27449122190759467 0 -0.25500487631019841 -0.28800787195402933 0 -0.26738998961016691 -0.28441454013480449 0 -0.27021396476790061 -0.29432477830503662 0 -0.27021396476790061 -0.29432477830503662 0 -0.27674001241067431 -0.28522141531844453 0 -0.29164324511831918 -0.28082246125850152 0 -0.27698591071842371 -0.29473036126487512 0 -0.27021396476790061 -0.29432477830503662 0 -0.29164324511831918 -0.28082246125850152 0 -0.27021396476790061 -0.29432477830503662 0 -0.29164324511831918 -0.28082246125850152 0 -0.26738998961016691 -0.28441454013480449 0 -0.27021396476790061 -0.29432477830503662 0 -0.27674001241067431 -0.28522141531844453 0 -0.26738998961016691 -0.28441454013480449 0 -0.2777128501463102 -0.28132388157543542 0 -0.27674001241067431 -0.28522141531844453 0 -0.2777128501463102 -0.28132388157543542 0 -0.26461232662777873 -0.27449122190759467 0 -0.29135021093752678 -0.27887976527798891 0 -0.27966498295732228 -0.26642720262620462 0 -0.26461232662777873 -0.27449122190759467 0 -0.29135021093752678 -0.27887976527798891 0 -0.26461232662777873 -0.27449122190759467 0 -0.29135021093752678 -0.27887976527798891 0 -0.26738998961016691 -0.28441454013480449 0 -0.2777128501463102 -0.28132388157543542 0 -0.26461232662777873 -0.27449122190759467 0 -0.26461232662777873 -0.27449122190759467 0 -0.25431501404594598 -0.25676801052014742 0 -0.23787444231803079 -0.27010267853719971 0 -0.26461232662777873 -0.27449122190759467 0 -0.23787444231803079 -0.27010267853719971 0 -0.25500487631019841 -0.28800787195402933 0 -0.26461232662777873 -0.27449122190759467 0 -0.23787444231803079 -0.27010267853719971 0 -0.25431501404594598 -0.25676801052014742 0 -0.27198482704117011 -0.2554546739122816 0 -0.26575365835036091 -0.24169776597770681 0 -0.26461232662777873 -0.27449122190759467 0 -0.25431501404594598 -0.25676801052014742 0 -0.27198482704117011 -0.2554546739122816 0 -0.27966498295732228 -0.26642720262620462 0 -0.26461232662777873 -0.27449122190759467 0 -0.27198482704117011 -0.2554546739122816 0 -0.27966498295732228 -0.26642720262620462 0 -0.27198482704117011 -0.2554546739122816 0 -0.28715721559520269 -0.25108193235664411 0 -0.27966498295732228 -0.26642720262620462 0 -0.28715721559520269 -0.25108193235664411 0 -0.29135021093752678 -0.27887976527798891 0 -0.28715721559520269 -0.25108193235664411 0 -0.29525359722268529 -0.2694340123253105 0 -0.29794586522958078 -0.26186354202638179 0 -0.28715721559520269 -0.25108193235664411 0 -0.29135021093752678 -0.27887976527798891 0 -0.28715721559520269 -0.25108193235664411 0 -0.3021196426598462 -0.25389421830362668 0 -0.29794586522958078 -0.26186354202638179 0 -0.28715721559520269 -0.25108193235664411 0 -0.29135021093752678 -0.27887976527798891 0 -0.29525359722268529 -0.2694340123253105 0 -0.2777128501463102 -0.28132388157543542 0 -0.29164324511831918 -0.28082246125850152 0 -0.29135021093752678 -0.27887976527798891 0 -0.29135021093752678 -0.27887976527798891 0 -0.29402873189621731 -0.27931939637443509 0 -0.29525359722268529 -0.2694340123253105 0 -0.29164324511831918 -0.28082246125850152 0 -0.29402873189621731 -0.27931939637443509 0 -0.29164324511831918 -0.28082246125850152 0 -0.29135021093752678 -0.27887976527798891 0 -0.29402873189621731 -0.27931939637443509 0 -0.29164324511831918 -0.28082246125850152 0 -0.29135021093752678 -0.27887976527798891 0 -0.29135021093752678 -0.27887976527798891 0 -0.29402873189621731 -0.27931939637443509 0 -0.29525359722268529 -0.2694340123253105 0 -0.30872004842627848 -0.27006258464879029 0 -0.29794586522958078 -0.26186354202638179 0 -0.29402873189621731 -0.27931939637443509 0 -0.29525359722268529 -0.2694340123253105 0 -0.30872004842627848 -0.27006258464879029 0 -0.31382540015854737 -0.28256866382776158 0 -0.29402873189621731 -0.27931939637443509 0 -0.30872004842627848 -0.27006258464879029 0 -0.31382540015854737 -0.28256866382776158 0 -0.29402873189621731 -0.27931939637443509 0 -0.29402873189621731 -0.27931939637443509 0 -0.30872004842627848 -0.27006258464879029 0 -0.31382540015854737 -0.28256866382776158 0 -0.30872004842627848 -0.27006258464879029 0 -0.30872004842627848 -0.27006258464879029 0 -0.3021196426598462 -0.25389421830362668 0 -0.29794586522958078 -0.26186354202638179 0 -0.31447374353419461 -0.25288678371517498 0 -0.30872004842627848 -0.27006258464879029 0 -0.3021196426598462 -0.25389421830362668 0 -0.30872004842627848 -0.27006258464879029 0 -0.3021196426598462 -0.25389421830362668 0 -0.33195851744067822 -0.46237909671868122 0 -0.35324973724828618 -0.45712301437267588 0 -0.34425384175907869 -0.44634411973867388 0 -0.33195851744067822 -0.46237909671868122 0 -0.35324973724828618 -0.45712301437267588 0 -0.33195851744067822 -0.46237909671868122 0 -0.32596125378120622 -0.4551931669626792 0 -0.34425384175907869 -0.44634411973867388 0 -0.32596125378120622 -0.4551931669626792 0 -0.34425384175907869 -0.44634411973867388 0 -0.34425384175907869 -0.44634411973867388 0 -0.33007308064547192 -0.42935271181750378 0 -0.32596125378120622 -0.4551931669626792 0 -0.34425384175907869 -0.44634411973867388 0 -0.33007308064547192 -0.42935271181750378 0 -0.32596125378120622 -0.4551931669626792 0 -0.31209140408538499 -0.43755458807286701 0 -0.30631548197943181 -0.45020321435129163 0 -0.32596125378120622 -0.4551931669626792 0 -0.33007308064547192 -0.42935271181750378 0 -0.31209140408538499 -0.43755458807286701 0 -0.33195851744067822 -0.46237909671868122 0 -0.31066729763307033 -0.46763517906468671 0 -0.33195851744067822 -0.46237909671868122 0 -0.32596125378120622 -0.4551931669626792 0 -0.31066729763307033 -0.46763517906468671 0 -0.32596125378120622 -0.4551931669626792 0 -0.30766866580333418 -0.46404221418668562 0 -0.30631548197943181 -0.45020321435129163 0 -0.32596125378120622 -0.4551931669626792 0 -0.30766866580333418 -0.46404221418668562 0 -0.32596125378120622 -0.4551931669626792 0 -0.31066729763307033 -0.46763517906468671 0 -0.30766866580333418 -0.46404221418668562 0 -0.33195851744067822 -0.46237909671868122 0 -0.32258748823255629 -0.48261984894576032 0 -0.31066729763307033 -0.46763517906468671 0 -0.32258748823255629 -0.48261984894576032 0 -0.33713525923520632 -0.5 0 -0.31118579218984982 -0.5 0 -0.32258748823255629 -0.48261984894576032 0 -0.33713525923520632 -0.5 0 -0.34118048353425751 -0.48176661197530191 0 -0.33195851744067822 -0.46237909671868122 0 -0.32258748823255629 -0.48261984894576032 0 -0.34118048353425751 -0.48176661197530191 0 -0.33195851744067822 -0.46237909671868122 0 -0.34118048353425751 -0.48176661197530191 0 -0.3528257894639768 -0.47380768222367448 0 -0.3528257894639768 -0.47380768222367448 0 -0.37178142723526131 -0.47932771139246289 0 -0.35324973724828618 -0.45712301437267588 0 -0.34118048353425751 -0.48176661197530191 0 -0.3528257894639768 -0.47380768222367448 0 -0.35861653733784221 -0.48956044033288371 0 -0.33713525923520632 -0.5 0 -0.35861653733784221 -0.48956044033288371 0 -0.36308472628056288 -0.5 0 -0.33713525923520632 -0.5 0 -0.34118048353425751 -0.48176661197530191 0 -0.35861653733784221 -0.48956044033288371 0 -0.38903419332591949 -0.50000000000000011 0 -0.36308472628056288 -0.5 0 -0.37026881101799552 -0.49117273716825038 0 -0.35861653733784221 -0.48956044033288371 0 -0.36308472628056288 -0.5 0 -0.37026881101799552 -0.49117273716825038 0 -0.35861653733784221 -0.48956044033288371 0 -0.37026881101799552 -0.49117273716825038 0 -0.37178142723526131 -0.47932771139246289 0 -0.35861653733784221 -0.48956044033288371 0 -0.37178142723526131 -0.47932771139246289 0 -0.3528257894639768 -0.47380768222367448 0 -0.35861653733784221 -0.48956044033288371 0 -0.37178142723526131 -0.47932771139246289 0 -0.35324973724828618 -0.45712301437267588 0 -0.37092248870559519 -0.45276020952732282 0 -0.37601908872064488 -0.46589307015621528 0 -0.37178142723526131 -0.47932771139246289 0 -0.35324973724828618 -0.45712301437267588 0 -0.37601908872064488 -0.46589307015621528 0 -0.35324973724828618 -0.45712301437267588 0 -0.37092248870559519 -0.45276020952732282 0 -0.37178142723526131 -0.47932771139246289 0 -0.35324973724828618 -0.45712301437267588 0 -0.33195851744067822 -0.46237909671868122 0 -0.3528257894639768 -0.47380768222367448 0 -0.35324973724828618 -0.45712301437267588 0 -0.34425384175907869 -0.44634411973867388 0 -0.36786756353432021 -0.43492097177423872 0 -0.35324973724828618 -0.45712301437267588 0 -0.34425384175907869 -0.44634411973867388 0 -0.36786756353432021 -0.43492097177423872 0 -0.35324973724828618 -0.45712301437267588 0 -0.34425384175907869 -0.44634411973867388 0 -0.35324973724828618 -0.45712301437267588 0 -0.37092248870559519 -0.45276020952732282 0 -0.36786756353432021 -0.43492097177423872 0 -0.38586071947480721 -0.44116691944556802 0 -0.37092248870559519 -0.45276020952732282 0 -0.36786756353432021 -0.43492097177423872 0 -0.37788315984091192 -0.42561505820107443 0 -0.36786756353432021 -0.43492097177423872 0 -0.372134276508442 -0.41016758619988603 0 -0.36786756353432021 -0.43492097177423872 0 -0.372134276508442 -0.41016758619988603 0 -0.35110367857695712 -0.41976014900869513 0 -0.372134276508442 -0.41016758619988603 0 -0.35110367857695712 -0.41976014900869513 0 -0.372134276508442 -0.41016758619988603 0 -0.35110367857695712 -0.41976014900869513 0 -0.35775755574539447 -0.39657743777678678 0 -0.35110367857695712 -0.41976014900869513 0 -0.35775755574539447 -0.39657743777678678 0 -0.33556042764520222 -0.41015502047844737 0 -0.34425384175907869 -0.44634411973867388 0 -0.36786756353432021 -0.43492097177423872 0 -0.35110367857695712 -0.41976014900869513 0 -0.35144804382765699 -0.36507624746318051 0 -0.35775755574539447 -0.39657743777678678 0 -0.33816073128384061 -0.39279253015097898 0 -0.35144804382765699 -0.36507624746318051 0 -0.3744698982774699 -0.37974097138814089 0 -0.35775755574539447 -0.39657743777678678 0 -0.37834895934104051 -0.39578975150806378 0 -0.372134276508442 -0.41016758619988603 0 -0.35775755574539447 -0.39657743777678678 0 -0.37834895934104051 -0.39578975150806378 0 -0.3744698982774699 -0.37974097138814089 0 -0.35775755574539447 -0.39657743777678678 0 -0.35775755574539447 -0.39657743777678678 0 -0.33816073128384061 -0.39279253015097898 0 -0.33556042764520222 -0.41015502047844737 0 -0.35144804382765699 -0.36507624746318051 0 -0.33816073128384061 -0.39279253015097898 0 -0.32177544039937822 -0.38048946625275848 0 -0.33816073128384061 -0.39279253015097898 0 -0.32426318960967992 -0.39878636657327338 0 -0.33556042764520222 -0.41015502047844737 0 -0.33816073128384061 -0.39279253015097898 0 -0.32426318960967992 -0.39878636657327338 0 -0.32177544039937822 -0.38048946625275848 0 -0.32426318960967992 -0.39878636657327338 0 -0.31661090401848813 -0.41322231283936861 0 -0.30920844470149023 -0.39727250314481333 0 -0.32426318960967992 -0.39878636657327338 0 -0.32177544039937822 -0.38048946625275848 0 -0.30920844470149023 -0.39727250314481333 0 -0.35110367857695712 -0.41976014900869513 0 -0.33007308064547192 -0.42935271181750378 0 -0.34425384175907869 -0.44634411973867388 0 -0.35110367857695712 -0.41976014900869513 0 -0.33007308064547192 -0.42935271181750378 0 -0.35110367857695712 -0.41976014900869513 0 -0.33007308064547192 -0.42935271181750378 0 -0.33556042764520222 -0.41015502047844737 0 -0.32426318960967992 -0.39878636657327338 0 -0.33556042764520222 -0.41015502047844737 0 -0.31661090401848813 -0.41322231283936861 0 -0.33007308064547192 -0.42935271181750378 0 -0.31661090401848813 -0.41322231283936861 0 -0.33007308064547192 -0.42935271181750378 0 -0.33556042764520222 -0.41015502047844737 0 -0.31661090401848813 -0.41322231283936861 0 -0.33007308064547192 -0.42935271181750378 0 -0.31209140408538499 -0.43755458807286701 0 -0.33007308064547192 -0.42935271181750378 0 -0.31661090401848813 -0.41322231283936861 0 -0.31209140408538499 -0.43755458807286701 0 -0.31661090401848813 -0.41322231283936861 0 -0.30384454770288349 -0.42365510296155823 0 -0.31209140408538499 -0.43755458807286701 0 -0.30384454770288349 -0.42365510296155823 0 -0.29441118259895749 -0.43791580395115332 0 -0.31209140408538499 -0.43755458807286701 0 -0.31661090401848813 -0.41322231283936861 0 -0.30384454770288349 -0.42365510296155823 0 -0.30329778649106792 -0.41015871077642341 0 -0.31661090401848813 -0.41322231283936861 0 -0.30329778649106792 -0.41015871077642341 0 -0.30920844470149023 -0.39727250314481333 0 -0.30384454770288349 -0.42365510296155823 0 -0.30329778649106792 -0.41015871077642341 0 -0.29098574093082469 -0.42083927077197419 0 -0.29098574093082469 -0.42083927077197419 0 -0.29070655294646031 -0.40458485927204652 0 -0.27379579660972669 -0.41820875964367737 0 -0.30329778649106792 -0.41015871077642341 0 -0.29098574093082469 -0.42083927077197419 0 -0.29070655294646031 -0.40458485927204652 0 -0.30384454770288349 -0.42365510296155823 0 -0.29098574093082469 -0.42083927077197419 0 -0.29441118259895749 -0.43791580395115332 0 -0.29098574093082469 -0.42083927077197419 0 -0.27664809281559932 -0.43193846137490821 0 -0.29441118259895749 -0.43791580395115332 0 -0.30481714480569749 -0.3681599926732354 0 -0.32177544039937822 -0.38048946625275848 0 -0.30920844470149023 -0.39727250314481333 0 -0.30481714480569749 -0.3681599926732354 0 -0.30920844470149023 -0.39727250314481333 0 -0.30481714480569749 -0.3681599926732354 0 -0.30920844470149023 -0.39727250314481333 0 -0.28640023664263992 -0.38657886851248707 0 -0.30329778649106792 -0.41015871077642341 0 -0.30920844470149023 -0.39727250314481333 0 -0.29070655294646031 -0.40458485927204652 0 -0.29070655294646031 -0.40458485927204652 0 -0.28640023664263992 -0.38657886851248707 0 -0.26933735281436272 -0.40336823156140011 0 -0.30920844470149023 -0.39727250314481333 0 -0.29070655294646031 -0.40458485927204652 0 -0.28640023664263992 -0.38657886851248707 0 -0.27918128829152911 -0.35982433670777092 0 -0.28640023664263992 -0.38657886851248707 0 -0.26374132527587169 -0.3843029380437154 0 -0.28640023664263992 -0.38657886851248707 0 -0.26933735281436272 -0.40336823156140011 0 -0.26374132527587169 -0.3843029380437154 0 -0.26933735281436272 -0.40336823156140011 0 -0.25173609945319692 -0.40447119833770301 0 -0.26374132527587169 -0.3843029380437154 0 -0.25173609945319692 -0.40447119833770301 0 -0.26374132527587169 -0.3843029380437154 0 -0.245284200947926 -0.39024320684448183 0 -0.26374132527587169 -0.3843029380437154 0 -0.245284200947926 -0.39024320684448183 0 -0.2451961535316893 -0.3740197755715004 0 -0.29098574093082469 -0.42083927077197419 0 -0.27664809281559932 -0.43193846137490821 0 -0.27379579660972669 -0.41820875964367737 0 -0.27664809281559932 -0.43193846137490821 0 -0.27379579660972669 -0.41820875964367737 0 -0.26260471575422212 -0.4272820886259574 0 -0.27664809281559932 -0.43193846137490821 0 -0.26260471575422212 -0.4272820886259574 0 -0.26189406755324851 -0.44088615211260113 0 -0.29070655294646031 -0.40458485927204652 0 -0.26933735281436272 -0.40336823156140011 0 -0.27379579660972669 -0.41820875964367737 0 -0.26933735281436272 -0.40336823156140011 0 -0.27379579660972669 -0.41820875964367737 0 -0.25830913391041588 -0.41679698080867761 0 -0.25830913391041588 -0.41679698080867761 0 -0.25060915478330192 -0.42997888991647287 0 -0.2417716840476852 -0.41747271676685488 0 -0.27379579660972669 -0.41820875964367737 0 -0.25830913391041588 -0.41679698080867761 0 -0.26260471575422212 -0.4272820886259574 0 -0.26933735281436272 -0.40336823156140011 0 -0.25173609945319692 -0.40447119833770301 0 -0.25830913391041588 -0.41679698080867761 0 -0.25173609945319692 -0.40447119833770301 0 -0.25830913391041588 -0.41679698080867761 0 -0.2417716840476852 -0.41747271676685488 0 -0.25830913391041588 -0.41679698080867761 0 -0.26260471575422212 -0.4272820886259574 0 -0.25060915478330192 -0.42997888991647287 0 -0.26260471575422212 -0.4272820886259574 0 -0.25060915478330192 -0.42997888991647287 0 -0.26189406755324851 -0.44088615211260113 0 -0.25060915478330192 -0.42997888991647287 0 -0.26189406755324851 -0.44088615211260113 0 -0.24580207242716159 -0.44435027413341882 0 -0.26189406755324851 -0.44088615211260113 0 -0.25714280786749999 -0.45355571091237351 0 -0.24580207242716159 -0.44435027413341882 0 -0.25714280786749999 -0.45355571091237351 0 -0.24580207242716159 -0.44435027413341882 0 -0.24795552214399469 -0.45724531956526732 0 -0.26543339993590331 -0.45088648756542432 0 -0.26189406755324851 -0.44088615211260113 0 -0.25714280786749999 -0.45355571091237351 0 -0.25245776850356988 -0.46580483675550283 0 -0.25714280786749999 -0.45355571091237351 0 -0.26061485282869212 -0.46537361421679402 0 -0.25245776850356988 -0.46580483675550283 0 -0.25714280786749999 -0.45355571091237351 0 -0.24795552214399469 -0.45724531956526732 0 -0.26543339993590331 -0.45088648756542432 0 -0.25714280786749999 -0.45355571091237351 0 -0.26796413407596531 -0.46180821904745611 0 -0.25714280786749999 -0.45355571091237351 0 -0.26061485282869212 -0.46537361421679402 0 -0.26796413407596531 -0.46180821904745611 0 -0.26061485282869212 -0.46537361421679402 0 -0.26796413407596531 -0.46180821904745611 0 -0.26826284719916849 -0.47003214237111701 0 -0.26796413407596531 -0.46180821904745611 0 -0.27899107918102378 -0.46538608533237508 0 -0.27473259024689928 -0.44729586818926659 0 -0.26796413407596531 -0.46180821904745611 0 -0.27899107918102378 -0.46538608533237508 0 -0.26826284719916849 -0.47003214237111701 0 -0.26543339993590331 -0.45088648756542432 0 -0.26796413407596531 -0.46180821904745611 0 -0.27473259024689928 -0.44729586818926659 0 -0.27664809281559932 -0.43193846137490821 0 -0.26189406755324851 -0.44088615211260113 0 -0.27473259024689928 -0.44729586818926659 0 -0.26543339993590331 -0.45088648756542432 0 -0.26189406755324851 -0.44088615211260113 0 -0.27473259024689928 -0.44729586818926659 0 -0.27473259024689928 -0.44729586818926659 0 -0.29441118259895749 -0.43791580395115332 0 -0.29215992347247088 -0.45615621206271378 0 -0.27664809281559932 -0.43193846137490821 0 -0.27473259024689928 -0.44729586818926659 0 -0.29441118259895749 -0.43791580395115332 0 -0.29215992347247088 -0.45615621206271378 0 -0.30766866580333418 -0.46404221418668562 0 -0.28937607782546232 -0.47289126141069199 0 -0.27899107918102378 -0.46538608533237508 0 -0.29215992347247088 -0.45615621206271378 0 -0.28937607782546232 -0.47289126141069199 0 -0.27899107918102378 -0.46538608533237508 0 -0.27473259024689928 -0.44729586818926659 0 -0.29215992347247088 -0.45615621206271378 0 -0.29215992347247088 -0.45615621206271378 0 -0.30766866580333418 -0.46404221418668562 0 -0.30631548197943181 -0.45020321435129163 0 -0.31066729763307033 -0.46763517906468671 0 -0.30766866580333418 -0.46404221418668562 0 -0.28937607782546232 -0.47289126141069199 0 -0.30766866580333418 -0.46404221418668562 0 -0.28937607782546232 -0.47289126141069199 0 -0.29441118259895749 -0.43791580395115332 0 -0.31209140408538499 -0.43755458807286701 0 -0.30631548197943181 -0.45020321435129163 0 -0.29441118259895749 -0.43791580395115332 0 -0.29215992347247088 -0.45615621206271378 0 -0.30631548197943181 -0.45020321435129163 0 -0.32258748823255629 -0.48261984894576032 0 -0.31118579218984982 -0.5 0 -0.30360830224126079 -0.48429078345075749 0 -0.31118579218984982 -0.5 0 -0.30360830224126079 -0.48429078345075749 0 -0.28523632514449321 -0.5 0 -0.32258748823255629 -0.48261984894576032 0 -0.31066729763307033 -0.46763517906468671 0 -0.30360830224126079 -0.48429078345075749 0 -0.31066729763307033 -0.46763517906468671 0 -0.30360830224126079 -0.48429078345075749 0 -0.28937607782546232 -0.47289126141069199 0 -0.31066729763307033 -0.46763517906468671 0 -0.28937607782546232 -0.47289126141069199 0 -0.28937607782546232 -0.47289126141069199 0 -0.27368277292671889 -0.47676540782288102 0 -0.30360830224126079 -0.48429078345075749 0 -0.28937607782546232 -0.47289126141069199 0 -0.28523632514449321 -0.5 0 -0.28937607782546232 -0.47289126141069199 0 -0.28523632514449321 -0.5 0 -0.27069651556823432 -0.48192750760712572 0 -0.28523632514449321 -0.5 0 -0.27069651556823432 -0.48192750760712572 0 -0.25928685809913649 -0.5 0 -0.28937607782546232 -0.47289126141069199 0 -0.27368277292671889 -0.47676540782288102 0 -0.27069651556823432 -0.48192750760712572 0 -0.27899107918102378 -0.46538608533237508 0 -0.28937607782546232 -0.47289126141069199 0 -0.27368277292671889 -0.47676540782288102 0 -0.28937607782546232 -0.47289126141069199 0 -0.27069651556823432 -0.48192750760712572 0 -0.27899107918102378 -0.46538608533237508 0 -0.27368277292671889 -0.47676540782288102 0 -0.26826284719916849 -0.47003214237111701 0 -0.27069651556823432 -0.48192750760712572 0 -0.26763354161552949 -0.47576240715640888 0 -0.26069070256708171 -0.47509712065078691 0 -0.27368277292671889 -0.47676540782288102 0 -0.27069651556823432 -0.48192750760712572 0 -0.26763354161552949 -0.47576240715640888 0 -0.27368277292671889 -0.47676540782288102 0 -0.26763354161552949 -0.47576240715640888 0 -0.26826284719916849 -0.47003214237111701 0 -0.27069651556823432 -0.48192750760712572 0 -0.26069070256708171 -0.47509712065078691 0 -0.25201695331100632 -0.4909637538035595 0 -0.26069070256708171 -0.47509712065078691 0 -0.25201695331100632 -0.4909637538035595 0 -0.24912172039779421 -0.47617382979713779 0 -0.26061485282869212 -0.46537361421679402 0 -0.26826284719916849 -0.47003214237111701 0 -0.26069070256708171 -0.47509712065078691 0 -0.25245776850356988 -0.46580483675550283 0 -0.26061485282869212 -0.46537361421679402 0 -0.26069070256708171 -0.47509712065078691 0 -0.26763354161552949 -0.47576240715640888 0 -0.26826284719916849 -0.47003214237111701 0 -0.26069070256708171 -0.47509712065078691 0 -0.25245776850356988 -0.46580483675550283 0 -0.26069070256708171 -0.47509712065078691 0 -0.24912172039779421 -0.47617382979713779 0 -0.27069651556823432 -0.48192750760712572 0 -0.25928685809913649 -0.5 0 -0.25201695331100632 -0.4909637538035595 0 -0.27069651556823432 -0.48192750760712572 0 -0.25201695331100632 -0.4909637538035595 0 -0.25928685809913649 -0.5 0 -0.25201695331100632 -0.4909637538035595 0 -0.23333739105377971 -0.49999999999999628 0 -0.25201695331100632 -0.4909637538035595 0 -0.23846334575707001 -0.48142156522644158 0 -0.23333739105377971 -0.49999999999999628 0 -0.25201695331100632 -0.4909637538035595 0 -0.23333739105377971 -0.49999999999999628 0 -0.25201695331100632 -0.4909637538035595 0 -0.24912172039779421 -0.47617382979713779 0 -0.23846334575707001 -0.48142156522644158 0 -0.24912172039779421 -0.47617382979713779 0 -0.23846334575707001 -0.48142156522644158 0 -0.24238388688765239 -0.46767020567896078 0 -0.25245776850356988 -0.46580483675550283 0 -0.24912172039779421 -0.47617382979713779 0 -0.24238388688765239 -0.46767020567896078 0 -0.23846334575707001 -0.48142156522644158 0 -0.24238388688765239 -0.46767020567896078 0 -0.22909247805720159 -0.46873724200725608 0 -0.2222702329678114 -0.48478288248032431 0 -0.22909247805720159 -0.46873724200725608 0 -0.21338868269241251 -0.46805399393142683 0 -0.23846334575707001 -0.48142156522644158 0 -0.2222702329678114 -0.48478288248032431 0 -0.22909247805720159 -0.46873724200725608 0 -0.23846334575707001 -0.48142156522644158 0 -0.23333739105377971 -0.49999999999999628 0 -0.2222702329678114 -0.48478288248032431 0 -0.23333739105377971 -0.49999999999999628 0 -0.2222702329678114 -0.48478288248032431 0 -0.21306292223605319 -0.5 0 -0.24580207242716159 -0.44435027413341882 0 -0.23283439282877891 -0.44467907882960689 0 -0.23629949510350201 -0.43237132570418602 0 -0.24580207242716159 -0.44435027413341882 0 -0.23818221855606619 -0.45685044023311028 0 -0.24795552214399469 -0.45724531956526732 0 -0.24580207242716159 -0.44435027413341882 0 -0.23818221855606619 -0.45685044023311028 0 -0.23283439282877891 -0.44467907882960689 0 -0.23818221855606619 -0.45685044023311028 0 -0.24795552214399469 -0.45724531956526732 0 -0.24238388688765239 -0.46767020567896078 0 -0.25245776850356988 -0.46580483675550283 0 -0.24795552214399469 -0.45724531956526732 0 -0.24238388688765239 -0.46767020567896078 0 -0.23818221855606619 -0.45685044023311028 0 -0.24238388688765239 -0.46767020567896078 0 -0.22909247805720159 -0.46873724200725608 0 -0.22909247805720159 -0.46873724200725608 0 -0.22072409261501161 -0.45295441828053401 0 -0.21338868269241251 -0.46805399393142683 0 -0.23818221855606619 -0.45685044023311028 0 -0.22909247805720159 -0.46873724200725608 0 -0.22072409261501161 -0.45295441828053401 0 -0.23818221855606619 -0.45685044023311028 0 -0.22072409261501161 -0.45295441828053401 0 -0.23283439282877891 -0.44467907882960689 0 -0.22072409261501161 -0.45295441828053401 0 -0.23283439282877891 -0.44467907882960689 0 -0.22316408544215299 -0.43686893579678537 0 -0.23283439282877891 -0.44467907882960689 0 -0.22316408544215299 -0.43686893579678537 0 -0.23629949510350201 -0.43237132570418602 0 -0.21206997271981259 -0.44311428494470828 0 -0.20260096911901609 -0.45235721573264898 0 -0.2030828040475508 -0.43468449538159393 0 -0.22072409261501161 -0.45295441828053401 0 -0.21206997271981259 -0.44311428494470828 0 -0.20260096911901609 -0.45235721573264898 0 -0.22072409261501161 -0.45295441828053401 0 -0.21206997271981259 -0.44311428494470828 0 -0.22316408544215299 -0.43686893579678537 0 -0.21338868269241251 -0.46805399393142683 0 -0.19916753334786419 -0.46850284344174459 0 -0.20260096911901609 -0.45235721573264898 0 -0.22072409261501161 -0.45295441828053401 0 -0.21338868269241251 -0.46805399393142683 0 -0.20260096911901609 -0.45235721573264898 0 -0.19916753334786419 -0.46850284344174459 0 -0.19022858385116229 -0.45832994663525689 0 -0.20260096911901609 -0.45235721573264898 0 -0.19916753334786419 -0.46850284344174459 0 -0.19022858385116229 -0.45832994663525689 0 -0.18802443762313009 -0.47189059452009752 0 -0.19041632307296441 -0.44246193039371251 0 -0.20260096911901609 -0.45235721573264898 0 -0.2030828040475508 -0.43468449538159393 0 -0.19022858385116229 -0.45832994663525689 0 -0.19041632307296441 -0.44246193039371251 0 -0.20260096911901609 -0.45235721573264898 0 -0.21306292223605319 -0.5 0 -0.20662151505330539 -0.48228944359192921 0 -0.19967074507892901 -0.49213634322567612 0 -0.2222702329678114 -0.48478288248032431 0 -0.21306292223605319 -0.5 0 -0.20662151505330539 -0.48228944359192921 0 -0.2222702329678114 -0.48478288248032431 0 -0.21338868269241251 -0.46805399393142683 0 -0.20662151505330539 -0.48228944359192921 0 -0.21338868269241251 -0.46805399393142683 0 -0.19916753334786419 -0.46850284344174459 0 -0.20662151505330539 -0.48228944359192921 0 -0.19916753334786419 -0.46850284344174459 0 -0.20662151505330539 -0.48228944359192921 0 -0.19443979643493209 -0.48236964541553201 0 -0.19916753334786419 -0.46850284344174459 0 -0.18802443762313009 -0.47189059452009752 0 -0.19443979643493209 -0.48236964541553201 0 -0.18802443762313009 -0.47189059452009752 0 -0.19443979643493209 -0.48236964541553201 0 -0.18338078540231509 -0.48201477762447009 0 -0.19443979643493209 -0.48236964541553201 0 -0.19967074507892901 -0.49213634322567612 0 -0.19144103825202749 -0.49602262712091921 0 -0.21306292223605319 -0.5 0 -0.19967074507892901 -0.49213634322567612 0 -0.19278845341832679 -0.5 0 -0.19443979643493209 -0.48236964541553201 0 -0.19144103825202749 -0.49602262712091921 0 -0.18338078540231509 -0.48201477762447009 0 -0.20662151505330539 -0.48228944359192921 0 -0.19443979643493209 -0.48236964541553201 0 -0.19967074507892901 -0.49213634322567612 0 -0.19967074507892901 -0.49213634322567612 0 -0.19278845341832679 -0.5 0 -0.19144103825202749 -0.49602262712091921 0 -0.19278845341832679 -0.5 0 -0.19144103825202749 -0.49602262712091921 0 -0.1725139846006003 -0.49999999999999972 0 -0.19144103825202749 -0.49602262712091921 0 -0.16641350591259149 -0.48315983530672252 0 -0.18338078540231509 -0.48201477762447009 0 -0.19144103825202749 -0.49602262712091921 0 -0.1725139846006003 -0.49999999999999972 0 -0.16641350591259149 -0.48315983530672252 0 -0.19144103825202749 -0.49602262712091921 0 -0.16641350591259149 -0.48315983530672252 0 -0.1725139846006003 -0.49999999999999972 0 -0.16641350591259149 -0.48315983530672252 0 -0.15236039196307191 -0.48724311093801298 0 -0.1725139846006003 -0.49999999999999972 0 -0.16641350591259149 -0.48315983530672252 0 -0.1725139846006003 -0.49999999999999972 0 -0.14518927398750939 -0.5 0 -0.15236039196307191 -0.48724311093801298 0 -0.16641350591259149 -0.48315983530672252 0 -0.1583482804491487 -0.46089605371861619 0 -0.1475002040328115 -0.47343942574738951 0 -0.16641350591259149 -0.48315983530672252 0 -0.1475002040328115 -0.47343942574738951 0 -0.16641350591259149 -0.48315983530672252 0 -0.1583482804491487 -0.46089605371861619 0 -0.16641350591259149 -0.48315983530672252 0 -0.17369691144873409 -0.46501525532000493 0 -0.1583482804491487 -0.46089605371861619 0 -0.16641350591259149 -0.48315983530672252 0 -0.17772507337026119 -0.47498720729742239 0 -0.17369691144873409 -0.46501525532000493 0 -0.16641350591259149 -0.48315983530672252 0 -0.17772507337026119 -0.47498720729742239 0 -0.18338078540231509 -0.48201477762447009 0 -0.18802443762313009 -0.47189059452009752 0 -0.17772507337026119 -0.47498720729742239 0 -0.17369691144873409 -0.46501525532000493 0 -0.18802443762313009 -0.47189059452009752 0 -0.17772507337026119 -0.47498720729742239 0 -0.18338078540231509 -0.48201477762447009 0 -0.19022858385116229 -0.45832994663525689 0 -0.18802443762313009 -0.47189059452009752 0 -0.17369691144873409 -0.46501525532000493 0 -0.17369691144873409 -0.46501525532000493 0 -0.17921783941646449 -0.45011332088955358 0 -0.16517400825891759 -0.44529302263470633 0 -0.19022858385116229 -0.45832994663525689 0 -0.17369691144873409 -0.46501525532000493 0 -0.17921783941646449 -0.45011332088955358 0 -0.17921783941646449 -0.45011332088955358 0 -0.16517400825891759 -0.44529302263470633 0 -0.1757601802925621 -0.4338922597544202 0 -0.19022858385116229 -0.45832994663525689 0 -0.19041632307296441 -0.44246193039371251 0 -0.17921783941646449 -0.45011332088955358 0 -0.19041632307296441 -0.44246193039371251 0 -0.17921783941646449 -0.45011332088955358 0 -0.1757601802925621 -0.4338922597544202 0 -0.16517400825891759 -0.44529302263470633 0 -0.1583482804491487 -0.46089605371861619 0 -0.15028305498570729 -0.43863227213050948 0 -0.16517400825891759 -0.44529302263470633 0 -0.15028305498570729 -0.43863227213050948 0 -0.16313767916615171 -0.43209948012193772 0 -0.17369691144873409 -0.46501525532000493 0 -0.16517400825891759 -0.44529302263470633 0 -0.1583482804491487 -0.46089605371861619 0 -0.1583482804491487 -0.46089605371861619 0 -0.14188004323721171 -0.45694876165984549 0 -0.1475002040328115 -0.47343942574738951 0 -0.1583482804491487 -0.46089605371861619 0 -0.14188004323721171 -0.45694876165984549 0 -0.15028305498570729 -0.43863227213050948 0 -0.1583482804491487 -0.46089605371861619 0 -0.15028305498570729 -0.43863227213050948 0 -0.15028305498570729 -0.43863227213050948 0 -0.13077069007572109 -0.43310804016754201 0 -0.1246817745653606 -0.44805704051465428 0 -0.14188004323721171 -0.45694876165984549 0 -0.15028305498570729 -0.43863227213050948 0 -0.1246817745653606 -0.44805704051465428 0 -0.14188004323721171 -0.45694876165984549 0 -0.12858690215303051 -0.46371901618805828 0 -0.1246817745653606 -0.44805704051465428 0 -0.14188004323721171 -0.45694876165984549 0 -0.12858690215303051 -0.46371901618805828 0 -0.1475002040328115 -0.47343942574738951 0 -0.12858690215303051 -0.46371901618805828 0 -0.1475002040328115 -0.47343942574738951 0 -0.12858690215303051 -0.46371901618805828 0 -0.13373367115321971 -0.48380607728579073 0 -0.1475002040328115 -0.47343942574738951 0 -0.13373367115321971 -0.48380607728579073 0 -0.14518927398750939 -0.5 0 -0.1178645633744184 -0.5 0 -0.13373367115321971 -0.48380607728579073 0 -0.14518927398750939 -0.5 0 -0.15236039196307191 -0.48724311093801298 0 -0.16641350591259149 -0.48315983530672252 0 -0.15236039196307191 -0.48724311093801298 0 -0.1475002040328115 -0.47343942574738951 0 -0.13373367115321971 -0.48380607728579073 0 -0.15236039196307191 -0.48724311093801298 0 -0.1475002040328115 -0.47343942574738951 0 -0.14256164088486351 -0.39419872567851949 0 -0.1533816267421878 -0.40081864813847212 0 -0.14063224798450691 -0.37966798116216022 0 -0.14256164088486351 -0.39419872567851949 0 -0.14539664980619749 -0.40018650739087602 0 -0.1533816267421878 -0.40081864813847212 0 -0.14539664980619749 -0.40018650739087602 0 -0.1533816267421878 -0.40081864813847212 0 -0.1462159488120055 -0.4081544561690848 0 -0.14539664980619749 -0.40018650739087602 0 -0.13083603900656049 -0.39612176602256899 0 -0.1462159488120055 -0.4081544561690848 0 -0.1533816267421878 -0.40081864813847212 0 -0.1462159488120055 -0.4081544561690848 0 -0.15444249595433271 -0.40912491605223988 0 -0.15437043067677769 -0.37502685415533132 0 -0.14220327332501889 -0.37702927541168341 0 -0.15881123417693649 -0.38653027421996122 0 -0.1533816267421878 -0.40081864813847212 0 -0.14063224798450691 -0.37966798116216022 0 -0.15881123417693649 -0.38653027421996122 0 -0.1533816267421878 -0.40081864813847212 0 -0.14063224798450691 -0.37966798116216022 0 -0.14063224798450691 -0.37966798116216022 0 -0.14220327332501889 -0.37702927541168341 0 -0.15881123417693649 -0.38653027421996122 0 -0.14220327332501889 -0.37702927541168341 0 -0.15881123417693649 -0.38653027421996122 0 -0.14063224798450691 -0.37966798116216022 0 -0.14220327332501889 -0.37702927541168341 0 -0.14063224798450691 -0.37966798116216022 0 -0.13083603900656049 -0.39612176602256899 0 -0.14063224798450691 -0.37966798116216022 0 -0.1282602211981495 -0.38344507038105058 0 -0.13083603900656049 -0.39612176602256899 0 -0.14256164088486351 -0.39419872567851949 0 -0.14063224798450691 -0.37966798116216022 0 -0.13083603900656049 -0.39612176602256899 0 -0.14063224798450691 -0.37966798116216022 0 -0.1282602211981495 -0.38344507038105058 0 -0.13737756990640751 -0.37426861124357141 0 -0.14063224798450691 -0.37966798116216022 0 -0.14220327332501889 -0.37702927541168341 0 -0.13737756990640751 -0.37426861124357141 0 -0.14063224798450691 -0.37966798116216022 0 -0.13737756990640751 -0.37426861124357141 0 -0.14220327332501889 -0.37702927541168341 0 -0.13737756990640751 -0.37426861124357141 0 -0.13083603900656049 -0.39612176602256899 0 -0.1210398300286134 -0.41257555088297743 0 -0.13083603900656049 -0.39612176602256899 0 -0.1462159488120055 -0.4081544561690848 0 -0.1210398300286134 -0.41257555088297743 0 -0.14256164088486351 -0.39419872567851949 0 -0.14539664980619749 -0.40018650739087602 0 -0.13083603900656049 -0.39612176602256899 0 -0.1462159488120055 -0.4081544561690848 0 -0.14221782952226589 -0.41636849054240282 0 -0.1210398300286134 -0.41257555088297743 0 -0.12619577702185669 -0.42297562863706512 0 -0.14221782952226589 -0.41636849054240282 0 -0.1210398300286134 -0.41257555088297743 0 -0.1462159488120055 -0.4081544561690848 0 -0.1210398300286134 -0.41257555088297743 0 -0.12619577702185669 -0.42297562863706512 0 -0.13077069007572109 -0.43310804016754201 0 -0.14221782952226589 -0.41636849054240282 0 -0.15028305498570729 -0.43863227213050948 0 -0.1551121584580103 -0.41906700541100589 0 -0.16313767916615171 -0.43209948012193772 0 -0.15028305498570729 -0.43863227213050948 0 -0.14221782952226589 -0.41636849054240282 0 -0.15028305498570729 -0.43863227213050948 0 -0.14221782952226589 -0.41636849054240282 0 -0.1551121584580103 -0.41906700541100589 0 -0.15028305498570729 -0.43863227213050948 0 -0.13077069007572109 -0.43310804016754201 0 -0.14221782952226589 -0.41636849054240282 0 -0.1462159488120055 -0.4081544561690848 0 -0.14221782952226589 -0.41636849054240282 0 -0.1551121584580103 -0.41906700541100589 0 -0.1462159488120055 -0.4081544561690848 0 -0.1551121584580103 -0.41906700541100589 0 -0.15444249595433271 -0.40912491605223988 0 -0.1551121584580103 -0.41906700541100589 0 -0.15444249595433271 -0.40912491605223988 0 -0.16306024980512729 -0.40845955449039723 0 -0.1551121584580103 -0.41906700541100589 0 -0.16306024980512729 -0.40845955449039723 0 -0.16610043743126501 -0.42041013830338492 0 -0.16306024980512729 -0.40845955449039723 0 -0.16610043743126501 -0.42041013830338492 0 -0.1770044179043285 -0.41127420441470852 0 -0.1551121584580103 -0.41906700541100589 0 -0.16610043743126501 -0.42041013830338492 0 -0.16313767916615171 -0.43209948012193772 0 -0.16610043743126501 -0.42041013830338492 0 -0.16313767916615171 -0.43209948012193772 0 -0.1757601802925621 -0.4338922597544202 0 -0.16517400825891759 -0.44529302263470633 0 -0.16313767916615171 -0.43209948012193772 0 -0.1757601802925621 -0.4338922597544202 0 -0.19041632307296441 -0.44246193039371251 0 -0.1757601802925621 -0.4338922597544202 0 -0.18850576852329631 -0.42432953571085769 0 -0.16610043743126501 -0.42041013830338492 0 -0.1757601802925621 -0.4338922597544202 0 -0.17723997756437371 -0.42263041367423188 0 -0.1757601802925621 -0.4338922597544202 0 -0.17723997756437371 -0.42263041367423188 0 -0.18850576852329631 -0.42432953571085769 0 -0.1770044179043285 -0.41127420441470852 0 -0.18850576852329631 -0.42432953571085769 0 -0.19236858755892461 -0.40767953908418769 0 -0.16610043743126501 -0.42041013830338492 0 -0.17723997756437371 -0.42263041367423188 0 -0.1770044179043285 -0.41127420441470852 0 -0.17723997756437371 -0.42263041367423188 0 -0.1770044179043285 -0.41127420441470852 0 -0.18850576852329631 -0.42432953571085769 0 -0.1770044179043285 -0.41127420441470852 0 -0.17541919502885411 -0.39603127302823887 0 -0.19236858755892461 -0.40767953908418769 0 -0.16306024980512729 -0.40845955449039723 0 -0.1770044179043285 -0.41127420441470852 0 -0.17541919502885411 -0.39603127302823887 0 -0.17541919502885411 -0.39603127302823887 0 -0.16308450303263189 -0.39773132454924348 0 -0.15881123417693649 -0.38653027421996122 0 -0.16306024980512729 -0.40845955449039723 0 -0.17541919502885411 -0.39603127302823887 0 -0.16308450303263189 -0.39773132454924348 0 -0.17541919502885411 -0.39603127302823887 0 -0.15881123417693649 -0.38653027421996122 0 -0.1533816267421878 -0.40081864813847212 0 -0.16308450303263189 -0.39773132454924348 0 -0.15881123417693649 -0.38653027421996122 0 -0.1533816267421878 -0.40081864813847212 0 -0.16306024980512729 -0.40845955449039723 0 -0.16308450303263189 -0.39773132454924348 0 -0.1533816267421878 -0.40081864813847212 0 -0.15444249595433271 -0.40912491605223988 0 -0.16306024980512729 -0.40845955449039723 0 -0.15437043067677769 -0.37502685415533132 0 -0.15881123417693649 -0.38653027421996122 0 -0.17792681140336231 -0.36968284818092462 0 -0.17541919502885411 -0.39603127302823887 0 -0.15881123417693649 -0.38653027421996122 0 -0.17792681140336231 -0.36968284818092462 0 -0.17541919502885411 -0.39603127302823887 0 -0.19739271022962129 -0.38964287176130269 0 -0.17792681140336231 -0.36968284818092462 0 -0.19739271022962129 -0.38964287176130269 0 -0.17792681140336231 -0.36968284818092462 0 -0.19739271022962129 -0.38964287176130269 0 -0.20821730463750629 -0.37427444650158298 0 -0.17792681140336231 -0.36968284818092462 0 -0.17541919502885411 -0.39603127302823887 0 -0.19739271022962129 -0.38964287176130269 0 -0.19236858755892461 -0.40767953908418769 0 -0.19739271022962129 -0.38964287176130269 0 -0.19236858755892461 -0.40767953908418769 0 -0.21685860905588039 -0.40960289534168087 0 -0.19739271022962129 -0.38964287176130269 0 -0.21756769564921341 -0.38863898843703742 0 -0.21685860905588039 -0.40960289534168087 0 -0.19739271022962129 -0.38964287176130269 0 -0.21685860905588039 -0.40960289534168087 0 -0.19739271022962129 -0.38964287176130269 0 -0.21756769564921341 -0.38863898843703742 0 -0.20821730463750629 -0.37427444650158298 0 -0.21756769564921341 -0.38863898843703742 0 -0.22866286381363021 -0.37110342279692138 0 -0.20821730463750629 -0.37427444650158298 0 -0.19041632307296441 -0.44246193039371251 0 -0.2030828040475508 -0.43468449538159393 0 -0.18850576852329631 -0.42432953571085769 0 -0.2030828040475508 -0.43468449538159393 0 -0.18850576852329631 -0.42432953571085769 0 -0.20368101521161139 -0.4193047949655942 0 -0.18850576852329631 -0.42432953571085769 0 -0.19236858755892461 -0.40767953908418769 0 -0.20368101521161139 -0.4193047949655942 0 -0.19236858755892461 -0.40767953908418769 0 -0.21685860905588039 -0.40960289534168087 0 -0.20368101521161139 -0.4193047949655942 0 -0.21685860905588039 -0.40960289534168087 0 -0.20368101521161139 -0.4193047949655942 0 -0.21425742232365491 -0.42742785651322229 0 -0.21206997271981259 -0.44311428494470828 0 -0.2030828040475508 -0.43468449538159393 0 -0.21425742232365491 -0.42742785651322229 0 -0.21206997271981259 -0.44311428494470828 0 -0.21425742232365491 -0.42742785651322229 0 -0.22316408544215299 -0.43686893579678537 0 -0.2030828040475508 -0.43468449538159393 0 -0.20368101521161139 -0.4193047949655942 0 -0.21425742232365491 -0.42742785651322229 0 -0.22316408544215299 -0.43686893579678537 0 -0.22668804746492141 -0.42099173264897088 0 -0.23629949510350201 -0.43237132570418602 0 -0.21425742232365491 -0.42742785651322229 0 -0.22316408544215299 -0.43686893579678537 0 -0.22668804746492141 -0.42099173264897088 0 -0.21685860905588039 -0.40960289534168087 0 -0.21425742232365491 -0.42742785651322229 0 -0.22668804746492141 -0.42099173264897088 0 -0.22668804746492141 -0.42099173264897088 0 -0.2417716840476852 -0.41747271676685488 0 -0.23257350655480949 -0.40235383178277212 0 -0.21685860905588039 -0.40960289534168087 0 -0.22668804746492141 -0.42099173264897088 0 -0.23257350655480949 -0.40235383178277212 0 -0.25173609945319692 -0.40447119833770301 0 -0.2417716840476852 -0.41747271676685488 0 -0.23257350655480949 -0.40235383178277212 0 -0.22668804746492141 -0.42099173264897088 0 -0.2417716840476852 -0.41747271676685488 0 -0.23629949510350201 -0.43237132570418602 0 -0.25060915478330192 -0.42997888991647287 0 -0.2417716840476852 -0.41747271676685488 0 -0.23629949510350201 -0.43237132570418602 0 -0.25060915478330192 -0.42997888991647287 0 -0.24580207242716159 -0.44435027413341882 0 -0.23629949510350201 -0.43237132570418602 0 -0.21756769564921341 -0.38863898843703742 0 -0.23286469557217249 -0.38532773488722488 0 -0.22866286381363021 -0.37110342279692138 0 -0.21756769564921341 -0.38863898843703742 0 -0.22866286381363021 -0.37110342279692138 0 -0.21756769564921341 -0.38863898843703742 0 -0.23286469557217249 -0.38532773488722488 0 -0.23257350655480949 -0.40235383178277212 0 -0.21756769564921341 -0.38863898843703742 0 -0.21685860905588039 -0.40960289534168087 0 -0.23257350655480949 -0.40235383178277212 0 -0.23286469557217249 -0.38532773488722488 0 -0.23257350655480949 -0.40235383178277212 0 -0.245284200947926 -0.39024320684448183 0 -0.25173609945319692 -0.40447119833770301 0 -0.23257350655480949 -0.40235383178277212 0 -0.245284200947926 -0.39024320684448183 0 -0.23286469557217249 -0.38532773488722488 0 -0.245284200947926 -0.39024320684448183 0 -0.2451961535316893 -0.3740197755715004 0 -0.23286469557217249 -0.38532773488722488 0 -0.2451961535316893 -0.3740197755715004 0 -0.22866286381363021 -0.37110342279692138 0 -0.2451961535316893 -0.3740197755715004 0 -0.22866286381363021 -0.37110342279692138 0 -0.2397580319780461 -0.35356785715680489 0 -0.25843233435567581 -0.36297159007713697 0 -0.2451961535316893 -0.3740197755715004 0 -0.2397580319780461 -0.35356785715680489 0 -0.22866286381363021 -0.37110342279692138 0 -0.2397580319780461 -0.35356785715680489 0 -0.22866286381363021 -0.37110342279692138 0 -0.22385561662834161 -0.35615113970506662 0 -0.2397580319780461 -0.35356785715680489 0 -0.22866286381363021 -0.37110342279692138 0 -0.22385561662834161 -0.35615113970506662 0 -0.21589461285005909 -0.36174227359365729 0 -0.22032488254637289 -0.34378199510097379 0 -0.22385561662834161 -0.35615113970506662 0 -0.2397580319780461 -0.35356785715680489 0 -0.22032488254637289 -0.34378199510097379 0 -0.2397580319780461 -0.35356785715680489 0 -0.22032488254637289 -0.34378199510097379 0 -0.2397580319780461 -0.35356785715680489 0 -0.23348527373075051 -0.34302868266106978 0 -0.22032488254637289 -0.34378199510097379 0 -0.22385561662834161 -0.35615113970506662 0 -0.21320079736739181 -0.3517949149858175 0 -0.2521673248915059 -0.33395535852616198 0 -0.2397580319780461 -0.35356785715680489 0 -0.25843233435567581 -0.36297159007713697 0 -0.2397580319780461 -0.35356785715680489 0 -0.2521673248915059 -0.33395535852616198 0 -0.2362016166573695 -0.33187423354093859 0 -0.23348527373075051 -0.34302868266106978 0 -0.2521673248915059 -0.33395535852616198 0 -0.2362016166573695 -0.33187423354093859 0 -0.24581712956767751 -0.32186579194246001 0 -0.2521673248915059 -0.33395535852616198 0 -0.2397580319780461 -0.35356785715680489 0 -0.23348527373075051 -0.34302868266106978 0 -0.24581712956767751 -0.32186579194246001 0 -0.2273554040670647 -0.32132941239810842 0 -0.24878468441748261 -0.30782709535157249 0 -0.2362016166573695 -0.33187423354093859 0 -0.24581712956767751 -0.32186579194246001 0 -0.2273554040670647 -0.32132941239810842 0 -0.2273554040670647 -0.32132941239810842 0 -0.24878468441748261 -0.30782709535157249 0 -0.2362016166573695 -0.33187423354093859 0 -0.2273554040670647 -0.32132941239810842 0 -0.22292618638108569 -0.33855969009650427 0 -0.2362016166573695 -0.33187423354093859 0 -0.23348527373075051 -0.34302868266106978 0 -0.22292618638108569 -0.33855969009650427 0 -0.22032488254637289 -0.34378199510097379 0 -0.23348527373075051 -0.34302868266106978 0 -0.22292618638108569 -0.33855969009650427 0 -0.22292618638108569 -0.33855969009650427 0 -0.20588500005761429 -0.33503028888695979 0 -0.2273554040670647 -0.32132941239810842 0 -0.20588500005761429 -0.33503028888695979 0 -0.22032488254637289 -0.34378199510097379 0 -0.20089173311469941 -0.33399613304514331 0 -0.22032488254637289 -0.34378199510097379 0 -0.22292618638108569 -0.33855969009650427 0 -0.20588500005761429 -0.33503028888695979 0 -0.22032488254637289 -0.34378199510097379 0 -0.20588500005761429 -0.33503028888695979 0 -0.20089173311469941 -0.33399613304514331 0 -0.22032488254637289 -0.34378199510097379 0 -0.2080310779129512 -0.34225985420787469 0 -0.20089173311469941 -0.33399613304514331 0 -0.2273554040670647 -0.32132941239810842 0 -0.22292618638108569 -0.33855969009650427 0 -0.20588500005761429 -0.33503028888695979 0 -0.20588500005761429 -0.33503028888695979 0 -0.20645278432913119 -0.3218773651378441 0 -0.20266021701457149 -0.32916403384905363 0 -0.20588500005761429 -0.33503028888695979 0 -0.20089173311469941 -0.33399613304514331 0 -0.20588500005761429 -0.33503028888695979 0 -0.20089173311469941 -0.33399613304514331 0 -0.20266021701457149 -0.32916403384905363 0 -0.2080310779129512 -0.34225985420787469 0 -0.20181591550486441 -0.34135139445777152 0 -0.20089173311469941 -0.33399613304514331 0 -0.2080310779129512 -0.34225985420787469 0 -0.20181591550486441 -0.34135139445777152 0 -0.2054350285828398 -0.34654212807766749 0 -0.2273554040670647 -0.32132941239810842 0 -0.20588500005761429 -0.33503028888695979 0 -0.20645278432913119 -0.3218773651378441 0 -0.2273554040670647 -0.32132941239810842 0 -0.20645278432913119 -0.3218773651378441 0 -0.21766117618446351 -0.30824254755480313 0 -0.20645278432913119 -0.3218773651378441 0 -0.21766117618446351 -0.30824254755480313 0 -0.20346683708224531 -0.31084729036307052 0 -0.20645278432913119 -0.3218773651378441 0 -0.19103201431363939 -0.31688344474194868 0 -0.20346683708224531 -0.31084729036307052 0 -0.20645278432913119 -0.3218773651378441 0 -0.19737022689780889 -0.32595090776858288 0 -0.20266021701457149 -0.32916403384905363 0 -0.20645278432913119 -0.3218773651378441 0 -0.19737022689780889 -0.32595090776858288 0 -0.19103201431363939 -0.31688344474194868 0 -0.19737022689780889 -0.32595090776858288 0 -0.18789949026383709 -0.32745368881697368 0 -0.19103201431363939 -0.31688344474194868 0 -0.20089173311469941 -0.33399613304514331 0 -0.1947797646698918 -0.34466267290479968 0 -0.18421329040694509 -0.33911192419366332 0 -0.20181591550486441 -0.34135139445777152 0 -0.20089173311469941 -0.33399613304514331 0 -0.1947797646698918 -0.34466267290479968 0 -0.19737022689780889 -0.32595090776858288 0 -0.20089173311469941 -0.33399613304514331 0 -0.20266021701457149 -0.32916403384905363 0 -0.19737022689780889 -0.32595090776858288 0 -0.18789949026383709 -0.32745368881697368 0 -0.20089173311469941 -0.33399613304514331 0 -0.18789949026383709 -0.32745368881697368 0 -0.20089173311469941 -0.33399613304514331 0 -0.1947797646698918 -0.34466267290479968 0 -0.18986968506967861 -0.35465606920966558 0 -0.18301329575348849 -0.34620356592961682 0 -0.1947797646698918 -0.34466267290479968 0 -0.20049467675813851 -0.35897311009837751 0 -0.2054350285828398 -0.34654212807766749 0 -0.20181591550486441 -0.34135139445777152 0 -0.1947797646698918 -0.34466267290479968 0 -0.2054350285828398 -0.34654212807766749 0 -0.1947797646698918 -0.34466267290479968 0 -0.20049467675813851 -0.35897311009837751 0 -0.18986968506967861 -0.35465606920966558 0 -0.20049467675813851 -0.35897311009837751 0 -0.20821730463750629 -0.37427444650158298 0 -0.17792681140336231 -0.36968284818092462 0 -0.20049467675813851 -0.35897311009837751 0 -0.18986968506967861 -0.35465606920966558 0 -0.17792681140336231 -0.36968284818092462 0 -0.20049467675813851 -0.35897311009837751 0 -0.20821730463750629 -0.37427444650158298 0 -0.21589461285005909 -0.36174227359365729 0 -0.22866286381363021 -0.37110342279692138 0 -0.20821730463750629 -0.37427444650158298 0 -0.21589461285005909 -0.36174227359365729 0 -0.22385561662834161 -0.35615113970506662 0 -0.21589461285005909 -0.36174227359365729 0 -0.21320079736739181 -0.3517949149858175 0 -0.22032488254637289 -0.34378199510097379 0 -0.2080310779129512 -0.34225985420787469 0 -0.21168782981597939 -0.34562762035781719 0 -0.22032488254637289 -0.34378199510097379 0 -0.21320079736739181 -0.3517949149858175 0 -0.21168782981597939 -0.34562762035781719 0 -0.21320079736739181 -0.3517949149858175 0 -0.21168782981597939 -0.34562762035781719 0 -0.2054350285828398 -0.34654212807766749 0 -0.2080310779129512 -0.34225985420787469 0 -0.21168782981597939 -0.34562762035781719 0 -0.2054350285828398 -0.34654212807766749 0 -0.20049467675813851 -0.35897311009837751 0 -0.21589461285005909 -0.36174227359365729 0 -0.21320079736739181 -0.3517949149858175 0 -0.20049467675813851 -0.35897311009837751 0 -0.21320079736739181 -0.3517949149858175 0 -0.2054350285828398 -0.34654212807766749 0 -0.23787444231803079 -0.27010267853719971 0 -0.24102500290493409 -0.2487761892091421 0 -0.22395341521182191 -0.24856859667403139 0 -0.23787444231803079 -0.27010267853719971 0 -0.21113655800828279 -0.26571413516680481 0 -0.22395341521182191 -0.24856859667403139 0 -0.25431501404594598 -0.25676801052014742 0 -0.23787444231803079 -0.27010267853719971 0 -0.24102500290493409 -0.2487761892091421 0 -0.23787444231803079 -0.27010267853719971 0 -0.21113655800828279 -0.26571413516680481 0 -0.23787444231803079 -0.27010267853719971 0 -0.2166208007114577 -0.28164996393389391 0 -0.21113655800828279 -0.26571413516680481 0 -0.23787444231803079 -0.27010267853719971 0 -0.2266692138545828 -0.29364471998089831 0 -0.2166208007114577 -0.28164996393389391 0 -0.25500487631019841 -0.28800787195402933 0 -0.23787444231803079 -0.27010267853719971 0 -0.24115385011983101 -0.29688691748796803 0 -0.23787444231803079 -0.27010267853719971 0 -0.2266692138545828 -0.29364471998089831 0 -0.24115385011983101 -0.29688691748796803 0 -0.25500487631019841 -0.28800787195402933 0 -0.24878468441748261 -0.30782709535157249 0 -0.24115385011983101 -0.29688691748796803 0 -0.2273554040670647 -0.32132941239810842 0 -0.24878468441748261 -0.30782709535157249 0 -0.23286233779073229 -0.30583863677269801 0 -0.24878468441748261 -0.30782709535157249 0 -0.24115385011983101 -0.29688691748796803 0 -0.23286233779073229 -0.30583863677269801 0 -0.2266692138545828 -0.29364471998089831 0 -0.24115385011983101 -0.29688691748796803 0 -0.23286233779073229 -0.30583863677269801 0 -0.2266692138545828 -0.29364471998089831 0 -0.23286233779073229 -0.30583863677269801 0 -0.21766117618446351 -0.30824254755480313 0 -0.2273554040670647 -0.32132941239810842 0 -0.23286233779073229 -0.30583863677269801 0 -0.21766117618446351 -0.30824254755480313 0 -0.2266692138545828 -0.29364471998089831 0 -0.21766117618446351 -0.30824254755480313 0 -0.2091604799830242 -0.29591786067619957 0 -0.21766117618446351 -0.30824254755480313 0 -0.20346683708224531 -0.31084729036307052 0 -0.2091604799830242 -0.29591786067619957 0 -0.19103201431363939 -0.31688344474194868 0 -0.20346683708224531 -0.31084729036307052 0 -0.18485872277797441 -0.30538486786557301 0 -0.20346683708224531 -0.31084729036307052 0 -0.2091604799830242 -0.29591786067619957 0 -0.18485872277797441 -0.30538486786557301 0 -0.1982633093933677 -0.28287042530836742 0 -0.2091604799830242 -0.29591786067619957 0 -0.18485872277797441 -0.30538486786557301 0 -0.1982633093933677 -0.28287042530836742 0 -0.18485872277797441 -0.30538486786557301 0 -0.2266692138545828 -0.29364471998089831 0 -0.2166208007114577 -0.28164996393389391 0 -0.2091604799830242 -0.29591786067619957 0 -0.1982633093933677 -0.28287042530836742 0 -0.2166208007114577 -0.28164996393389391 0 -0.2091604799830242 -0.29591786067619957 0 -0.1982633093933677 -0.28287042530836742 0 -0.2166208007114577 -0.28164996393389391 0 -0.21113655800828279 -0.26571413516680481 0 -0.1982633093933677 -0.28287042530836742 0 -0.21113655800828279 -0.26571413516680481 0 -0.18439867369853491 -0.26132559179640968 0 -0.21113655800828279 -0.26571413516680481 0 -0.18439867369853491 -0.26132559179640968 0 -0.20259798467806131 -0.24386557447816259 0 -0.21113655800828279 -0.26571413516680481 0 -0.18439867369853491 -0.26132559179640968 0 -0.21113655800828279 -0.26571413516680481 0 -0.20259798467806131 -0.24386557447816259 0 -0.22395341521182191 -0.24856859667403139 0 -0.15766078938878669 -0.25693704842601522 0 -0.18439867369853491 -0.26132559179640968 0 -0.16901090062578 -0.27018822313852359 0 -0.15766078938878669 -0.25693704842601522 0 -0.18439867369853491 -0.26132559179640968 0 -0.17146525089902351 -0.24887373043365901 0 -0.15766078938878669 -0.25693704842601522 0 -0.18439867369853491 -0.26132559179640968 0 -0.1982633093933677 -0.28287042530836742 0 -0.18439867369853491 -0.26132559179640968 0 -0.17536691274347849 -0.28681422947580759 0 -0.18439867369853491 -0.26132559179640968 0 -0.16901090062578 -0.27018822313852359 0 -0.17536691274347849 -0.28681422947580759 0 -0.15766078938878669 -0.25693704842601522 0 -0.16901090062578 -0.27018822313852359 0 -0.15771983796653871 -0.27915448111288349 0 -0.16901090062578 -0.27018822313852359 0 -0.15771983796653871 -0.27915448111288349 0 -0.17536691274347849 -0.28681422947580759 0 -0.15766078938878669 -0.25693704842601522 0 -0.15771983796653871 -0.27915448111288349 0 -0.15771983796653871 -0.27915448111288349 0 -0.17536691274347849 -0.28681422947580759 0 -0.15777888654429351 -0.30137191379975198 0 -0.15771983796653871 -0.27915448111288349 0 -0.15777888654429351 -0.30137191379975198 0 -0.1982633093933677 -0.28287042530836742 0 -0.17536691274347849 -0.28681422947580759 0 -0.18485872277797441 -0.30538486786557301 0 -0.17536691274347849 -0.28681422947580759 0 -0.18485872277797441 -0.30538486786557301 0 -0.16901135727642189 -0.31155598576797539 0 -0.16901135727642189 -0.31155598576797539 0 -0.15777888654429351 -0.30137191379975198 0 -0.15783793512204841 -0.32358934648662052 0 -0.17536691274347849 -0.28681422947580759 0 -0.16901135727642189 -0.31155598576797539 0 -0.15777888654429351 -0.30137191379975198 0 -0.15777888654429351 -0.30137191379975198 0 -0.15783793512204841 -0.32358934648662052 0 -0.15777888654429351 -0.30137191379975198 0 -0.14427922475773891 -0.30727284028473018 0 -0.15783793512204841 -0.32358934648662052 0 -0.15777888654429351 -0.30137191379975198 0 -0.14427922475773891 -0.30727284028473018 0 -0.14628090119791839 -0.28900594343431107 0 -0.12979684287756851 -0.3079550694169117 0 -0.13071184101257871 -0.29146467300954759 0 -0.1176488750369457 -0.30159873944795829 0 -0.14427922475773891 -0.30727284028473018 0 -0.12979684287756851 -0.3079550694169117 0 -0.13071184101257871 -0.29146467300954759 0 -0.14427922475773891 -0.30727284028473018 0 -0.12979684287756851 -0.3079550694169117 0 -0.14244508812293069 -0.32189124459359192 0 -0.13071184101257871 -0.29146467300954759 0 -0.12967042095491729 -0.27431562383975949 0 -0.12206497803289169 -0.28075447161807998 0 -0.14427922475773891 -0.30727284028473018 0 -0.13071184101257871 -0.29146467300954759 0 -0.14628090119791839 -0.28900594343431107 0 -0.13071184101257871 -0.29146467300954759 0 -0.13899131532044201 -0.27804862846246498 0 -0.12967042095491729 -0.27431562383975949 0 -0.13071184101257871 -0.29146467300954759 0 -0.14628090119791839 -0.28900594343431107 0 -0.13899131532044201 -0.27804862846246498 0 -0.15771983796653871 -0.27915448111288349 0 -0.15777888654429351 -0.30137191379975198 0 -0.14628090119791839 -0.28900594343431107 0 -0.14628090119791839 -0.28900594343431107 0 -0.1482003680645548 -0.27831074506587478 0 -0.13899131532044201 -0.27804862846246498 0 -0.15771983796653871 -0.27915448111288349 0 -0.14628090119791839 -0.28900594343431107 0 -0.1482003680645548 -0.27831074506587478 0 -0.15766078938878669 -0.25693704842601522 0 -0.15771983796653871 -0.27915448111288349 0 -0.14980941777331999 -0.26703392725383979 0 -0.15771983796653871 -0.27915448111288349 0 -0.14980941777331999 -0.26703392725383979 0 -0.1482003680645548 -0.27831074506587478 0 -0.14980941777331999 -0.26703392725383979 0 -0.1482003680645548 -0.27831074506587478 0 -0.13899131532044201 -0.27804862846246498 0 -0.14980941777331999 -0.26703392725383979 0 -0.13899131532044201 -0.27804862846246498 0 -0.13217695765232859 -0.26380903384329762 0 -0.12967042095491729 -0.27431562383975949 0 -0.13217695765232859 -0.26380903384329762 0 -0.1219705158530231 -0.27052822381544062 0 -0.13899131532044201 -0.27804862846246498 0 -0.12967042095491729 -0.27431562383975949 0 -0.13217695765232859 -0.26380903384329762 0 -0.12503603078947889 -0.25158228039713743 0 -0.1413484100891331 -0.25425966441157483 0 -0.13217695765232859 -0.26380903384329762 0 -0.12503603078947889 -0.25158228039713743 0 -0.1413484100891331 -0.25425966441157483 0 -0.12503603078947889 -0.25158228039713743 0 -0.1413484100891331 -0.25425966441157483 0 -0.1392187059844639 -0.24698190063072681 0 -0.15766078938878669 -0.25693704842601522 0 -0.1413484100891331 -0.25425966441157483 0 -0.14793605582477309 -0.2455342835516422 0 -0.15766078938878669 -0.25693704842601522 0 -0.14980941777331999 -0.26703392725383979 0 -0.1413484100891331 -0.25425966441157483 0 -0.15766078938878669 -0.25693704842601522 0 -0.1413484100891331 -0.25425966441157483 0 -0.14980941777331999 -0.26703392725383979 0 -0.13217695765232859 -0.26380903384329762 0 -0.14980941777331999 -0.26703392725383979 0 -0.13217695765232859 -0.26380903384329762 0 -0.1413484100891331 -0.25425966441157483 0 -0.1584609125771039 -0.34972282460054588 0 -0.17792681140336231 -0.36968284818092462 0 -0.1709275223340645 -0.34279793866597741 0 -0.15437043067677769 -0.37502685415533132 0 -0.17792681140336231 -0.36968284818092462 0 -0.15033209295106109 -0.36337605000611439 0 -0.1584609125771039 -0.34972282460054588 0 -0.17792681140336231 -0.36968284818092462 0 -0.1584609125771039 -0.34972282460054588 0 -0.17792681140336231 -0.36968284818092462 0 -0.15033209295106109 -0.36337605000611439 0 -0.18986968506967861 -0.35465606920966558 0 -0.17792681140336231 -0.36968284818092462 0 -0.18301329575348849 -0.34620356592961682 0 -0.17792681140336231 -0.36968284818092462 0 -0.18301329575348849 -0.34620356592961682 0 -0.1709275223340645 -0.34279793866597741 0 -0.20089173311469941 -0.33399613304514331 0 -0.17145413616258151 -0.32789931042277898 0 -0.20089173311469941 -0.33399613304514331 0 -0.18421329040694509 -0.33911192419366332 0 -0.17145413616258151 -0.32789931042277898 0 -0.18789949026383709 -0.32745368881697368 0 -0.20089173311469941 -0.33399613304514331 0 -0.17145413616258151 -0.32789931042277898 0 -0.1947797646698918 -0.34466267290479968 0 -0.18301329575348849 -0.34620356592961682 0 -0.18421329040694509 -0.33911192419366332 0 -0.18421329040694509 -0.33911192419366332 0 -0.17145413616258151 -0.32789931042277898 0 -0.1709275223340645 -0.34279793866597741 0 -0.18301329575348849 -0.34620356592961682 0 -0.18421329040694509 -0.33911192419366332 0 -0.1709275223340645 -0.34279793866597741 0 -0.18789949026383709 -0.32745368881697368 0 -0.19103201431363939 -0.31688344474194868 0 -0.17145413616258151 -0.32789931042277898 0 -0.18485872277797441 -0.30538486786557301 0 -0.16901135727642189 -0.31155598576797539 0 -0.17145413616258151 -0.32789931042277898 0 -0.19103201431363939 -0.31688344474194868 0 -0.18485872277797441 -0.30538486786557301 0 -0.17145413616258151 -0.32789931042277898 0 -0.18485872277797441 -0.30538486786557301 0 -0.17145413616258151 -0.32789931042277898 0 -0.16901135727642189 -0.31155598576797539 0 -0.15783793512204841 -0.32358934648662052 0 -0.17145413616258151 -0.32789931042277898 0 -0.17145413616258151 -0.32789931042277898 0 -0.14244508812293069 -0.32189124459359192 0 -0.17145413616258151 -0.32789931042277898 0 -0.15532896421917131 -0.33448221261846789 0 -0.14244508812293069 -0.32189124459359192 0 -0.15783793512204841 -0.32358934648662052 0 -0.17145413616258151 -0.32789931042277898 0 -0.14244508812293069 -0.32189124459359192 0 -0.1584609125771039 -0.34972282460054588 0 -0.17145413616258151 -0.32789931042277898 0 -0.1709275223340645 -0.34279793866597741 0 -0.1584609125771039 -0.34972282460054588 0 -0.17145413616258151 -0.32789931042277898 0 -0.15532896421917131 -0.33448221261846789 0 -0.1584609125771039 -0.34972282460054588 0 -0.17145413616258151 -0.32789931042277898 0 -0.1584609125771039 -0.34972282460054588 0 -0.15235558000355701 -0.34346251351901308 0 -0.15532896421917131 -0.33448221261846789 0 -0.15235558000355701 -0.34346251351901308 0 -0.15532896421917131 -0.33448221261846789 0 -0.14514278008133191 -0.3348492200194278 0 -0.14514278008133191 -0.3348492200194278 0 -0.14244508812293069 -0.32189124459359192 0 -0.135360397480148 -0.33290873955721711 0 -0.15532896421917131 -0.33448221261846789 0 -0.14514278008133191 -0.3348492200194278 0 -0.14244508812293069 -0.32189124459359192 0 -0.15235558000355701 -0.34346251351901308 0 -0.14514278008133191 -0.3348492200194278 0 -0.14476061084854819 -0.34349843861181928 0 -0.14514278008133191 -0.3348492200194278 0 -0.14476061084854819 -0.34349843861181928 0 -0.1363661142519158 -0.34135517325403791 0 -0.14427922475773891 -0.30727284028473018 0 -0.15783793512204841 -0.32358934648662052 0 -0.14244508812293069 -0.32189124459359192 0 -0.14244508812293069 -0.32189124459359192 0 -0.11343604008328 -0.31588317876440453 0 -0.12979684287756851 -0.3079550694169117 0 -0.14244508812293069 -0.32189124459359192 0 -0.11343604008328 -0.31588317876440453 0 -0.14244508812293069 -0.32189124459359192 0 -0.12698494169892621 -0.32666827045077712 0 -0.11343604008328 -0.31588317876440453 0 -0.14244508812293069 -0.32189124459359192 0 -0.12698494169892621 -0.32666827045077712 0 -0.135360397480148 -0.33290873955721711 0 -0.14514278008133191 -0.3348492200194278 0 -0.1363661142519158 -0.34135517325403791 0 -0.135360397480148 -0.33290873955721711 0 -0.12698494169892621 -0.32666827045077712 0 -0.135360397480148 -0.33290873955721711 0 -0.12590893679870299 -0.33584878762570192 0 -0.1363661142519158 -0.34135517325403791 0 -0.12590893679870299 -0.33584878762570192 0 -0.13263155572799551 -0.3475299966362676 0 -0.1363661142519158 -0.34135517325403791 0 -0.135360397480148 -0.33290873955721711 0 -0.12590893679870299 -0.33584878762570192 0 -0.12590893679870299 -0.33584878762570192 0 -0.13263155572799551 -0.3475299966362676 0 -0.1226994192247733 -0.34991819521187312 0 -0.13263155572799551 -0.3475299966362676 0 -0.13584599839461711 -0.35812124796083039 0 -0.1226994192247733 -0.34991819521187312 0 -0.13263155572799551 -0.3475299966362676 0 -0.13584599839461711 -0.35812124796083039 0 -0.14233730996996821 -0.35240657912889461 0 -0.13584599839461711 -0.35812124796083039 0 -0.14233730996996821 -0.35240657912889461 0 -0.14141895371846369 -0.36592534127185522 0 -0.1363661142519158 -0.34135517325403791 0 -0.13263155572799551 -0.3475299966362676 0 -0.14233730996996821 -0.35240657912889461 0 -0.14476061084854819 -0.34349843861181928 0 -0.14233730996996821 -0.35240657912889461 0 -0.14956738001668449 -0.35029029821185531 0 -0.14476061084854819 -0.34349843861181928 0 -0.1363661142519158 -0.34135517325403791 0 -0.14233730996996821 -0.35240657912889461 0 -0.14233730996996821 -0.35240657912889461 0 -0.14956738001668449 -0.35029029821185531 0 -0.15033209295106109 -0.36337605000611439 0 -0.1584609125771039 -0.34972282460054588 0 -0.15033209295106109 -0.36337605000611439 0 -0.1584609125771039 -0.34972282460054588 0 -0.14956738001668449 -0.35029029821185531 0 -0.15033209295106109 -0.36337605000611439 0 -0.1584609125771039 -0.34972282460054588 0 -0.15235558000355701 -0.34346251351901308 0 -0.14956738001668449 -0.35029029821185531 0 -0.1584609125771039 -0.34972282460054588 0 -0.15235558000355701 -0.34346251351901308 0 -0.15235558000355701 -0.34346251351901308 0 -0.14476061084854819 -0.34349843861181928 0 -0.14956738001668449 -0.35029029821185531 0 -0.15437043067677769 -0.37502685415533132 0 -0.14220327332501889 -0.37702927541168341 0 -0.15033209295106109 -0.36337605000611439 0 -0.14233730996996821 -0.35240657912889461 0 -0.15033209295106109 -0.36337605000611439 0 -0.14141895371846369 -0.36592534127185522 0 -0.14220327332501889 -0.37702927541168341 0 -0.15033209295106109 -0.36337605000611439 0 -0.14220327332501889 -0.37702927541168341 0 -0.15033209295106109 -0.36337605000611439 0 -0.14141895371846369 -0.36592534127185522 0 -0.1282602211981495 -0.38344507038105058 0 -0.13737756990640751 -0.37426861124357141 0 -0.1194067897617065 -0.36398797762087459 0 -0.14220327332501889 -0.37702927541168341 0 -0.14141895371846369 -0.36592534127185522 0 -0.13737756990640751 -0.37426861124357141 0 -0.13584599839461711 -0.35812124796083039 0 -0.14141895371846369 -0.36592534127185522 0 -0.13737756990640751 -0.37426861124357141 0 -0.13584599839461711 -0.35812124796083039 0 -0.13737756990640751 -0.37426861124357141 0 -0.1226994192247733 -0.34991819521187312 0 -0.13737756990640751 -0.37426861124357141 0 -0.1194067897617065 -0.36398797762087459 0 -0.1226994192247733 -0.34991819521187312 0 -0.13737756990640751 -0.37426861124357141 0 -0.1226994192247733 -0.34991819521187312 0 -0.13737756990640751 -0.37426861124357141 0 -0.1194067897617065 -0.36398797762087459 0 -0.1194067897617065 -0.36398797762087459 0 -0.10481080857334039 -0.36851253267182832 0 -0.1129150472834325 -0.37818178439515948 0 -0.1194067897617065 -0.36398797762087459 0 -0.10481080857334039 -0.36851253267182832 0 -0.10143600961700459 -0.35370734399817921 0 -0.09049285597893908 -0.36292867538002149 0 -0.097520482485571477 -0.38243064038456209 0 -0.10481080857334039 -0.36851253267182832 0 -0.09049285597893908 -0.36292867538002149 0 -0.097520482485571477 -0.38243064038456209 0 -0.10481080857334039 -0.36851253267182832 0 -0.10143600961700459 -0.35370734399817921 0 -0.09049285597893908 -0.36292867538002149 0 -0.10143600961700459 -0.35370734399817921 0 -0.11066476188634861 -0.34642484161978171 0 -0.1017603222851178 -0.33894291208780752 0 -0.1194067897617065 -0.36398797762087459 0 -0.11066476188634861 -0.34642484161978171 0 -0.1226994192247733 -0.34991819521187312 0 -0.1194067897617065 -0.36398797762087459 0 -0.10143600961700459 -0.35370734399817921 0 -0.11066476188634861 -0.34642484161978171 0 -0.1194067897617065 -0.36398797762087459 0 -0.10143600961700459 -0.35370734399817921 0 -0.1226994192247733 -0.34991819521187312 0 -0.10802126854314061 -0.32556777918017388 0 -0.11066476188634861 -0.34642484161978171 0 -0.1226994192247733 -0.34991819521187312 0 -0.10802126854314061 -0.32556777918017388 0 -0.12590893679870299 -0.33584878762570192 0 -0.1174936557482173 -0.3245078691243532 0 -0.10802126854314061 -0.32556777918017388 0 -0.12590893679870299 -0.33584878762570192 0 -0.1226994192247733 -0.34991819521187312 0 -0.10802126854314061 -0.32556777918017388 0 -0.12698494169892621 -0.32666827045077712 0 -0.12590893679870299 -0.33584878762570192 0 -0.1174936557482173 -0.3245078691243532 0 -0.12698494169892621 -0.32666827045077712 0 -0.1174936557482173 -0.3245078691243532 0 -0.11343604008328 -0.31588317876440453 0 -0.1174936557482173 -0.3245078691243532 0 -0.11343604008328 -0.31588317876440453 0 -0.10802126854314061 -0.32556777918017388 0 -0.11343604008328 -0.31588317876440453 0 -0.10802126854314061 -0.32556777918017388 0 -0.096728706722776642 -0.32159601906261248 0 -0.11343604008328 -0.31588317876440453 0 -0.096728706722776642 -0.32159601906261248 0 -0.084426992043629287 -0.30987511293521719 0 -0.11343604008328 -0.31588317876440453 0 -0.084426992043629287 -0.30987511293521719 0 -0.096728706722776642 -0.32159601906261248 0 -0.098563673554578207 -0.32997584100178973 0 -0.089144165359147987 -0.32863745284361517 0 -0.10802126854314061 -0.32556777918017388 0 -0.096728706722776642 -0.32159601906261248 0 -0.098563673554578207 -0.32997584100178973 0 -0.11066476188634861 -0.34642484161978171 0 -0.10802126854314061 -0.32556777918017388 0 -0.1017603222851178 -0.33894291208780752 0 -0.10802126854314061 -0.32556777918017388 0 -0.1017603222851178 -0.33894291208780752 0 -0.098563673554578207 -0.32997584100178973 0 -0.1017603222851178 -0.33894291208780752 0 -0.098563673554578207 -0.32997584100178973 0 -0.092767752466278386 -0.338484016968782 0 -0.10143600961700459 -0.35370734399817921 0 -0.1017603222851178 -0.33894291208780752 0 -0.092767752466278386 -0.338484016968782 0 -0.083465229472303878 -0.34342671037548178 0 -0.075733968477576505 -0.32197212948420778 0 -0.079135219512653288 -0.33431731089585998 0 -0.083465229472303878 -0.34342671037548178 0 -0.075733968477576505 -0.32197212948420778 0 -0.089144165359147987 -0.32863745284361517 0 -0.083465229472303878 -0.34342671037548178 0 -0.075733968477576505 -0.32197212948420778 0 -0.092767752466278386 -0.338484016968782 0 -0.089144165359147987 -0.32863745284361517 0 -0.083465229472303878 -0.34342671037548178 0 -0.098563673554578207 -0.32997584100178973 0 -0.092767752466278386 -0.338484016968782 0 -0.089144165359147987 -0.32863745284361517 0 -0.079135219512653288 -0.33431731089585998 0 -0.083465229472303878 -0.34342671037548178 0 -0.074350956197527462 -0.3382126627091826 0 -0.083465229472303878 -0.34342671037548178 0 -0.074350956197527462 -0.3382126627091826 0 -0.096728706722776642 -0.32159601906261248 0 -0.086780100752883768 -0.31963674965047473 0 -0.084426992043629287 -0.30987511293521719 0 -0.096728706722776642 -0.32159601906261248 0 -0.089144165359147987 -0.32863745284361517 0 -0.086780100752883768 -0.31963674965047473 0 -0.089144165359147987 -0.32863745284361517 0 -0.086780100752883768 -0.31963674965047473 0 -0.075733968477576505 -0.32197212948420778 0 -0.086780100752883768 -0.31963674965047473 0 -0.075733968477576505 -0.32197212948420778 0 -0.084426992043629287 -0.30987511293521719 0 -0.075733968477576505 -0.32197212948420778 0 -0.063416215312195559 -0.32057993302092019 0 -0.06800270748284612 -0.300517548592935 0 -0.075733968477576505 -0.32197212948420778 0 -0.06892902473659332 -0.32810265797109789 0 -0.063416215312195559 -0.32057993302092019 0 -0.074350956197527462 -0.3382126627091826 0 -0.05200876418301395 -0.32543125374531873 0 -0.06892902473659332 -0.32810265797109789 0 -0.074350956197527462 -0.3382126627091826 0 -0.05200876418301395 -0.32543125374531873 0 -0.079135219512653288 -0.33431731089585998 0 -0.074350956197527462 -0.3382126627091826 0 -0.079135219512653288 -0.33431731089585998 0 -0.075733968477576505 -0.32197212948420778 0 -0.06892902473659332 -0.32810265797109789 0 -0.079135219512653288 -0.33431731089585998 0 -0.06892902473659332 -0.32810265797109789 0 -0.074350956197527462 -0.3382126627091826 0 -0.074350956197527462 -0.3382126627091826 0 -0.05256840546782196 -0.35594803655774598 0 -0.074527502124928507 -0.35041608915594519 0 -0.072209288248140074 -0.36008645432464392 0 -0.05256840546782196 -0.35594803655774598 0 -0.074350956197527462 -0.3382126627091826 0 -0.074527502124928507 -0.35041608915594519 0 -0.05256840546782196 -0.35594803655774598 0 -0.083465229472303878 -0.34342671037548178 0 -0.074350956197527462 -0.3382126627091826 0 -0.074527502124928507 -0.35041608915594519 0 -0.06711266906551433 -0.36970655929598678 0 -0.072209288248140074 -0.36008645432464392 0 -0.05256840546782196 -0.35594803655774598 0 -0.06711266906551433 -0.36970655929598678 0 -0.079039662139163649 -0.36988580756775769 0 -0.069188174165302055 -0.37961774584101621 0 -0.06711266906551433 -0.36970655929598678 0 -0.072209288248140074 -0.36008645432464392 0 -0.079039662139163649 -0.36988580756775769 0 -0.072209288248140074 -0.36008645432464392 0 -0.079039662139163649 -0.36988580756775769 0 -0.09049285597893908 -0.36292867538002149 0 -0.079039662139163649 -0.36988580756775769 0 -0.09049285597893908 -0.36292867538002149 0 -0.083637280568191599 -0.38164185506358428 0 -0.10143600961700459 -0.35370734399817921 0 -0.092767752466278386 -0.338484016968782 0 -0.083465229472303878 -0.34342671037548178 0 -0.10143600961700459 -0.35370734399817921 0 -0.083465229472303878 -0.34342671037548178 0 -0.09049285597893908 -0.36292867538002149 0 -0.083465229472303878 -0.34342671037548178 0 -0.074527502124928507 -0.35041608915594519 0 -0.09049285597893908 -0.36292867538002149 0 -0.083465229472303878 -0.34342671037548178 0 -0.09049285597893908 -0.36292867538002149 0 -0.10143600961700459 -0.35370734399817921 0 -0.083465229472303878 -0.34342671037548178 0 -0.074527502124928507 -0.35041608915594519 0 -0.072209288248140074 -0.36008645432464392 0 -0.09049285597893908 -0.36292867538002149 0 -0.093588725053818614 -0.25675142893862218 0 -0.093451417529119701 -0.24639823353970619 0 -0.1092437241592995 -0.2489902569684205 0 -0.114544497531337 -0.26058414043275591 0 -0.093588725053818614 -0.25675142893862218 0 -0.114544497531337 -0.26058414043275591 0 -0.093588725053818614 -0.25675142893862218 0 -0.1092437241592995 -0.2489902569684205 0 -0.114544497531337 -0.26058414043275591 0 -0.099030567515173529 -0.27389527648614909 0 -0.093588725053818614 -0.25675142893862218 0 -0.12503603078947889 -0.25158228039713743 0 -0.1092437241592995 -0.2489902569684205 0 -0.13217695765232859 -0.26380903384329762 0 -0.12503603078947889 -0.25158228039713743 0 -0.114544497531337 -0.26058414043275591 0 -0.13217695765232859 -0.26380903384329762 0 -0.114544497531337 -0.26058414043275591 0 -0.1219705158530231 -0.27052822381544062 0 -0.13217695765232859 -0.26380903384329762 0 -0.114544497531337 -0.26058414043275591 0 -0.12503603078947889 -0.25158228039713743 0 -0.114544497531337 -0.26058414043275591 0 -0.1092437241592995 -0.2489902569684205 0 -0.12503603078947889 -0.25158228039713743 0 -0.114544497531337 -0.26058414043275591 0 -0.114544497531337 -0.26058414043275591 0 -0.1219705158530231 -0.27052822381544062 0 -0.1116620552973496 -0.27919242643668107 0 -0.12967042095491729 -0.27431562383975949 0 -0.1219705158530231 -0.27052822381544062 0 -0.12206497803289169 -0.28075447161807998 0 -0.1219705158530231 -0.27052822381544062 0 -0.12206497803289169 -0.28075447161807998 0 -0.1116620552973496 -0.27919242643668107 0 -0.1116620552973496 -0.27919242643668107 0 -0.099030567515173529 -0.27389527648614909 0 -0.098519321946920854 -0.28736151322767989 0 -0.114544497531337 -0.26058414043275591 0 -0.1116620552973496 -0.27919242643668107 0 -0.099030567515173529 -0.27389527648614909 0 -0.114544497531337 -0.26058414043275591 0 -0.099030567515173529 -0.27389527648614909 0 -0.098519321946920854 -0.28736151322767989 0 -0.1081275639365239 -0.29423933298982069 0 -0.094213745983540681 -0.29787468771866138 0 -0.1116620552973496 -0.27919242643668107 0 -0.098519321946920854 -0.28736151322767989 0 -0.1081275639365239 -0.29423933298982069 0 -0.1116620552973496 -0.27919242643668107 0 -0.1081275639365239 -0.29423933298982069 0 -0.1175101073674318 -0.28999131503352737 0 -0.12206497803289169 -0.28075447161807998 0 -0.1116620552973496 -0.27919242643668107 0 -0.1175101073674318 -0.28999131503352737 0 -0.13071184101257871 -0.29146467300954759 0 -0.12206497803289169 -0.28075447161807998 0 -0.1175101073674318 -0.28999131503352737 0 -0.13071184101257871 -0.29146467300954759 0 -0.1175101073674318 -0.28999131503352737 0 -0.1176488750369457 -0.30159873944795829 0 -0.1081275639365239 -0.29423933298982069 0 -0.1175101073674318 -0.28999131503352737 0 -0.1176488750369457 -0.30159873944795829 0 -0.1081275639365239 -0.29423933298982069 0 -0.1176488750369457 -0.30159873944795829 0 -0.1035706434167839 -0.30389421037121239 0 -0.12979684287756851 -0.3079550694169117 0 -0.11343604008328 -0.31588317876440453 0 -0.1176488750369457 -0.30159873944795829 0 -0.11343604008328 -0.31588317876440453 0 -0.1176488750369457 -0.30159873944795829 0 -0.1035706434167839 -0.30389421037121239 0 -0.11343604008328 -0.31588317876440453 0 -0.1035706434167839 -0.30389421037121239 0 -0.084426992043629287 -0.30987511293521719 0 -0.1035706434167839 -0.30389421037121239 0 -0.094213745983540681 -0.29787468771866138 0 -0.084426992043629287 -0.30987511293521719 0 -0.1081275639365239 -0.29423933298982069 0 -0.1035706434167839 -0.30389421037121239 0 -0.094213745983540681 -0.29787468771866138 0 -0.084426992043629287 -0.30987511293521719 0 -0.06800270748284612 -0.300517548592935 0 -0.08351663749900963 -0.28720641253954182 0 -0.094213745983540681 -0.29787468771866138 0 -0.084426992043629287 -0.30987511293521719 0 -0.08351663749900963 -0.28720641253954182 0 -0.075733968477576505 -0.32197212948420778 0 -0.084426992043629287 -0.30987511293521719 0 -0.06800270748284612 -0.300517548592935 0 -0.063416215312195559 -0.32057993302092019 0 -0.06800270748284612 -0.300517548592935 0 -0.056937969072383077 -0.31001122545130733 0 -0.075733968477576505 -0.32197212948420778 0 -0.06800270748284612 -0.300517548592935 0 -0.06800270748284612 -0.300517548592935 0 -0.065073151703682733 -0.29238790564304579 0 -0.059782232634533257 -0.29946558201987378 0 -0.065073151703682733 -0.29238790564304579 0 -0.072606463500964238 -0.28378720126751028 0 -0.056659359844166493 -0.28116243874404262 0 -0.06800270748284612 -0.300517548592935 0 -0.08351663749900963 -0.28720641253954182 0 -0.06800270748284612 -0.300517548592935 0 -0.065073151703682733 -0.29238790564304579 0 -0.072606463500964238 -0.28378720126751028 0 -0.06800270748284612 -0.300517548592935 0 -0.072606463500964238 -0.28378720126751028 0 -0.08351663749900963 -0.28720641253954182 0 -0.06800270748284612 -0.300517548592935 0 -0.065073151703682733 -0.29238790564304579 0 -0.098519321946920854 -0.28736151322767989 0 -0.094213745983540681 -0.29787468771866138 0 -0.08351663749900963 -0.28720641253954182 0 -0.099030567515173529 -0.27389527648614909 0 -0.098519321946920854 -0.28736151322767989 0 -0.08351663749900963 -0.28720641253954182 0 -0.099030567515173529 -0.27389527648614909 0 -0.082493990277727997 -0.27035960792217911 0 -0.093588725053818614 -0.25675142893862218 0 -0.072606463500964238 -0.28378720126751028 0 -0.08351663749900963 -0.28720641253954182 0 -0.082493990277727997 -0.27035960792217911 0 -0.099030567515173529 -0.27389527648614909 0 -0.08351663749900963 -0.28720641253954182 0 -0.082493990277727997 -0.27035960792217911 0 -0.099030567515173529 -0.27389527648614909 0 -0.08351663749900963 -0.28720641253954182 0 -0.072606463500964238 -0.28378720126751028 0 -0.068935672432736295 -0.27063760648353341 0 -0.056659359844166493 -0.28116243874404262 0 -0.072606463500964238 -0.28378720126751028 0 -0.082493990277727997 -0.27035960792217911 0 -0.068935672432736295 -0.27063760648353341 0 -0.068935672432736295 -0.27063760648353341 0 -0.072632952576300092 -0.25291871744448891 0 -0.057770050599754617 -0.26306008111901891 0 -0.082493990277727997 -0.27035960792217911 0 -0.068935672432736295 -0.27063760648353341 0 -0.072632952576300092 -0.25291871744448891 0 -0.082493990277727997 -0.27035960792217911 0 -0.072632952576300092 -0.25291871744448891 0 -0.093588725053818614 -0.25675142893862218 0 -0.072632952576300092 -0.25291871744448891 0 -0.093588725053818614 -0.25675142893862218 0 -0.072632952576300092 -0.25291871744448891 0 -0.093588725053818614 -0.25675142893862218 0 -0.078630194548230628 -0.24805194808140191 0 -0.03358818177396742 -0.25970399668904198 0 -0.04434031078868992 -0.27027395222738931 0 -0.051677180098781562 -0.24908600595035579 0 -0.03358818177396742 -0.25970399668904198 0 -0.051677180098781562 -0.24908600595035579 0 -0.031558063588024848 -0.2454063148683252 0 -0.072632952576300092 -0.25291871744448891 0 -0.051677180098781562 -0.24908600595035579 0 -0.072632952576300092 -0.25291871744448891 0 -0.057770050599754617 -0.26306008111901891 0 -0.051677180098781562 -0.24908600595035579 0 -0.057770050599754617 -0.26306008111901891 0 -0.04434031078868992 -0.27027395222738931 0 -0.051677180098781562 -0.24908600595035579 0 -0.04434031078868992 -0.27027395222738931 0 -0.051677180098781562 -0.24908600595035579 0 -0.057770050599754617 -0.26306008111901891 0 -0.056659359844166493 -0.28116243874404262 0 -0.04434031078868992 -0.27027395222738931 0 -0.068935672432736295 -0.27063760648353341 0 -0.057770050599754617 -0.26306008111901891 0 -0.056659359844166493 -0.28116243874404262 0 -0.04434031078868992 -0.27027395222738931 0 -0.037003441478597063 -0.29146189850442222 0 -0.023785773797075919 -0.27342587061416168 0 -0.03358818177396742 -0.25970399668904198 0 -0.04434031078868992 -0.27027395222738931 0 -0.023785773797075919 -0.27342587061416168 0 -0.04434031078868992 -0.27027395222738931 0 -0.037003441478597063 -0.29146189850442222 0 -0.056659359844166493 -0.28116243874404262 0 -0.04434031078868992 -0.27027395222738931 0 -0.037003441478597063 -0.29146189850442222 0 -0.056659359844166493 -0.28116243874404262 0 -0.037003441478597063 -0.29146189850442222 0 -0.050886428404740662 -0.29652842596337847 0 -0.065073151703682733 -0.29238790564304579 0 -0.056659359844166493 -0.28116243874404262 0 -0.050886428404740662 -0.29652842596337847 0 -0.065073151703682733 -0.29238790564304579 0 -0.050886428404740662 -0.29652842596337847 0 -0.059782232634533257 -0.29946558201987378 0 -0.050886428404740662 -0.29652842596337847 0 -0.056937969072383077 -0.31001122545130733 0 -0.045300635061447041 -0.30721652968917618 0 -0.050886428404740662 -0.29652842596337847 0 -0.059782232634533257 -0.29946558201987378 0 -0.056937969072383077 -0.31001122545130733 0 -0.06800270748284612 -0.300517548592935 0 -0.059782232634533257 -0.29946558201987378 0 -0.056937969072383077 -0.31001122545130733 0 -0.06800270748284612 -0.300517548592935 0 -0.056937969072383077 -0.31001122545130733 0 -0.037003441478597063 -0.29146189850442222 0 -0.029666572168500788 -0.31264984478145402 0 -0.037003441478597063 -0.29146189850442222 0 -0.050886428404740662 -0.29652842596337847 0 -0.045300635061447041 -0.30721652968917618 0 -0.037003441478597063 -0.29146189850442222 0 -0.045300635061447041 -0.30721652968917618 0 -0.029666572168500788 -0.31264984478145402 0 -0.012981313599399051 -0.30310462588346238 0 -0.021359817212315529 -0.29051316713672931 0 -0.029666572168500788 -0.31264984478145402 0 -0.037003441478597063 -0.29146189850442222 0 -0.021359817212315529 -0.29051316713672931 0 -0.029666572168500788 -0.31264984478145402 0 -0.012981313599399051 -0.30310462588346238 0 -0.029666572168500788 -0.31264984478145402 0 -0.012981313599399051 -0.30310462588346238 0 -0.029666572168500788 -0.31264984478145402 0 -0.011931318334793771 -0.3174152473035402 0 -0.012981313599399051 -0.30310462588346238 0 -0.011931318334793771 -0.3174152473035402 0 0.00031641118386317669 -0.3042045703593983 0 -0.012981313599399051 -0.30310462588346238 0 -0.0069447964901112672 -0.28563677671735072 0 0.00031641118386317669 -0.3042045703593983 0 -0.012981313599399051 -0.30310462588346238 0 -0.0069447964901112672 -0.28563677671735072 0 -0.021359817212315529 -0.29051316713672931 0 -0.037003441478597063 -0.29146189850442222 0 -0.021359817212315529 -0.29051316713672931 0 -0.023785773797075919 -0.27342587061416168 0 -0.0069447964901112672 -0.28563677671735072 0 -0.021359817212315529 -0.29051316713672931 0 -0.023785773797075919 -0.27342587061416168 0 -0.0069447964901112672 -0.28563677671735072 0 -0.0063989791616554503 -0.26667991422344189 0 0.0071700150999407094 -0.27189152047923321 0 -0.0069447964901112672 -0.28563677671735072 0 -0.023785773797075919 -0.27342587061416168 0 -0.0063989791616554503 -0.26667991422344189 0 -0.0063989791616554503 -0.26667991422344189 0 -0.00368050083723665 -0.25337368755914491 0 -0.017905010862210059 -0.25635263443910211 0 -0.0063989791616554503 -0.26667991422344189 0 -0.00368050083723665 -0.25337368755914491 0 0.006752191916760482 -0.25939899553165929 0 -0.00368050083723665 -0.25337368755914491 0 -0.017905010862210059 -0.25635263443910211 0 -0.009729669714546002 -0.2432872939275138 0 -0.03358818177396742 -0.25970399668904198 0 -0.017905010862210059 -0.25635263443910211 0 -0.031558063588024848 -0.2454063148683252 0 -0.03358818177396742 -0.25970399668904198 0 -0.023785773797075919 -0.27342587061416168 0 -0.017905010862210059 -0.25635263443910211 0 -0.023785773797075919 -0.27342587061416168 0 -0.0063989791616554503 -0.26667991422344189 0 -0.017905010862210059 -0.25635263443910211 0 -0.05256840546782196 -0.35594803655774598 0 -0.037257287124194308 -0.33617861415077538 0 -0.030410112685000861 -0.35101294560335772 0 -0.05256840546782196 -0.35594803655774598 0 -0.030410112685000861 -0.35101294560335772 0 -0.024951333858139229 -0.36634558578690202 0 -0.05256840546782196 -0.35594803655774598 0 -0.030785854738116972 -0.37368341040631009 0 -0.024951333858139229 -0.36634558578690202 0 -0.041540536410682748 -0.37352362760889313 0 -0.05256840546782196 -0.35594803655774598 0 -0.030785854738116972 -0.37368341040631009 0 -0.05256840546782196 -0.35594803655774598 0 -0.030785854738116972 -0.37368341040631009 0 -0.041540536410682748 -0.37352362760889313 0 -0.05256840546782196 -0.35594803655774598 0 -0.055577807967692197 -0.37571391799020343 0 -0.06711266906551433 -0.36970655929598678 0 -0.05256840546782196 -0.35594803655774598 0 -0.055577807967692197 -0.37571391799020343 0 -0.074350956197527462 -0.3382126627091826 0 -0.05256840546782196 -0.35594803655774598 0 -0.05200876418301395 -0.32543125374531873 0 -0.05256840546782196 -0.35594803655774598 0 -0.05200876418301395 -0.32543125374531873 0 -0.037257287124194308 -0.33617861415077538 0 -0.056937969072383077 -0.31001122545130733 0 -0.045300635061447041 -0.30721652968917618 0 -0.05200876418301395 -0.32543125374531873 0 -0.06892902473659332 -0.32810265797109789 0 -0.063416215312195559 -0.32057993302092019 0 -0.05200876418301395 -0.32543125374531873 0 -0.063416215312195559 -0.32057993302092019 0 -0.056937969072383077 -0.31001122545130733 0 -0.05200876418301395 -0.32543125374531873 0 -0.05200876418301395 -0.32543125374531873 0 -0.029666572168500788 -0.31264984478145402 0 -0.045300635061447041 -0.30721652968917618 0 -0.05200876418301395 -0.32543125374531873 0 -0.029666572168500788 -0.31264984478145402 0 -0.05200876418301395 -0.32543125374531873 0 -0.037257287124194308 -0.33617861415077538 0 -0.029666572168500788 -0.31264984478145402 0 -0.037257287124194308 -0.33617861415077538 0 -0.021632581116634311 -0.33585099006600011 0 -0.030410112685000861 -0.35101294560335772 0 -0.037257287124194308 -0.33617861415077538 0 -0.021632581116634311 -0.33585099006600011 0 -0.029666572168500788 -0.31264984478145402 0 -0.021632581116634311 -0.33585099006600011 0 -0.029666572168500788 -0.31264984478145402 0 -0.021632581116634311 -0.33585099006600011 0 -0.029666572168500788 -0.31264984478145402 0 -0.011931318334793771 -0.3174152473035402 0 -0.011931318334793771 -0.3174152473035402 0 0.0058723819768978468 -0.31694601211133538 0 0.00031641118386317669 -0.3042045703593983 0 -0.011931318334793771 -0.3174152473035402 0 -0.0044447892489900718 -0.32969051038175518 0 0.0058723819768978468 -0.31694601211133538 0 -0.021632581116634311 -0.33585099006600011 0 -0.011931318334793771 -0.3174152473035402 0 -0.0044447892489900718 -0.32969051038175518 0 -0.021632581116634311 -0.33585099006600011 0 -0.0077483855274109387 -0.34116956604877502 0 -0.0044447892489900718 -0.32969051038175518 0 -0.0077483855274109387 -0.34116956604877502 0 -0.0044447892489900718 -0.32969051038175518 0 0.0086824183207449973 -0.3400846283967997 0 -0.021632581116634311 -0.33585099006600011 0 -0.0077483855274109387 -0.34116956604877502 0 -0.01359859006476115 -0.35905213535054392 0 -0.01359859006476115 -0.35905213535054392 0 0.0024528653955408351 -0.34538775859553839 0 0.001105968824724096 -0.3566884490700663 0 -0.0077483855274109387 -0.34116956604877502 0 -0.01359859006476115 -0.35905213535054392 0 0.0024528653955408351 -0.34538775859553839 0 -0.01359859006476115 -0.35905213535054392 0 0.0024528653955408351 -0.34538775859553839 0 -0.021632581116634311 -0.33585099006600011 0 -0.01359859006476115 -0.35905213535054392 0 -0.030410112685000861 -0.35101294560335772 0 -0.01359859006476115 -0.35905213535054392 0 -0.030410112685000861 -0.35101294560335772 0 -0.024951333858139229 -0.36634558578690202 0 -0.021632581116634311 -0.33585099006600011 0 -0.01359859006476115 -0.35905213535054392 0 -0.01359859006476115 -0.35905213535054392 0 -0.024187118774748839 -0.36806599991457511 0 -0.02068706749223807 -0.37594537550514712 0 -0.02618820878437841 -0.37078031968685549 0 -0.030785854738116972 -0.37368341040631009 0 -0.02068706749223807 -0.37594537550514712 0 -0.02618820878437841 -0.37078031968685549 0 -0.024187118774748839 -0.36806599991457511 0 -0.02068706749223807 -0.37594537550514712 0 -0.02618820878437841 -0.37078031968685549 0 -0.024187118774748839 -0.36806599991457511 0 -0.030785854738116972 -0.37368341040631009 0 -0.024187118774748839 -0.36806599991457511 0 -0.030785854738116972 -0.37368341040631009 0 -0.024951333858139229 -0.36634558578690202 0 -0.024187118774748839 -0.36806599991457511 0 -0.024951333858139229 -0.36634558578690202 0 -0.02618820878437841 -0.37078031968685549 0 -0.02068706749223807 -0.37594537550514712 0 -0.024187118774748839 -0.36806599991457511 0 -0.030785854738116972 -0.37368341040631009 0 -0.01359859006476115 -0.35905213535054392 0 -0.024187118774748839 -0.36806599991457511 0 -0.01359859006476115 -0.35905213535054392 0 -0.024187118774748839 -0.36806599991457511 0 -0.024951333858139229 -0.36634558578690202 0 -0.024187118774748839 -0.36806599991457511 0 -0.02068706749223807 -0.37594537550514712 0 -0.01359859006476115 -0.35905213535054392 0 -0.0075572719349759621 -0.37649869444358169 0 -0.01359859006476115 -0.35905213535054392 0 0.001105968824724096 -0.3566884490700663 0 0.0035412142629109009 -0.36697260963372241 0 -0.01359859006476115 -0.35905213535054392 0 -0.0075572719349759621 -0.37649869444358169 0 0.0035412142629109009 -0.36697260963372241 0 -0.01359859006476115 -0.35905213535054392 0 -0.0075572719349759621 -0.37649869444358169 0 -0.02068706749223807 -0.37594537550514712 0 -0.0075572719349759621 -0.37649869444358169 0 -0.0015159538051878281 -0.39394525353661852 0 -0.0015159538051878281 -0.39394525353661852 0 -0.02068706749223807 -0.37594537550514712 0 -0.016539252623536511 -0.3852830076118483 0 -0.0075572719349759621 -0.37649869444358169 0 -0.0015159538051878281 -0.39394525353661852 0 -0.02068706749223807 -0.37594537550514712 0 -0.0075572719349759621 -0.37649869444358169 0 -0.0015159538051878281 -0.39394525353661852 0 0.0071643725519175668 -0.38188275708451119 0 -0.0015159538051878281 -0.39394525353661852 0 -0.02068706749223807 -0.37594537550514712 0 -0.021081455521060392 -0.40053577019721859 0 -0.016539252623536511 -0.3852830076118483 0 -0.0067188233582789816 -0.40739092672384841 0 -0.016539252623536511 -0.3852830076118483 0 -0.0067188233582789816 -0.40739092672384841 0 -0.0019778635458290168 -0.39713890466688878 0 -0.016539252623536511 -0.3852830076118483 0 -0.0067188233582789816 -0.40739092672384841 0 -0.0015159538051878281 -0.39394525353661852 0 -0.0019778635458290168 -0.39713890466688878 0 -0.016539252623536511 -0.3852830076118483 0 -0.0019778635458290168 -0.39713890466688878 0 -0.016539252623536511 -0.3852830076118483 0 -0.021081455521060392 -0.40053577019721859 0 -0.02456783364851536 -0.3917093544230334 0 -0.016539252623536511 -0.3852830076118483 0 -0.021081455521060392 -0.40053577019721859 0 -0.030716124380346769 -0.39357342033435261 0 -0.02456783364851536 -0.3917093544230334 0 -0.021081455521060392 -0.40053577019721859 0 -0.030716124380346769 -0.39357342033435261 0 -0.036450353270729888 -0.40466800392828589 0 -0.02068706749223807 -0.37594537550514712 0 -0.016539252623536511 -0.3852830076118483 0 -0.030785854738116972 -0.37368341040631009 0 -0.02068706749223807 -0.37594537550514712 0 -0.016539252623536511 -0.3852830076118483 0 -0.02456783364851536 -0.3917093544230334 0 -0.016539252623536511 -0.3852830076118483 0 -0.028592068488720101 -0.38563744738350553 0 -0.030716124380346769 -0.39357342033435261 0 -0.02456783364851536 -0.3917093544230334 0 -0.028592068488720101 -0.38563744738350553 0 -0.030785854738116972 -0.37368341040631009 0 -0.016539252623536511 -0.3852830076118483 0 -0.028592068488720101 -0.38563744738350553 0 -0.030785854738116972 -0.37368341040631009 0 -0.016539252623536511 -0.3852830076118483 0 -0.041540536410682748 -0.37352362760889313 0 -0.030785854738116972 -0.37368341040631009 0 -0.040204043811910277 -0.38170098140930042 0 -0.030785854738116972 -0.37368341040631009 0 -0.040204043811910277 -0.38170098140930042 0 -0.030785854738116972 -0.37368341040631009 0 -0.028592068488720101 -0.38563744738350553 0 -0.040204043811910277 -0.38170098140930042 0 -0.041540536410682748 -0.37352362760889313 0 -0.040204043811910277 -0.38170098140930042 0 -0.041540536410682748 -0.37352362760889313 0 -0.040204043811910277 -0.38170098140930042 0 -0.047136748129047133 -0.38025401328103348 0 -0.040204043811910277 -0.38170098140930042 0 -0.045687984410180252 -0.38636938239151619 0 -0.047136748129047133 -0.38025401328103348 0 -0.040204043811910277 -0.38170098140930042 0 -0.045687984410180252 -0.38636938239151619 0 -0.030716124380346769 -0.39357342033435261 0 -0.028592068488720101 -0.38563744738350553 0 -0.040204043811910277 -0.38170098140930042 0 -0.040204043811910277 -0.38170098140930042 0 -0.036450353270729888 -0.40466800392828589 0 -0.045687984410180252 -0.38636938239151619 0 -0.036450353270729888 -0.40466800392828589 0 -0.051967664718507528 -0.39636755391907302 0 -0.040204043811910277 -0.38170098140930042 0 -0.045687984410180252 -0.38636938239151619 0 -0.036450353270729888 -0.40466800392828589 0 -0.030716124380346769 -0.39357342033435261 0 -0.040204043811910277 -0.38170098140930042 0 -0.036450353270729888 -0.40466800392828589 0 -0.036450353270729888 -0.40466800392828589 0 -0.051967664718507528 -0.39636755391907302 0 -0.051525226613076673 -0.4108874080280796 0 -0.051967664718507528 -0.39636755391907302 0 -0.051525226613076673 -0.4108874080280796 0 -0.064083334619168153 -0.40185594210161329 0 -0.051967664718507528 -0.39636755391907302 0 -0.060187898484353221 -0.3884966446880187 0 -0.064083334619168153 -0.40185594210161329 0 -0.051967664718507528 -0.39636755391907302 0 -0.060187898484353221 -0.3884966446880187 0 -0.052673368044770179 -0.3839621570052541 0 -0.060187898484353221 -0.3884966446880187 0 -0.055577807967692197 -0.37571391799020343 0 -0.052673368044770179 -0.3839621570052541 0 -0.060187898484353221 -0.3884966446880187 0 -0.055577807967692197 -0.37571391799020343 0 -0.069188174165302055 -0.37961774584101621 0 -0.041540536410682748 -0.37352362760889313 0 -0.055577807967692197 -0.37571391799020343 0 -0.047136748129047133 -0.38025401328103348 0 -0.055577807967692197 -0.37571391799020343 0 -0.047136748129047133 -0.38025401328103348 0 -0.052673368044770179 -0.3839621570052541 0 -0.045687984410180252 -0.38636938239151619 0 -0.051967664718507528 -0.39636755391907302 0 -0.052673368044770179 -0.3839621570052541 0 -0.045687984410180252 -0.38636938239151619 0 -0.047136748129047133 -0.38025401328103348 0 -0.052673368044770179 -0.3839621570052541 0 -0.044913482795026077 -0.42594384622024339 0 -0.042085575314680192 -0.44003378658289521 0 -0.058815165013487117 -0.43947661053861697 0 -0.044913482795026077 -0.42594384622024339 0 -0.070288931872888594 -0.42148774777448839 0 -0.044913482795026077 -0.42594384622024339 0 -0.058815165013487117 -0.43947661053861697 0 -0.070288931872888594 -0.42148774777448839 0 -0.051525226613076673 -0.4108874080280796 0 -0.064083334619168153 -0.40185594210161329 0 -0.070288931872888594 -0.42148774777448839 0 -0.051525226613076673 -0.4108874080280796 0 -0.044913482795026077 -0.42594384622024339 0 -0.070288931872888594 -0.42148774777448839 0 -0.036450353270729888 -0.40466800392828589 0 -0.032696662729549797 -0.42763502644727153 0 -0.036450353270729888 -0.40466800392828589 0 -0.041396431352095607 -0.41728357115597009 0 -0.032696662729549797 -0.42763502644727153 0 -0.051525226613076673 -0.4108874080280796 0 -0.041396431352095607 -0.41728357115597009 0 -0.044913482795026077 -0.42594384622024339 0 -0.036450353270729888 -0.40466800392828589 0 -0.032696662729549797 -0.42763502644727153 0 -0.02489009931799956 -0.41440433980388719 0 -0.036450353270729888 -0.40466800392828589 0 -0.051525226613076673 -0.4108874080280796 0 -0.041396431352095607 -0.41728357115597009 0 -0.041396431352095607 -0.41728357115597009 0 -0.032696662729549797 -0.42763502644727153 0 -0.044913482795026077 -0.42594384622024339 0 -0.032696662729549797 -0.42763502644727153 0 -0.044913482795026077 -0.42594384622024339 0 -0.042085575314680192 -0.44003378658289521 0 -0.032696662729549797 -0.42763502644727153 0 -0.02489009931799956 -0.41440433980388719 0 -0.014565562360435869 -0.42411157793797771 0 -0.032696662729549797 -0.42763502644727153 0 -0.019242176611549981 -0.43696555881821642 0 -0.014565562360435869 -0.42411157793797771 0 -0.021081455521060392 -0.40053577019721859 0 -0.036450353270729888 -0.40466800392828589 0 -0.02489009931799956 -0.41440433980388719 0 -0.02489009931799956 -0.41440433980388719 0 -0.0168139851394437 -0.41161065366573302 0 -0.014565562360435869 -0.42411157793797771 0 -0.021081455521060392 -0.40053577019721859 0 -0.02489009931799956 -0.41440433980388719 0 -0.0168139851394437 -0.41161065366573302 0 -0.0019778635458290168 -0.39713890466688878 0 -0.0067188233582789816 -0.40739092672384841 0 0.0063834234806573811 -0.41675765137015403 0 -0.0168139851394437 -0.41161065366573302 0 -0.0067188233582789816 -0.40739092672384841 0 -0.014565562360435869 -0.42411157793797771 0 -0.0067188233582789816 -0.40739092672384841 0 0.0031016059069773122 -0.4294988458358488 0 -0.0067188233582789816 -0.40739092672384841 0 -0.014565562360435869 -0.42411157793797771 0 0.0031016059069773122 -0.4294988458358488 0 -0.021081455521060392 -0.40053577019721859 0 -0.0168139851394437 -0.41161065366573302 0 -0.0067188233582789816 -0.40739092672384841 0 -0.0081485235450065793 -0.43582363342001701 0 -0.014565562360435869 -0.42411157793797771 0 0.0031016059069773122 -0.4294988458358488 0 -0.019242176611549981 -0.43696555881821642 0 -0.0081485235450065793 -0.43582363342001701 0 -0.014565562360435869 -0.42411157793797771 0 -0.0081485235450065793 -0.43582363342001701 0 -0.00085677679244291777 -0.44417084653599809 0 0.0031016059069773122 -0.4294988458358488 0 -0.0081485235450065793 -0.43582363342001701 0 -0.00085677679244291777 -0.44417084653599809 0 -0.0117677885632525 -0.44745594279929329 0 -0.019242176611549981 -0.43696555881821642 0 -0.0081485235450065793 -0.43582363342001701 0 -0.0117677885632525 -0.44745594279929329 0 -0.00085677679244291777 -0.44417084653599809 0 -0.0117677885632525 -0.44745594279929329 0 -0.00039121293316641458 -0.45646904567698232 0 -0.00039121293316641458 -0.45646904567698232 0 -0.014092665110580931 -0.4611720717372948 0 -0.001756890738855816 -0.47423604232798888 0 -0.0117677885632525 -0.44745594279929329 0 -0.00039121293316641458 -0.45646904567698232 0 -0.014092665110580931 -0.4611720717372948 0 -0.014092665110580931 -0.4611720717372948 0 -0.028942972188369699 -0.450602048966257 0 -0.025189281647189608 -0.47356907148524252 0 -0.028942972188369699 -0.450602048966257 0 -0.025189281647189608 -0.47356907148524252 0 -0.019242176611549981 -0.43696555881821642 0 -0.0117677885632525 -0.44745594279929329 0 -0.028942972188369699 -0.450602048966257 0 -0.032696662729549797 -0.42763502644727153 0 -0.019242176611549981 -0.43696555881821642 0 -0.028942972188369699 -0.450602048966257 0 -0.0117677885632525 -0.44745594279929329 0 -0.014092665110580931 -0.4611720717372948 0 -0.028942972188369699 -0.450602048966257 0 -0.032696662729549797 -0.42763502644727153 0 -0.028942972188369699 -0.450602048966257 0 -0.0085657209220548203 -0.5 0 -0.001756890738855816 -0.47423604232798888 0 0.0055322331112882912 -0.48922459921452538 0 -0.0085657209220548203 -0.5 0 -0.001756890738855816 -0.47423604232798888 0 -0.025189281647189608 -0.47356907148524252 0 -0.014092665110580931 -0.4611720717372948 0 -0.001756890738855816 -0.47423604232798888 0 -0.025189281647189608 -0.47356907148524252 0 -0.0085657209220548203 -0.5 0 -0.025189281647189608 -0.47356907148524252 0 -0.035890431535145713 -0.5 0 -0.025189281647189608 -0.47356907148524252 0 -0.050849024429062202 -0.47879654569106711 0 -0.045323205303666909 -0.45820618048103612 0 -0.025189281647189608 -0.47356907148524252 0 -0.035890431535145713 -0.5 0 -0.050849024429062202 -0.47879654569106711 0 -0.050849024429062202 -0.47879654569106711 0 -0.065599711405970304 -0.45953929505376251 0 -0.070835229409541539 -0.48146410870402978 0 -0.050849024429062202 -0.47879654569106711 0 -0.063215142148236592 -0.5 0 -0.070835229409541539 -0.48146410870402978 0 -0.035890431535145713 -0.5 0 -0.050849024429062202 -0.47879654569106711 0 -0.063215142148236592 -0.5 0 -0.032696662729549797 -0.42763502644727153 0 -0.028942972188369699 -0.450602048966257 0 -0.042085575314680192 -0.44003378658289521 0 -0.028942972188369699 -0.450602048966257 0 -0.042085575314680192 -0.44003378658289521 0 -0.045323205303666909 -0.45820618048103612 0 -0.028942972188369699 -0.450602048966257 0 -0.025189281647189608 -0.47356907148524252 0 -0.045323205303666909 -0.45820618048103612 0 -0.050849024429062202 -0.47879654569106711 0 -0.045323205303666909 -0.45820618048103612 0 -0.065599711405970304 -0.45953929505376251 0 -0.045323205303666909 -0.45820618048103612 0 -0.058815165013487117 -0.43947661053861697 0 -0.065599711405970304 -0.45953929505376251 0 -0.042085575314680192 -0.44003378658289521 0 -0.045323205303666909 -0.45820618048103612 0 -0.058815165013487117 -0.43947661053861697 0 -0.058815165013487117 -0.43947661053861697 0 -0.065599711405970304 -0.45953929505376251 0 -0.086198485379274867 -0.44141073841562278 0 -0.065599711405970304 -0.45953929505376251 0 -0.086198485379274867 -0.44141073841562278 0 -0.0885749197049229 -0.46898173434812868 0 -0.063215142148236592 -0.5 0 -0.070835229409541539 -0.48146410870402978 0 -0.090539852761327477 -0.5 0 -0.065599711405970304 -0.45953929505376251 0 -0.070835229409541539 -0.48146410870402978 0 -0.0885749197049229 -0.46898173434812868 0 -0.070835229409541539 -0.48146410870402978 0 -0.0885749197049229 -0.46898173434812868 0 -0.090539852761327477 -0.5 0 -0.090539852761327477 -0.5 0 -0.1109006914084764 -0.47843491084128431 0 -0.1178645633744184 -0.5 0 -0.0885749197049229 -0.46898173434812868 0 -0.090539852761327477 -0.5 0 -0.1109006914084764 -0.47843491084128431 0 -0.12858690215303051 -0.46371901618805828 0 -0.13373367115321971 -0.48380607728579073 0 -0.1109006914084764 -0.47843491084128431 0 -0.13373367115321971 -0.48380607728579073 0 -0.1109006914084764 -0.47843491084128431 0 -0.1178645633744184 -0.5 0 -0.086198485379274867 -0.44141073841562278 0 -0.1096736002732495 -0.45399860662872721 0 -0.11075475846082659 -0.42985043295533809 0 -0.0885749197049229 -0.46898173434812868 0 -0.1109006914084764 -0.47843491084128431 0 -0.1096736002732495 -0.45399860662872721 0 -0.086198485379274867 -0.44141073841562278 0 -0.0885749197049229 -0.46898173434812868 0 -0.1096736002732495 -0.45399860662872721 0 -0.12858690215303051 -0.46371901618805828 0 -0.1109006914084764 -0.47843491084128431 0 -0.1096736002732495 -0.45399860662872721 0 -0.12858690215303051 -0.46371901618805828 0 -0.1096736002732495 -0.45399860662872721 0 -0.12858690215303051 -0.46371901618805828 0 -0.1096736002732495 -0.45399860662872721 0 -0.1246817745653606 -0.44805704051465428 0 -0.1096736002732495 -0.45399860662872721 0 -0.1246817745653606 -0.44805704051465428 0 -0.11075475846082659 -0.42985043295533809 0 -0.13077069007572109 -0.43310804016754201 0 -0.1246817745653606 -0.44805704051465428 0 -0.11075475846082659 -0.42985043295533809 0 -0.12619577702185669 -0.42297562863706512 0 -0.13077069007572109 -0.43310804016754201 0 -0.11075475846082659 -0.42985043295533809 0 -0.086198485379274867 -0.44141073841562278 0 -0.11075475846082659 -0.42985043295533809 0 -0.095664380950751082 -0.41703164932873349 0 -0.095664380950751082 -0.41703164932873349 0 -0.1210398300286134 -0.41257555088297743 0 -0.095664380950751082 -0.41703164932873349 0 -0.1210398300286134 -0.41257555088297743 0 -0.1014039386841364 -0.40099184302701052 0 -0.11075475846082659 -0.42985043295533809 0 -0.095664380950751082 -0.41703164932873349 0 -0.1210398300286134 -0.41257555088297743 0 -0.12619577702185669 -0.42297562863706512 0 -0.11075475846082659 -0.42985043295533809 0 -0.1210398300286134 -0.41257555088297743 0 -0.11075475846082659 -0.42985043295533809 0 -0.1210398300286134 -0.41257555088297743 0 -0.1282602211981495 -0.38344507038105058 0 -0.13083603900656049 -0.39612176602256899 0 -0.11457693439839479 -0.39253270091748188 0 -0.1210398300286134 -0.41257555088297743 0 -0.11457693439839479 -0.39253270091748188 0 -0.1014039386841364 -0.40099184302701052 0 -0.13083603900656049 -0.39612176602256899 0 -0.1210398300286134 -0.41257555088297743 0 -0.11457693439839479 -0.39253270091748188 0 -0.1282602211981495 -0.38344507038105058 0 -0.1194067897617065 -0.36398797762087459 0 -0.1129150472834325 -0.37818178439515948 0 -0.1282602211981495 -0.38344507038105058 0 -0.11457693439839479 -0.39253270091748188 0 -0.1129150472834325 -0.37818178439515948 0 -0.11457693439839479 -0.39253270091748188 0 -0.1129150472834325 -0.37818178439515948 0 -0.097520482485571477 -0.38243064038456209 0 -0.10481080857334039 -0.36851253267182832 0 -0.1129150472834325 -0.37818178439515948 0 -0.097520482485571477 -0.38243064038456209 0 -0.097520482485571477 -0.38243064038456209 0 -0.1014039386841364 -0.40099184302701052 0 -0.083041957788889786 -0.3993639751826944 0 -0.11457693439839479 -0.39253270091748188 0 -0.097520482485571477 -0.38243064038456209 0 -0.1014039386841364 -0.40099184302701052 0 -0.095664380950751082 -0.41703164932873349 0 -0.1014039386841364 -0.40099184302701052 0 -0.083041957788889786 -0.3993639751826944 0 -0.083041957788889786 -0.3993639751826944 0 -0.083637280568191599 -0.38164185506358428 0 -0.072027729125180961 -0.39019523257538541 0 -0.09049285597893908 -0.36292867538002149 0 -0.097520482485571477 -0.38243064038456209 0 -0.083637280568191599 -0.38164185506358428 0 -0.097520482485571477 -0.38243064038456209 0 -0.083041957788889786 -0.3993639751826944 0 -0.083637280568191599 -0.38164185506358428 0 -0.079039662139163649 -0.36988580756775769 0 -0.083637280568191599 -0.38164185506358428 0 -0.069188174165302055 -0.37961774584101621 0 -0.083637280568191599 -0.38164185506358428 0 -0.072027729125180961 -0.39019523257538541 0 -0.069188174165302055 -0.37961774584101621 0 -0.060187898484353221 -0.3884966446880187 0 -0.072027729125180961 -0.39019523257538541 0 -0.069188174165302055 -0.37961774584101621 0 -0.06711266906551433 -0.36970655929598678 0 -0.055577807967692197 -0.37571391799020343 0 -0.069188174165302055 -0.37961774584101621 0 -0.083041957788889786 -0.3993639751826944 0 -0.072027729125180961 -0.39019523257538541 0 -0.064083334619168153 -0.40185594210161329 0 -0.060187898484353221 -0.3884966446880187 0 -0.072027729125180961 -0.39019523257538541 0 -0.064083334619168153 -0.40185594210161329 0 -0.083041957788889786 -0.3993639751826944 0 -0.064083334619168153 -0.40185594210161329 0 -0.070288931872888594 -0.42148774777448839 0 -0.058815165013487117 -0.43947661053861697 0 -0.086198485379274867 -0.44141073841562278 0 -0.070288931872888594 -0.42148774777448839 0 -0.086198485379274867 -0.44141073841562278 0 -0.095664380950751082 -0.41703164932873349 0 -0.070288931872888594 -0.42148774777448839 0 -0.095664380950751082 -0.41703164932873349 0 -0.070288931872888594 -0.42148774777448839 0 -0.095664380950751082 -0.41703164932873349 0 -0.083041957788889786 -0.3993639751826944 0 -0.070288931872888594 -0.42148774777448839 0 -0.079598524618727934 -0.08454260593313008 0 -0.072820717057328149 -0.087948448027877296 0 -0.089020749069611854 -0.095539257433498836 0 -0.079598524618727934 -0.08454260593313008 0 -0.085126389092709698 -0.075645340968565872 0 -0.079192704019555152 -0.077323917803087616 0 -0.079598524618727934 -0.08454260593313008 0 -0.089020749069611854 -0.095539257433498836 0 -0.094206705460290113 -0.080867070965128587 0 -0.089020749069611854 -0.095539257433498836 0 -0.094206705460290113 -0.080867070965128587 0 -0.079598524618727934 -0.08454260593313008 0 -0.094206705460290113 -0.080867070965128587 0 -0.079598524618727934 -0.08454260593313008 0 -0.085126389092709698 -0.075645340968565872 0 -0.094206705460290113 -0.080867070965128587 0 -0.085126389092709698 -0.075645340968565872 0 -0.094206705460290113 -0.080867070965128587 0 -0.10016283194475691 -0.064015907587367582 0 -0.085764106578342408 -0.065554607455714384 0 -0.085126389092709698 -0.075645340968565872 0 -0.10016283194475691 -0.064015907587367582 0 -0.085764106578342408 -0.065554607455714384 0 -0.076818720218280526 -0.070678946839028214 0 -0.078931705516040895 -0.060348842001306857 0 -0.085764106578342408 -0.065554607455714384 0 -0.085126389092709698 -0.075645340968565872 0 -0.076818720218280526 -0.070678946839028214 0 -0.085126389092709698 -0.075645340968565872 0 -0.079192704019555152 -0.077323917803087616 0 -0.076818720218280526 -0.070678946839028214 0 -0.070772968096640937 -0.072086948693161401 0 -0.072820717057328149 -0.087948448027877296 0 -0.061806641435727311 -0.065685452153885271 0 -0.079192704019555152 -0.077323917803087616 0 -0.076818720218280526 -0.070678946839028214 0 -0.075227182148502464 -0.07842877747162634 0 -0.072820717057328149 -0.087948448027877296 0 -0.061806641435727311 -0.065685452153885271 0 -0.058359899789044829 -0.069533297825772777 0 -0.072820717057328149 -0.087948448027877296 0 -0.061806641435727311 -0.065685452153885271 0 -0.076818720218280526 -0.070678946839028214 0 -0.070772968096640937 -0.072086948693161401 0 -0.075227182148502464 -0.07842877747162634 0 -0.076818720218280526 -0.070678946839028214 0 -0.070772968096640937 -0.072086948693161401 0 -0.071300895750288043 -0.063416362270242693 0 -0.076818720218280526 -0.070678946839028214 0 -0.071300895750288043 -0.063416362270242693 0 -0.078931705516040895 -0.060348842001306857 0 -0.070772968096640937 -0.072086948693161401 0 -0.0669776892702722 -0.064957992711698886 0 -0.061806641435727311 -0.065685452153885271 0 -0.070772968096640937 -0.072086948693161401 0 -0.071300895750288043 -0.063416362270242693 0 -0.0669776892702722 -0.064957992711698886 0 -0.064596829750241128 -0.089471714120049034 0 -0.072820717057328149 -0.087948448027877296 0 -0.058359899789044829 -0.069533297825772777 0 -0.070772968096640937 -0.072086948693161401 0 -0.075227182148502464 -0.07842877747162634 0 -0.072820717057328149 -0.087948448027877296 0 -0.079598524618727934 -0.08454260593313008 0 -0.075227182148502464 -0.07842877747162634 0 -0.072820717057328149 -0.087948448027877296 0 -0.079598524618727934 -0.08454260593313008 0 -0.079192704019555152 -0.077323917803087616 0 -0.075227182148502464 -0.07842877747162634 0 -0.064596829750241128 -0.089471714120049034 0 -0.070833759711437225 -0.1094101304143253 0 -0.064596829750241128 -0.089471714120049034 0 -0.070833759711437225 -0.1094101304143253 0 -0.054214077560740502 -0.11056007101955249 0 -0.072820717057328149 -0.087948448027877296 0 -0.070833759711437225 -0.1094101304143253 0 -0.083834792678931125 -0.11021144390186829 0 -0.064596829750241128 -0.089471714120049034 0 -0.072820717057328149 -0.087948448027877296 0 -0.070833759711437225 -0.1094101304143253 0 -0.070833759711437225 -0.1094101304143253 0 -0.083834792678931125 -0.11021144390186829 0 -0.077070689672634307 -0.12934854670860141 0 -0.070833759711437225 -0.1094101304143253 0 -0.077070689672634307 -0.12934854670860141 0 -0.065789072589199998 -0.13099865538217981 0 -0.070833759711437225 -0.1094101304143253 0 -0.077070689672634307 -0.12934854670860141 0 -0.070833759711437225 -0.1094101304143253 0 -0.053640412400227662 -0.12651377429929669 0 -0.065789072589199998 -0.13099865538217981 0 -0.083834792678931125 -0.11021144390186829 0 -0.089402633808776374 -0.12146584493918711 0 -0.1043853928723735 -0.10456605270601251 0 -0.083834792678931125 -0.11021144390186829 0 -0.077070689672634307 -0.12934854670860141 0 -0.083834792678931125 -0.11021144390186829 0 -0.089402633808776374 -0.12146584493918711 0 -0.077070689672634307 -0.12934854670860141 0 -0.083834792678931125 -0.11021144390186829 0 -0.089402633808776374 -0.12146584493918711 0 -0.083834792678931125 -0.11021144390186829 0 -0.089020749069611854 -0.095539257433498836 0 -0.1043853928723735 -0.10456605270601251 0 -0.072820717057328149 -0.087948448027877296 0 -0.083834792678931125 -0.11021144390186829 0 -0.089020749069611854 -0.095539257433498836 0 -0.072820717057328149 -0.087948448027877296 0 -0.083834792678931125 -0.11021144390186829 0 -0.083834792678931125 -0.11021144390186829 0 -0.089020749069611854 -0.095539257433498836 0 -0.089020749069611854 -0.095539257433498836 0 -0.1043853928723735 -0.10456605270601251 0 -0.1042519615136354 -0.088891082235974805 0 -0.089402633808776374 -0.12146584493918711 0 -0.1043853928723735 -0.10456605270601251 0 -0.089402633808776374 -0.12146584493918711 0 -0.1043853928723735 -0.10456605270601251 0 -0.1116517452766989 -0.12608489527846259 0 -0.1043853928723735 -0.10456605270601251 0 -0.1211518125642765 -0.1106055035795695 0 -0.1116517452766989 -0.12608489527846259 0 -0.1211518125642765 -0.1106055035795695 0 -0.1116517452766989 -0.12608489527846259 0 -0.1354994100515195 -0.1327370651688819 0 -0.1043853928723735 -0.10456605270601251 0 -0.1193681519359712 -0.087666260472838181 0 -0.1043853928723735 -0.10456605270601251 0 -0.1211518125642765 -0.1106055035795695 0 -0.1193681519359712 -0.087666260472838181 0 -0.1193681519359712 -0.087666260472838181 0 -0.1042519615136354 -0.088891082235974805 0 -0.11427880822992929 -0.075816769602395598 0 -0.094206705460290113 -0.080867070965128587 0 -0.11427880822992929 -0.075816769602395598 0 -0.1043853928723735 -0.10456605270601251 0 -0.1193681519359712 -0.087666260472838181 0 -0.1042519615136354 -0.088891082235974805 0 -0.1042519615136354 -0.088891082235974805 0 -0.094206705460290113 -0.080867070965128587 0 -0.11427880822992929 -0.075816769602395598 0 -0.089020749069611854 -0.095539257433498836 0 -0.1042519615136354 -0.088891082235974805 0 -0.094206705460290113 -0.080867070965128587 0 -0.094206705460290113 -0.080867070965128587 0 -0.10016283194475691 -0.064015907587367582 0 -0.094206705460290113 -0.080867070965128587 0 -0.10016283194475691 -0.064015907587367582 0 -0.11427880822992929 -0.075816769602395598 0 -0.11427880822992929 -0.075816769602395598 0 -0.134350910999569 -0.070766468239664093 0 -0.11427880822992929 -0.075816769602395598 0 -0.1155349902059912 -0.059971079674281592 0 -0.134350910999569 -0.070766468239664093 0 -0.1193681519359712 -0.087666260472838181 0 -0.11427880822992929 -0.075816769602395598 0 -0.134350910999569 -0.070766468239664093 0 -0.10016283194475691 -0.064015907587367582 0 -0.11427880822992929 -0.075816769602395598 0 -0.1155349902059912 -0.059971079674281592 0 -0.1155349902059912 -0.059971079674281592 0 -0.1061189584292228 -0.04716474420960623 0 -0.12851653136048641 -0.049059311098846897 0 -0.11845884524579781 -0.03462193739809187 0 -0.1061189584292228 -0.04716474420960623 0 -0.12851653136048641 -0.049059311098846897 0 -0.1061189584292228 -0.04716474420960623 0 -0.099590781859076827 -0.029648191918759281 0 -0.090826771124926112 -0.044250862090157668 0 -0.11845884524579781 -0.03462193739809187 0 -0.1061189584292228 -0.04716474420960623 0 -0.099590781859076827 -0.029648191918759281 0 -0.10016283194475691 -0.064015907587367582 0 -0.096067875788787532 -0.052750922607108057 0 -0.1061189584292228 -0.04716474420960623 0 -0.096067875788787532 -0.052750922607108057 0 -0.1061189584292228 -0.04716474420960623 0 -0.090826771124926112 -0.044250862090157668 0 -0.10016283194475691 -0.064015907587367582 0 -0.1155349902059912 -0.059971079674281592 0 -0.1061189584292228 -0.04716474420960623 0 -0.10016283194475691 -0.064015907587367582 0 -0.1061189584292228 -0.04716474420960623 0 -0.10016283194475691 -0.064015907587367582 0 -0.096067875788787532 -0.052750922607108057 0 -0.087780886119924004 -0.05708399988230338 0 -0.11845884524579781 -0.03462193739809187 0 -0.11487335580186619 -0.01739582132962459 0 -0.1410276087416692 -0.025565321264202402 0 -0.11845884524579781 -0.03462193739809187 0 -0.11487335580186619 -0.01739582132962459 0 -0.099590781859076827 -0.029648191918759281 0 -0.11487335580186619 -0.01739582132962459 0 -0.099590781859076827 -0.029648191918759281 0 -0.091151956463994502 -0.009207837001269004 0 -0.11487335580186619 -0.01739582132962459 0 -0.091151956463994502 -0.009207837001269004 0 -0.097293161727567842 0.01131020831363817 0 -0.099590781859076827 -0.029648191918759281 0 -0.091151956463994502 -0.009207837001269004 0 -0.078895820859560428 -0.031518427500417383 0 -0.091151956463994502 -0.009207837001269004 0 -0.073653021399835761 -0.016545086220615651 0 -0.078895820859560428 -0.031518427500417383 0 -0.073653021399835761 -0.016545086220615651 0 -0.078895820859560428 -0.031518427500417383 0 -0.061256405648171253 -0.032283885153837018 0 -0.073653021399835761 -0.016545086220615651 0 -0.061256405648171253 -0.032283885153837018 0 -0.05675131984149117 -0.018788606854313061 0 -0.073653021399835761 -0.016545086220615651 0 -0.05961480921768518 -0.0056805072271022342 0 -0.06753028909199818 0.01115160603426198 0 -0.091151956463994502 -0.009207837001269004 0 -0.073653021399835761 -0.016545086220615651 0 -0.06753028909199818 0.01115160603426198 0 -0.073653021399835761 -0.016545086220615651 0 -0.05961480921768518 -0.0056805072271022342 0 -0.05675131984149117 -0.018788606854313061 0 -0.085764106578342408 -0.065554607455714384 0 -0.078931705516040895 -0.060348842001306857 0 -0.087780886119924004 -0.05708399988230338 0 -0.0798792507023455 -0.048921215677716033 0 -0.078931705516040895 -0.060348842001306857 0 -0.087780886119924004 -0.05708399988230338 0 -0.085764106578342408 -0.065554607455714384 0 -0.10016283194475691 -0.064015907587367582 0 -0.087780886119924004 -0.05708399988230338 0 -0.096067875788787532 -0.052750922607108057 0 -0.087780886119924004 -0.05708399988230338 0 -0.090826771124926112 -0.044250862090157668 0 -0.0798792507023455 -0.048921215677716033 0 -0.087780886119924004 -0.05708399988230338 0 -0.090826771124926112 -0.044250862090157668 0 -0.0798792507023455 -0.048921215677716033 0 -0.078895820859560428 -0.031518427500417383 0 -0.090826771124926112 -0.044250862090157668 0 -0.099590781859076827 -0.029648191918759281 0 -0.078895820859560428 -0.031518427500417383 0 -0.090826771124926112 -0.044250862090157668 0 -0.078895820859560428 -0.031518427500417383 0 -0.070036467584947901 -0.044678965286234329 0 -0.061256405648171253 -0.032283885153837018 0 -0.0798792507023455 -0.048921215677716033 0 -0.078895820859560428 -0.031518427500417383 0 -0.070036467584947901 -0.044678965286234329 0 -0.070036467584947901 -0.044678965286234329 0 -0.058357919462266969 -0.046342765910571987 0 -0.061256405648171253 -0.032283885153837018 0 -0.070036467584947901 -0.044678965286234329 0 -0.064532711479317412 -0.056394067434130557 0 -0.070036467584947901 -0.044678965286234329 0 -0.064532711479317412 -0.056394067434130557 0 -0.058357919462266969 -0.046342765910571987 0 -0.070036467584947901 -0.044678965286234329 0 -0.073190776337616559 -0.054608596726056488 0 -0.064532711479317412 -0.056394067434130557 0 -0.0798792507023455 -0.048921215677716033 0 -0.078931705516040895 -0.060348842001306857 0 -0.073190776337616559 -0.054608596726056488 0 -0.0798792507023455 -0.048921215677716033 0 -0.070036467584947901 -0.044678965286234329 0 -0.073190776337616559 -0.054608596726056488 0 -0.071300895750288043 -0.063416362270242693 0 -0.078931705516040895 -0.060348842001306857 0 -0.073190776337616559 -0.054608596726056488 0 -0.073190776337616559 -0.054608596726056488 0 -0.064532711479317412 -0.056394067434130557 0 -0.071300895750288043 -0.063416362270242693 0 -0.0669776892702722 -0.064957992711698886 0 -0.064532711479317412 -0.056394067434130557 0 -0.071300895750288043 -0.063416362270242693 0 -0.073190776337616559 -0.054608596726056488 0 -0.064532711479317412 -0.056394067434130557 0 -0.0669776892702722 -0.064957992711698886 0 -0.064532711479317412 -0.056394067434130557 0 -0.061806641435727311 -0.065685452153885271 0 -0.064532711479317412 -0.056394067434130557 0 -0.055505214669871288 -0.060407349538829661 0 -0.038165028116226837 -0.061831625024082647 0 -0.064532711479317412 -0.056394067434130557 0 -0.048887160750812002 -0.050820592827943142 0 -0.038165028116226837 -0.061831625024082647 0 -0.064532711479317412 -0.056394067434130557 0 -0.038165028116226837 -0.061831625024082647 0 -0.064532711479317412 -0.056394067434130557 0 -0.048887160750812002 -0.050820592827943142 0 -0.058357919462266969 -0.046342765910571987 0 -0.064532711479317412 -0.056394067434130557 0 -0.055505214669871288 -0.060407349538829661 0 -0.058359899789044829 -0.069533297825772777 0 -0.061256405648171253 -0.032283885153837018 0 -0.047681012460698259 -0.041326753983635001 0 -0.042645080272736412 -0.028336543131192181 0 -0.058357919462266969 -0.046342765910571987 0 -0.061256405648171253 -0.032283885153837018 0 -0.047681012460698259 -0.041326753983635001 0 -0.048887160750812002 -0.050820592827943142 0 -0.058357919462266969 -0.046342765910571987 0 -0.047681012460698259 -0.041326753983635001 0 -0.03569913223555056 -0.048207751787295479 0 -0.042645080272736412 -0.028336543131192181 0 -0.026153584319198762 -0.033312296834232917 0 -0.047681012460698259 -0.041326753983635001 0 -0.03569913223555056 -0.048207751787295479 0 -0.042645080272736412 -0.028336543131192181 0 -0.048887160750812002 -0.050820592827943142 0 -0.047681012460698259 -0.041326753983635001 0 -0.03569913223555056 -0.048207751787295479 0 -0.03569913223555056 -0.048207751787295479 0 -0.038165028116226837 -0.061831625024082647 0 -0.022703721357178769 -0.051810233104548749 0 -0.048887160750812002 -0.050820592827943142 0 -0.03569913223555056 -0.048207751787295479 0 -0.038165028116226837 -0.061831625024082647 0 -0.05961480921768518 -0.0056805072271022342 0 -0.045038887357703498 -0.014196918159059071 0 -0.04603068534762423 -3.0850515358807798e-05 0 -0.05961480921768518 -0.0056805072271022342 0 -0.05675131984149117 -0.018788606854313061 0 -0.045038887357703498 -0.014196918159059071 0 -0.061256405648171253 -0.032283885153837018 0 -0.05675131984149117 -0.018788606854313061 0 -0.042645080272736412 -0.028336543131192181 0 -0.05675131984149117 -0.018788606854313061 0 -0.042645080272736412 -0.028336543131192181 0 -0.045038887357703498 -0.014196918159059071 0 -0.042645080272736412 -0.028336543131192181 0 -0.031650098720581277 -0.019000482097695819 0 -0.026153584319198762 -0.033312296834232917 0 -0.042645080272736412 -0.028336543131192181 0 -0.031650098720581277 -0.019000482097695819 0 -0.045038887357703498 -0.014196918159059071 0 -0.031650098720581277 -0.019000482097695819 0 -0.045038887357703498 -0.014196918159059071 0 -0.030439316156328361 -0.0057053113401083922 0 -0.04603068534762423 -3.0850515358807798e-05 0 -0.030439316156328361 -0.0057053113401083922 0 -0.035209522367389952 0.002657769990137076 0 -0.045038887357703498 -0.014196918159059071 0 -0.04603068534762423 -3.0850515358807798e-05 0 -0.030439316156328361 -0.0057053113401083922 0 -0.016223407507011348 -0.0014783717257068789 0 -0.030439316156328361 -0.0057053113401083922 0 -0.013973625496939359 -0.01345134102388652 0 -0.031650098720581277 -0.019000482097695819 0 -0.030439316156328361 -0.0057053113401083922 0 -0.013973625496939359 -0.01345134102388652 0 -0.016223407507011348 -0.0014783717257068789 0 -0.030439316156328361 -0.0057053113401083922 0 -0.02552884126160343 0.0034602984309436138 0 -0.031650098720581277 -0.019000482097695819 0 -0.013973625496939359 -0.01345134102388652 0 -0.026153584319198762 -0.033312296834232917 0 -0.026153584319198762 -0.033312296834232917 0 0.0019964281064309948 -0.028874583905178532 0 -0.013973625496939359 -0.01345134102388652 0 0.0069150557203328591 -0.01602128171007006 0 0.0019964281064309948 -0.028874583905178532 0 -0.013973625496939359 -0.01345134102388652 0 -0.026153584319198762 -0.033312296834232917 0 0.0019964281064309948 -0.028874583905178532 0 -0.013973625496939359 -0.01345134102388652 0 0.0019964281064309948 -0.028874583905178532 0 -0.013973625496939359 -0.01345134102388652 0 -0.001512727700102235 -0.0051413579262706288 0 0.0069150557203328591 -0.01602128171007006 0 -0.016223407507011348 -0.0014783717257068789 0 -0.013973625496939359 -0.01345134102388652 0 -0.001512727700102235 -0.0051413579262706288 0 -0.038165028116226837 -0.061831625024082647 0 -0.022703721357178769 -0.051810233104548749 0 -0.01179734475313645 -0.0672691826140355 0 -0.03569913223555056 -0.048207751787295479 0 -0.022703721357178769 -0.051810233104548749 0 -0.026153584319198762 -0.033312296834232917 0 -0.022703721357178769 -0.051810233104548749 0 -0.026153584319198762 -0.033312296834232917 0 -0.0034815090737861992 -0.048909686183370257 0 -0.026153584319198762 -0.033312296834232917 0 -0.0034815090737861992 -0.048909686183370257 0 0.0019964281064309948 -0.028874583905178532 0 -0.022703721357178769 -0.051810233104548749 0 -0.0034815090737861992 -0.048909686183370257 0 -0.01179734475313645 -0.0672691826140355 0 -0.0034815090737861992 -0.048909686183370257 0 -0.01179734475313645 -0.0672691826140355 0 0.014570338609954631 -0.072706740203985182 0 -0.01179734475313645 -0.0672691826140355 0 -0.0171470606703947 -0.085858261419419712 0 0.001299515704678544 -0.086653798805751595 0 -0.0171470606703947 -0.085858261419419712 0 -0.0093160920620752041 -0.099629969789549896 0 0.001299515704678544 -0.086653798805751595 0 -0.0171470606703947 -0.085858261419419712 0 -0.03514073924327768 -0.080077290836603018 0 -0.031014914388463589 -0.098048080653055009 0 -0.0171470606703947 -0.085858261419419712 0 -0.031014914388463589 -0.098048080653055009 0 -0.01901871453036913 -0.097201888934979913 0 -0.038165028116226837 -0.061831625024082647 0 -0.01179734475313645 -0.0672691826140355 0 -0.03514073924327768 -0.080077290836603018 0 -0.038165028116226837 -0.061831625024082647 0 -0.01179734475313645 -0.0672691826140355 0 -0.01179734475313645 -0.0672691826140355 0 -0.0171470606703947 -0.085858261419419712 0 -0.03514073924327768 -0.080077290836603018 0 -0.038165028116226837 -0.061831625024082647 0 -0.046605331448958232 -0.073599740292783211 0 -0.03514073924327768 -0.080077290836603018 0 -0.055505214669871288 -0.060407349538829661 0 -0.038165028116226837 -0.061831625024082647 0 -0.046605331448958232 -0.073599740292783211 0 -0.046605331448958232 -0.073599740292783211 0 -0.03514073924327768 -0.080077290836603018 0 -0.0458557754263706 -0.096149138238628043 0 -0.03514073924327768 -0.080077290836603018 0 -0.0458557754263706 -0.096149138238628043 0 -0.031014914388463589 -0.098048080653055009 0 -0.046605331448958232 -0.073599740292783211 0 -0.058359899789044829 -0.069533297825772777 0 -0.0458557754263706 -0.096149138238628043 0 -0.064596829750241128 -0.089471714120049034 0 -0.058359899789044829 -0.069533297825772777 0 -0.0458557754263706 -0.096149138238628043 0 -0.058359899789044829 -0.069533297825772777 0 -0.0458557754263706 -0.096149138238628043 0 -0.064596829750241128 -0.089471714120049034 0 -0.058359899789044829 -0.069533297825772777 0 -0.064532711479317412 -0.056394067434130557 0 -0.058359899789044829 -0.069533297825772777 0 -0.064532711479317412 -0.056394067434130557 0 -0.061806641435727311 -0.065685452153885271 0 -0.058359899789044829 -0.069533297825772777 0 -0.055505214669871288 -0.060407349538829661 0 -0.058359899789044829 -0.069533297825772777 0 -0.055505214669871288 -0.060407349538829661 0 -0.046605331448958232 -0.073599740292783211 0 -0.058359899789044829 -0.069533297825772777 0 -0.070833759711437225 -0.1094101304143253 0 -0.054214077560740502 -0.11056007101955249 0 -0.053640412400227662 -0.12651377429929669 0 -0.054214077560740502 -0.11056007101955249 0 -0.03335165106369628 -0.12276497865148341 0 -0.053640412400227662 -0.12651377429929669 0 -0.064596829750241128 -0.089471714120049034 0 -0.054214077560740502 -0.11056007101955249 0 -0.0458557754263706 -0.096149138238628043 0 -0.0458557754263706 -0.096149138238628043 0 -0.032019582634402063 -0.1190791088390741 0 -0.031014914388463589 -0.098048080653055009 0 -0.0458557754263706 -0.096149138238628043 0 -0.032019582634402063 -0.1190791088390741 0 -0.03335165106369628 -0.12276497865148341 0 -0.0458557754263706 -0.096149138238628043 0 -0.03335165106369628 -0.12276497865148341 0 -0.054214077560740502 -0.11056007101955249 0 -0.0458557754263706 -0.096149138238628043 0 -0.03335165106369628 -0.12276497865148341 0 -0.032019582634402063 -0.1190791088390741 0 -0.03335165106369628 -0.12276497865148341 0 -0.022050010464354331 -0.1207336658676776 0 -0.031014914388463589 -0.098048080653055009 0 -0.032019582634402063 -0.1190791088390741 0 -0.03335165106369628 -0.12276497865148341 0 -0.022050010464354331 -0.1207336658676776 0 -0.032019582634402063 -0.1190791088390741 0 -0.022050010464354331 -0.1207336658676776 0 -0.031014914388463589 -0.098048080653055009 0 -0.022050010464354331 -0.1207336658676776 0 -0.018856132364467249 -0.1059071398174998 0 -0.011888320544007199 -0.1144402804719698 0 -0.022050010464354331 -0.1207336658676776 0 -0.031014914388463589 -0.098048080653055009 0 -0.018856132364467249 -0.1059071398174998 0 -0.031014914388463589 -0.098048080653055009 0 -0.018856132364467249 -0.1059071398174998 0 -0.01901871453036913 -0.097201888934979913 0 -0.018856132364467249 -0.1059071398174998 0 -0.01901871453036913 -0.097201888934979913 0 -0.0093160920620752041 -0.099629969789549896 0 -0.0171470606703947 -0.085858261419419712 0 -0.01901871453036913 -0.097201888934979913 0 -0.0093160920620752041 -0.099629969789549896 0 -0.018856132364467249 -0.1059071398174998 0 -0.0093160920620752041 -0.099629969789549896 0 -0.011888320544007199 -0.1144402804719698 0 -0.0093160920620752041 -0.099629969789549896 0 -0.011888320544007199 -0.1144402804719698 0 -3.9213425708454218e-05 -0.11342232087091821 0 -0.0093160920620752041 -0.099629969789549896 0 -3.9213425708454218e-05 -0.11342232087091821 0 0.0011414087804533441 -0.1004826700100202 0 -0.0093160920620752041 -0.099629969789549896 0 0.0011414087804533441 -0.1004826700100202 0 0.001299515704678544 -0.086653798805751595 0 -0.022050010464354331 -0.1207336658676776 0 -0.011888320544007199 -0.1144402804719698 0 -0.0088896031561678263 -0.12735269834560581 0 -0.011888320544007199 -0.1144402804719698 0 -0.0055278102426785684 -0.1202914177452553 0 -0.0088896031561678263 -0.12735269834560581 0 -0.011888320544007199 -0.1144402804719698 0 -3.9213425708454218e-05 -0.11342232087091821 0 -0.0055278102426785684 -0.1202914177452553 0 -3.9213425708454218e-05 -0.11342232087091821 0 -0.0055278102426785684 -0.1202914177452553 0 -0.001032237097351958 -0.12600845422236731 0 -0.0055278102426785684 -0.1202914177452553 0 -0.001032237097351958 -0.12600845422236731 0 -0.0088896031561678263 -0.12735269834560581 0 -0.001032237097351958 -0.12600845422236731 0 -0.0013770698620868551 -0.13723339320632019 0 -0.0088896031561678263 -0.12735269834560581 0 -0.022050010464354331 -0.1207336658676776 0 -0.0088896031561678263 -0.12735269834560581 0 -0.013085106540245091 -0.14341925108230019 0 -0.0013770698620868551 -0.13723339320632019 0 -0.0088896031561678263 -0.12735269834560581 0 -0.013085106540245091 -0.14341925108230019 0 -0.03335165106369628 -0.12276497865148341 0 -0.022050010464354331 -0.1207336658676776 0 -0.024972259379985911 -0.14060105779959201 0 -0.03335165106369628 -0.12276497865148341 0 -0.024972259379985911 -0.14060105779959201 0 -0.022050010464354331 -0.1207336658676776 0 -0.013085106540245091 -0.14341925108230019 0 -0.022050010464354331 -0.1207336658676776 0 -0.024972259379985911 -0.14060105779959201 0 -0.013085106540245091 -0.14341925108230019 0 -0.024972259379985911 -0.14060105779959201 0 -0.013085106540245091 -0.14341925108230019 0 -0.016592867696275399 -0.1584371369477004 0 -0.024972259379985911 -0.14060105779959201 0 -0.0302603304539335 -0.15397175317400169 0 -0.016592867696275399 -0.1584371369477004 0 -0.024972259379985911 -0.14060105779959201 0 -0.016592867696275399 -0.1584371369477004 0 -0.013085106540245091 -0.14341925108230019 0 -0.0041202026161358679 -0.16610483629692269 0 -0.013085106540245091 -0.14341925108230019 0 -0.0041202026161358679 -0.16610483629692269 0 0.00087706121465781501 -0.15101584360234341 0 -0.013085106540245091 -0.14341925108230019 0 -0.0041202026161358679 -0.16610483629692269 0 -0.016592867696275399 -0.1584371369477004 0 -0.0013770698620868551 -0.13723339320632019 0 -0.013085106540245091 -0.14341925108230019 0 0.00087706121465781501 -0.15101584360234341 0 -0.0041202026161358679 -0.16610483629692269 0 -0.01661293443541987 -0.17740364555027899 0 -0.016592867696275399 -0.1584371369477004 0 -0.0041202026161358679 -0.16610483629692269 0 -0.00081075560289291249 -0.18009301941494149 0 0.0048447013079721286 -0.18879042151154579 0 -0.00081075560289291249 -0.18009301941494149 0 -0.01661293443541987 -0.17740364555027899 0 -0.0076813477549198921 -0.19016492818401171 0 -0.0041202026161358679 -0.16610483629692269 0 -0.00081075560289291249 -0.18009301941494149 0 -0.01661293443541987 -0.17740364555027899 0 -0.01661293443541987 -0.17740364555027899 0 -0.034095274566491619 -0.18384974073519239 0 -0.018940591817155891 -0.20094345416516379 0 -0.01661293443541987 -0.17740364555027899 0 -0.029362272893590068 -0.16808366074247921 0 -0.034095274566491619 -0.18384974073519239 0 -0.01661293443541987 -0.17740364555027899 0 -0.016592867696275399 -0.1584371369477004 0 -0.029362272893590068 -0.16808366074247921 0 -0.0302603304539335 -0.15397175317400169 0 -0.016592867696275399 -0.1584371369477004 0 -0.029362272893590068 -0.16808366074247921 0 -0.0302603304539335 -0.15397175317400169 0 -0.029362272893590068 -0.16808366074247921 0 -0.049249957315828978 -0.16675602730522249 0 -0.029362272893590068 -0.16808366074247921 0 -0.034095274566491619 -0.18384974073519239 0 -0.049249957315828978 -0.16675602730522249 0 -0.034095274566491619 -0.18384974073519239 0 -0.054994332860702461 -0.18265087170388011 0 -0.037924858263073548 -0.19444630366762961 0 -0.034095274566491619 -0.18384974073519239 0 -0.054994332860702461 -0.18265087170388011 0 -0.049249957315828978 -0.16675602730522249 0 -0.034095274566491619 -0.18384974073519239 0 -0.049249957315828978 -0.16675602730522249 0 -0.058653658301245408 -0.1735555350586801 0 -0.054994332860702461 -0.18265087170388011 0 -0.049249957315828978 -0.16675602730522249 0 -0.054994332860702461 -0.18265087170388011 0 -0.049249957315828978 -0.16675602730522249 0 -0.054994332860702461 -0.18265087170388011 0 -0.058660134779324177 -0.18011771130245871 0 -0.070962658119967256 -0.19339199601649459 0 -0.058653658301245408 -0.1735555350586801 0 -0.058660134779324177 -0.18011771130245871 0 -0.066522767579826142 -0.17452089537316651 0 -0.058653658301245408 -0.1735555350586801 0 -0.054994332860702461 -0.18265087170388011 0 -0.058660134779324177 -0.18011771130245871 0 -0.054994332860702461 -0.18265087170388011 0 -0.058660134779324177 -0.18011771130245871 0 -0.058653658301245408 -0.1735555350586801 0 -0.049249957315828978 -0.16675602730522249 0 -0.063841098970543325 -0.16373216960867329 0 -0.049249957315828978 -0.16675602730522249 0 -0.061388964377983662 -0.15306384308222939 0 -0.063841098970543325 -0.16373216960867329 0 -0.049249957315828978 -0.16675602730522249 0 -0.061388964377983662 -0.15306384308222939 0 -0.061388964377983662 -0.15306384308222939 0 -0.057769607099250157 -0.13974819488579091 0 -0.041300804189762987 -0.1447605029783528 0 -0.049249957315828978 -0.16675602730522249 0 -0.061388964377983662 -0.15306384308222939 0 -0.041300804189762987 -0.1447605029783528 0 -0.057769607099250157 -0.13974819488579091 0 -0.053640412400227662 -0.12651377429929669 0 -0.041300804189762987 -0.1447605029783528 0 -0.057769607099250157 -0.13974819488579091 0 -0.053640412400227662 -0.12651377429929669 0 -0.065789072589199998 -0.13099865538217981 0 -0.03335165106369628 -0.12276497865148341 0 -0.053640412400227662 -0.12651377429929669 0 -0.041300804189762987 -0.1447605029783528 0 -0.03335165106369628 -0.12276497865148341 0 -0.024972259379985911 -0.14060105779959201 0 -0.041300804189762987 -0.1447605029783528 0 -0.03335165106369628 -0.12276497865148341 0 -0.041300804189762987 -0.1447605029783528 0 -0.0302603304539335 -0.15397175317400169 0 -0.049249957315828978 -0.16675602730522249 0 -0.041300804189762987 -0.1447605029783528 0 -0.049249957315828978 -0.16675602730522249 0 -0.041300804189762987 -0.1447605029783528 0 -0.024972259379985911 -0.14060105779959201 0 -0.0302603304539335 -0.15397175317400169 0 -0.041300804189762987 -0.1447605029783528 0 -0.009729669714546002 -0.2432872939275138 0 -0.0173339261872794 -0.23155064245974161 0 -0.031558063588024848 -0.2454063148683252 0 -0.017905010862210059 -0.25635263443910211 0 -0.009729669714546002 -0.2432872939275138 0 -0.031558063588024848 -0.2454063148683252 0 -0.009729669714546002 -0.2432872939275138 0 0.0057768166891493111 -0.24666274859870019 0 0.0023950332764032349 -0.23684412936952151 0 -0.00368050083723665 -0.25337368755914491 0 -0.009729669714546002 -0.2432872939275138 0 0.0057768166891493111 -0.24666274859870019 0 -0.009729669714546002 -0.2432872939275138 0 -0.0058020364926236034 -0.23282090019806079 0 0.0023950332764032349 -0.23684412936952151 0 -0.009729669714546002 -0.2432872939275138 0 -0.0058020364926236034 -0.23282090019806079 0 -0.0173339261872794 -0.23155064245974161 0 -0.0058020364926236034 -0.23282090019806079 0 -0.0067208119216316461 -0.22527452096589121 0 -0.0173339261872794 -0.23155064245974161 0 -0.0058020364926236034 -0.23282090019806079 0 -2.7250177233395171e-05 -0.2298702989953533 0 0.0023950332764032349 -0.23684412936952151 0 -0.0058020364926236034 -0.23282090019806079 0 -2.7250177233395171e-05 -0.2298702989953533 0 -0.0067208119216316461 -0.22527452096589121 0 -0.0037859090678201679 -0.21803716759513511 0 0.00048648352289240582 -0.22285620972316481 0 -0.0067208119216316461 -0.22527452096589121 0 -0.0037859090678201679 -0.21803716759513511 0 0.00048648352289240582 -0.22285620972316481 0 -2.7250177233395171e-05 -0.2298702989953533 0 -0.0067208119216316461 -0.22527452096589121 0 0.00048648352289240582 -0.22285620972316481 0 -0.0067208119216316461 -0.22527452096589121 0 -0.016686051041202049 -0.22092757927771151 0 -0.0037859090678201679 -0.21803716759513511 0 -0.0067208119216316461 -0.22527452096589121 0 -0.016686051041202049 -0.22092757927771151 0 -0.0173339261872794 -0.23155064245974161 0 -0.016686051041202049 -0.22092757927771151 0 -0.0173339261872794 -0.23155064245974161 0 -0.035224470529366288 -0.2243004395374178 0 -0.0173339261872794 -0.23155064245974161 0 -0.035224470529366288 -0.2243004395374178 0 -0.031558063588024848 -0.2454063148683252 0 -0.016686051041202049 -0.22092757927771151 0 -0.020855383665446849 -0.20624173563138229 0 -0.035224470529366288 -0.2243004395374178 0 -0.0037859090678201679 -0.21803716759513511 0 -0.003242168764340803 -0.2064871545447389 0 -0.018940591817155891 -0.20094345416516379 0 -0.016686051041202049 -0.22092757927771151 0 -0.020855383665446849 -0.20624173563138229 0 -0.0037859090678201679 -0.21803716759513511 0 -0.0037859090678201679 -0.21803716759513511 0 -0.018940591817155891 -0.20094345416516379 0 -0.020855383665446849 -0.20624173563138229 0 -0.0037859090678201679 -0.21803716759513511 0 -0.020855383665446849 -0.20624173563138229 0 -0.0037859090678201679 -0.21803716759513511 0 -0.018940591817155891 -0.20094345416516379 0 -0.01661293443541987 -0.17740364555027899 0 -0.0076813477549198921 -0.19016492818401171 0 -0.018940591817155891 -0.20094345416516379 0 -0.003630438674382177 -0.19797922234589849 0 -0.0076813477549198921 -0.19016492818401171 0 -0.018940591817155891 -0.20094345416516379 0 -0.003242168764340803 -0.2064871545447389 0 -0.003630438674382177 -0.19797922234589849 0 -0.018940591817155891 -0.20094345416516379 0 -0.003242168764340803 -0.2064871545447389 0 -0.003630438674382177 -0.19797922234589849 0 0.001691091907484308 -0.20325462213238549 0 -0.00081075560289291249 -0.18009301941494149 0 -0.0076813477549198921 -0.19016492818401171 0 0.0037694184420872042 -0.19364554243865401 0 -0.003630438674382177 -0.19797922234589849 0 -0.0076813477549198921 -0.19016492818401171 0 0.0037694184420872042 -0.19364554243865401 0 -0.034095274566491619 -0.18384974073519239 0 -0.018940591817155891 -0.20094345416516379 0 -0.020855383665446849 -0.20624173563138229 0 -0.037924858263073548 -0.19444630366762961 0 -0.034095274566491619 -0.18384974073519239 0 -0.018940591817155891 -0.20094345416516379 0 -0.037924858263073548 -0.19444630366762961 0 -0.020855383665446849 -0.20624173563138229 0 -0.018940591817155891 -0.20094345416516379 0 -0.037924858263073548 -0.19444630366762961 0 -0.054994332860702461 -0.18265087170388011 0 -0.037924858263073548 -0.19444630366762961 0 -0.046701589353942537 -0.20881727508755921 0 -0.054994332860702461 -0.18265087170388011 0 -0.037924858263073548 -0.19444630366762961 0 -0.054994332860702461 -0.18265087170388011 0 -0.046701589353942537 -0.20881727508755921 0 -0.065048554063580025 -0.21047117703054169 0 -0.054994332860702461 -0.18265087170388011 0 -0.065048554063580025 -0.21047117703054169 0 -0.046701589353942537 -0.20881727508755921 0 -0.058362867081182122 -0.22977859149044921 0 -0.065048554063580025 -0.21047117703054169 0 -0.020855383665446849 -0.20624173563138229 0 -0.037924858263073548 -0.19444630366762961 0 -0.046701589353942537 -0.20881727508755921 0 -0.020855383665446849 -0.20624173563138229 0 -0.046701589353942537 -0.20881727508755921 0 -0.035224470529366288 -0.2243004395374178 0 -0.035224470529366288 -0.2243004395374178 0 -0.058362867081182122 -0.22977859149044921 0 -0.044205645324339023 -0.2371428379616371 0 -0.046701589353942537 -0.20881727508755921 0 -0.035224470529366288 -0.2243004395374178 0 -0.058362867081182122 -0.22977859149044921 0 -0.058362867081182122 -0.22977859149044921 0 -0.065048554063580025 -0.21047117703054169 0 -0.058362867081182122 -0.22977859149044921 0 -0.051677180098781562 -0.24908600595035579 0 -0.068119427736564431 -0.24122823572710361 0 -0.058362867081182122 -0.22977859149044921 0 -0.051677180098781562 -0.24908600595035579 0 -0.058362867081182122 -0.22977859149044921 0 -0.051677180098781562 -0.24908600595035579 0 -0.044205645324339023 -0.2371428379616371 0 -0.035224470529366288 -0.2243004395374178 0 -0.044205645324339023 -0.2371428379616371 0 -0.031558063588024848 -0.2454063148683252 0 -0.051677180098781562 -0.24908600595035579 0 -0.031558063588024848 -0.2454063148683252 0 -0.051677180098781562 -0.24908600595035579 0 -0.044205645324339023 -0.2371428379616371 0 -0.031558063588024848 -0.2454063148683252 0 -0.084702977910955518 -0.23523496283435349 0 -0.078630194548230628 -0.24805194808140191 0 -0.071839374305904785 -0.22926156255597199 0 -0.093588725053818614 -0.25675142893862218 0 -0.086139158804256544 -0.2443242225062961 0 -0.078630194548230628 -0.24805194808140191 0 -0.093588725053818614 -0.25675142893862218 0 -0.086139158804256544 -0.2443242225062961 0 -0.093451417529119701 -0.24639823353970619 0 -0.086139158804256544 -0.2443242225062961 0 -0.093451417529119701 -0.24639823353970619 0 -0.084702977910955518 -0.23523496283435349 0 -0.086139158804256544 -0.2443242225062961 0 -0.084702977910955518 -0.23523496283435349 0 -0.078630194548230628 -0.24805194808140191 0 -0.072632952576300092 -0.25291871744448891 0 -0.078630194548230628 -0.24805194808140191 0 -0.068119427736564431 -0.24122823572710361 0 -0.078630194548230628 -0.24805194808140191 0 -0.071839374305904785 -0.22926156255597199 0 -0.072632952576300092 -0.25291871744448891 0 -0.051677180098781562 -0.24908600595035579 0 -0.068119427736564431 -0.24122823572710361 0 -0.078630194548230628 -0.24805194808140191 0 -0.068119427736564431 -0.24122823572710361 0 -0.071839374305904785 -0.22926156255597199 0 -0.071839374305904785 -0.22926156255597199 0 -0.065048554063580025 -0.21047117703054169 0 -0.058362867081182122 -0.22977859149044921 0 -0.071839374305904785 -0.22926156255597199 0 -0.065048554063580025 -0.21047117703054169 0 -0.058362867081182122 -0.22977859149044921 0 -0.068119427736564431 -0.24122823572710361 0 -0.071839374305904785 -0.22926156255597199 0 -0.084702977910955518 -0.23523496283435349 0 -0.081159473969207488 -0.21404601559912129 0 -0.096849294507384928 -0.21964810855358599 0 -0.084702977910955518 -0.23523496283435349 0 -0.071839374305904785 -0.22926156255597199 0 -0.081159473969207488 -0.21404601559912129 0 -0.081159473969207488 -0.21404601559912129 0 -0.097553984907453609 -0.1962682866037796 0 -0.096849294507384928 -0.21964810855358599 0 -0.081159473969207488 -0.21404601559912129 0 -0.065048554063580025 -0.21047117703054169 0 -0.070962658119967256 -0.19339199601649459 0 -0.071839374305904785 -0.22926156255597199 0 -0.081159473969207488 -0.21404601559912129 0 -0.065048554063580025 -0.21047117703054169 0 -0.054994332860702461 -0.18265087170388011 0 -0.065048554063580025 -0.21047117703054169 0 -0.070962658119967256 -0.19339199601649459 0 -0.065048554063580025 -0.21047117703054169 0 -0.070962658119967256 -0.19339199601649459 0 -0.081159473969207488 -0.21404601559912129 0 -0.070962658119967256 -0.19339199601649459 0 -0.097553984907453609 -0.1962682866037796 0 -0.070962658119967256 -0.19339199601649459 0 -0.097553984907453609 -0.1962682866037796 0 -0.076876762176352476 -0.17631281500244661 0 -0.097553984907453609 -0.1962682866037796 0 -0.1166726240585392 -0.1912338587763773 0 -0.1038498020708104 -0.17933827917915279 0 -0.097553984907453609 -0.1962682866037796 0 -0.1166726240585392 -0.1912338587763773 0 -0.11823120763855489 -0.21622375820511239 0 -0.1166726240585392 -0.1912338587763773 0 -0.11823120763855489 -0.21622375820511239 0 -0.1325515182251237 -0.19993276899099741 0 -0.097553984907453609 -0.1962682866037796 0 -0.11823120763855489 -0.21622375820511239 0 -0.096849294507384928 -0.21964810855358599 0 -0.097553984907453609 -0.1962682866037796 0 -0.11823120763855489 -0.21622375820511239 0 -0.11823120763855489 -0.21622375820511239 0 -0.096849294507384928 -0.21964810855358599 0 -0.1034412666305036 -0.2349380774350604 0 -0.084702977910955518 -0.23523496283435349 0 -0.096849294507384928 -0.21964810855358599 0 -0.1034412666305036 -0.2349380774350604 0 -0.11823120763855489 -0.21622375820511239 0 -0.1210238684243915 -0.23402036714352059 0 -0.1034412666305036 -0.2349380774350604 0 -0.12503603078947889 -0.25158228039713743 0 -0.1210238684243915 -0.23402036714352059 0 -0.1092437241592995 -0.2489902569684205 0 -0.1210238684243915 -0.23402036714352059 0 -0.1092437241592995 -0.2489902569684205 0 -0.1034412666305036 -0.2349380774350604 0 -0.093451417529119701 -0.24639823353970619 0 -0.1092437241592995 -0.2489902569684205 0 -0.093451417529119701 -0.24639823353970619 0 -0.1092437241592995 -0.2489902569684205 0 -0.1034412666305036 -0.2349380774350604 0 -0.093451417529119701 -0.24639823353970619 0 -0.084702977910955518 -0.23523496283435349 0 -0.1034412666305036 -0.2349380774350604 0 -0.083990711194364936 -0.15147069185438031 0 -0.087990142986631187 -0.13745870479698369 0 -0.078464310649715902 -0.133803718623388 0 -0.083990711194364936 -0.15147069185438031 0 -0.078464310649715902 -0.133803718623388 0 -0.07577622773309764 -0.1468606593197733 0 -0.083990711194364936 -0.15147069185438031 0 -0.096164387099181611 -0.1573604904379316 0 -0.10010291629366989 -0.1430945637709817 0 -0.083990711194364936 -0.15147069185438031 0 -0.078464310649715902 -0.133803718623388 0 -0.083990711194364936 -0.15147069185438031 0 -0.087990142986631187 -0.13745870479698369 0 -0.10010291629366989 -0.1430945637709817 0 -0.089402633808776374 -0.12146584493918711 0 -0.087990142986631187 -0.13745870479698369 0 -0.078464310649715902 -0.133803718623388 0 -0.089402633808776374 -0.12146584493918711 0 -0.087990142986631187 -0.13745870479698369 0 -0.10010291629366989 -0.1430945637709817 0 -0.089402633808776374 -0.12146584493918711 0 -0.078464310649715902 -0.133803718623388 0 -0.077070689672634307 -0.12934854670860141 0 -0.089402633808776374 -0.12146584493918711 0 -0.078464310649715902 -0.133803718623388 0 -0.078464310649715902 -0.133803718623388 0 -0.073527971440139367 -0.13937165885923719 0 -0.077070689672634307 -0.12934854670860141 0 -0.057769607099250157 -0.13974819488579091 0 -0.073527971440139367 -0.13937165885923719 0 -0.065789072589199998 -0.13099865538217981 0 -0.078464310649715902 -0.133803718623388 0 -0.073527971440139367 -0.13937165885923719 0 -0.07577622773309764 -0.1468606593197733 0 -0.073527971440139367 -0.13937165885923719 0 -0.077070689672634307 -0.12934854670860141 0 -0.065789072589199998 -0.13099865538217981 0 -0.073527971440139367 -0.13937165885923719 0 -0.077070689672634307 -0.12934854670860141 0 -0.078464310649715902 -0.133803718623388 0 -0.073527971440139367 -0.13937165885923719 0 -0.078464310649715902 -0.133803718623388 0 -0.077070689672634307 -0.12934854670860141 0 -0.061388964377983662 -0.15306384308222939 0 -0.057769607099250157 -0.13974819488579091 0 -0.073527971440139367 -0.13937165885923719 0 -0.061388964377983662 -0.15306384308222939 0 -0.073527971440139367 -0.13937165885923719 0 -0.071875549279406342 -0.14404671669626529 0 -0.061388964377983662 -0.15306384308222939 0 -0.073527971440139367 -0.13937165885923719 0 -0.073527971440139367 -0.13937165885923719 0 -0.071875549279406342 -0.14404671669626529 0 -0.07577622773309764 -0.1468606593197733 0 -0.073527971440139367 -0.13937165885923719 0 -0.071875549279406342 -0.14404671669626529 0 -0.071875549279406342 -0.14404671669626529 0 -0.07577622773309764 -0.1468606593197733 0 -0.070535051314607661 -0.15008380673073249 0 -0.07577622773309764 -0.1468606593197733 0 -0.070535051314607661 -0.15008380673073249 0 -0.073099463867943026 -0.1563640078246622 0 -0.083990711194364936 -0.15147069185438031 0 -0.07577622773309764 -0.1468606593197733 0 -0.073099463867943026 -0.1563640078246622 0 -0.061388964377983662 -0.15306384308222939 0 -0.071875549279406342 -0.14404671669626529 0 -0.070535051314607661 -0.15008380673073249 0 -0.061388964377983662 -0.15306384308222939 0 -0.070535051314607661 -0.15008380673073249 0 -0.073099463867943026 -0.1563640078246622 0 -0.063841098970543325 -0.16373216960867329 0 -0.073874738169626447 -0.16471149161538581 0 -0.073099463867943026 -0.1563640078246622 0 -0.061388964377983662 -0.15306384308222939 0 -0.063841098970543325 -0.16373216960867329 0 -0.073099463867943026 -0.1563640078246622 0 -0.063841098970543325 -0.16373216960867329 0 -0.066522767579826142 -0.17452089537316651 0 -0.076876762176352476 -0.17631281500244661 0 -0.058653658301245408 -0.1735555350586801 0 -0.063841098970543325 -0.16373216960867329 0 -0.066522767579826142 -0.17452089537316651 0 -0.063841098970543325 -0.16373216960867329 0 -0.076876762176352476 -0.17631281500244661 0 -0.063841098970543325 -0.16373216960867329 0 -0.073874738169626447 -0.16471149161538581 0 -0.076876762176352476 -0.17631281500244661 0 -0.073874738169626447 -0.16471149161538581 0 -0.076876762176352476 -0.17631281500244661 0 -0.081681627663666961 -0.1624369740257611 0 -0.073874738169626447 -0.16471149161538581 0 -0.073099463867943026 -0.1563640078246622 0 -0.081681627663666961 -0.1624369740257611 0 -0.070962658119967256 -0.19339199601649459 0 -0.076876762176352476 -0.17631281500244661 0 -0.070962658119967256 -0.19339199601649459 0 -0.066522767579826142 -0.17452089537316651 0 -0.076876762176352476 -0.17631281500244661 0 -0.058660134779324177 -0.18011771130245871 0 -0.070962658119967256 -0.19339199601649459 0 -0.066522767579826142 -0.17452089537316651 0 -0.097553984907453609 -0.1962682866037796 0 -0.076876762176352476 -0.17631281500244661 0 -0.089517111739009281 -0.16913766508537409 0 -0.097553984907453609 -0.1962682866037796 0 -0.076876762176352476 -0.17631281500244661 0 -0.083990711194364936 -0.15147069185438031 0 -0.089517111739009281 -0.16913766508537409 0 -0.083990711194364936 -0.15147069185438031 0 -0.081681627663666961 -0.1624369740257611 0 -0.089517111739009281 -0.16913766508537409 0 -0.083990711194364936 -0.15147069185438031 0 -0.089517111739009281 -0.16913766508537409 0 -0.096164387099181611 -0.1573604904379316 0 -0.083990711194364936 -0.15147069185438031 0 -0.073099463867943026 -0.1563640078246622 0 -0.081681627663666961 -0.1624369740257611 0 -0.076876762176352476 -0.17631281500244661 0 -0.081681627663666961 -0.1624369740257611 0 -0.076876762176352476 -0.17631281500244661 0 -0.081681627663666961 -0.1624369740257611 0 -0.089517111739009281 -0.16913766508537409 0 -0.089517111739009281 -0.16913766508537409 0 -0.096164387099181611 -0.1573604904379316 0 -0.1015871229704623 -0.1674952427872928 0 -0.096164387099181611 -0.1573604904379316 0 -0.1015871229704623 -0.1674952427872928 0 -0.1110335564716799 -0.16015515984337839 0 -0.097553984907453609 -0.1962682866037796 0 -0.089517111739009281 -0.16913766508537409 0 -0.1038498020708104 -0.17933827917915279 0 -0.089517111739009281 -0.16913766508537409 0 -0.1015871229704623 -0.1674952427872928 0 -0.1038498020708104 -0.17933827917915279 0 -0.1015871229704623 -0.1674952427872928 0 -0.1038498020708104 -0.17933827917915279 0 -0.1155476178289853 -0.1734007971296086 0 -0.1166726240585392 -0.1912338587763773 0 -0.1038498020708104 -0.17933827917915279 0 -0.1155476178289853 -0.1734007971296086 0 -0.1166726240585392 -0.1912338587763773 0 -0.1155476178289853 -0.1734007971296086 0 -0.13030629931802901 -0.18296157518910769 0 -0.1155476178289853 -0.1734007971296086 0 -0.12855818035059149 -0.16891570311552759 0 -0.13030629931802901 -0.18296157518910769 0 -0.1110335564716799 -0.16015515984337839 0 -0.12948783797982569 -0.15345777528301 0 -0.12855818035059149 -0.16891570311552759 0 -0.1155476178289853 -0.1734007971296086 0 -0.1110335564716799 -0.16015515984337839 0 -0.12855818035059149 -0.16891570311552759 0 -0.1015871229704623 -0.1674952427872928 0 -0.1155476178289853 -0.1734007971296086 0 -0.1110335564716799 -0.16015515984337839 0 -0.1110335564716799 -0.16015515984337839 0 -0.11790018627272229 -0.14341833199181869 0 -0.12948783797982569 -0.15345777528301 0 -0.1110335564716799 -0.16015515984337839 0 -0.11790018627272229 -0.14341833199181869 0 -0.10010291629366989 -0.1430945637709817 0 -0.096164387099181611 -0.1573604904379316 0 -0.1110335564716799 -0.16015515984337839 0 -0.10010291629366989 -0.1430945637709817 0 -0.089402633808776374 -0.12146584493918711 0 -0.10010291629366989 -0.1430945637709817 0 -0.1116517452766989 -0.12608489527846259 0 -0.089402633808776374 -0.12146584493918711 0 -0.10010291629366989 -0.1430945637709817 0 -0.11790018627272229 -0.14341833199181869 0 -0.1116517452766989 -0.12608489527846259 0 -0.1354994100515195 -0.1327370651688819 0 -0.11790018627272229 -0.14341833199181869 0 -0.10010291629366989 -0.1430945637709817 0 -0.1116517452766989 -0.12608489527846259 0 -0.1354994100515195 -0.1327370651688819 0 -0.15507677789573951 -0.14029428422604379 0 -0.15741914310155439 -0.1198697540646097 0 -0.1354994100515195 -0.1327370651688819 0 -0.15507677789573951 -0.14029428422604379 0 -0.1461656233595694 -0.15456405334642501 0 -0.15507677789573951 -0.14029428422604379 0 -0.1461656233595694 -0.15456405334642501 0 -0.16657859178255849 -0.16625532727084469 0 -0.11790018627272229 -0.14341833199181869 0 -0.1354994100515195 -0.1327370651688819 0 -0.12948783797982569 -0.15345777528301 0 -0.1354994100515195 -0.1327370651688819 0 -0.1461656233595694 -0.15456405334642501 0 -0.12948783797982569 -0.15345777528301 0 -0.1461656233595694 -0.15456405334642501 0 -0.12855818035059149 -0.16891570311552759 0 -0.14533123882608229 -0.17391459853314609 0 -0.1461656233595694 -0.15456405334642501 0 -0.12948783797982569 -0.15345777528301 0 -0.12855818035059149 -0.16891570311552759 0 -0.13030629931802901 -0.18296157518910769 0 -0.14533123882608229 -0.17391459853314609 0 -0.14317661661885189 -0.19037172458898921 0 -0.12855818035059149 -0.16891570311552759 0 -0.13030629931802901 -0.18296157518910769 0 -0.14533123882608229 -0.17391459853314609 0 -0.14533123882608229 -0.17391459853314609 0 -0.15713729661443929 -0.1808591155777648 0 -0.14317661661885189 -0.19037172458898921 0 -0.1461656233595694 -0.15456405334642501 0 -0.14533123882608229 -0.17391459853314609 0 -0.16657859178255849 -0.16625532727084469 0 -0.16657859178255849 -0.16625532727084469 0 -0.1680422555224905 -0.18466050110444751 0 -0.1784967049542957 -0.1774845082817654 0 -0.16657859178255849 -0.16625532727084469 0 -0.15713729661443929 -0.1808591155777648 0 -0.1680422555224905 -0.18466050110444751 0 -0.14533123882608229 -0.17391459853314609 0 -0.16657859178255849 -0.16625532727084469 0 -0.15713729661443929 -0.1808591155777648 0 -0.15713729661443929 -0.1808591155777648 0 -0.1680422555224905 -0.18466050110444751 0 -0.15713437425531879 -0.19383808557739551 0 -0.1784967049542957 -0.1774845082817654 0 -0.1899312291033774 -0.15753976945089829 0 -0.18923457426359891 -0.18741064444023989 0 -0.1680422555224905 -0.18466050110444751 0 -0.1784967049542957 -0.1774845082817654 0 -0.1786968740994529 -0.1915562991423968 0 -0.1784967049542957 -0.1774845082817654 0 -0.1786968740994529 -0.1915562991423968 0 -0.18923457426359891 -0.18741064444023989 0 -0.16657859178255849 -0.16625532727084469 0 -0.1784967049542957 -0.1774845082817654 0 -0.1899312291033774 -0.15753976945089829 0 -0.17251618469621741 -0.13916249697834601 0 -0.19062788394315591 -0.1276688944615566 0 -0.1899312291033774 -0.15753976945089829 0 -0.16657859178255849 -0.16625532727084469 0 -0.17251618469621741 -0.13916249697834601 0 -0.1899312291033774 -0.15753976945089829 0 -0.17251618469621741 -0.13916249697834601 0 -0.17845377760987621 -0.11206966668584729 0 -0.17251618469621741 -0.13916249697834601 0 -0.19062788394315591 -0.1276688944615566 0 -0.17845377760987621 -0.11206966668584729 0 -0.15507677789573951 -0.14029428422604379 0 -0.17251618469621741 -0.13916249697834601 0 -0.15741914310155439 -0.1198697540646097 0 -0.15507677789573951 -0.14029428422604379 0 -0.16657859178255849 -0.16625532727084469 0 -0.17251618469621741 -0.13916249697834601 0 -0.16657859178255849 -0.16625532727084469 0 -0.17251618469621741 -0.13916249697834601 0 -0.15766078938878669 -0.25693704842601522 0 -0.14793605582477309 -0.2455342835516422 0 -0.15761901796128339 -0.2412202621118695 0 -0.15002529423573291 -0.23840401014604681 0 -0.1512025278541469 -0.2307973203910374 0 -0.15761901796128339 -0.2412202621118695 0 -0.15002529423573291 -0.23840401014604681 0 -0.14793605582477309 -0.2455342835516422 0 -0.15761901796128339 -0.2412202621118695 0 -0.15002529423573291 -0.23840401014604681 0 -0.1425543272344704 -0.23655137416255259 0 -0.14793605582477309 -0.2455342835516422 0 -0.15002529423573291 -0.23840401014604681 0 -0.1425543272344704 -0.23655137416255259 0 -0.14608235720447671 -0.23291567247157191 0 -0.1425543272344704 -0.23655137416255259 0 -0.13890843036965619 -0.23617922980644521 0 -0.1421393442623545 -0.23300539861229269 0 -0.1413484100891331 -0.25425966441157483 0 -0.14793605582477309 -0.2455342835516422 0 -0.1392187059844639 -0.24698190063072681 0 -0.1425543272344704 -0.23655137416255259 0 -0.14793605582477309 -0.2455342835516422 0 -0.1392187059844639 -0.24698190063072681 0 -0.12503603078947889 -0.25158228039713743 0 -0.1425543272344704 -0.23655137416255259 0 -0.1392187059844639 -0.24698190063072681 0 -0.12503603078947889 -0.25158228039713743 0 -0.1210238684243915 -0.23402036714352059 0 -0.13188066420449929 -0.23958331287741391 0 -0.12503603078947889 -0.25158228039713743 0 -0.1425543272344704 -0.23655137416255259 0 -0.13188066420449929 -0.23958331287741391 0 -0.1210238684243915 -0.23402036714352059 0 -0.13188066420449929 -0.23958331287741391 0 -0.13890843036965619 -0.23617922980644521 0 -0.12503603078947889 -0.25158228039713743 0 -0.1425543272344704 -0.23655137416255259 0 -0.1425543272344704 -0.23655137416255259 0 -0.13188066420449929 -0.23958331287741391 0 -0.13890843036965619 -0.23617922980644521 0 -0.11823120763855489 -0.21622375820511239 0 -0.1210238684243915 -0.23402036714352059 0 -0.13890843036965619 -0.23617922980644521 0 -0.11823120763855489 -0.21622375820511239 0 -0.13890843036965619 -0.23617922980644521 0 -0.11823120763855489 -0.21622375820511239 0 -0.1407489346972908 -0.22641734246065059 0 -0.14003552841288011 -0.21484788897771431 0 -0.11823120763855489 -0.21622375820511239 0 -0.13890843036965619 -0.23617922980644521 0 -0.1407489346972908 -0.22641734246065059 0 -0.13890843036965619 -0.23617922980644521 0 -0.1407489346972908 -0.22641734246065059 0 -0.1421393442623545 -0.23300539861229269 0 -0.1407489346972908 -0.22641734246065059 0 -0.14904840639965661 -0.22252026480720871 0 -0.14003552841288011 -0.21484788897771431 0 -0.1407489346972908 -0.22641734246065059 0 -0.1512025278541469 -0.2307973203910374 0 -0.14904840639965661 -0.22252026480720871 0 -0.1407489346972908 -0.22641734246065059 0 -0.14608235720447671 -0.23291567247157191 0 -0.1512025278541469 -0.2307973203910374 0 -0.1425543272344704 -0.23655137416255259 0 -0.1421393442623545 -0.23300539861229269 0 -0.14608235720447671 -0.23291567247157191 0 -0.1407489346972908 -0.22641734246065059 0 -0.1421393442623545 -0.23300539861229269 0 -0.14608235720447671 -0.23291567247157191 0 -0.15002529423573291 -0.23840401014604681 0 -0.14608235720447671 -0.23291567247157191 0 -0.1512025278541469 -0.2307973203910374 0 -0.1512025278541469 -0.2307973203910374 0 -0.14904840639965661 -0.22252026480720871 0 -0.15993866988771599 -0.225781128569054 0 -0.14904840639965661 -0.22252026480720871 0 -0.15331637114624919 -0.21475764363758729 0 -0.15993866988771599 -0.225781128569054 0 -0.15331637114624919 -0.21475764363758729 0 -0.14720372334546569 -0.20406377330665809 0 -0.15893727520231521 -0.20517664030160879 0 -0.14904840639965661 -0.22252026480720871 0 -0.15331637114624919 -0.21475764363758729 0 -0.14003552841288011 -0.21484788897771431 0 -0.15331637114624919 -0.21475764363758729 0 -0.14720372334546569 -0.20406377330665809 0 -0.14003552841288011 -0.21484788897771431 0 -0.11823120763855489 -0.21622375820511239 0 -0.14003552841288011 -0.21484788897771431 0 -0.1325515182251237 -0.19993276899099741 0 -0.14720372334546569 -0.20406377330665809 0 -0.14003552841288011 -0.21484788897771431 0 -0.1325515182251237 -0.19993276899099741 0 -0.13030629931802901 -0.18296157518910769 0 -0.1325515182251237 -0.19993276899099741 0 -0.14317661661885189 -0.19037172458898921 0 -0.1166726240585392 -0.1912338587763773 0 -0.13030629931802901 -0.18296157518910769 0 -0.1325515182251237 -0.19993276899099741 0 -0.14720372334546569 -0.20406377330665809 0 -0.1325515182251237 -0.19993276899099741 0 -0.14317661661885189 -0.19037172458898921 0 -0.14720372334546569 -0.20406377330665809 0 -0.15713437425531879 -0.19383808557739551 0 -0.15893727520231521 -0.20517664030160879 0 -0.14720372334546569 -0.20406377330665809 0 -0.14317661661885189 -0.19037172458898921 0 -0.15713437425531879 -0.19383808557739551 0 -0.15713729661443929 -0.1808591155777648 0 -0.14317661661885189 -0.19037172458898921 0 -0.15713437425531879 -0.19383808557739551 0 -0.15713437425531879 -0.19383808557739551 0 -0.16830788664508961 -0.1986259919321921 0 -0.15893727520231521 -0.20517664030160879 0 -0.1680422555224905 -0.18466050110444751 0 -0.16830788664508961 -0.1986259919321921 0 -0.1786968740994529 -0.1915562991423968 0 -0.1680422555224905 -0.18466050110444751 0 -0.15713437425531879 -0.19383808557739551 0 -0.16830788664508961 -0.1986259919321921 0 -0.1786968740994529 -0.1915562991423968 0 -0.19018726574190689 -0.19967921053410789 0 -0.18923457426359891 -0.18741064444023989 0 -0.1786968740994529 -0.1915562991423968 0 -0.17856403656129871 -0.20287936992056541 0 -0.19018726574190689 -0.19967921053410789 0 -0.16830788664508961 -0.1986259919321921 0 -0.1786968740994529 -0.1915562991423968 0 -0.17856403656129871 -0.20287936992056541 0 -0.16830788664508961 -0.1986259919321921 0 -0.17856403656129871 -0.20287936992056541 0 -0.1715651864987342 -0.21600385934848729 0 -0.17856403656129871 -0.20287936992056541 0 -0.1715651864987342 -0.21600385934848729 0 -0.1976456092161453 -0.22138628493382961 0 -0.15331637114624919 -0.21475764363758729 0 -0.1715651864987342 -0.21600385934848729 0 -0.15893727520231521 -0.20517664030160879 0 -0.16830788664508961 -0.1986259919321921 0 -0.1715651864987342 -0.21600385934848729 0 -0.15893727520231521 -0.20517664030160879 0 -0.1715651864987342 -0.21600385934848729 0 -0.15993866988771599 -0.225781128569054 0 -0.17902777516314369 -0.23411942933215421 0 -0.15993866988771599 -0.225781128569054 0 -0.17902777516314369 -0.23411942933215421 0 -0.15761901796128339 -0.2412202621118695 0 -0.15331637114624919 -0.21475764363758729 0 -0.1715651864987342 -0.21600385934848729 0 -0.15993866988771599 -0.225781128569054 0 -0.1512025278541469 -0.2307973203910374 0 -0.15993866988771599 -0.225781128569054 0 -0.15761901796128339 -0.2412202621118695 0 -0.1715651864987342 -0.21600385934848729 0 -0.17902777516314369 -0.23411942933215421 0 -0.1976456092161453 -0.22138628493382961 0 -0.18439867369853491 -0.26132559179640968 0 -0.17902777516314369 -0.23411942933215421 0 -0.17146525089902351 -0.24887373043365901 0 -0.15766078938878669 -0.25693704842601522 0 -0.15761901796128339 -0.2412202621118695 0 -0.17902777516314369 -0.23411942933215421 0 -0.17146525089902351 -0.24887373043365901 0 -0.15761901796128339 -0.2412202621118695 0 -0.15766078938878669 -0.25693704842601522 0 -0.17146525089902351 -0.24887373043365901 0 -0.15761901796128339 -0.2412202621118695 0 -0.20259798467806131 -0.24386557447816259 0 -0.2162050126880751 -0.22926331109159909 0 -0.22395341521182191 -0.24856859667403139 0 -0.18439867369853491 -0.26132559179640968 0 -0.17902777516314369 -0.23411942933215421 0 -0.20259798467806131 -0.24386557447816259 0 -0.17902777516314369 -0.23411942933215421 0 -0.20259798467806131 -0.24386557447816259 0 -0.1976456092161453 -0.22138628493382961 0 -0.1976456092161453 -0.22138628493382961 0 -0.2162050126880751 -0.22926331109159909 0 -0.21503512037358019 -0.20791625761607879 0 -0.20259798467806131 -0.24386557447816259 0 -0.1976456092161453 -0.22138628493382961 0 -0.2162050126880751 -0.22926331109159909 0 -0.1976456092161453 -0.22138628493382961 0 -0.21503512037358019 -0.20791625761607879 0 -0.2017396180258447 -0.19262009751691789 0 -0.1976456092161453 -0.22138628493382961 0 -0.2017396180258447 -0.19262009751691789 0 -0.1976456092161453 -0.22138628493382961 0 -0.19018726574190689 -0.19967921053410789 0 -0.2017396180258447 -0.19262009751691789 0 -0.17856403656129871 -0.20287936992056541 0 -0.1976456092161453 -0.22138628493382961 0 -0.19018726574190689 -0.19967921053410789 0 -0.19018726574190689 -0.19967921053410789 0 -0.2017396180258447 -0.19262009751691789 0 -0.18923457426359891 -0.18741064444023989 0 -0.21503512037358019 -0.20791625761607879 0 -0.2017396180258447 -0.19262009751691789 0 -0.21699684412099979 -0.18538301875529539 0 -0.22669106817151169 -0.19346148368052499 0 -0.24280950400343609 -0.18760229449853641 0 -0.2296983030679714 -0.18186445168413409 0 -0.21503512037358019 -0.20791625761607879 0 -0.22669106817151169 -0.19346148368052499 0 -0.23531952028067379 -0.2049833853751315 0 -0.21503512037358019 -0.20791625761607879 0 -0.22669106817151169 -0.19346148368052499 0 -0.21699684412099979 -0.18538301875529539 0 -0.22669106817151169 -0.19346148368052499 0 -0.24280950400343609 -0.18760229449853641 0 -0.23531952028067379 -0.2049833853751315 0 -0.2496991802272914 -0.200769489153338 0 -0.24280950400343609 -0.18760229449853641 0 -0.23531952028067379 -0.2049833853751315 0 -0.23531952028067379 -0.2049833853751315 0 -0.24874382124308331 -0.21872375249164969 0 -0.22973983856157321 -0.2189921746695678 0 -0.2496991802272914 -0.200769489153338 0 -0.23531952028067379 -0.2049833853751315 0 -0.24874382124308331 -0.21872375249164969 0 -0.21503512037358019 -0.20791625761607879 0 -0.23531952028067379 -0.2049833853751315 0 -0.22973983856157321 -0.2189921746695678 0 -0.2162050126880751 -0.22926331109159909 0 -0.21503512037358019 -0.20791625761607879 0 -0.22973983856157321 -0.2189921746695678 0 -0.2162050126880751 -0.22926331109159909 0 -0.22973983856157321 -0.2189921746695678 0 -0.23594958504894689 -0.2332653906130274 0 -0.24874382124308331 -0.21872375249164969 0 -0.23594958504894689 -0.2332653906130274 0 -0.25116623381764552 -0.2374479092143516 0 -0.24874382124308331 -0.21872375249164969 0 -0.22973983856157321 -0.2189921746695678 0 -0.23594958504894689 -0.2332653906130274 0 -0.25431501404594598 -0.25676801052014742 0 -0.24102500290493409 -0.2487761892091421 0 -0.25116623381764552 -0.2374479092143516 0 -0.23594958504894689 -0.2332653906130274 0 -0.24102500290493409 -0.2487761892091421 0 -0.25116623381764552 -0.2374479092143516 0 -0.23594958504894689 -0.2332653906130274 0 -0.24102500290493409 -0.2487761892091421 0 -0.22395341521182191 -0.24856859667403139 0 -0.2162050126880751 -0.22926331109159909 0 -0.23594958504894689 -0.2332653906130274 0 -0.22395341521182191 -0.24856859667403139 0 -0.20583362683554421 -0.1638539101000063 0 -0.2246522201170284 -0.1597017340859283 0 -0.22085159776950999 -0.1431864994960792 0 -0.20992763564524361 -0.13508772268309449 0 -0.20583362683554421 -0.1638539101000063 0 -0.20992763564524361 -0.13508772268309449 0 -0.20583362683554421 -0.1638539101000063 0 -0.22085159776950999 -0.1431864994960792 0 -0.20992763564524361 -0.13508772268309449 0 -0.19062788394315591 -0.1276688944615566 0 -0.1899312291033774 -0.15753976945089829 0 -0.20992763564524361 -0.13508772268309449 0 -0.19062788394315591 -0.1276688944615566 0 -0.2003635723659439 -0.11289139412112439 0 -0.19062788394315591 -0.1276688944615566 0 -0.1899312291033774 -0.15753976945089829 0 -0.20992763564524361 -0.13508772268309449 0 -0.1899312291033774 -0.15753976945089829 0 -0.20583362683554421 -0.1638539101000063 0 -0.1899312291033774 -0.15753976945089829 0 -0.18923457426359891 -0.18741064444023989 0 -0.20583362683554421 -0.1638539101000063 0 -0.2017396180258447 -0.19262009751691789 0 -0.18923457426359891 -0.18741064444023989 0 -0.20583362683554421 -0.1638539101000063 0 -0.1899312291033774 -0.15753976945089829 0 -0.18923457426359891 -0.18741064444023989 0 -0.2017396180258447 -0.19262009751691789 0 -0.20583362683554421 -0.1638539101000063 0 -0.21699684412099979 -0.18538301875529539 0 -0.20583362683554421 -0.1638539101000063 0 -0.22225365970138469 -0.17291050355584281 0 -0.2017396180258447 -0.19262009751691789 0 -0.21699684412099979 -0.18538301875529539 0 -0.20583362683554421 -0.1638539101000063 0 -0.20583362683554421 -0.1638539101000063 0 -0.2246522201170284 -0.1597017340859283 0 -0.22225365970138469 -0.17291050355584281 0 -0.2246522201170284 -0.1597017340859283 0 -0.22225365970138469 -0.17291050355584281 0 -0.23623803030174689 -0.17154219771478679 0 -0.2246522201170284 -0.1597017340859283 0 -0.23695813979876121 -0.15939171098683921 0 -0.23623803030174689 -0.17154219771478679 0 -0.21699684412099979 -0.18538301875529539 0 -0.22225365970138469 -0.17291050355584281 0 -0.2296983030679714 -0.18186445168413409 0 -0.22669106817151169 -0.19346148368052499 0 -0.21699684412099979 -0.18538301875529539 0 -0.2296983030679714 -0.18186445168413409 0 -0.22225365970138469 -0.17291050355584281 0 -0.2296983030679714 -0.18186445168413409 0 -0.23623803030174689 -0.17154219771478679 0 -0.24280950400343609 -0.18760229449853641 0 -0.2296983030679714 -0.18186445168413409 0 -0.23623803030174689 -0.17154219771478679 0 -0.24280950400343609 -0.18760229449853641 0 -0.24724980765878929 -0.17680374519294309 0 -0.23623803030174689 -0.17154219771478679 0 -0.24280950400343609 -0.18760229449853641 0 -0.24724980765878929 -0.17680374519294309 0 -0.25840421564139532 -0.17968222638675629 0 -0.23695813979876121 -0.15939171098683921 0 -0.23623803030174689 -0.17154219771478679 0 -0.25382573003102971 -0.1609332633390595 0 -0.24724980765878929 -0.17680374519294309 0 -0.23623803030174689 -0.17154219771478679 0 -0.25382573003102971 -0.1609332633390595 0 -0.23906055857476111 -0.14769103548234391 0 -0.24683853217084689 -0.1306217582628095 0 -0.25709854924807879 -0.14705889676093931 0 -0.23906055857476111 -0.14769103548234391 0 -0.25382573003102971 -0.1609332633390595 0 -0.25709854924807879 -0.14705889676093931 0 -0.23695813979876121 -0.15939171098683921 0 -0.23906055857476111 -0.14769103548234391 0 -0.25382573003102971 -0.1609332633390595 0 -0.2246522201170284 -0.1597017340859283 0 -0.23906055857476111 -0.14769103548234391 0 -0.22085159776950999 -0.1431864994960792 0 -0.2246522201170284 -0.1597017340859283 0 -0.23695813979876121 -0.15939171098683921 0 -0.23906055857476111 -0.14769103548234391 0 -0.22085159776950999 -0.1431864994960792 0 -0.24683853217084689 -0.1306217582628095 0 -0.22651794249756191 -0.12385992055046439 0 -0.20992763564524361 -0.13508772268309449 0 -0.22085159776950999 -0.1431864994960792 0 -0.22651794249756191 -0.12385992055046439 0 -0.22085159776950999 -0.1431864994960792 0 -0.24683853217084689 -0.1306217582628095 0 -0.23906055857476111 -0.14769103548234391 0 -0.22085159776950999 -0.1431864994960792 0 -0.24683853217084689 -0.1306217582628095 0 -0.24683853217084689 -0.1306217582628095 0 -0.2409503024472662 -0.1040820870441557 0 -0.22651794249756191 -0.12385992055046439 0 -0.24683853217084689 -0.1306217582628095 0 -0.2409503024472662 -0.1040820870441557 0 -0.2580873313086669 -0.1081448409590956 0 -0.2409503024472662 -0.1040820870441557 0 -0.2428933934748953 -0.086509858277010368 0 -0.22962719769335721 -0.091426242000247598 0 -0.2409503024472662 -0.1040820870441557 0 -0.22962719769335721 -0.091426242000247598 0 -0.21402164445494301 -0.1063215352661829 0 -0.2409503024472662 -0.1040820870441557 0 -0.22651794249756191 -0.12385992055046439 0 -0.21402164445494301 -0.1063215352661829 0 -0.23747697434502921 -0.067000534483862159 0 -0.23556610357152721 -0.074407230376417527 0 -0.25301655387841049 -0.071259112903562905 0 -0.23556610357152721 -0.074407230376417527 0 -0.2428933934748953 -0.086509858277010368 0 -0.25301655387841049 -0.071259112903562905 0 -0.23556610357152721 -0.074407230376417527 0 -0.25301655387841049 -0.071259112903562905 0 -0.23747697434502921 -0.067000534483862159 0 -0.2424040799551099 -0.063074430644233709 0 -0.23353596148198319 -0.060557368243304308 0 -0.23747697434502921 -0.067000534483862159 0 -0.2424040799551099 -0.063074430644233709 0 -0.25301655387841049 -0.071259112903562905 0 -0.2424040799551099 -0.063074430644233709 0 -0.24895267118496359 -0.061295236539277383 0 -0.25301655387841049 -0.071259112903562905 0 -0.23747697434502921 -0.067000534483862159 0 -0.25301655387841049 -0.071259112903562905 0 -0.23556610357152721 -0.074407230376417527 0 -0.2428933934748953 -0.086509858277010368 0 -0.22962719769335721 -0.091426242000247598 0 -0.2409503024472662 -0.1040820870441557 0 -0.2428933934748953 -0.086509858277010368 0 -0.25703728698740469 -0.09060205987723953 0 -0.23556610357152721 -0.074407230376417527 0 -0.22962719769335721 -0.091426242000247598 0 -0.21811565326464349 -0.077555347849271261 0 -0.22962719769335721 -0.091426242000247598 0 -0.21811565326464349 -0.077555347849271261 0 -0.21402164445494301 -0.1063215352661829 0 -0.23556610357152721 -0.074407230376417527 0 -0.21811565326464349 -0.077555347849271261 0 -0.23556610357152721 -0.074407230376417527 0 -0.2219373948116477 -0.062741956064161983 0 -0.21811565326464349 -0.077555347849271261 0 -0.21811565326464349 -0.077555347849271261 0 -0.22191887011454231 -0.050832384178008332 0 -0.2219373948116477 -0.062741956064161983 0 -0.21811565326464349 -0.077555347849271261 0 -0.22191887011454231 -0.050832384178008332 0 -0.23747697434502921 -0.067000534483862159 0 -0.2219373948116477 -0.062741956064161983 0 -0.23353596148198319 -0.060557368243304308 0 -0.23747697434502921 -0.067000534483862159 0 -0.2219373948116477 -0.062741956064161983 0 -0.23747697434502921 -0.067000534483862159 0 -0.23556610357152721 -0.074407230376417527 0 -0.2219373948116477 -0.062741956064161983 0 -0.20752578184412371 -0.06473881378761083 0 -0.21811565326464349 -0.077555347849271261 0 -0.22191887011454231 -0.050832384178008332 0 -0.20752578184412371 -0.06473881378761083 0 -0.21811565326464349 -0.077555347849271261 0 -0.2020820183441196 -0.080447867260461492 0 -0.21811565326464349 -0.077555347849271261 0 -0.21402164445494301 -0.1063215352661829 0 -0.21811565326464349 -0.077555347849271261 0 -0.2020820183441196 -0.080447867260461492 0 -0.20347323387840971 -0.093979064376000579 0 -0.21811565326464349 -0.077555347849271261 0 -0.2020820183441196 -0.080447867260461492 0 -0.21811565326464349 -0.077555347849271261 0 -0.21402164445494301 -0.1063215352661829 0 -0.20347323387840971 -0.093979064376000579 0 -0.2020820183441196 -0.080447867260461492 0 -0.1860483834235957 -0.083340386671651362 0 -0.2020820183441196 -0.080447867260461492 0 -0.18874616863099669 -0.074832865801979453 0 -0.1860483834235957 -0.083340386671651362 0 -0.19493197605787371 -0.088860222286748114 0 -0.2020820183441196 -0.080447867260461492 0 -0.1860483834235957 -0.083340386671651362 0 -0.19493197605787371 -0.088860222286748114 0 -0.20347323387840971 -0.093979064376000579 0 -0.1913245387829344 -0.097798019472214975 0 -0.19493197605787371 -0.088860222286748114 0 -0.2020820183441196 -0.080447867260461492 0 -0.20347323387840971 -0.093979064376000579 0 -0.19493197605787371 -0.088860222286748114 0 -0.18846560787251451 -0.091058834074733294 0 -0.1860483834235957 -0.083340386671651362 0 -0.19493197605787371 -0.088860222286748114 0 -0.18846560787251451 -0.091058834074733294 0 -0.1913245387829344 -0.097798019472214975 0 -0.20752578184412371 -0.06473881378761083 0 -0.2020820183441196 -0.080447867260461492 0 -0.19224589793259661 -0.064780730937234354 0 -0.2020820183441196 -0.080447867260461492 0 -0.18874616863099669 -0.074832865801979453 0 -0.19224589793259661 -0.064780730937234354 0 -0.18874616863099669 -0.074832865801979453 0 -0.19224589793259661 -0.064780730937234354 0 -0.1830378120138299 -0.070470010878815215 0 -0.20992763564524361 -0.13508772268309449 0 -0.21402164445494301 -0.1063215352661829 0 -0.2003635723659439 -0.11289139412112439 0 -0.20992763564524361 -0.13508772268309449 0 -0.22651794249756191 -0.12385992055046439 0 -0.21402164445494301 -0.1063215352661829 0 -0.20992763564524361 -0.13508772268309449 0 -0.21402164445494301 -0.1063215352661829 0 -0.21402164445494301 -0.1063215352661829 0 -0.20347323387840971 -0.093979064376000579 0 -0.2003635723659439 -0.11289139412112439 0 -0.20347323387840971 -0.093979064376000579 0 -0.1913245387829344 -0.097798019472214975 0 -0.2003635723659439 -0.11289139412112439 0 -0.19062788394315591 -0.1276688944615566 0 -0.1913245387829344 -0.097798019472214975 0 -0.19062788394315591 -0.1276688944615566 0 -0.1913245387829344 -0.097798019472214975 0 -0.2003635723659439 -0.11289139412112439 0 -0.19062788394315591 -0.1276688944615566 0 -0.1913245387829344 -0.097798019472214975 0 -0.17845377760987621 -0.11206966668584729 0 -0.17845377760987621 -0.11206966668584729 0 -0.15741914310155439 -0.1198697540646097 0 -0.16951380021113799 -0.10132968864835611 0 -0.17251618469621741 -0.13916249697834601 0 -0.17845377760987621 -0.11206966668584729 0 -0.15741914310155439 -0.1198697540646097 0 -0.15741914310155439 -0.1198697540646097 0 -0.16951380021113799 -0.10132968864835611 0 -0.15256948039694909 -0.1051489150590723 0 -0.16951380021113799 -0.10132968864835611 0 -0.15826413366534481 -0.093106877811394567 0 -0.15256948039694909 -0.1051489150590723 0 -0.16951380021113799 -0.10132968864835611 0 -0.1720974479626588 -0.088664263406194113 0 -0.15826413366534481 -0.093106877811394567 0 -0.17845377760987621 -0.11206966668584729 0 -0.18439137052353499 -0.08497683639334877 0 -0.18846560787251451 -0.091058834074733294 0 -0.17845377760987621 -0.11206966668584729 0 -0.18439137052353499 -0.08497683639334877 0 -0.18846560787251451 -0.091058834074733294 0 -0.1913245387829344 -0.097798019472214975 0 -0.17845377760987621 -0.11206966668584729 0 -0.17845377760987621 -0.11206966668584729 0 -0.16951380021113799 -0.10132968864835611 0 -0.18439137052353499 -0.08497683639334877 0 -0.16951380021113799 -0.10132968864835611 0 -0.18439137052353499 -0.08497683639334877 0 -0.1720974479626588 -0.088664263406194113 0 -0.18846560787251451 -0.091058834074733294 0 -0.1860483834235957 -0.083340386671651362 0 -0.18439137052353499 -0.08497683639334877 0 -0.18874616863099669 -0.074832865801979453 0 -0.1860483834235957 -0.083340386671651362 0 -0.18380147587024009 -0.077531287943956737 0 -0.1860483834235957 -0.083340386671651362 0 -0.18439137052353499 -0.08497683639334877 0 -0.18246190963254991 -0.081408214663940118 0 -0.1860483834235957 -0.083340386671651362 0 -0.18246190963254991 -0.081408214663940118 0 -0.18380147587024009 -0.077531287943956737 0 -0.18246190963254991 -0.081408214663940118 0 -0.18380147587024009 -0.077531287943956737 0 -0.17858642607995051 -0.077518916646001162 0 -0.18439137052353499 -0.08497683639334877 0 -0.18246190963254991 -0.081408214663940118 0 -0.177682028930922 -0.08245111748925528 0 -0.177682028930922 -0.08245111748925528 0 -0.17858642607995051 -0.077518916646001162 0 -0.17014287940973641 -0.078403840684240222 0 -0.177682028930922 -0.08245111748925528 0 -0.1720974479626588 -0.088664263406194113 0 -0.17014287940973641 -0.078403840684240222 0 -0.18439137052353499 -0.08497683639334877 0 -0.177682028930922 -0.08245111748925528 0 -0.1720974479626588 -0.088664263406194113 0 -0.18246190963254991 -0.081408214663940118 0 -0.177682028930922 -0.08245111748925528 0 -0.17858642607995051 -0.077518916646001162 0 -0.19224589793259661 -0.064780730937234354 0 -0.1830378120138299 -0.070470010878815215 0 -0.18018565826209401 -0.059803461091540319 0 -0.18874616863099669 -0.074832865801979453 0 -0.1830378120138299 -0.070470010878815215 0 -0.18380147587024009 -0.077531287943956737 0 -0.1830378120138299 -0.070470010878815215 0 -0.18380147587024009 -0.077531287943956737 0 -0.17858642607995051 -0.077518916646001162 0 -0.1830378120138299 -0.070470010878815215 0 -0.17858642607995051 -0.077518916646001162 0 -0.17338205220460029 -0.069930856095856017 0 -0.17858642607995051 -0.077518916646001162 0 -0.17338205220460029 -0.069930856095856017 0 -0.17014287940973641 -0.078403840684240222 0 -0.1830378120138299 -0.070470010878815215 0 -0.17338205220460029 -0.069930856095856017 0 -0.18018565826209401 -0.059803461091540319 0 -0.17338205220460029 -0.069930856095856017 0 -0.1659987649482422 -0.061610274310651851 0 -0.18018565826209401 -0.059803461091540319 0 -0.17338205220460029 -0.069930856095856017 0 -0.16342769521830749 -0.07159357727037563 0 -0.1659987649482422 -0.061610274310651851 0 -0.17338205220460029 -0.069930856095856017 0 -0.16342769521830749 -0.07159357727037563 0 -0.17014287940973641 -0.078403840684240222 0 -0.16342769521830749 -0.07159357727037563 0 -0.17014287940973641 -0.078403840684240222 0 -0.15617369796388841 -0.079957088634155057 0 -0.16342769521830749 -0.07159357727037563 0 -0.15617369796388841 -0.079957088634155057 0 -0.15573194854971431 -0.065386828432347485 0 -0.16342769521830749 -0.07159357727037563 0 -0.15573194854971431 -0.065386828432347485 0 -0.1659987649482422 -0.061610274310651851 0 -0.1720974479626588 -0.088664263406194113 0 -0.17014287940973641 -0.078403840684240222 0 -0.15617369796388841 -0.079957088634155057 0 -0.1720974479626588 -0.088664263406194113 0 -0.15826413366534481 -0.093106877811394567 0 -0.15617369796388841 -0.079957088634155057 0 -0.15826413366534481 -0.093106877811394567 0 -0.14090566277787639 -0.089452050643607145 0 -0.15617369796388841 -0.079957088634155057 0 -0.14090566277787639 -0.089452050643607145 0 -0.15617369796388841 -0.079957088634155057 0 -0.134350910999569 -0.070766468239664093 0 -0.15573194854971431 -0.065386828432347485 0 -0.134350910999569 -0.070766468239664093 0 -0.15617369796388841 -0.079957088634155057 0 -0.15573194854971431 -0.065386828432347485 0 -0.134350910999569 -0.070766468239664093 0 -0.15573194854971431 -0.065386828432347485 0 -0.134350910999569 -0.070766468239664093 0 -0.15076638634052039 -0.052250644719221827 0 -0.1193681519359712 -0.087666260472838181 0 -0.14090566277787639 -0.089452050643607145 0 -0.134350910999569 -0.070766468239664093 0 -0.1193681519359712 -0.087666260472838181 0 -0.134350910999569 -0.070766468239664093 0 -0.1211518125642765 -0.1106055035795695 0 -0.1193681519359712 -0.087666260472838181 0 -0.1373619679364593 -0.10774853876135471 0 -0.1193681519359712 -0.087666260472838181 0 -0.14090566277787639 -0.089452050643607145 0 -0.1373619679364593 -0.10774853876135471 0 -0.1211518125642765 -0.1106055035795695 0 -0.1354994100515195 -0.1327370651688819 0 -0.1373619679364593 -0.10774853876135471 0 -0.15741914310155439 -0.1198697540646097 0 -0.1373619679364593 -0.10774853876135471 0 -0.15256948039694909 -0.1051489150590723 0 -0.1354994100515195 -0.1327370651688819 0 -0.15741914310155439 -0.1198697540646097 0 -0.1373619679364593 -0.10774853876135471 0 -0.15826413366534481 -0.093106877811394567 0 -0.14090566277787639 -0.089452050643607145 0 -0.15256948039694909 -0.1051489150590723 0 -0.14090566277787639 -0.089452050643607145 0 -0.1373619679364593 -0.10774853876135471 0 -0.15256948039694909 -0.1051489150590723 0 -0.1410276087416692 -0.025565321264202402 0 -0.16718186168147231 -0.033734821198780067 0 -0.1410276087416692 -0.025565321264202402 0 -0.14306110324583091 -0.0044799994510859691 0 -0.16329241061398961 -0.01075854211927168 0 -0.14306110324583091 -0.0044799994510859691 0 -0.16329241061398961 -0.01075854211927168 0 -0.1568189069987071 0.01162741287239054 0 -0.11487335580186619 -0.01739582132962459 0 -0.14306110324583091 -0.0044799994510859691 0 -0.12705603436313739 0.011468810593014351 0 -0.11487335580186619 -0.01739582132962459 0 -0.1410276087416692 -0.025565321264202402 0 -0.14306110324583091 -0.0044799994510859691 0 -0.11487335580186619 -0.01739582132962459 0 -0.1410276087416692 -0.025565321264202402 0 -0.1410276087416692 -0.025565321264202402 0 -0.12851653136048641 -0.049059311098846897 0 -0.15076638634052039 -0.052250644719221827 0 -0.11845884524579781 -0.03462193739809187 0 -0.1410276087416692 -0.025565321264202402 0 -0.12851653136048641 -0.049059311098846897 0 -0.1155349902059912 -0.059971079674281592 0 -0.134350910999569 -0.070766468239664093 0 -0.12851653136048641 -0.049059311098846897 0 -0.134350910999569 -0.070766468239664093 0 -0.12851653136048641 -0.049059311098846897 0 -0.15076638634052039 -0.052250644719221827 0 -0.134350910999569 -0.070766468239664093 0 -0.15076638634052039 -0.052250644719221827 0 -0.1410276087416692 -0.025565321264202402 0 -0.15076638634052039 -0.052250644719221827 0 -0.16718186168147231 -0.033734821198780067 0 -0.15076638634052039 -0.052250644719221827 0 -0.16718186168147231 -0.033734821198780067 0 -0.15076638634052039 -0.052250644719221827 0 -0.16718186168147231 -0.033734821198780067 0 -0.17189905657528809 -0.049745291638290078 0 -0.15076638634052039 -0.052250644719221827 0 -0.1659987649482422 -0.061610274310651851 0 -0.17189905657528809 -0.049745291638290078 0 -0.15573194854971431 -0.065386828432347485 0 -0.15076638634052039 -0.052250644719221827 0 -0.1659987649482422 -0.061610274310651851 0 -0.17189905657528809 -0.049745291638290078 0 -0.18018565826209401 -0.059803461091540319 0 -0.19455036589800731 -0.042283602688394428 0 -0.1659987649482422 -0.061610274310651851 0 -0.17189905657528809 -0.049745291638290078 0 -0.18018565826209401 -0.059803461091540319 0 -0.16718186168147231 -0.033734821198780067 0 -0.17189905657528809 -0.049745291638290078 0 -0.19455036589800731 -0.042283602688394428 0 -0.16718186168147231 -0.033734821198780067 0 -0.19455036589800731 -0.042283602688394428 0 -0.16718186168147231 -0.033734821198780067 0 -0.18656919721888451 -0.011866890122376669 0 -0.16718186168147231 -0.033734821198780067 0 -0.16329241061398961 -0.01075854211927168 0 -0.18656919721888451 -0.011866890122376669 0 -0.16718186168147231 -0.033734821198780067 0 -0.18656919721888451 -0.011866890122376669 0 -0.19455036589800731 -0.042283602688394428 0 -0.1410276087416692 -0.025565321264202402 0 -0.16718186168147231 -0.033734821198780067 0 -0.16329241061398961 -0.01075854211927168 0 -0.16329241061398961 -0.01075854211927168 0 -0.18656919721888451 -0.011866890122376669 0 -0.1865817796342768 0.01178601515176673 0 -0.18656919721888451 -0.011866890122376669 0 -0.2066496501855046 -0.0025137608563201982 0 -0.2067436818493836 -0.013134437965926459 0 -0.18656919721888451 -0.011866890122376669 0 -0.2066496501855046 -0.0025137608563201982 0 -0.20595653275629711 0.0100010409540266 0 -0.18656919721888451 -0.011866890122376669 0 -0.20595653275629711 0.0100010409540266 0 -0.18656919721888451 -0.011866890122376669 0 -0.20571953513138461 -0.02589373284127373 0 -0.2067436818493836 -0.013134437965926459 0 -0.18656919721888451 -0.011866890122376669 0 -0.20571953513138461 -0.02589373284127373 0 -0.19455036589800731 -0.042283602688394428 0 -0.20571953513138461 -0.02589373284127373 0 -0.21859494755787631 -0.0177680685148413 0 -0.2067436818493836 -0.013134437965926459 0 -0.20571953513138461 -0.02589373284127373 0 -0.21604599797684931 -0.02671272725364493 0 -0.21859494755787631 -0.0177680685148413 0 -0.20571953513138461 -0.02589373284127373 0 -0.21604599797684931 -0.02671272725364493 0 -0.2147745089233804 -0.0360080914189592 0 -0.21859494755787631 -0.0177680685148413 0 -0.21618507915326801 -0.0076297374948203966 0 -0.2067436818493836 -0.013134437965926459 0 -0.21618507915326801 -0.0076297374948203966 0 -0.2066496501855046 -0.0025137608563201982 0 -0.21748899213025111 0.0010571944288816661 0 -0.21618507915326801 -0.0076297374948203966 0 -0.2066496501855046 -0.0025137608563201982 0 -0.2067436818493836 -0.013134437965926459 0 -0.19224589793259661 -0.064780730937234354 0 -0.18018565826209401 -0.059803461091540319 0 -0.19455036589800731 -0.042283602688394428 0 -0.20752578184412371 -0.06473881378761083 0 -0.19224589793259661 -0.064780730937234354 0 -0.19455036589800731 -0.042283602688394428 0 -0.20571953513138461 -0.02589373284127373 0 -0.19455036589800731 -0.042283602688394428 0 -0.2147745089233804 -0.0360080914189592 0 -0.19455036589800731 -0.042283602688394428 0 -0.22191887011454231 -0.050832384178008332 0 -0.19455036589800731 -0.042283602688394428 0 -0.2147745089233804 -0.0360080914189592 0 -0.22191887011454231 -0.050832384178008332 0 -0.20752578184412371 -0.06473881378761083 0 -0.19455036589800731 -0.042283602688394428 0 -0.22191887011454231 -0.050832384178008332 0 -0.2219373948116477 -0.062741956064161983 0 -0.23353596148198319 -0.060557368243304308 0 -0.2306748313271538 -0.053567381989578097 0 -0.2219373948116477 -0.062741956064161983 0 -0.22191887011454231 -0.050832384178008332 0 -0.2306748313271538 -0.053567381989578097 0 -0.22191887011454231 -0.050832384178008332 0 -0.2306748313271538 -0.053567381989578097 0 -0.22191887011454231 -0.050832384178008332 0 -0.2306748313271538 -0.053567381989578097 0 -0.2329059315032066 -0.046609230248236863 0 -0.22191887011454231 -0.050832384178008332 0 -0.2306521509948046 -0.037177821689815899 0 -0.22554579291840221 -0.025348134882972152 0 -0.2147745089233804 -0.0360080914189592 0 -0.22191887011454231 -0.050832384178008332 0 -0.22554579291840221 -0.025348134882972152 0 -0.22191887011454231 -0.050832384178008332 0 -0.22554579291840221 -0.025348134882972152 0 -0.22191887011454231 -0.050832384178008332 0 -0.2329059315032066 -0.046609230248236863 0 -0.2306521509948046 -0.037177821689815899 0 -0.2329059315032066 -0.046609230248236863 0 -0.2306521509948046 -0.037177821689815899 0 -0.23944571347160201 -0.042360251986389992 0 -0.2306521509948046 -0.037177821689815899 0 -0.24133958241864259 -0.035057711037180209 0 -0.23603864625974061 -0.027265695499158391 0 -0.2306521509948046 -0.037177821689815899 0 -0.24133958241864259 -0.035057711037180209 0 -0.23944571347160201 -0.042360251986389992 0 -0.24133958241864259 -0.035057711037180209 0 -0.24953475547050491 -0.034095205529127627 0 -0.24825274505185621 -0.041057344827626747 0 -0.24133958241864259 -0.035057711037180209 0 -0.24953475547050491 -0.034095205529127627 0 -0.24650846350796751 -0.029110344548071071 0 -0.24825274505185621 -0.041057344827626747 0 -0.23944571347160201 -0.042360251986389992 0 -0.24183809160793021 -0.049108311397391718 0 -0.24825274505185621 -0.041057344827626747 0 -0.24183809160793021 -0.049108311397391718 0 -0.25041861304965352 -0.048094125714969807 0 -0.24133958241864259 -0.035057711037180209 0 -0.24825274505185621 -0.041057344827626747 0 -0.23944571347160201 -0.042360251986389992 0 -0.2329059315032066 -0.046609230248236863 0 -0.23944571347160201 -0.042360251986389992 0 -0.24183809160793021 -0.049108311397391718 0 -0.2306748313271538 -0.053567381989578097 0 -0.24183809160793021 -0.049108311397391718 0 -0.24054526814482599 -0.057185890392351772 0 -0.2306748313271538 -0.053567381989578097 0 -0.2329059315032066 -0.046609230248236863 0 -0.24183809160793021 -0.049108311397391718 0 -0.24183809160793021 -0.049108311397391718 0 -0.24862177842922761 -0.054340961316372213 0 -0.24054526814482599 -0.057185890392351772 0 -0.24183809160793021 -0.049108311397391718 0 -0.24862177842922761 -0.054340961316372213 0 -0.25041861304965352 -0.048094125714969807 0 -0.2424040799551099 -0.063074430644233709 0 -0.24895267118496359 -0.061295236539277383 0 -0.24054526814482599 -0.057185890392351772 0 -0.24862177842922761 -0.054340961316372213 0 -0.24895267118496359 -0.061295236539277383 0 -0.24054526814482599 -0.057185890392351772 0 -0.23353596148198319 -0.060557368243304308 0 -0.2306748313271538 -0.053567381989578097 0 -0.24054526814482599 -0.057185890392351772 0 -0.2424040799551099 -0.063074430644233709 0 -0.23353596148198319 -0.060557368243304308 0 -0.24054526814482599 -0.057185890392351772 0 -0.22714384722593139 -0.01169631987585875 0 -0.230481994006554 -0.01908028707143292 0 -0.2392485006784244 -0.012686603913536629 0 -0.22714384722593139 -0.01169631987585875 0 -0.2392485006784244 -0.012686603913536629 0 -0.23507328449069539 -0.0052270720427161051 0 -0.2294508146791108 -0.0010370962082505879 0 -0.22332817232786861 -0.0049918373310841339 0 -0.23507328449069539 -0.0052270720427161051 0 -0.22714384722593139 -0.01169631987585875 0 -0.22332817232786861 -0.0049918373310841339 0 -0.23507328449069539 -0.0052270720427161051 0 -0.2294508146791108 -0.0010370962082505879 0 -0.23507328449069539 -0.0052270720427161051 0 -0.23527211258631189 0.00096094505569513204 0 -0.22332817232786861 -0.0049918373310841339 0 -0.21748899213025111 0.0010571944288816661 0 -0.22651946576868481 0.003714465585732938 0 -0.21618507915326801 -0.0076297374948203966 0 -0.22332817232786861 -0.0049918373310841339 0 -0.21748899213025111 0.0010571944288816661 0 -0.2294508146791108 -0.0010370962082505879 0 -0.22332817232786861 -0.0049918373310841339 0 -0.22651946576868481 0.003714465585732938 0 -0.21859494755787631 -0.0177680685148413 0 -0.21618507915326801 -0.0076297374948203966 0 -0.22714384722593139 -0.01169631987585875 0 -0.21618507915326801 -0.0076297374948203966 0 -0.22714384722593139 -0.01169631987585875 0 -0.22332817232786861 -0.0049918373310841339 0 -0.21604599797684931 -0.02671272725364493 0 -0.21859494755787631 -0.0177680685148413 0 -0.22554579291840221 -0.025348134882972152 0 -0.21859494755787631 -0.0177680685148413 0 -0.22554579291840221 -0.025348134882972152 0 -0.230481994006554 -0.01908028707143292 0 -0.21859494755787631 -0.0177680685148413 0 -0.22714384722593139 -0.01169631987585875 0 -0.230481994006554 -0.01908028707143292 0 -0.21604599797684931 -0.02671272725364493 0 -0.2147745089233804 -0.0360080914189592 0 -0.22554579291840221 -0.025348134882972152 0 -0.22554579291840221 -0.025348134882972152 0 -0.230481994006554 -0.01908028707143292 0 -0.23603864625974061 -0.027265695499158391 0 -0.2306521509948046 -0.037177821689815899 0 -0.22554579291840221 -0.025348134882972152 0 -0.23603864625974061 -0.027265695499158391 0 -0.230481994006554 -0.01908028707143292 0 -0.2374175642750673 -0.019395266830174712 0 -0.23603864625974061 -0.027265695499158391 0 -0.23603864625974061 -0.027265695499158391 0 -0.25432814558795308 -0.019428525249759649 0 -0.23603864625974061 -0.027265695499158391 0 -0.2443583390205995 -0.01841446712321439 0 -0.25432814558795308 -0.019428525249759649 0 -0.23603864625974061 -0.027265695499158391 0 -0.24650846350796751 -0.029110344548071071 0 -0.25378212880857642 -0.021454915228375119 0 -0.23603864625974061 -0.027265695499158391 0 -0.25378212880857642 -0.021454915228375119 0 -0.25432814558795308 -0.019428525249759649 0 -0.2374175642750673 -0.019395266830174712 0 -0.23603864625974061 -0.027265695499158391 0 -0.2443583390205995 -0.01841446712321439 0 -0.230481994006554 -0.01908028707143292 0 -0.2374175642750673 -0.019395266830174712 0 -0.2392485006784244 -0.012686603913536629 0 -0.2374175642750673 -0.019395266830174712 0 -0.2443583390205995 -0.01841446712321439 0 -0.2392485006784244 -0.012686603913536629 0 -0.24133958241864259 -0.035057711037180209 0 -0.23603864625974061 -0.027265695499158391 0 -0.24650846350796751 -0.029110344548071071 0 -0.24953475547050491 -0.034095205529127627 0 -0.24650846350796751 -0.029110344548071071 0 -0.25273509796092419 -0.027913732115031679 0 -0.2443583390205995 -0.01841446712321439 0 -0.24975304672700119 -0.016173980350670761 0 -0.25432814558795308 -0.019428525249759649 0 -0.2443583390205995 -0.01841446712321439 0 -0.24975304672700119 -0.016173980350670761 0 -0.24592622941804479 -0.01354015030422203 0 -0.24975304672700119 -0.016173980350670761 0 -0.24592622941804479 -0.01354015030422203 0 -0.25031842434842999 -0.011794142738469871 0 -0.24592622941804479 -0.01354015030422203 0 -0.2462072891997015 -0.00646122999155988 0 -0.25031842434842999 -0.011794142738469871 0 -0.24592622941804479 -0.01354015030422203 0 -0.2392485006784244 -0.012686603913536629 0 -0.2462072891997015 -0.00646122999155988 0 -0.2443583390205995 -0.01841446712321439 0 -0.24592622941804479 -0.01354015030422203 0 -0.2392485006784244 -0.012686603913536629 0 -0.2392485006784244 -0.012686603913536629 0 -0.23507328449069539 -0.0052270720427161051 0 -0.2462072891997015 -0.00646122999155988 0 -0.23507328449069539 -0.0052270720427161051 0 -0.2462072891997015 -0.00646122999155988 0 -0.24219842850912701 0.0008805445637728726 0 -0.23507328449069539 -0.0052270720427161051 0 -0.24219842850912701 0.0008805445637728726 0 -0.23527211258631189 0.00096094505569513204 0 -0.2462072891997015 -0.00646122999155988 0 -0.24862522939258691 0.002025091944098644 0 -0.24219842850912701 0.0008805445637728726 0 -0.2462072891997015 -0.00646122999155988 0 -0.25454557886518481 -0.002208813397413151 0 -0.24862522939258691 0.002025091944098644 0 -0.26098549937896998 -0.010904903655713959 0 -0.25432814558795308 -0.019428525249759649 0 -0.2726176449161643 -0.011591355000357869 0 -0.2462072891997015 -0.00646122999155988 0 -0.25454557886518481 -0.002208813397413151 0 -0.25423970612660529 -0.0082407711388333867 0 -0.25432814558795308 -0.019428525249759649 0 -0.2726176449161643 -0.011591355000357869 0 -0.25454557886518481 -0.002208813397413151 0 -0.25423970612660529 -0.0082407711388333867 0 -0.25839213274741979 -0.005615117744828463 0 -0.2462072891997015 -0.00646122999155988 0 -0.25031842434842999 -0.011794142738469871 0 -0.25423970612660529 -0.0082407711388333867 0 -0.2548185530350025 -0.013907958810572959 0 -0.26098549937896998 -0.010904903655713959 0 -0.25432814558795308 -0.019428525249759649 0 -0.25031842434842999 -0.011794142738469871 0 -0.2548185530350025 -0.013907958810572959 0 -0.25423970612660529 -0.0082407711388333867 0 -0.25031842434842999 -0.011794142738469871 0 -0.2548185530350025 -0.013907958810572959 0 -0.25272636039888152 -0.01595217618492669 0 -0.24975304672700119 -0.016173980350670761 0 -0.25031842434842999 -0.011794142738469871 0 -0.25272636039888152 -0.01595217618492669 0 -0.2548185530350025 -0.013907958810572959 0 -0.25423970612660529 -0.0082407711388333867 0 -0.26098549937896998 -0.010904903655713959 0 -0.25423970612660529 -0.0082407711388333867 0 -0.26098549937896998 -0.010904903655713959 0 -0.25839213274741979 -0.005615117744828463 0 -0.26098549937896998 -0.010904903655713959 0 -0.26251993484460179 -0.0066828412179119022 0 -0.26883646879479978 -0.0089039782930802475 0 -0.26251993484460179 -0.0066828412179119022 0 -0.26883646879479978 -0.0089039782930802475 0 -0.2605698332130289 8.0402539788944994e-05 0 -0.25454557886518481 -0.002208813397413151 0 -0.25839213274741979 -0.005615117744828463 0 -0.2605698332130289 8.0402539788944994e-05 0 -0.26251993484460179 -0.0066828412179119022 0 -0.25839213274741979 -0.005615117744828463 0 -0.2605698332130289 8.0402539788944994e-05 0 -0.26098549937896998 -0.010904903655713959 0 -0.26251993484460179 -0.0066828412179119022 0 -0.25839213274741979 -0.005615117744828463 0 -0.25378212880857642 -0.021454915228375119 0 -0.25432814558795308 -0.019428525249759649 0 -0.27262074799832697 -0.01318104350153743 0 -0.25378212880857642 -0.021454915228375119 0 -0.27262074799832697 -0.01318104350153743 0 -0.25378212880857642 -0.021454915228375119 0 -0.25997711249052818 -0.0224970065829555 0 -0.27262074799832697 -0.01318104350153743 0 -0.25273509796092419 -0.027913732115031679 0 -0.25822943671612281 -0.027372455148299411 0 -0.25677398519544092 -0.035252431040474347 0 -0.24650846350796751 -0.029110344548071071 0 -0.25273509796092419 -0.027913732115031679 0 -0.25378212880857642 -0.021454915228375119 0 -0.25273509796092419 -0.027913732115031679 0 -0.25604287471719989 -0.024818323638581431 0 -0.25378212880857642 -0.021454915228375119 0 -0.25273509796092419 -0.027913732115031679 0 -0.25604287471719989 -0.024818323638581431 0 -0.25822943671612281 -0.027372455148299411 0 -0.25604287471719989 -0.024818323638581431 0 -0.25378212880857642 -0.021454915228375119 0 -0.25997711249052818 -0.0224970065829555 0 -0.24975304672700119 -0.016173980350670761 0 -0.25272636039888152 -0.01595217618492669 0 -0.25432814558795308 -0.019428525249759649 0 -0.2548185530350025 -0.013907958810572959 0 -0.25272636039888152 -0.01595217618492669 0 -0.25432814558795308 -0.019428525249759649 0 -0.2646225904702772 -0.02255872773607713 0 -0.25997711249052818 -0.0224970065829555 0 -0.26145351182460641 -0.025179187644166771 0 -0.2646225904702772 -0.02255872773607713 0 -0.26298490762149762 -0.028288561109335052 0 -0.26865722220782928 -0.03157804056148554 0 -0.26298490762149762 -0.028288561109335052 0 -0.25822943671612281 -0.027372455148299411 0 -0.25677398519544092 -0.035252431040474347 0 -0.25604287471719989 -0.024818323638581431 0 -0.25997711249052818 -0.0224970065829555 0 -0.25822943671612281 -0.027372455148299411 0 -0.25997711249052818 -0.0224970065829555 0 -0.26145351182460641 -0.025179187644166771 0 -0.25822943671612281 -0.027372455148299411 0 -0.26145351182460641 -0.025179187644166771 0 -0.26298490762149762 -0.028288561109335052 0 -0.25822943671612281 -0.027372455148299411 0 -0.2646225904702772 -0.02255872773607713 0 -0.26145351182460641 -0.025179187644166771 0 -0.26298490762149762 -0.028288561109335052 0 -0.27262791578141032 -0.016853051442408569 0 -0.27883557572099799 -0.023204481547823771 0 -0.27266097134512041 -0.033787198449138613 0 -0.27262791578141032 -0.016853051442408569 0 -0.27266097134512041 -0.033787198449138613 0 -0.27883557572099799 -0.023204481547823771 0 -0.27262074799832697 -0.01318104350153743 0 -0.28928269195812872 -0.01910811127035934 0 -0.27262791578141032 -0.016853051442408569 0 -0.26865722220782928 -0.03157804056148554 0 -0.27266097134512041 -0.033787198449138613 0 -0.27262791578141032 -0.016853051442408569 0 -0.26865722220782928 -0.03157804056148554 0 -0.2646225904702772 -0.02255872773607713 0 -0.27262791578141032 -0.016853051442408569 0 -0.26865722220782928 -0.03157804056148554 0 -0.2646225904702772 -0.02255872773607713 0 -0.27262791578141032 -0.016853051442408569 0 -0.27262074799832697 -0.01318104350153743 0 -0.2646225904702772 -0.02255872773607713 0 -0.25997711249052818 -0.0224970065829555 0 -0.27262074799832697 -0.01318104350153743 0 -0.27262791578141032 -0.016853051442408569 0 -0.27883557572099799 -0.023204481547823771 0 -0.27262074799832697 -0.01318104350153743 0 -0.27883557572099799 -0.023204481547823771 0 -0.27912869228406639 -0.033190690375031723 0 -0.27266097134512041 -0.033787198449138613 0 -0.2726176449161643 -0.011591355000357869 0 -0.27423347697587541 -0.01089896037987154 0 -0.27257081662971511 0.01239846691613059 0 -0.26883646879479978 -0.0089039782930802475 0 -0.2726176449161643 -0.011591355000357869 0 -0.27033073474202313 0.0092376771141261978 0 -0.25432814558795308 -0.019428525249759649 0 -0.27262074799832697 -0.01318104350153743 0 -0.2726176449161643 -0.011591355000357869 0 -0.27262074799832697 -0.01318104350153743 0 -0.27423347697587541 -0.01089896037987154 0 -0.29101078968297522 -0.0037097720016964829 0 -0.26098549937896998 -0.010904903655713959 0 -0.26883646879479978 -0.0089039782930802475 0 -0.2726176449161643 -0.011591355000357869 0 -0.27262074799832697 -0.01318104350153743 0 -0.27423347697587541 -0.01089896037987154 0 -0.27262074799832697 -0.01318104350153743 0 -0.2726176449161643 -0.011591355000357869 0 -0.27423347697587541 -0.01089896037987154 0 -0.27262074799832697 -0.01318104350153743 0 -0.2726176449161643 -0.011591355000357869 0 -0.27262791578141032 -0.016853051442408569 0 -0.27262074799832697 -0.01318104350153743 0 -0.2726176449161643 -0.011591355000357869 0 -0.27423347697587541 -0.01089896037987154 0 -0.29565872852974379 -0.0030628233792267972 0 -0.28928269195812872 -0.01910811127035934 0 -0.30513678196268618 -0.024686165989671671 0 -0.27262074799832697 -0.01318104350153743 0 -0.29565872852974379 -0.0030628233792267972 0 -0.29101078968297522 -0.0037097720016964829 0 -0.27262074799832697 -0.01318104350153743 0 -0.29565872852974379 -0.0030628233792267972 0 -0.27423347697587541 -0.01089896037987154 0 -0.29101078968297522 -0.0037097720016964829 0 -0.27262074799832697 -0.01318104350153743 0 -0.29565872852974379 -0.0030628233792267972 0 -0.28928269195812872 -0.01910811127035934 0 -0.27423347697587541 -0.01089896037987154 0 -0.29101078968297522 -0.0037097720016964829 0 -0.28918294955411111 0.0031448057530975991 0 -0.30513678196268618 -0.024686165989671671 0 -0.27912869228406639 -0.033190690375031723 0 -0.28928269195812872 -0.01910811127035934 0 -0.30513678196268618 -0.024686165989671671 0 -0.27912869228406639 -0.033190690375031723 0 -0.27883557572099799 -0.023204481547823771 0 -0.28928269195812872 -0.01910811127035934 0 -0.27912869228406639 -0.033190690375031723 0 -0.30513678196268618 -0.024686165989671671 0 -0.30747335591309982 -0.030576505119971949 0 -0.27912869228406639 -0.033190690375031723 0 -0.29101078968297522 -0.0037097720016964829 0 -0.30778810239007659 0.0034794163764746791 0 -0.29565872852974379 -0.0030628233792267972 0 -0.29101078968297522 -0.0037097720016964829 0 -0.30778810239007659 0.0034794163764746791 0 -0.29565872852974379 -0.0030628233792267972 0 -0.31267493755550779 -0.0085487720730209691 0 -0.31756537222015518 0.0065585165944901606 0 -0.29565872852974379 -0.0030628233792267972 0 -0.30513678196268618 -0.024686165989671671 0 -0.31267493755550779 -0.0085487720730209691 0 -0.29418187784788258 -0.05237811144077982 0 -0.2899387453525219 -0.067007366932537879 0 -0.30818573600389021 -0.065358862296760536 0 -0.31062267962357731 -0.045887235518564523 0 -0.29418187784788258 -0.05237811144077982 0 -0.30818573600389021 -0.065358862296760536 0 -0.31062267962357731 -0.045887235518564523 0 -0.29716726803930399 -0.039647097788006652 0 -0.29418187784788258 -0.05237811144077982 0 -0.30747335591309982 -0.030576505119971949 0 -0.31062267962357731 -0.045887235518564523 0 -0.29716726803930399 -0.039647097788006652 0 -0.29716726803930399 -0.039647097788006652 0 -0.28316921466832362 -0.043301125675310359 0 -0.29418187784788258 -0.05237811144077982 0 -0.30747335591309982 -0.030576505119971949 0 -0.27912869228406639 -0.033190690375031723 0 -0.30747335591309982 -0.030576505119971949 0 -0.29716726803930399 -0.039647097788006652 0 -0.27912869228406639 -0.033190690375031723 0 -0.29716726803930399 -0.039647097788006652 0 -0.28316921466832362 -0.043301125675310359 0 -0.27912869228406639 -0.033190690375031723 0 -0.28316921466832362 -0.043301125675310359 0 -0.29418187784788258 -0.05237811144077982 0 -0.27270430177648097 -0.055985092302218209 0 -0.29418187784788258 -0.05237811144077982 0 -0.27270430177648097 -0.055985092302218209 0 -0.2899387453525219 -0.067007366932537879 0 -0.27270430177648097 -0.055985092302218209 0 -0.2609994071166466 -0.058328333227814673 0 -0.26408337289057171 -0.047310262150104733 0 -0.27270430177648097 -0.055985092302218209 0 -0.27266393339388301 -0.035304636470515467 0 -0.28316921466832362 -0.043301125675310359 0 -0.27270430177648097 -0.055985092302218209 0 -0.27266393339388301 -0.035304636470515467 0 -0.26865722220782928 -0.03157804056148554 0 -0.27266097134512041 -0.033787198449138613 0 -0.25677398519544092 -0.035252431040474347 0 -0.27270430177648097 -0.055985092302218209 0 -0.27266393339388301 -0.035304636470515467 0 -0.26408337289057171 -0.047310262150104733 0 -0.28316921466832362 -0.043301125675310359 0 -0.27912869228406639 -0.033190690375031723 0 -0.27266393339388301 -0.035304636470515467 0 -0.27912869228406639 -0.033190690375031723 0 -0.27266393339388301 -0.035304636470515467 0 -0.27912869228406639 -0.033190690375031723 0 -0.27266393339388301 -0.035304636470515467 0 -0.27266097134512041 -0.033787198449138613 0 -0.27912869228406639 -0.033190690375031723 0 -0.27266097134512041 -0.033787198449138613 0 -0.27266393339388301 -0.035304636470515467 0 -0.26466341753286748 -0.037920767954071663 0 -0.26408337289057171 -0.047310262150104733 0 -0.27266393339388301 -0.035304636470515467 0 -0.27266097134512041 -0.033787198449138613 0 -0.26466341753286748 -0.037920767954071663 0 -0.27266393339388301 -0.035304636470515467 0 -0.26466341753286748 -0.037920767954071663 0 -0.27266393339388301 -0.035304636470515467 0 -0.27266097134512041 -0.033787198449138613 0 -0.27266097134512041 -0.033787198449138613 0 -0.25677398519544092 -0.035252431040474347 0 -0.27266097134512041 -0.033787198449138613 0 -0.26466341753286748 -0.037920767954071663 0 -0.25677398519544092 -0.035252431040474347 0 -0.26466341753286748 -0.037920767954071663 0 -0.25731672106554421 -0.043934089639349867 0 -0.25677398519544092 -0.035252431040474347 0 -0.26298490762149762 -0.028288561109335052 0 -0.26865722220782928 -0.03157804056148554 0 -0.25677398519544092 -0.035252431040474347 0 -0.26466341753286748 -0.037920767954071663 0 -0.25731672106554421 -0.043934089639349867 0 -0.26408337289057171 -0.047310262150104733 0 -0.24825274505185621 -0.041057344827626747 0 -0.25731672106554421 -0.043934089639349867 0 -0.25677398519544092 -0.035252431040474347 0 -0.24825274505185621 -0.041057344827626747 0 -0.25731672106554421 -0.043934089639349867 0 -0.25041861304965352 -0.048094125714969807 0 -0.24953475547050491 -0.034095205529127627 0 -0.24825274505185621 -0.041057344827626747 0 -0.25677398519544092 -0.035252431040474347 0 -0.24953475547050491 -0.034095205529127627 0 -0.25273509796092419 -0.027913732115031679 0 -0.25677398519544092 -0.035252431040474347 0 -0.27270430177648097 -0.055985092302218209 0 -0.2609994071166466 -0.058328333227814673 0 -0.26232657141592991 -0.069579555736440896 0 -0.25731672106554421 -0.043934089639349867 0 -0.26408337289057171 -0.047310262150104733 0 -0.25606372909370928 -0.052029921394108468 0 -0.2609994071166466 -0.058328333227814673 0 -0.26408337289057171 -0.047310262150104733 0 -0.25606372909370928 -0.052029921394108468 0 -0.25731672106554421 -0.043934089639349867 0 -0.25606372909370928 -0.052029921394108468 0 -0.25041861304965352 -0.048094125714969807 0 -0.24862177842922761 -0.054340961316372213 0 -0.25606372909370928 -0.052029921394108468 0 -0.25041861304965352 -0.048094125714969807 0 -0.24862177842922761 -0.054340961316372213 0 -0.24895267118496359 -0.061295236539277383 0 -0.25408945550355427 -0.057957312182007788 0 -0.24862177842922761 -0.054340961316372213 0 -0.25606372909370928 -0.052029921394108468 0 -0.25408945550355427 -0.057957312182007788 0 -0.2609994071166466 -0.058328333227814673 0 -0.25606372909370928 -0.052029921394108468 0 -0.25408945550355427 -0.057957312182007788 0 -0.2609994071166466 -0.058328333227814673 0 -0.25408945550355427 -0.057957312182007788 0 -0.25580969169322437 -0.063792108432466202 0 -0.24895267118496359 -0.061295236539277383 0 -0.25408945550355427 -0.057957312182007788 0 -0.25580969169322437 -0.063792108432466202 0 -0.26232657141592991 -0.069579555736440896 0 -0.25301655387841049 -0.071259112903562905 0 -0.27274467015907877 -0.076665548133920958 0 -0.25301655387841049 -0.071259112903562905 0 -0.27274467015907877 -0.076665548133920958 0 -0.25580969169322437 -0.063792108432466202 0 -0.26232657141592991 -0.069579555736440896 0 -0.25301655387841049 -0.071259112903562905 0 -0.24895267118496359 -0.061295236539277383 0 -0.25580969169322437 -0.063792108432466202 0 -0.25301655387841049 -0.071259112903562905 0 -0.2609994071166466 -0.058328333227814673 0 -0.25580969169322437 -0.063792108432466202 0 -0.26232657141592991 -0.069579555736440896 0 -0.26232657141592991 -0.069579555736440896 0 -0.25301655387841049 -0.071259112903562905 0 -0.2428933934748953 -0.086509858277010368 0 -0.25301655387841049 -0.071259112903562905 0 -0.25703728698740469 -0.09060205987723953 0 -0.25301655387841049 -0.071259112903562905 0 -0.25703728698740469 -0.09060205987723953 0 -0.27274467015907877 -0.076665548133920958 0 -0.27274467015907877 -0.076665548133920958 0 -0.27278506836563199 -0.09736128258173149 0 -0.27274467015907877 -0.076665548133920958 0 -0.27278506836563199 -0.09736128258173149 0 -0.28836670731841929 -0.09564904379644204 0 -0.25703728698740469 -0.09060205987723953 0 -0.27274467015907877 -0.076665548133920958 0 -0.27278506836563199 -0.09736128258173149 0 -0.27270430177648097 -0.055985092302218209 0 -0.27274467015907877 -0.076665548133920958 0 -0.27270430177648097 -0.055985092302218209 0 -0.27274467015907877 -0.076665548133920958 0 -0.2899387453525219 -0.067007366932537879 0 -0.27270430177648097 -0.055985092302218209 0 -0.26232657141592991 -0.069579555736440896 0 -0.27274467015907877 -0.076665548133920958 0 -0.24683853217084689 -0.1306217582628095 0 -0.27282546657218493 -0.11805701702954199 0 -0.24683853217084689 -0.1306217582628095 0 -0.2580873313086669 -0.1081448409590956 0 -0.27282546657218493 -0.11805701702954199 0 -0.2409503024472662 -0.1040820870441557 0 -0.25703728698740469 -0.09060205987723953 0 -0.2580873313086669 -0.1081448409590956 0 -0.25703728698740469 -0.09060205987723953 0 -0.2580873313086669 -0.1081448409590956 0 -0.27278506836563199 -0.09736128258173149 0 -0.27278506836563199 -0.09736128258173149 0 -0.27282546657218493 -0.11805701702954199 0 -0.2580873313086669 -0.1081448409590956 0 -0.27278506836563199 -0.09736128258173149 0 -0.27282546657218493 -0.11805701702954199 0 -0.27278506836563199 -0.09736128258173149 0 -0.27282546657218493 -0.11805701702954199 0 -0.28987549721939943 -0.1098132888624128 0 -0.27282546657218493 -0.11805701702954199 0 -0.28987549721939943 -0.1098132888624128 0 -0.29164791409570068 -0.1291358794828483 0 -0.27282546657218493 -0.11805701702954199 0 -0.28987549721939943 -0.1098132888624128 0 -0.28987549721939943 -0.1098132888624128 0 -0.30455115987270948 -0.109755878915135 0 -0.29164791409570068 -0.1291358794828483 0 -0.28987549721939943 -0.1098132888624128 0 -0.28836670731841929 -0.09564904379644204 0 -0.30455115987270948 -0.109755878915135 0 -0.27278506836563199 -0.09736128258173149 0 -0.28987549721939943 -0.1098132888624128 0 -0.28836670731841929 -0.09564904379644204 0 -0.28836670731841929 -0.09564904379644204 0 -0.30455115987270948 -0.109755878915135 0 -0.30187714097527762 -0.084649220489009927 0 -0.30455115987270948 -0.109755878915135 0 -0.30187714097527762 -0.084649220489009927 0 -0.32047191018381721 -0.10077896950876181 0 -0.30455115987270948 -0.109755878915135 0 -0.31778850105622958 -0.12049018840146219 0 -0.30766045842121259 -0.13099719833795681 0 -0.30455115987270948 -0.109755878915135 0 -0.29164791409570068 -0.1291358794828483 0 -0.30766045842121259 -0.13099719833795681 0 -0.27274467015907877 -0.076665548133920958 0 -0.2899387453525219 -0.067007366932537879 0 -0.30187714097527762 -0.084649220489009927 0 -0.27274467015907877 -0.076665548133920958 0 -0.28836670731841929 -0.09564904379644204 0 -0.30187714097527762 -0.084649220489009927 0 -0.27274467015907877 -0.076665548133920958 0 -0.30187714097527762 -0.084649220489009927 0 -0.2899387453525219 -0.067007366932537879 0 -0.30187714097527762 -0.084649220489009927 0 -0.30818573600389021 -0.065358862296760536 0 -0.30187714097527762 -0.084649220489009927 0 -0.30818573600389021 -0.065358862296760536 0 -0.3255049247197771 -0.080310293774929112 0 -0.30818573600389021 -0.065358862296760536 0 -0.3255049247197771 -0.080310293774929112 0 -0.33051653587801683 -0.058799250383795632 0 -0.30187714097527762 -0.084649220489009927 0 -0.3255049247197771 -0.080310293774929112 0 -0.32047191018381721 -0.10077896950876181 0 -0.3255049247197771 -0.080310293774929112 0 -0.34130605946195641 -0.098558505897275842 0 -0.34839514281849571 -0.074883772486064135 0 -0.3255049247197771 -0.080310293774929112 0 -0.32047191018381721 -0.10077896950876181 0 -0.34130605946195641 -0.098558505897275842 0 -0.3255049247197771 -0.080310293774929112 0 -0.34839514281849571 -0.074883772486064135 0 -0.33051653587801683 -0.058799250383795632 0 -0.30455115987270948 -0.109755878915135 0 -0.31778850105622958 -0.12049018840146219 0 -0.32047191018381721 -0.10077896950876181 0 -0.31778850105622958 -0.12049018840146219 0 -0.32047191018381721 -0.10077896950876181 0 -0.33048204964159827 -0.11203648151537331 0 -0.31778850105622958 -0.12049018840146219 0 -0.33048204964159827 -0.11203648151537331 0 -0.33327028405448028 -0.12501157786496089 0 -0.34130605946195641 -0.098558505897275842 0 -0.33048204964159827 -0.11203648151537331 0 -0.34342001744478923 -0.1148102313650681 0 -0.32047191018381721 -0.10077896950876181 0 -0.34130605946195641 -0.098558505897275842 0 -0.33048204964159827 -0.11203648151537331 0 -0.34342001744478923 -0.1148102313650681 0 -0.33327028405448028 -0.12501157786496089 0 -0.34930035975041512 -0.12595457843706889 0 -0.33048204964159827 -0.11203648151537331 0 -0.34342001744478923 -0.1148102313650681 0 -0.33327028405448028 -0.12501157786496089 0 -0.35868970680780299 -0.11034953506778809 0 -0.34930035975041512 -0.12595457843706889 0 -0.36589237398189611 -0.1253297041883886 0 -0.34342001744478923 -0.1148102313650681 0 -0.35868970680780299 -0.11034953506778809 0 -0.34930035975041512 -0.12595457843706889 0 -0.34130605946195641 -0.098558505897275842 0 -0.34342001744478923 -0.1148102313650681 0 -0.35868970680780299 -0.11034953506778809 0 -0.34130605946195641 -0.098558505897275842 0 -0.35868970680780299 -0.11034953506778809 0 -0.35985321306251578 -0.092597464304678412 0 -0.35868970680780299 -0.11034953506778809 0 -0.37476815867760721 -0.09776998629112052 0 -0.35985321306251578 -0.092597464304678412 0 -0.35868970680780299 -0.11034953506778809 0 -0.37476815867760721 -0.09776998629112052 0 -0.37511934721336099 -0.1128696139250065 0 -0.35868970680780299 -0.11034953506778809 0 -0.36589237398189611 -0.1253297041883886 0 -0.37511934721336099 -0.1128696139250065 0 -0.36589237398189611 -0.1253297041883886 0 -0.38309638776026528 -0.12067705325775741 0 -0.37511934721336099 -0.1128696139250065 0 -0.36589237398189611 -0.1253297041883886 0 -0.37511934721336099 -0.1128696139250065 0 -0.34839514281849571 -0.074883772486064135 0 -0.36345074180896642 -0.059301218949499149 0 -0.34872378526152298 -0.053713204417307543 0 -0.34130605946195641 -0.098558505897275842 0 -0.34839514281849571 -0.074883772486064135 0 -0.35985321306251578 -0.092597464304678412 0 -0.34839514281849571 -0.074883772486064135 0 -0.35985321306251578 -0.092597464304678412 0 -0.37205088521483531 -0.075375567204115257 0 -0.37476815867760721 -0.09776998629112052 0 -0.35985321306251578 -0.092597464304678412 0 -0.37205088521483531 -0.075375567204115257 0 -0.34839514281849571 -0.074883772486064135 0 -0.37205088521483531 -0.075375567204115257 0 -0.36345074180896642 -0.059301218949499149 0 -0.37205088521483531 -0.075375567204115257 0 -0.36345074180896642 -0.059301218949499149 0 -0.37726929222554301 -0.057336975391873962 0 -0.36345074180896642 -0.059301218949499149 0 -0.35742175720316433 -0.042343596465804698 0 -0.37205749607193778 -0.043769244132122083 0 -0.36345074180896642 -0.059301218949499149 0 -0.37205749607193778 -0.043769244132122083 0 -0.37726929222554301 -0.057336975391873962 0 -0.36345074180896642 -0.059301218949499149 0 -0.34872378526152298 -0.053713204417307543 0 -0.35742175720316433 -0.042343596465804698 0 -0.34872378526152298 -0.053713204417307543 0 -0.34383474859897167 -0.033238183801374097 0 -0.35742175720316433 -0.042343596465804698 0 -0.34383474859897167 -0.033238183801374097 0 -0.35742175720316433 -0.042343596465804698 0 -0.35925135462971253 -0.02723044547587037 0 -0.35742175720316433 -0.042343596465804698 0 -0.36528646364568063 -0.035668335187337981 0 -0.35925135462971253 -0.02723044547587037 0 -0.35742175720316433 -0.042343596465804698 0 -0.36528646364568063 -0.035668335187337981 0 -0.37205749607193778 -0.043769244132122083 0 -0.36528646364568063 -0.035668335187337981 0 -0.37205749607193778 -0.043769244132122083 0 -0.37243004328639012 -0.032824041619946391 0 -0.36528646364568063 -0.035668335187337981 0 -0.37243004328639012 -0.032824041619946391 0 -0.36621122421465108 -0.02781013388834673 0 -0.36464139059592621 -0.017950453686241281 0 -0.35715296131992608 -0.0076771172189524506 0 -0.35925135462971253 -0.02723044547587037 0 -0.37243004328639012 -0.032824041619946391 0 -0.37277063317299608 -0.022679593593542088 0 -0.37907916605732223 -0.029273017167181059 0 -0.37243004328639012 -0.032824041619946391 0 -0.37277063317299608 -0.022679593593542088 0 -0.36621122421465108 -0.02781013388834673 0 -0.37277063317299608 -0.022679593593542088 0 -0.36464139059592621 -0.017950453686241281 0 -0.36621122421465108 -0.02781013388834673 0 -0.36464139059592621 -0.017950453686241281 0 -0.36621122421465108 -0.02781013388834673 0 -0.35925135462971253 -0.02723044547587037 0 -0.36528646364568063 -0.035668335187337981 0 -0.36621122421465108 -0.02781013388834673 0 -0.35925135462971253 -0.02723044547587037 0 -0.37277063317299608 -0.022679593593542088 0 -0.36464139059592621 -0.017950453686241281 0 -0.36800916043032761 -0.0041271905919835214 0 -0.36464139059592621 -0.017950453686241281 0 -0.36800916043032761 -0.0041271905919835214 0 -0.35715296131992608 -0.0076771172189524506 0 -0.35715296131992608 -0.0076771172189524506 0 -0.36234562177419838 0.002288930207415555 0 -0.36800916043032761 -0.0041271905919835214 0 -0.35715296131992608 -0.0076771172189524506 0 -0.36234562177419838 0.002288930207415555 0 -0.36800916043032761 -0.0041271905919835214 0 -0.35715296131992608 -0.0076771172189524506 0 -0.36800916043032761 -0.0041271905919835214 0 -0.36234562177419838 0.002288930207415555 0 -0.35715296131992608 -0.0076771172189524506 0 -0.34485189770040853 -0.018229789757849842 0 -0.33114487164130613 -0.016181641604311719 0 -0.35715296131992608 -0.0076771172189524506 0 -0.33114487164130613 -0.016181641604311719 0 -0.35715296131992608 -0.0076771172189524506 0 -0.34563008095609887 -0.001415402038955568 0 -0.36234562177419838 0.002288930207415555 0 -0.35715296131992608 -0.0076771172189524506 0 -0.34563008095609887 -0.001415402038955568 0 -0.33114487164130613 -0.016181641604311719 0 -0.34383474859897167 -0.033238183801374097 0 -0.35715296131992608 -0.0076771172189524506 0 -0.34485189770040853 -0.018229789757849842 0 -0.34383474859897167 -0.033238183801374097 0 -0.35715296131992608 -0.0076771172189524506 0 -0.35925135462971253 -0.02723044547587037 0 -0.34383474859897167 -0.033238183801374097 0 -0.35715296131992608 -0.0076771172189524506 0 -0.34383474859897167 -0.033238183801374097 0 -0.34485189770040853 -0.018229789757849842 0 -0.33581801954213319 -0.027962319864912068 0 -0.34485189770040853 -0.018229789757849842 0 -0.33114487164130613 -0.016181641604311719 0 -0.33581801954213319 -0.027962319864912068 0 -0.34563008095609887 -0.001415402038955568 0 -0.33114487164130613 -0.016181641604311719 0 -0.33251598666114068 0.0020107041850400608 0 -0.33114487164130613 -0.016181641604311719 0 -0.31267493755550779 -0.0085487720730209691 0 -0.33251598666114068 0.0020107041850400608 0 -0.30513678196268618 -0.024686165989671671 0 -0.30747335591309982 -0.030576505119971949 0 -0.33114487164130613 -0.016181641604311719 0 -0.30513678196268618 -0.024686165989671671 0 -0.33114487164130613 -0.016181641604311719 0 -0.31267493755550779 -0.0085487720730209691 0 -0.30747335591309982 -0.030576505119971949 0 -0.33114487164130613 -0.016181641604311719 0 -0.33581801954213319 -0.027962319864912068 0 -0.30513678196268618 -0.024686165989671671 0 -0.33114487164130613 -0.016181641604311719 0 -0.30747335591309982 -0.030576505119971949 0 -0.33581801954213319 -0.027962319864912068 0 -0.33581801954213319 -0.027962319864912068 0 -0.32661487899964248 -0.040476894228072553 0 -0.32013223351961317 -0.036225738682880267 0 -0.30747335591309982 -0.030576505119971949 0 -0.33581801954213319 -0.027962319864912068 0 -0.32013223351961317 -0.036225738682880267 0 -0.31062267962357731 -0.045887235518564523 0 -0.32661487899964248 -0.040476894228072553 0 -0.32013223351961317 -0.036225738682880267 0 -0.30747335591309982 -0.030576505119971949 0 -0.31062267962357731 -0.045887235518564523 0 -0.32013223351961317 -0.036225738682880267 0 -0.31062267962357731 -0.045887235518564523 0 -0.32661487899964248 -0.040476894228072553 0 -0.33051653587801683 -0.058799250383795632 0 -0.31062267962357731 -0.045887235518564523 0 -0.30818573600389021 -0.065358862296760536 0 -0.33051653587801683 -0.058799250383795632 0 -0.34839514281849571 -0.074883772486064135 0 -0.34872378526152298 -0.053713204417307543 0 -0.33051653587801683 -0.058799250383795632 0 -0.34872378526152298 -0.053713204417307543 0 -0.34383474859897167 -0.033238183801374097 0 -0.33051653587801683 -0.058799250383795632 0 -0.34383474859897167 -0.033238183801374097 0 -0.32661487899964248 -0.040476894228072553 0 -0.33051653587801683 -0.058799250383795632 0 -0.34383474859897167 -0.033238183801374097 0 -0.33051653587801683 -0.058799250383795632 0 -0.34383474859897167 -0.033238183801374097 0 -0.33581801954213319 -0.027962319864912068 0 -0.32661487899964248 -0.040476894228072553 0 -0.30705890722761642 -0.24252910105173059 0 -0.30682745251198112 -0.22547984288478651 0 -0.29551923689341369 -0.2377258519584631 0 -0.3021196426598462 -0.25389421830362668 0 -0.30705890722761642 -0.24252910105173059 0 -0.29551923689341369 -0.2377258519584631 0 -0.3021196426598462 -0.25389421830362668 0 -0.29551923689341369 -0.2377258519584631 0 -0.30705890722761642 -0.24252910105173059 0 -0.30682745251198112 -0.22547984288478651 0 -0.32213089999030081 -0.24086328174933441 0 -0.31447374353419461 -0.25288678371517498 0 -0.3021196426598462 -0.25389421830362668 0 -0.30705890722761642 -0.24252910105173059 0 -0.30682745251198112 -0.22547984288478651 0 -0.28628162904172039 -0.23283593001193431 0 -0.30387757196889809 -0.20907439612189341 0 -0.28628162904172039 -0.23283593001193431 0 -0.30387757196889809 -0.20907439612189341 0 -0.30682745251198112 -0.22547984288478651 0 -0.28628162904172039 -0.23283593001193431 0 -0.29551923689341369 -0.2377258519584631 0 -0.28628162904172039 -0.23283593001193431 0 -0.27319684921913973 -0.22997688507906669 0 -0.285311554194419 -0.21372170809755731 0 -0.28628162904172039 -0.23283593001193431 0 -0.29551923689341369 -0.2377258519584631 0 -0.28040576467040979 -0.2422619100853925 0 -0.28715721559520269 -0.25108193235664411 0 -0.3021196426598462 -0.25389421830362668 0 -0.29551923689341369 -0.2377258519584631 0 -0.28715721559520269 -0.25108193235664411 0 -0.29551923689341369 -0.2377258519584631 0 -0.28040576467040979 -0.2422619100853925 0 -0.27198482704117011 -0.2554546739122816 0 -0.28715721559520269 -0.25108193235664411 0 -0.28040576467040979 -0.2422619100853925 0 -0.28628162904172039 -0.23283593001193431 0 -0.28040576467040979 -0.2422619100853925 0 -0.27319684921913973 -0.22997688507906669 0 -0.28040576467040979 -0.2422619100853925 0 -0.26575365835036091 -0.24169776597770681 0 -0.27319684921913973 -0.22997688507906669 0 -0.27198482704117011 -0.2554546739122816 0 -0.28040576467040979 -0.2422619100853925 0 -0.26575365835036091 -0.24169776597770681 0 -0.25431501404594598 -0.25676801052014742 0 -0.26575365835036091 -0.24169776597770681 0 -0.25116623381764552 -0.2374479092143516 0 -0.26575365835036091 -0.24169776597770681 0 -0.25116623381764552 -0.2374479092143516 0 -0.26102659226149733 -0.22913254837708399 0 -0.24874382124308331 -0.21872375249164969 0 -0.25116623381764552 -0.2374479092143516 0 -0.26102659226149733 -0.22913254837708399 0 -0.24874382124308331 -0.21872375249164969 0 -0.26102659226149733 -0.22913254837708399 0 -0.2662723986772571 -0.21781642912264501 0 -0.26102659226149733 -0.22913254837708399 0 -0.27319684921913973 -0.22997688507906669 0 -0.2662723986772571 -0.21781642912264501 0 -0.27319684921913973 -0.22997688507906669 0 -0.2662723986772571 -0.21781642912264501 0 -0.285311554194419 -0.21372170809755731 0 -0.26575365835036091 -0.24169776597770681 0 -0.26102659226149733 -0.22913254837708399 0 -0.27319684921913973 -0.22997688507906669 0 -0.2662723986772571 -0.21781642912264501 0 -0.26635951321349499 -0.2024533527604287 0 -0.285311554194419 -0.21372170809755731 0 -0.2496991802272914 -0.200769489153338 0 -0.24874382124308331 -0.21872375249164969 0 -0.25799914799881929 -0.20971605104463731 0 -0.2496991802272914 -0.200769489153338 0 -0.25799914799881929 -0.20971605104463731 0 -0.26635951321349499 -0.2024533527604287 0 -0.24874382124308331 -0.21872375249164969 0 -0.2662723986772571 -0.21781642912264501 0 -0.25799914799881929 -0.20971605104463731 0 -0.2662723986772571 -0.21781642912264501 0 -0.25799914799881929 -0.20971605104463731 0 -0.26635951321349499 -0.2024533527604287 0 -0.2496991802272914 -0.200769489153338 0 -0.2584462381279472 -0.19203996842240961 0 -0.26635951321349499 -0.2024533527604287 0 -0.2496991802272914 -0.200769489153338 0 -0.24280950400343609 -0.18760229449853641 0 -0.2584462381279472 -0.19203996842240961 0 -0.2584462381279472 -0.19203996842240961 0 -0.27733082542916382 -0.1887086151557599 0 -0.26635951321349499 -0.2024533527604287 0 -0.27733082542916382 -0.1887086151557599 0 -0.26635951321349499 -0.2024533527604287 0 -0.285311554194419 -0.21372170809755731 0 -0.27733082542916382 -0.1887086151557599 0 -0.285311554194419 -0.21372170809755731 0 -0.29936596687658318 -0.18940124717674009 0 -0.285311554194419 -0.21372170809755731 0 -0.30387757196889809 -0.20907439612189341 0 -0.29936596687658318 -0.18940124717674009 0 -0.28628162904172039 -0.23283593001193431 0 -0.285311554194419 -0.21372170809755731 0 -0.30387757196889809 -0.20907439612189341 0 -0.30387757196889809 -0.20907439612189341 0 -0.29936596687658318 -0.18940124717674009 0 -0.32147351489607578 -0.18531286223185239 0 -0.29936596687658318 -0.18940124717674009 0 -0.31216943545029852 -0.1657894020463061 0 -0.32147351489607578 -0.18531286223185239 0 -0.29936596687658318 -0.18940124717674009 0 -0.31216943545029852 -0.1657894020463061 0 -0.2909197130955925 -0.16791994050568371 0 -0.31216943545029852 -0.1657894020463061 0 -0.2909197130955925 -0.16791994050568371 0 -0.30539213468515508 -0.14775927594470339 0 -0.2909197130955925 -0.16791994050568371 0 -0.27290346145177569 -0.15801327880380839 0 -0.28674553746804088 -0.1481727045307438 0 -0.27733082542916382 -0.1887086151557599 0 -0.29936596687658318 -0.18940124717674009 0 -0.2909197130955925 -0.16791994050568371 0 -0.27733082542916382 -0.1887086151557599 0 -0.2909197130955925 -0.16791994050568371 0 -0.27245015322808291 -0.17297359376803001 0 -0.27733082542916382 -0.1887086151557599 0 -0.27245015322808291 -0.17297359376803001 0 -0.25840421564139532 -0.17968222638675629 0 -0.2584462381279472 -0.19203996842240961 0 -0.27733082542916382 -0.1887086151557599 0 -0.25840421564139532 -0.17968222638675629 0 -0.24724980765878929 -0.17680374519294309 0 -0.25840421564139532 -0.17968222638675629 0 -0.25382573003102971 -0.1609332633390595 0 -0.24280950400343609 -0.18760229449853641 0 -0.2584462381279472 -0.19203996842240961 0 -0.25840421564139532 -0.17968222638675629 0 -0.27245015322808291 -0.17297359376803001 0 -0.25840421564139532 -0.17968222638675629 0 -0.25382573003102971 -0.1609332633390595 0 -0.2909197130955925 -0.16791994050568371 0 -0.27245015322808291 -0.17297359376803001 0 -0.27290346145177569 -0.15801327880380839 0 -0.27245015322808291 -0.17297359376803001 0 -0.25382573003102971 -0.1609332633390595 0 -0.27290346145177569 -0.15801327880380839 0 -0.27290346145177569 -0.15801327880380839 0 -0.27286446401198078 -0.1380351479166752 0 -0.27290346145177569 -0.15801327880380839 0 -0.25709854924807879 -0.14705889676093931 0 -0.27286446401198078 -0.1380351479166752 0 -0.27290346145177569 -0.15801327880380839 0 -0.27286446401198078 -0.1380351479166752 0 -0.28674553746804088 -0.1481727045307438 0 -0.25382573003102971 -0.1609332633390595 0 -0.27290346145177569 -0.15801327880380839 0 -0.25709854924807879 -0.14705889676093931 0 -0.24683853217084689 -0.1306217582628095 0 -0.27282546657218493 -0.11805701702954199 0 -0.27286446401198078 -0.1380351479166752 0 -0.24683853217084689 -0.1306217582628095 0 -0.25709854924807879 -0.14705889676093931 0 -0.27286446401198078 -0.1380351479166752 0 -0.27282546657218493 -0.11805701702954199 0 -0.27286446401198078 -0.1380351479166752 0 -0.27282546657218493 -0.11805701702954199 0 -0.27286446401198078 -0.1380351479166752 0 -0.29164791409570068 -0.1291358794828483 0 -0.27286446401198078 -0.1380351479166752 0 -0.29164791409570068 -0.1291358794828483 0 -0.28674553746804088 -0.1481727045307438 0 -0.2909197130955925 -0.16791994050568371 0 -0.28674553746804088 -0.1481727045307438 0 -0.30539213468515508 -0.14775927594470339 0 -0.29164791409570068 -0.1291358794828483 0 -0.28674553746804088 -0.1481727045307438 0 -0.30539213468515508 -0.14775927594470339 0 -0.29164791409570068 -0.1291358794828483 0 -0.30539213468515508 -0.14775927594470339 0 -0.30766045842121259 -0.13099719833795681 0 -0.30539213468515508 -0.14775927594470339 0 -0.30766045842121259 -0.13099719833795681 0 -0.32079540418050401 -0.13651134289645669 0 -0.31778850105622958 -0.12049018840146219 0 -0.32079540418050401 -0.13651134289645669 0 -0.33327028405448028 -0.12501157786496089 0 -0.31778850105622958 -0.12049018840146219 0 -0.30766045842121259 -0.13099719833795681 0 -0.32079540418050401 -0.13651134289645669 0 -0.32079540418050401 -0.13651134289645669 0 -0.32318684260790398 -0.150012058718307 0 -0.33783537225334581 -0.14026664457433649 0 -0.31216943545029852 -0.1657894020463061 0 -0.30539213468515508 -0.14775927594470339 0 -0.32318684260790398 -0.150012058718307 0 -0.30539213468515508 -0.14775927594470339 0 -0.32079540418050401 -0.13651134289645669 0 -0.32318684260790398 -0.150012058718307 0 -0.32318684260790398 -0.150012058718307 0 -0.33783537225334581 -0.14026664457433649 0 -0.33906945782325348 -0.1615513283418116 0 -0.32079540418050401 -0.13651134289645669 0 -0.33783537225334581 -0.14026664457433649 0 -0.33327028405448028 -0.12501157786496089 0 -0.33783537225334581 -0.14026664457433649 0 -0.33327028405448028 -0.12501157786496089 0 -0.34930035975041512 -0.12595457843706889 0 -0.33783537225334581 -0.14026664457433649 0 -0.34930035975041512 -0.12595457843706889 0 -0.35666540075043052 -0.13778979445177039 0 -0.34930035975041512 -0.12595457843706889 0 -0.35666540075043052 -0.13778979445177039 0 -0.36589237398189611 -0.1253297041883886 0 -0.33783537225334581 -0.14026664457433649 0 -0.35666540075043052 -0.13778979445177039 0 -0.35666540075043052 -0.13778979445177039 0 -0.36589237398189611 -0.1253297041883886 0 -0.35666540075043052 -0.13778979445177039 0 -0.36589237398189611 -0.1253297041883886 0 -0.38030371823002329 -0.13468047523030999 0 -0.35666540075043052 -0.13778979445177039 0 -0.38030371823002329 -0.13468047523030999 0 -0.35666540075043052 -0.13778979445177039 0 -0.36313085433141312 -0.14487951023109741 0 -0.38030371823002329 -0.13468047523030999 0 -0.36558860022404283 -0.14826043377392151 0 -0.37877283166123987 -0.16639692159950531 0 -0.37529260357574268 -0.1536758012538495 0 -0.36558860022404283 -0.14826043377392151 0 -0.36313085433141312 -0.14487951023109741 0 -0.38030371823002329 -0.13468047523030999 0 -0.36558860022404283 -0.14826043377392151 0 -0.37618161211925588 -0.1466533960836614 0 -0.37529260357574268 -0.1536758012538495 0 -0.36558860022404283 -0.14826043377392151 0 -0.38030371823002329 -0.13468047523030999 0 -0.36558860022404283 -0.14826043377392151 0 -0.37618161211925588 -0.1466533960836614 0 -0.38030371823002329 -0.13468047523030999 0 -0.36558860022404283 -0.14826043377392151 0 -0.36313085433141312 -0.14487951023109741 0 -0.36558860022404283 -0.14826043377392151 0 -0.36313085433141312 -0.14487951023109741 0 -0.36232840250756371 -0.14878161210738231 0 -0.36313085433141312 -0.14487951023109741 0 -0.36232840250756371 -0.14878161210738231 0 -0.35821495473034748 -0.14988091939655521 0 -0.36161982294445327 -0.15183047185526929 0 -0.36232840250756371 -0.14878161210738231 0 -0.35821495473034748 -0.14988091939655521 0 -0.36558860022404283 -0.14826043377392151 0 -0.3640132573942208 -0.1534904362288225 0 -0.36809294903286899 -0.16051408790386279 0 -0.36161982294445327 -0.15183047185526929 0 -0.35821495473034748 -0.14988091939655521 0 -0.35841693674569819 -0.15831164066445169 0 -0.36558860022404283 -0.14826043377392151 0 -0.36161982294445327 -0.15183047185526929 0 -0.36232840250756371 -0.14878161210738231 0 -0.36558860022404283 -0.14826043377392151 0 -0.36161982294445327 -0.15183047185526929 0 -0.3640132573942208 -0.1534904362288225 0 -0.36161982294445327 -0.15183047185526929 0 -0.3640132573942208 -0.1534904362288225 0 -0.35841693674569819 -0.15831164066445169 0 -0.35666540075043052 -0.13778979445177039 0 -0.35821495473034748 -0.14988091939655521 0 -0.33906945782325348 -0.1615513283418116 0 -0.33783537225334581 -0.14026664457433649 0 -0.35666540075043052 -0.13778979445177039 0 -0.33906945782325348 -0.1615513283418116 0 -0.35666540075043052 -0.13778979445177039 0 -0.33906945782325348 -0.1615513283418116 0 -0.35666540075043052 -0.13778979445177039 0 -0.36313085433141312 -0.14487951023109741 0 -0.35821495473034748 -0.14988091939655521 0 -0.35824800107996091 -0.17099815997044221 0 -0.35841693674569819 -0.15831164066445169 0 -0.33906945782325348 -0.1615513283418116 0 -0.35821495473034748 -0.14988091939655521 0 -0.35841693674569819 -0.15831164066445169 0 -0.33906945782325348 -0.1615513283418116 0 -0.36558860022404283 -0.14826043377392151 0 -0.36809294903286899 -0.16051408790386279 0 -0.37877283166123987 -0.16639692159950531 0 -0.36558860022404283 -0.14826043377392151 0 -0.37877283166123987 -0.16639692159950531 0 -0.35824800107996091 -0.17099815997044221 0 -0.35841693674569819 -0.15831164066445169 0 -0.36809294903286899 -0.16051408790386279 0 -0.3640132573942208 -0.1534904362288225 0 -0.35841693674569819 -0.15831164066445169 0 -0.36809294903286899 -0.16051408790386279 0 -0.35824800107996091 -0.17099815997044221 0 -0.36809294903286899 -0.16051408790386279 0 -0.37080588692378308 -0.17257011663589261 0 -0.36809294903286899 -0.16051408790386279 0 -0.37080588692378308 -0.17257011663589261 0 -0.37877283166123987 -0.16639692159950531 0 -0.37009121721063659 -0.18656832922274791 0 -0.37080588692378308 -0.17257011663589261 0 -0.37882443563420909 -0.17837308448290501 0 -0.35824800107996091 -0.17099815997044221 0 -0.37009121721063659 -0.18656832922274791 0 -0.37080588692378308 -0.17257011663589261 0 -0.35824800107996091 -0.17099815997044221 0 -0.37009121721063659 -0.18656832922274791 0 -0.34650402132717689 -0.18477763844592701 0 -0.35824800107996091 -0.17099815997044221 0 -0.34650402132717689 -0.18477763844592701 0 -0.33906945782325348 -0.1615513283418116 0 -0.33906945782325348 -0.1615513283418116 0 -0.32147351489607578 -0.18531286223185239 0 -0.34650402132717689 -0.18477763844592701 0 -0.33906945782325348 -0.1615513283418116 0 -0.32147351489607578 -0.18531286223185239 0 -0.31216943545029852 -0.1657894020463061 0 -0.33906945782325348 -0.1615513283418116 0 -0.32147351489607578 -0.18531286223185239 0 -0.31216943545029852 -0.1657894020463061 0 -0.32318684260790398 -0.150012058718307 0 -0.33906945782325348 -0.1615513283418116 0 -0.30387757196889809 -0.20907439612189341 0 -0.32147351489607578 -0.18531286223185239 0 -0.30387757196889809 -0.20907439612189341 0 -0.32147351489607578 -0.18531286223185239 0 -0.33161430047494922 -0.20484171104178869 0 -0.30682745251198112 -0.22547984288478651 0 -0.30387757196889809 -0.20907439612189341 0 -0.33161430047494922 -0.20484171104178869 0 -0.30682745251198112 -0.22547984288478651 0 -0.33161430047494922 -0.20484171104178869 0 -0.33556937268794179 -0.22486721288945891 0 -0.33161430047494922 -0.20484171104178869 0 -0.35876001330383878 -0.21746810767653069 0 -0.33556937268794179 -0.22486721288945891 0 -0.34650402132717689 -0.18477763844592701 0 -0.32147351489607578 -0.18531286223185239 0 -0.33161430047494922 -0.20484171104178869 0 -0.37009121721063659 -0.18656832922274791 0 -0.34650402132717689 -0.18477763844592701 0 -0.3590696602696577 -0.20005414553013029 0 -0.34650402132717689 -0.18477763844592701 0 -0.33161430047494922 -0.20484171104178869 0 -0.3590696602696577 -0.20005414553013029 0 -0.37009121721063659 -0.18656832922274791 0 -0.3590696602696577 -0.20005414553013029 0 -0.38195065391973571 -0.21006900246360241 0 -0.35876001330383878 -0.21746810767653069 0 -0.38195065391973571 -0.21006900246360241 0 -0.3590696602696577 -0.20005414553013029 0 -0.35876001330383878 -0.21746810767653069 0 -0.38195065391973571 -0.21006900246360241 0 -0.33161430047494922 -0.20484171104178869 0 -0.3590696602696577 -0.20005414553013029 0 -0.35876001330383878 -0.21746810767653069 0 -0.35876001330383878 -0.21746810767653069 0 -0.33556937268794179 -0.22486721288945891 0 -0.35876001330383878 -0.21746810767653069 0 -0.36034056556919303 -0.237243880179689 0 -0.33556937268794179 -0.22486721288945891 0 -0.35876001330383878 -0.21746810767653069 0 -0.37933057617099358 -0.22896850521614229 0 -0.38195065391973571 -0.21006900246360241 0 -0.35876001330383878 -0.21746810767653069 0 -0.36034056556919303 -0.237243880179689 0 -0.37933057617099358 -0.22896850521614229 0 -0.35550970838397372 -0.25214485579249551 0 -0.36909614358114728 -0.25447947052818581 0 -0.36034056556919303 -0.237243880179689 0 -0.36034056556919303 -0.237243880179689 0 -0.37807327786879408 -0.24521479883112249 0 -0.37933057617099358 -0.22896850521614229 0 -0.36909614358114728 -0.25447947052818581 0 -0.36034056556919303 -0.237243880179689 0 -0.37807327786879408 -0.24521479883112249 0 -0.35550970838397372 -0.25214485579249551 0 -0.36034056556919303 -0.237243880179689 0 -0.3406178786116239 -0.24514116923050019 0 -0.36034056556919303 -0.237243880179689 0 -0.3406178786116239 -0.24514116923050019 0 -0.33556937268794179 -0.22486721288945891 0 -0.3406178786116239 -0.24514116923050019 0 -0.33556937268794179 -0.22486721288945891 0 -0.32213089999030081 -0.24086328174933441 0 -0.32927156741263591 -0.25711333387582608 0 -0.3406178786116239 -0.24514116923050019 0 -0.32213089999030081 -0.24086328174933441 0 -0.30682745251198112 -0.22547984288478651 0 -0.33556937268794179 -0.22486721288945891 0 -0.32213089999030081 -0.24086328174933441 0 -0.31447374353419461 -0.25288678371517498 0 -0.30705890722761642 -0.24252910105173059 0 -0.32213089999030081 -0.24086328174933441 0 -0.43378107889250272 -0.24206734736295191 0 -0.42189256455649587 -0.23403532730308749 0 -0.42108237282238858 -0.24264311435264929 0 -0.42295716543023337 -0.25506228393497521 0 -0.43378107889250272 -0.24206734736295191 0 -0.42108237282238858 -0.24264311435264929 0 -0.43541444312282329 -0.22859149562014261 0 -0.42380552796963139 -0.220673926935465 0 -0.4462127620796556 -0.2203657575614881 0 -0.43378107889250272 -0.24206734736295191 0 -0.41946118671406812 -0.2223686223068124 0 -0.43378107889250272 -0.24206734736295191 0 -0.42189256455649587 -0.23403532730308749 0 -0.41946118671406812 -0.2223686223068124 0 -0.42380552796963139 -0.220673926935465 0 -0.4462127620796556 -0.2203657575614881 0 -0.43378107889250272 -0.24206734736295191 0 -0.43541444312282329 -0.22859149562014261 0 -0.42313706777026389 -0.2228007691238004 0 -0.43378107889250272 -0.24206734736295191 0 -0.42313706777026389 -0.2228007691238004 0 -0.41946118671406812 -0.2223686223068124 0 -0.43541444312282329 -0.22859149562014261 0 -0.42313706777026389 -0.2228007691238004 0 -0.42380552796963139 -0.220673926935465 0 -0.42313706777026389 -0.2228007691238004 0 -0.42380552796963139 -0.220673926935465 0 -0.41946118671406812 -0.2223686223068124 0 -0.42313706777026389 -0.2228007691238004 0 -0.42380552796963139 -0.220673926935465 0 -0.42189256455649587 -0.23403532730308749 0 -0.41652372379869362 -0.22882402702319179 0 -0.41946118671406812 -0.2223686223068124 0 -0.42189256455649587 -0.23403532730308749 0 -0.41652372379869362 -0.22882402702319179 0 -0.4157680713773288 -0.2340520280869674 0 -0.41652372379869362 -0.22882402702319179 0 -0.4157680713773288 -0.2340520280869674 0 -0.41091414189481801 -0.22974740351864609 0 -0.41946118671406812 -0.2223686223068124 0 -0.41843119957113672 -0.22095175175449649 0 -0.40923552879580583 -0.22011091157519561 0 -0.41946118671406812 -0.2223686223068124 0 -0.40923552879580583 -0.22011091157519561 0 -0.41403364530084641 -0.22526274110596151 0 -0.42380552796963139 -0.220673926935465 0 -0.41843119957113672 -0.22095175175449649 0 -0.42380552796963139 -0.220673926935465 0 -0.41946118671406812 -0.2223686223068124 0 -0.41843119957113672 -0.22095175175449649 0 -0.41946118671406812 -0.2223686223068124 0 -0.41843119957113672 -0.22095175175449649 0 -0.41652372379869362 -0.22882402702319179 0 -0.41946118671406812 -0.2223686223068124 0 -0.41403364530084641 -0.22526274110596151 0 -0.40923552879580583 -0.22011091157519561 0 -0.41091414189481801 -0.22974740351864609 0 -0.40228611279369858 -0.2257974723550113 0 -0.40923552879580583 -0.22011091157519561 0 -0.41403364530084641 -0.22526274110596151 0 -0.41091414189481801 -0.22974740351864609 0 -0.41652372379869362 -0.22882402702319179 0 -0.41403364530084641 -0.22526274110596151 0 -0.41091414189481801 -0.22974740351864609 0 -0.4124330540413581 -0.23955718133952331 0 -0.40562615774243133 -0.24457222461279149 0 -0.40372387856373121 -0.2355913448881406 0 -0.4157680713773288 -0.2340520280869674 0 -0.41091414189481801 -0.22974740351864609 0 -0.4124330540413581 -0.23955718133952331 0 -0.41091414189481801 -0.22974740351864609 0 -0.4124330540413581 -0.23955718133952331 0 -0.40372387856373121 -0.2355913448881406 0 -0.4157680713773288 -0.2340520280869674 0 -0.4124330540413581 -0.23955718133952331 0 -0.42108237282238858 -0.24264311435264929 0 -0.42189256455649587 -0.23403532730308749 0 -0.4157680713773288 -0.2340520280869674 0 -0.42108237282238858 -0.24264311435264929 0 -0.42295716543023337 -0.25506228393497521 0 -0.41457584860192409 -0.24925828221297019 0 -0.42108237282238858 -0.24264311435264929 0 -0.4124330540413581 -0.23955718133952331 0 -0.41457584860192409 -0.24925828221297019 0 -0.42108237282238858 -0.24264311435264929 0 -0.40547995107984119 -0.25285700175790488 0 -0.41457584860192409 -0.24925828221297019 0 -0.40562615774243133 -0.24457222461279149 0 -0.4124330540413581 -0.23955718133952331 0 -0.41457584860192409 -0.24925828221297019 0 -0.40562615774243133 -0.24457222461279149 0 -0.39705766789495928 -0.25105344411440789 0 -0.40547995107984119 -0.25285700175790488 0 -0.40562615774243133 -0.24457222461279149 0 -0.39705766789495928 -0.25105344411440789 0 -0.40562615774243133 -0.24457222461279149 0 -0.39519403052270768 -0.24175529423827319 0 -0.40562615774243133 -0.24457222461279149 0 -0.40372387856373121 -0.2355913448881406 0 -0.39519403052270768 -0.24175529423827319 0 -0.40372387856373121 -0.2355913448881406 0 -0.39519403052270768 -0.24175529423827319 0 -0.39316429514192719 -0.2324375444314406 0 -0.39519403052270768 -0.24175529423827319 0 -0.38680974182936723 -0.23964012589990549 0 -0.39316429514192719 -0.2324375444314406 0 -0.39705766789495928 -0.25105344411440789 0 -0.39519403052270768 -0.24175529423827319 0 -0.3882865294424136 -0.2498244867825489 0 -0.39519403052270768 -0.24175529423827319 0 -0.3882865294424136 -0.2498244867825489 0 -0.38680974182936723 -0.23964012589990549 0 -0.3882865294424136 -0.2498244867825489 0 -0.38680974182936723 -0.23964012589990549 0 -0.37807327786879408 -0.24521479883112249 0 -0.38680974182936723 -0.23964012589990549 0 -0.37807327786879408 -0.24521479883112249 0 -0.37933057617099358 -0.22896850521614229 0 -0.37933057617099358 -0.22896850521614229 0 -0.39130998495164399 -0.22235399608533599 0 -0.38195065391973571 -0.21006900246360241 0 -0.37933057617099358 -0.22896850521614229 0 -0.39130998495164399 -0.22235399608533599 0 -0.39316429514192719 -0.2324375444314406 0 -0.38680974182936723 -0.23964012589990549 0 -0.37933057617099358 -0.22896850521614229 0 -0.39316429514192719 -0.2324375444314406 0 -0.39130998495164399 -0.22235399608533599 0 -0.40228611279369858 -0.2257974723550113 0 -0.3998182867318647 -0.2144974559604835 0 -0.39130998495164399 -0.22235399608533599 0 -0.39316429514192719 -0.2324375444314406 0 -0.40228611279369858 -0.2257974723550113 0 -0.41091414189481801 -0.22974740351864609 0 -0.40372387856373121 -0.2355913448881406 0 -0.40228611279369858 -0.2257974723550113 0 -0.40372387856373121 -0.2355913448881406 0 -0.39316429514192719 -0.2324375444314406 0 -0.40228611279369858 -0.2257974723550113 0 -0.40923552879580583 -0.22011091157519561 0 -0.40228611279369858 -0.2257974723550113 0 -0.3998182867318647 -0.2144974559604835 0 -0.38195065391973571 -0.21006900246360241 0 -0.40514129453563252 -0.2026698972506738 0 -0.39130998495164399 -0.22235399608533599 0 -0.3998182867318647 -0.2144974559604835 0 -0.38195065391973571 -0.21006900246360241 0 -0.3998182867318647 -0.2144974559604835 0 -0.38195065391973571 -0.21006900246360241 0 -0.40514129453563252 -0.2026698972506738 0 -0.40923552879580583 -0.22011091157519561 0 -0.3998182867318647 -0.2144974559604835 0 -0.40514129453563252 -0.2026698972506738 0 -0.37009121721063659 -0.18656832922274791 0 -0.38195065391973571 -0.21006900246360241 0 -0.3919570630984367 -0.1845334094250892 0 -0.38195065391973571 -0.21006900246360241 0 -0.40514129453563252 -0.2026698972506738 0 -0.3919570630984367 -0.1845334094250892 0 -0.40514129453563252 -0.2026698972506738 0 -0.41858864114723832 -0.18906548230576201 0 -0.3919570630984367 -0.1845334094250892 0 -0.40514129453563252 -0.2026698972506738 0 -0.3919570630984367 -0.1845334094250892 0 -0.40514129453563252 -0.2026698972506738 0 -0.42027059130044542 -0.20828856394426079 0 -0.43217503760238651 -0.19404462843800291 0 -0.40514129453563252 -0.2026698972506738 0 -0.41858864114723832 -0.18906548230576201 0 -0.43217503760238651 -0.19404462843800291 0 -0.40514129453563252 -0.2026698972506738 0 -0.43217503760238651 -0.19404462843800291 0 -0.41843119957113672 -0.22095175175449649 0 -0.40514129453563252 -0.2026698972506738 0 -0.41843119957113672 -0.22095175175449649 0 -0.40514129453563252 -0.2026698972506738 0 -0.42027059130044542 -0.20828856394426079 0 -0.41843119957113672 -0.22095175175449649 0 -0.40923552879580583 -0.22011091157519561 0 -0.40514129453563252 -0.2026698972506738 0 -0.42380552796963139 -0.220673926935465 0 -0.41843119957113672 -0.22095175175449649 0 -0.42027059130044542 -0.20828856394426079 0 -0.42380552796963139 -0.220673926935465 0 -0.43739837869162917 -0.20709396563447591 0 -0.4462127620796556 -0.2203657575614881 0 -0.42380552796963139 -0.220673926935465 0 -0.42027059130044542 -0.20828856394426079 0 -0.43217503760238651 -0.19404462843800291 0 -0.42380552796963139 -0.220673926935465 0 -0.43739837869162917 -0.20709396563447591 0 -0.43217503760238651 -0.19404462843800291 0 -0.42380552796963139 -0.220673926935465 0 -0.43217503760238651 -0.19404462843800291 0 -0.43739837869162917 -0.20709396563447591 0 -0.43365904514108938 -0.19357114742911191 0 -0.43217503760238651 -0.19404462843800291 0 -0.43365904514108938 -0.19357114742911191 0 -0.43217503760238651 -0.19404462843800291 0 -0.43365904514108938 -0.19357114742911191 0 -0.43217503760238651 -0.19404462843800291 0 -0.43935299206053963 -0.17120650526777381 0 -0.43217503760238651 -0.19404462843800291 0 -0.42716378270907202 -0.17579798533609661 0 -0.43935299206053963 -0.17120650526777381 0 -0.43217503760238651 -0.19404462843800291 0 -0.42716378270907202 -0.17579798533609661 0 -0.41125031214847318 -0.17659427577437081 0 -0.43217503760238651 -0.19404462843800291 0 -0.43935299206053963 -0.17120650526777381 0 -0.42622672170101411 -0.16239281264466751 0 -0.44612535049178309 -0.14965886841560261 0 -0.43935299206053963 -0.17120650526777381 0 -0.42716378270907202 -0.17579798533609661 0 -0.42622672170101411 -0.16239281264466751 0 -0.43935299206053963 -0.17120650526777381 0 -0.41125031214847318 -0.17659427577437081 0 -0.39998670015969012 -0.1540001023633136 0 -0.41399804066311768 -0.15338161045662571 0 -0.42716378270907202 -0.17579798533609661 0 -0.42622672170101411 -0.16239281264466751 0 -0.41125031214847318 -0.17659427577437081 0 -0.42622672170101411 -0.16239281264466751 0 -0.41125031214847318 -0.17659427577437081 0 -0.41399804066311768 -0.15338161045662571 0 -0.41858864114723832 -0.18906548230576201 0 -0.41125031214847318 -0.17659427577437081 0 -0.3919570630984367 -0.1845334094250892 0 -0.41858864114723832 -0.18906548230576201 0 -0.43217503760238651 -0.19404462843800291 0 -0.41125031214847318 -0.17659427577437081 0 -0.43217503760238651 -0.19404462843800291 0 -0.41125031214847318 -0.17659427577437081 0 -0.41125031214847318 -0.17659427577437081 0 -0.3919570630984367 -0.1845334094250892 0 -0.38991999066765071 -0.1604344094287963 0 -0.37009121721063659 -0.18656832922274791 0 -0.3919570630984367 -0.1845334094250892 0 -0.37882443563420909 -0.17837308448290501 0 -0.3919570630984367 -0.1845334094250892 0 -0.37877283166123987 -0.16639692159950531 0 -0.3919570630984367 -0.1845334094250892 0 -0.37882443563420909 -0.17837308448290501 0 -0.37877283166123987 -0.16639692159950531 0 -0.37080588692378308 -0.17257011663589261 0 -0.37882443563420909 -0.17837308448290501 0 -0.37877283166123987 -0.16639692159950531 0 -0.3919570630984367 -0.1845334094250892 0 -0.37877283166123987 -0.16639692159950531 0 -0.38991999066765071 -0.1604344094287963 0 -0.37877283166123987 -0.16639692159950531 0 -0.37529260357574268 -0.1536758012538495 0 -0.38062737029843219 -0.15339245355830991 0 -0.37877283166123987 -0.16639692159950531 0 -0.38991999066765071 -0.1604344094287963 0 -0.38062737029843219 -0.15339245355830991 0 -0.41125031214847318 -0.17659427577437081 0 -0.38991999066765071 -0.1604344094287963 0 -0.39998670015969012 -0.1540001023633136 0 -0.41125031214847318 -0.17659427577437081 0 -0.38991999066765071 -0.1604344094287963 0 -0.39998670015969012 -0.1540001023633136 0 -0.40575286505335389 -0.14427146323096579 0 -0.3929733633262541 -0.14365610777580171 0 -0.38991999066765071 -0.1604344094287963 0 -0.39998670015969012 -0.1540001023633136 0 -0.38864874816793521 -0.15137489827938699 0 -0.39998670015969012 -0.1540001023633136 0 -0.3929733633262541 -0.14365610777580171 0 -0.38864874816793521 -0.15137489827938699 0 -0.38991999066765071 -0.1604344094287963 0 -0.38864874816793521 -0.15137489827938699 0 -0.38062737029843219 -0.15339245355830991 0 -0.38864874816793521 -0.15137489827938699 0 -0.38284714890021149 -0.14484341855083149 0 -0.38062737029843219 -0.15339245355830991 0 -0.3929733633262541 -0.14365610777580171 0 -0.38284714890021149 -0.14484341855083149 0 -0.38030371823002329 -0.13468047523030999 0 -0.3929733633262541 -0.14365610777580171 0 -0.38864874816793521 -0.15137489827938699 0 -0.38284714890021149 -0.14484341855083149 0 -0.38284714890021149 -0.14484341855083149 0 -0.37618161211925588 -0.1466533960836614 0 -0.38030371823002329 -0.13468047523030999 0 -0.38284714890021149 -0.14484341855083149 0 -0.37618161211925588 -0.1466533960836614 0 -0.38062737029843219 -0.15339245355830991 0 -0.37618161211925588 -0.1466533960836614 0 -0.37529260357574268 -0.1536758012538495 0 -0.38062737029843219 -0.15339245355830991 0 -0.38030371823002329 -0.13468047523030999 0 -0.39717616654845189 -0.1191096080038023 0 -0.36589237398189611 -0.1253297041883886 0 -0.38030371823002329 -0.13468047523030999 0 -0.38309638776026528 -0.12067705325775741 0 -0.3929733633262541 -0.14365610777580171 0 -0.38030371823002329 -0.13468047523030999 0 -0.40572441619292771 -0.13133670658572849 0 -0.38030371823002329 -0.13468047523030999 0 -0.40572441619292771 -0.13133670658572849 0 -0.38030371823002329 -0.13468047523030999 0 -0.40572441619292771 -0.13133670658572849 0 -0.39717616654845189 -0.1191096080038023 0 -0.40575286505335389 -0.14427146323096579 0 -0.3929733633262541 -0.14365610777580171 0 -0.40572441619292771 -0.13133670658572849 0 -0.40572441619292771 -0.13133670658572849 0 -0.43114511415583201 -0.1279929379411458 0 -0.40572441619292771 -0.13133670658572849 0 -0.43114511415583201 -0.1279929379411458 0 -0.41529311960582699 -0.1187413599623335 0 -0.40572441619292771 -0.13133670658572849 0 -0.41679922810937808 -0.14042899641725001 0 -0.43114511415583201 -0.1279929379411458 0 -0.40575286505335389 -0.14427146323096579 0 -0.40572441619292771 -0.13133670658572849 0 -0.41679922810937808 -0.14042899641725001 0 -0.40575286505335389 -0.14427146323096579 0 -0.41679922810937808 -0.14042899641725001 0 -0.41399804066311768 -0.15338161045662571 0 -0.39998670015969012 -0.1540001023633136 0 -0.40575286505335389 -0.14427146323096579 0 -0.41399804066311768 -0.15338161045662571 0 -0.41679922810937808 -0.14042899641725001 0 -0.41399804066311768 -0.15338161045662571 0 -0.42737570448165929 -0.14516226387178419 0 -0.42622672170101411 -0.16239281264466751 0 -0.41399804066311768 -0.15338161045662571 0 -0.42737570448165929 -0.14516226387178419 0 -0.42622672170101411 -0.16239281264466751 0 -0.42737570448165929 -0.14516226387178419 0 -0.44612535049178309 -0.14965886841560261 0 -0.42737570448165929 -0.14516226387178419 0 -0.43114511415583201 -0.1279929379411458 0 -0.44612535049178309 -0.14965886841560261 0 -0.41679922810937808 -0.14042899641725001 0 -0.42737570448165929 -0.14516226387178419 0 -0.43114511415583201 -0.1279929379411458 0 -0.43114511415583201 -0.1279929379411458 0 -0.45289770892302661 -0.12811123156343129 0 -0.44612535049178309 -0.14965886841560261 0 -0.45289770892302661 -0.12811123156343129 0 -0.44612535049178309 -0.14965886841560261 0 -0.45289770892302661 -0.12811123156343129 0 -0.44612535049178309 -0.14965886841560261 0 -0.46208099137641162 -0.15320007697701379 0 -0.45289770892302661 -0.12811123156343129 0 -0.46208099137641162 -0.15320007697701379 0 -0.47794419374310387 -0.144145664013445 0 -0.45289770892302661 -0.12811123156343129 0 -0.47696867803757198 -0.12650920753138331 0 -0.47794419374310387 -0.144145664013445 0 -0.47696867803757198 -0.12650920753138331 0 -0.49999999999999811 -0.1288399601006209 0 -0.47794419374310387 -0.144145664013445 0 -0.49999999999999811 -0.1288399601006209 0 -0.47794419374310387 -0.144145664013445 0 -0.5 -0.15821237911294839 0 -0.46208099137641162 -0.15320007697701379 0 -0.47794419374310387 -0.144145664013445 0 -0.47347946098872129 -0.16816520471768059 0 -0.47794419374310387 -0.144145664013445 0 -0.47347946098872129 -0.16816520471768059 0 -0.5 -0.15821237911294839 0 -0.47347946098872129 -0.16816520471768059 0 -0.5 -0.15821237911294839 0 -0.48239289335136182 -0.18373699375433389 0 -0.5 -0.15821237911294839 0 -0.48239289335136182 -0.18373699375433389 0 -0.5 -0.18758479812527601 0 -0.47347946098872129 -0.16816520471768059 0 -0.48239289335136182 -0.18373699375433389 0 -0.46538905405844982 -0.19346206923758269 0 -0.45559881321323159 -0.17104338690050239 0 -0.44625681581969517 -0.18955175735519281 0 -0.46538905405844982 -0.19346206923758269 0 -0.47347946098872129 -0.16816520471768059 0 -0.45559881321323159 -0.17104338690050239 0 -0.46538905405844982 -0.19346206923758269 0 -0.44612535049178309 -0.14965886841560261 0 -0.46208099137641162 -0.15320007697701379 0 -0.45559881321323159 -0.17104338690050239 0 -0.46208099137641162 -0.15320007697701379 0 -0.47347946098872129 -0.16816520471768059 0 -0.45559881321323159 -0.17104338690050239 0 -0.44612535049178309 -0.14965886841560261 0 -0.45559881321323159 -0.17104338690050239 0 -0.43935299206053963 -0.17120650526777381 0 -0.44612535049178309 -0.14965886841560261 0 -0.43935299206053963 -0.17120650526777381 0 -0.43365904514108938 -0.19357114742911191 0 -0.43935299206053963 -0.17120650526777381 0 -0.44625681581969517 -0.18955175735519281 0 -0.45559881321323159 -0.17104338690050239 0 -0.43935299206053963 -0.17120650526777381 0 -0.44625681581969517 -0.18955175735519281 0 -0.43365904514108938 -0.19357114742911191 0 -0.45113952066538388 -0.20681436780831289 0 -0.43365904514108938 -0.19357114742911191 0 -0.44625681581969517 -0.18955175735519281 0 -0.45113952066538388 -0.20681436780831289 0 -0.43739837869162917 -0.20709396563447591 0 -0.43365904514108938 -0.19357114742911191 0 -0.45113952066538388 -0.20681436780831289 0 -0.43365904514108938 -0.19357114742911191 0 -0.44625681581969517 -0.18955175735519281 0 -0.43739837869162917 -0.20709396563447591 0 -0.45113952066538388 -0.20681436780831289 0 -0.4462127620796556 -0.2203657575614881 0 -0.45113952066538388 -0.20681436780831289 0 -0.46861999618967981 -0.2200575881875115 0 -0.45113952066538388 -0.20681436780831289 0 -0.46861999618967981 -0.2200575881875115 0 -0.4462127620796556 -0.2203657575614881 0 -0.45113952066538388 -0.20681436780831289 0 -0.46538905405844982 -0.19346206923758269 0 -0.46861999618967981 -0.2200575881875115 0 -0.44625681581969517 -0.18955175735519281 0 -0.45113952066538388 -0.20681436780831289 0 -0.46538905405844982 -0.19346206923758269 0 -0.48239289335136182 -0.18373699375433389 0 -0.46538905405844982 -0.19346206923758269 0 -0.4853832176798859 -0.20372105722866271 0 -0.5 -0.18758479812527601 0 -0.4853832176798859 -0.20372105722866271 0 -0.5 -0.21695721713760341 0 -0.48239289335136182 -0.18373699375433389 0 -0.5 -0.18758479812527601 0 -0.4853832176798859 -0.20372105722866271 0 -0.4853832176798859 -0.20372105722866271 0 -0.5 -0.21695721713760341 0 -0.49730645261402762 -0.21966305991710819 0 -0.4853832176798859 -0.20372105722866271 0 -0.49730645261402762 -0.21966305991710819 0 -0.46861999618967981 -0.2200575881875115 0 -0.46538905405844982 -0.19346206923758269 0 -0.4853832176798859 -0.20372105722866271 0 -0.46861999618967981 -0.2200575881875115 0 -0.49136333527207371 -0.2372879576479073 0 -0.46861999618967981 -0.2200575881875115 0 -0.49730645261402762 -0.21966305991710819 0 -0.46861999618967981 -0.2200575881875115 0 -0.49136333527207371 -0.2372879576479073 0 -0.47243335829366068 -0.2430338505120013 0 -0.46861999618967981 -0.2200575881875115 0 -0.49730645261402762 -0.21966305991710819 0 -0.49136333527207371 -0.2372879576479073 0 -0.46861999618967981 -0.2200575881875115 0 -0.5 -0.21695721713760341 0 -0.49730645261402762 -0.21966305991710819 0 -0.5 -0.24632963614993081 0 -0.49730645261402762 -0.21966305991710819 0 -0.49136333527207371 -0.2372879576479073 0 -0.5 -0.24632963614993081 0 -0.48708423363442932 -0.25555355077311548 0 -0.49136333527207371 -0.2372879576479073 0 -0.5 -0.24632963614993081 0 -0.48708423363442932 -0.25555355077311548 0 -0.49136333527207371 -0.2372879576479073 0 -0.47243335829366068 -0.2430338505120013 0 -0.46183596954241413 -0.25471882930936679 0 -0.47243335829366068 -0.2430338505120013 0 -0.45246753597763961 -0.23912196796794549 0 -0.47243335829366068 -0.2430338505120013 0 -0.46861999618967981 -0.2200575881875115 0 -0.45246753597763961 -0.23912196796794549 0 -0.46861999618967981 -0.2200575881875115 0 -0.4462127620796556 -0.2203657575614881 0 -0.46861999618967981 -0.2200575881875115 0 -0.4462127620796556 -0.2203657575614881 0 -0.45246753597763961 -0.23912196796794549 0 -0.43541444312282329 -0.22859149562014261 0 -0.4462127620796556 -0.2203657575614881 0 -0.45246753597763961 -0.23912196796794549 0 -0.43757215116835091 -0.25601866082990721 0 -0.43378107889250272 -0.24206734736295191 0 -0.45246753597763961 -0.23912196796794549 0 -0.43378107889250272 -0.24206734736295191 0 -0.43541444312282329 -0.22859149562014261 0 -0.45246753597763961 -0.23912196796794549 0 -0.41682109090433539 -0.059425346283788108 0 -0.42482716491149669 -0.03634182645963089 0 -0.40208169075054112 -0.042727345680382812 0 -0.42482716491149669 -0.03634182645963089 0 -0.40363496876637101 -0.02665380403555009 0 -0.40208169075054112 -0.042727345680382812 0 -0.41682109090433539 -0.059425346283788108 0 -0.40208169075054112 -0.042727345680382812 0 -0.41682109090433539 -0.059425346283788108 0 -0.42482716491149669 -0.03634182645963089 0 -0.41682109090433539 -0.059425346283788108 0 -0.40208169075054112 -0.042727345680382812 0 -0.40461206612250389 -0.06380382377780508 0 -0.41682109090433539 -0.059425346283788108 0 -0.41929293029565079 -0.062225648549620767 0 -0.42552208632577948 -0.05432822908912581 0 -0.41682109090433539 -0.059425346283788108 0 -0.41929293029565079 -0.062225648549620767 0 -0.41682109090433539 -0.059425346283788108 0 -0.42552208632577948 -0.05432822908912581 0 -0.42482716491149669 -0.03634182645963089 0 -0.41929293029565079 -0.062225648549620767 0 -0.42552208632577948 -0.05432822908912581 0 -0.42785272966627219 -0.062294997504604523 0 -0.42552208632577948 -0.05432822908912581 0 -0.42785272966627219 -0.062294997504604523 0 -0.43631033820761861 -0.054369416391956402 0 -0.42785272966627219 -0.062294997504604523 0 -0.43631033820761861 -0.054369416391956402 0 -0.43305320918107509 -0.069977177162363513 0 -0.42552208632577948 -0.05432822908912581 0 -0.43295872745567959 -0.049107677089534327 0 -0.43631033820761861 -0.054369416391956402 0 -0.43295872745567959 -0.049107677089534327 0 -0.43631033820761861 -0.054369416391956402 0 -0.42552208632577948 -0.05432822908912581 0 -0.43295872745567959 -0.049107677089534327 0 -0.42482716491149669 -0.03634182645963089 0 -0.43295872745567959 -0.049107677089534327 0 -0.43178828790484408 -0.031471632417583932 0 -0.4384185833308305 -0.021038983552778969 0 -0.43295872745567959 -0.049107677089534327 0 -0.4384185833308305 -0.021038983552778969 0 -0.43295872745567959 -0.049107677089534327 0 -0.42482716491149669 -0.03634182645963089 0 -0.43178828790484408 -0.031471632417583932 0 -0.43295872745567959 -0.049107677089534327 0 -0.42482716491149669 -0.03634182645963089 0 -0.42482716491149669 -0.03634182645963089 0 -0.43178828790484408 -0.031471632417583932 0 -0.43063434725640343 -0.0195982629275906 0 -0.43178828790484408 -0.031471632417583932 0 -0.43063434725640343 -0.0195982629275906 0 -0.4384185833308305 -0.021038983552778969 0 -0.42482716491149669 -0.03634182645963089 0 -0.43063434725640343 -0.0195982629275906 0 -0.42482716491149669 -0.03634182645963089 0 -0.43063434725640343 -0.0195982629275906 0 -0.42156851948913199 -0.017634593395971451 0 -0.43063434725640343 -0.0195982629275906 0 -0.42638086479265941 -0.01167931030869938 0 -0.42156851948913199 -0.017634593395971451 0 -0.43063434725640343 -0.0195982629275906 0 -0.43644152960131011 -0.0028546993955502818 0 -0.42638086479265941 -0.01167931030869938 0 -0.43063434725640343 -0.0195982629275906 0 -0.43644152960131011 -0.0028546993955502818 0 -0.43063434725640343 -0.0195982629275906 0 -0.43644152960131011 -0.0028546993955502818 0 -0.4384185833308305 -0.021038983552778969 0 -0.42638086479265941 -0.01167931030869938 0 -0.42438147089531048 -0.0052512010872020204 0 -0.41658038880838649 -0.0081235796950912438 0 -0.43644152960131011 -0.0028546993955502818 0 -0.42638086479265941 -0.01167931030869938 0 -0.42438147089531048 -0.0052512010872020204 0 -0.42438147089531048 -0.0052512010872020204 0 -0.40791792823651118 0.0027026027567168659 0 -0.42438147089531048 -0.0052512010872020204 0 -0.41658038880838649 -0.0081235796950912438 0 -0.40791792823651118 0.0027026027567168659 0 -0.41658038880838649 -0.0081235796950912438 0 -0.40894106752822318 -0.01140202612174278 0 -0.42156851948913199 -0.017634593395971451 0 -0.42638086479265941 -0.01167931030869938 0 -0.41658038880838649 -0.0081235796950912438 0 -0.42156851948913199 -0.017634593395971451 0 -0.41658038880838649 -0.0081235796950912438 0 -0.40894106752822318 -0.01140202612174278 0 -0.40791792823651118 0.0027026027567168659 0 -0.42482716491149669 -0.03634182645963089 0 -0.40894106752822318 -0.01140202612174278 0 -0.42156851948913199 -0.017634593395971451 0 -0.42482716491149669 -0.03634182645963089 0 -0.40894106752822318 -0.01140202612174278 0 -0.42482716491149669 -0.03634182645963089 0 -0.40894106752822318 -0.01140202612174278 0 -0.40363496876637101 -0.02665380403555009 0 -0.40363496876637101 -0.02665380403555009 0 -0.39763010941662952 -0.011663371160130951 0 -0.38734229059674652 -0.026029345076977791 0 -0.40894106752822318 -0.01140202612174278 0 -0.40363496876637101 -0.02665380403555009 0 -0.39763010941662952 -0.011663371160130951 0 -0.39763010941662952 -0.011663371160130951 0 -0.38734229059674652 -0.026029345076977791 0 -0.39763010941662952 -0.011663371160130951 0 -0.38412445063278322 0.0011424343669239501 0 -0.40023974083523928 0.0064120593258299337 0 -0.39763010941662952 -0.011663371160130951 0 -0.40791792823651118 0.0027026027567168659 0 -0.40023974083523928 0.0064120593258299337 0 -0.40894106752822318 -0.01140202612174278 0 -0.39763010941662952 -0.011663371160130951 0 -0.40791792823651118 0.0027026027567168659 0 -0.39763010941662952 -0.011663371160130951 0 -0.40791792823651118 0.0027026027567168659 0 -0.39763010941662952 -0.011663371160130951 0 -0.38734229059674652 -0.026029345076977791 0 -0.38412445063278322 0.0011424343669239501 0 -0.36800916043032761 -0.0041271905919835214 0 -0.38734229059674652 -0.026029345076977791 0 -0.38412445063278322 0.0011424343669239501 0 -0.36800916043032761 -0.0041271905919835214 0 -0.38412445063278322 0.0011424343669239501 0 -0.36800916043032761 -0.0041271905919835214 0 -0.38734229059674652 -0.026029345076977791 0 -0.37277063317299608 -0.022679593593542088 0 -0.36800916043032761 -0.0041271905919835214 0 -0.38734229059674652 -0.026029345076977791 0 -0.384382940951494 -0.030161799250101731 0 -0.38734229059674652 -0.026029345076977791 0 -0.37907916605732223 -0.029273017167181059 0 -0.384382940951494 -0.030161799250101731 0 -0.38734229059674652 -0.026029345076977791 0 -0.37277063317299608 -0.022679593593542088 0 -0.38734229059674652 -0.026029345076977791 0 -0.37907916605732223 -0.029273017167181059 0 -0.37243004328639012 -0.032824041619946391 0 -0.37907916605732223 -0.029273017167181059 0 -0.38064887456575658 -0.038543547234186563 0 -0.37205749607193778 -0.043769244132122083 0 -0.37243004328639012 -0.032824041619946391 0 -0.38064887456575658 -0.038543547234186563 0 -0.384382940951494 -0.030161799250101731 0 -0.37907916605732223 -0.029273017167181059 0 -0.38064887456575658 -0.038543547234186563 0 -0.37205749607193778 -0.043769244132122083 0 -0.38064887456575658 -0.038543547234186563 0 -0.38713167906300172 -0.045037405632111692 0 -0.384382940951494 -0.030161799250101731 0 -0.38064887456575658 -0.038543547234186563 0 -0.38713167906300172 -0.045037405632111692 0 -0.384382940951494 -0.030161799250101731 0 -0.38734229059674652 -0.026029345076977791 0 -0.40208169075054112 -0.042727345680382812 0 -0.384382940951494 -0.030161799250101731 0 -0.38713167906300172 -0.045037405632111692 0 -0.40208169075054112 -0.042727345680382812 0 -0.40363496876637101 -0.02665380403555009 0 -0.38734229059674652 -0.026029345076977791 0 -0.40208169075054112 -0.042727345680382812 0 -0.38734229059674652 -0.026029345076977791 0 -0.40208169075054112 -0.042727345680382812 0 -0.38713167906300172 -0.045037405632111692 0 -0.40208169075054112 -0.042727345680382812 0 -0.39165565896897392 -0.063201441041521603 0 -0.40208169075054112 -0.042727345680382812 0 -0.40461206612250389 -0.06380382377780508 0 -0.39165565896897392 -0.063201441041521603 0 -0.38713167906300172 -0.045037405632111692 0 -0.37726929222554301 -0.057336975391873962 0 -0.39165565896897392 -0.063201441041521603 0 -0.37205749607193778 -0.043769244132122083 0 -0.38713167906300172 -0.045037405632111692 0 -0.37726929222554301 -0.057336975391873962 0 -0.37205088521483531 -0.075375567204115257 0 -0.37726929222554301 -0.057336975391873962 0 -0.39165565896897392 -0.063201441041521603 0 -0.37205088521483531 -0.075375567204115257 0 -0.38757947802794851 -0.084288993855705541 0 -0.39165565896897392 -0.063201441041521603 0 -0.37476815867760721 -0.09776998629112052 0 -0.37205088521483531 -0.075375567204115257 0 -0.38757947802794851 -0.084288993855705541 0 -0.38757947802794851 -0.084288993855705541 0 -0.4019008127938582 -0.088519462199254884 0 -0.39944723004657168 -0.074923063771182727 0 -0.38757947802794851 -0.084288993855705541 0 -0.4019008127938582 -0.088519462199254884 0 -0.39075879590577439 -0.1041505431302264 0 -0.4019008127938582 -0.088519462199254884 0 -0.39944723004657168 -0.074923063771182727 0 -0.41148813431957432 -0.074801597981626555 0 -0.39944723004657168 -0.074923063771182727 0 -0.40461206612250389 -0.06380382377780508 0 -0.41148813431957432 -0.074801597981626555 0 -0.38757947802794851 -0.084288993855705541 0 -0.39944723004657168 -0.074923063771182727 0 -0.39165565896897392 -0.063201441041521603 0 -0.39944723004657168 -0.074923063771182727 0 -0.40461206612250389 -0.06380382377780508 0 -0.39165565896897392 -0.063201441041521603 0 -0.38309638776026528 -0.12067705325775741 0 -0.39075879590577439 -0.1041505431302264 0 -0.39717616654845189 -0.1191096080038023 0 -0.38030371823002329 -0.13468047523030999 0 -0.38309638776026528 -0.12067705325775741 0 -0.39717616654845189 -0.1191096080038023 0 -0.38309638776026528 -0.12067705325775741 0 -0.37511934721336099 -0.1128696139250065 0 -0.39075879590577439 -0.1041505431302264 0 -0.37476815867760721 -0.09776998629112052 0 -0.37511934721336099 -0.1128696139250065 0 -0.39075879590577439 -0.1041505431302264 0 -0.37476815867760721 -0.09776998629112052 0 -0.38757947802794851 -0.084288993855705541 0 -0.39075879590577439 -0.1041505431302264 0 -0.39075879590577439 -0.1041505431302264 0 -0.39717616654845189 -0.1191096080038023 0 -0.41404861486688149 -0.10353874077729559 0 -0.4019008127938582 -0.088519462199254884 0 -0.39075879590577439 -0.1041505431302264 0 -0.41404861486688149 -0.10353874077729559 0 -0.40572441619292771 -0.13133670658572849 0 -0.39717616654845189 -0.1191096080038023 0 -0.41529311960582699 -0.1187413599623335 0 -0.39717616654845189 -0.1191096080038023 0 -0.41404861486688149 -0.10353874077729559 0 -0.39717616654845189 -0.1191096080038023 0 -0.41529311960582699 -0.1187413599623335 0 -0.41404861486688149 -0.10353874077729559 0 -0.41529311960582699 -0.1187413599623335 0 -0.41404861486688149 -0.10353874077729559 0 -0.42714365054576431 -0.11009338370119991 0 -0.41404861486688149 -0.10353874077729559 0 -0.4309210631853112 -0.087967873550788972 0 -0.42714365054576431 -0.11009338370119991 0 -0.4309210631853112 -0.087967873550788972 0 -0.44185506947641451 -0.1089551606694453 0 -0.41404861486688149 -0.10353874077729559 0 -0.42714365054576431 -0.11009338370119991 0 -0.4309210631853112 -0.087967873550788972 0 -0.43114511415583201 -0.1279929379411458 0 -0.42714365054576431 -0.11009338370119991 0 -0.44185506947641451 -0.1089551606694453 0 -0.43114511415583201 -0.1279929379411458 0 -0.41529311960582699 -0.1187413599623335 0 -0.42714365054576431 -0.11009338370119991 0 -0.41929293029565079 -0.062225648549620767 0 -0.41148813431957432 -0.074801597981626555 0 -0.42301942894003958 -0.074365553037417889 0 -0.41682109090433539 -0.059425346283788108 0 -0.41929293029565079 -0.062225648549620767 0 -0.41148813431957432 -0.074801597981626555 0 -0.41682109090433539 -0.059425346283788108 0 -0.41148813431957432 -0.074801597981626555 0 -0.41682109090433539 -0.059425346283788108 0 -0.40461206612250389 -0.06380382377780508 0 -0.41148813431957432 -0.074801597981626555 0 -0.41404861486688149 -0.10353874077729559 0 -0.41570819041300711 -0.088122353659221733 0 -0.4309210631853112 -0.087967873550788972 0 -0.4019008127938582 -0.088519462199254884 0 -0.41148813431957432 -0.074801597981626555 0 -0.41570819041300711 -0.088122353659221733 0 -0.4019008127938582 -0.088519462199254884 0 -0.41404861486688149 -0.10353874077729559 0 -0.41570819041300711 -0.088122353659221733 0 -0.41148813431957432 -0.074801597981626555 0 -0.41570819041300711 -0.088122353659221733 0 -0.42301942894003958 -0.074365553037417889 0 -0.41570819041300711 -0.088122353659221733 0 -0.4309210631853112 -0.087967873550788972 0 -0.42301942894003958 -0.074365553037417889 0 -0.4309210631853112 -0.087967873550788972 0 -0.42301942894003958 -0.074365553037417889 0 -0.43305320918107509 -0.069977177162363513 0 -0.4309210631853112 -0.087967873550788972 0 -0.43305320918107509 -0.069977177162363513 0 -0.44779351150374042 -0.072397006324281837 0 -0.42785272966627219 -0.062294997504604523 0 -0.42301942894003958 -0.074365553037417889 0 -0.43305320918107509 -0.069977177162363513 0 -0.41929293029565079 -0.062225648549620767 0 -0.42785272966627219 -0.062294997504604523 0 -0.42301942894003958 -0.074365553037417889 0 -0.43631033820761861 -0.054369416391956402 0 -0.44779351150374042 -0.072397006324281837 0 -0.44779351150374042 -0.072397006324281837 0 -0.46069227824415121 -0.060493281357394728 0 -0.44900365520392982 -0.056748288685231192 0 -0.43631033820761861 -0.054369416391956402 0 -0.43305320918107509 -0.069977177162363513 0 -0.44779351150374042 -0.072397006324281837 0 -0.4309210631853112 -0.087967873550788972 0 -0.44779351150374042 -0.072397006324281837 0 -0.44625528499208211 -0.092511421158792795 0 -0.4309210631853112 -0.087967873550788972 0 -0.44779351150374042 -0.072397006324281837 0 -0.44779351150374042 -0.072397006324281837 0 -0.44625528499208211 -0.092511421158792795 0 -0.45514091478060381 -0.088730586781567936 0 -0.44779351150374042 -0.072397006324281837 0 -0.45514091478060381 -0.088730586781567936 0 -0.46224188031957703 -0.095079697030594129 0 -0.44779351150374042 -0.072397006324281837 0 -0.46159727930478139 -0.073958650389430447 0 -0.46224188031957703 -0.095079697030594129 0 -0.46159727930478139 -0.073958650389430447 0 -0.46224188031957703 -0.095079697030594129 0 -0.47203428037718209 -0.078973595286349979 0 -0.44779351150374042 -0.072397006324281837 0 -0.46224188031957703 -0.095079697030594129 0 -0.45514091478060381 -0.088730586781567936 0 -0.46224188031957703 -0.095079697030594129 0 -0.46159727930478139 -0.073958650389430447 0 -0.47020382291945001 -0.067334005459270346 0 -0.47203428037718209 -0.078973595286349979 0 -0.46159727930478139 -0.073958650389430447 0 -0.47020382291945001 -0.067334005459270346 0 -0.46069227824415121 -0.060493281357394728 0 -0.44779351150374042 -0.072397006324281837 0 -0.46159727930478139 -0.073958650389430447 0 -0.46069227824415121 -0.060493281357394728 0 -0.44779351150374042 -0.072397006324281837 0 -0.46069227824415121 -0.060493281357394728 0 -0.43114511415583201 -0.1279929379411458 0 -0.45289770892302661 -0.12811123156343129 0 -0.44185506947641451 -0.1089551606694453 0 -0.45289770892302661 -0.12811123156343129 0 -0.44185506947641451 -0.1089551606694453 0 -0.45556586601434068 -0.1045064784678798 0 -0.44625528499208211 -0.092511421158792795 0 -0.45514091478060381 -0.088730586781567936 0 -0.45556586601434068 -0.1045064784678798 0 -0.44625528499208211 -0.092511421158792795 0 -0.44185506947641451 -0.1089551606694453 0 -0.45556586601434068 -0.1045064784678798 0 -0.4309210631853112 -0.087967873550788972 0 -0.44625528499208211 -0.092511421158792795 0 -0.44185506947641451 -0.1089551606694453 0 -0.45514091478060381 -0.088730586781567936 0 -0.46224188031957703 -0.095079697030594129 0 -0.45556586601434068 -0.1045064784678798 0 -0.46224188031957703 -0.095079697030594129 0 -0.46633728273881309 -0.1015091249873043 0 -0.45556586601434068 -0.1045064784678798 0 -0.46224188031957703 -0.095079697030594129 0 -0.46633728273881309 -0.1015091249873043 0 -0.46633728273881309 -0.1015091249873043 0 -0.45556586601434068 -0.1045064784678798 0 -0.46649602584623862 -0.11555294711578031 0 -0.45289770892302661 -0.12811123156343129 0 -0.45556586601434068 -0.1045064784678798 0 -0.46649602584623862 -0.11555294711578031 0 -0.45289770892302661 -0.12811123156343129 0 -0.47696867803757198 -0.12650920753138331 0 -0.46649602584623862 -0.11555294711578031 0 -0.47696867803757198 -0.12650920753138331 0 -0.46649602584623862 -0.11555294711578031 0 -0.48112094015978701 -0.1119598285656081 0 -0.46633728273881309 -0.1015091249873043 0 -0.46649602584623862 -0.11555294711578031 0 -0.48112094015978701 -0.1119598285656081 0 -0.46224188031957703 -0.095079697030594129 0 -0.46633728273881309 -0.1015091249873043 0 -0.48112094015978701 -0.1119598285656081 0 -0.46224188031957703 -0.095079697030594129 0 -0.48112094015978701 -0.1119598285656081 0 -0.46224188031957703 -0.095079697030594129 0 -0.48112094015978701 -0.1119598285656081 0 -0.48344400202864868 -0.090838759646435521 0 -0.48112094015978701 -0.1119598285656081 0 -0.5 -0.10280433577800301 0 -0.48344400202864868 -0.090838759646435521 0 -0.47696867803757198 -0.12650920753138331 0 -0.49999999999999811 -0.1288399601006209 0 -0.48112094015978701 -0.1119598285656081 0 -0.49999999999999811 -0.1288399601006209 0 -0.48112094015978701 -0.1119598285656081 0 -0.49999999999999811 -0.1288399601006209 0 -0.48112094015978701 -0.1119598285656081 0 -0.5 -0.10280433577800301 0 -0.47020382291945001 -0.067334005459270346 0 -0.48506026809009523 -0.068255830728433234 0 -0.47412469700113691 -0.057230836290112913 0 -0.47020382291945001 -0.067334005459270346 0 -0.47203428037718209 -0.078973595286349979 0 -0.48506026809009523 -0.068255830728433234 0 -0.48344400202864868 -0.090838759646435521 0 -0.47203428037718209 -0.078973595286349979 0 -0.48506026809009523 -0.068255830728433234 0 -0.46224188031957703 -0.095079697030594129 0 -0.48344400202864868 -0.090838759646435521 0 -0.47203428037718209 -0.078973595286349979 0 -0.48344400202864868 -0.090838759646435521 0 -0.5 -0.076768711455384997 0 -0.48506026809009523 -0.068255830728433234 0 -0.5 -0.10280433577800301 0 -0.48344400202864868 -0.090838759646435521 0 -0.5 -0.076768711455384997 0 -0.5 -0.076768711455384997 0 -0.48506026809009523 -0.068255830728433234 0 -0.5 -0.05073308713276703 0 -0.48506026809009523 -0.068255830728433234 0 -0.5 -0.05073308713276703 0 -0.48509316215947068 -0.052412732976451111 0 -0.5 -0.05073308713276703 0 -0.48509316215947068 -0.052412732976451111 0 -0.48454913148117812 -0.038476802943278272 0 -0.5 -0.05073308713276703 0 -0.48454913148117812 -0.038476802943278272 0 -0.5 -0.024697462810149059 0 -0.47359104498456212 -0.048589556390507667 0 -0.46431494029504222 -0.041272340918403573 0 -0.47224247242214201 -0.02675249288308279 0 -0.48454913148117812 -0.038476802943278272 0 -0.47359104498456212 -0.048589556390507667 0 -0.47224247242214201 -0.02675249288308279 0 -0.47359104498456212 -0.048589556390507667 0 -0.47224247242214201 -0.02675249288308279 0 -0.48454913148117812 -0.038476802943278272 0 -0.47359104498456212 -0.048589556390507667 0 -0.48509316215947068 -0.052412732976451111 0 -0.48454913148117812 -0.038476802943278272 0 -0.47359104498456212 -0.048589556390507667 0 -0.48506026809009523 -0.068255830728433234 0 -0.48509316215947068 -0.052412732976451111 0 -0.47412469700113691 -0.057230836290112913 0 -0.48509316215947068 -0.052412732976451111 0 -0.47359104498456212 -0.048589556390507667 0 -0.47412469700113691 -0.057230836290112913 0 -0.47359104498456212 -0.048589556390507667 0 -0.47412469700113691 -0.057230836290112913 0 -0.47359104498456212 -0.048589556390507667 0 -0.47412469700113691 -0.057230836290112913 0 -0.46069227824415121 -0.060493281357394728 0 -0.47020382291945001 -0.067334005459270346 0 -0.47412469700113691 -0.057230836290112913 0 -0.46069227824415121 -0.060493281357394728 0 -0.47359104498456212 -0.048589556390507667 0 -0.46069227824415121 -0.060493281357394728 0 -0.45569113222142488 -0.049348088238964499 0 -0.46069227824415121 -0.060493281357394728 0 -0.45569113222142488 -0.049348088238964499 0 -0.44900365520392982 -0.056748288685231192 0 -0.47359104498456212 -0.048589556390507667 0 -0.46069227824415121 -0.060493281357394728 0 -0.46431494029504222 -0.041272340918403573 0 -0.45292660091518389 -0.038126949584198072 0 -0.47224247242214201 -0.02675249288308279 0 -0.47359104498456212 -0.048589556390507667 0 -0.45569113222142488 -0.049348088238964499 0 -0.46431494029504222 -0.041272340918403573 0 -0.45569113222142488 -0.049348088238964499 0 -0.46431494029504222 -0.041272340918403573 0 -0.45292660091518389 -0.038126949584198072 0 -0.43295872745567959 -0.049107677089534327 0 -0.44392917099859402 -0.036138866297053922 0 -0.4384185833308305 -0.021038983552778969 0 -0.45292660091518389 -0.038126949584198072 0 -0.44392917099859402 -0.036138866297053922 0 -0.44453101584271409 -0.047133651113558342 0 -0.45569113222142488 -0.049348088238964499 0 -0.45292660091518389 -0.038126949584198072 0 -0.44453101584271409 -0.047133651113558342 0 -0.45292660091518389 -0.038126949584198072 0 -0.44392917099859402 -0.036138866297053922 0 -0.45349878827126228 -0.024615027528956331 0 -0.43295872745567959 -0.049107677089534327 0 -0.44392917099859402 -0.036138866297053922 0 -0.44453101584271409 -0.047133651113558342 0 -0.43631033820761861 -0.054369416391956402 0 -0.44779351150374042 -0.072397006324281837 0 -0.44900365520392982 -0.056748288685231192 0 -0.43631033820761861 -0.054369416391956402 0 -0.44453101584271409 -0.047133651113558342 0 -0.44900365520392982 -0.056748288685231192 0 -0.43295872745567959 -0.049107677089534327 0 -0.43631033820761861 -0.054369416391956402 0 -0.44453101584271409 -0.047133651113558342 0 -0.45569113222142488 -0.049348088238964499 0 -0.44453101584271409 -0.047133651113558342 0 -0.44900365520392982 -0.056748288685231192 0 -0.43644152960131011 -0.0028546993955502818 0 -0.4384185833308305 -0.021038983552778969 0 -0.44356411054101691 0.0068294896247770376 0 -0.45068860397040023 -0.0092566380451985716 0 -0.4384185833308305 -0.021038983552778969 0 -0.44356411054101691 0.0068294896247770376 0 -0.4384185833308305 -0.021038983552778969 0 -0.44356411054101691 0.0068294896247770376 0 -0.44392917099859402 -0.036138866297053922 0 -0.4384185833308305 -0.021038983552778969 0 -0.45349878827126228 -0.024615027528956331 0 -0.45068860397040023 -0.0092566380451985716 0 -0.4384185833308305 -0.021038983552778969 0 -0.45349878827126228 -0.024615027528956331 0 -0.45068860397040023 -0.0092566380451985716 0 -0.45349878827126228 -0.024615027528956331 0 -0.46243877143811268 -0.01637939157046292 0 -0.45349878827126228 -0.024615027528956331 0 -0.46243877143811268 -0.01637939157046292 0 -0.47224247242214201 -0.02675249288308279 0 -0.45292660091518389 -0.038126949584198072 0 -0.45349878827126228 -0.024615027528956331 0 -0.47224247242214201 -0.02675249288308279 0 -0.46243877143811268 -0.01637939157046292 0 -0.47089389985972208 -0.0049154293756578198 0 -0.47224247242214201 -0.02675249288308279 0 -0.45068860397040023 -0.0092566380451985716 0 -0.47089389985972208 -0.0049154293756578198 0 -0.45068860397040023 -0.0092566380451985716 0 -0.46243877143811268 -0.01637939157046292 0 -0.47089389985972208 -0.0049154293756578198 0 -0.45068860397040023 -0.0092566380451985716 0 -0.47089389985972208 -0.0049154293756578198 0 -0.46385703546979462 0.004204968200863142 0 -0.47089389985972208 -0.0049154293756578198 0 -0.47224247242214201 -0.02675249288308279 0 -0.47089389985972208 -0.0049154293756578198 0 -0.47224247242214201 -0.02675249288308279 0 -0.48543372976598698 -0.016880490171557749 0 -0.48454913148117812 -0.038476802943278272 0 -0.47224247242214201 -0.02675249288308279 0 -0.48543372976598698 -0.016880490171557749 0 -0.48454913148117812 -0.038476802943278272 0 -0.5 -0.024697462810149059 0 -0.48543372976598698 -0.016880490171557749 0 -0.5 -0.024697462810149059 0 -0.48543372976598698 -0.016880490171557749 0 -0.49999999999999989 0.0013381615124688519 0 -0.47089389985972208 -0.0049154293756578198 0 -0.49999999999999989 0.0013381615124688519 0 -0.47089389985972208 -0.0049154293756578198 0 -0.48543372976598698 -0.016880490171557749 0 -0.49999999999999989 0.0013381615124688519 0 -0.49999999999999989 0.0013381615124688519 0 -0.48554641619969668 0.015073479140562269 0 -0.5 0.027913840208442509 0 -0.49999999999999989 0.0013381615124688519 0 -0.48554641619969668 0.015073479140562269 0 -0.47365449931186698 0.0040694389773459766 0 -0.48554641619969668 0.015073479140562269 0 -0.5 0.027913840208442509 0 -0.48125114215064502 0.027075044183246959 0 -0.46995548569817303 0.01028005228625024 0 -0.46845736008755018 0.034538787049881323 0 -0.48125114215064502 0.027075044183246959 0 -0.46995548569817303 0.01028005228625024 0 -0.46845736008755018 0.034538787049881323 0 -0.48554641619969668 0.015073479140562269 0 -0.48125114215064502 0.027075044183246959 0 -0.46995548569817303 0.01028005228625024 0 -0.48554641619969668 0.015073479140562269 0 -0.46995548569817303 0.01028005228625024 0 -0.47365449931186698 0.0040694389773459766 0 -0.47089389985972208 -0.0049154293756578198 0 -0.49999999999999989 0.0013381615124688519 0 -0.47365449931186698 0.0040694389773459766 0 -0.46995548569817303 0.01028005228625024 0 -0.47365449931186698 0.0040694389773459766 0 -0.47089389985972208 -0.0049154293756578198 0 -0.46995548569817303 0.01028005228625024 0 -0.47089389985972208 -0.0049154293756578198 0 -0.46995548569817303 0.01028005228625024 0 -0.47365449931186698 0.0040694389773459766 0 -0.5 0.054489518904416223 0 -0.48229644876780509 0.047569062231098462 0 -0.4827036502976485 0.081594021171005643 0 -0.5 0.027913840208442509 0 -0.5 0.054489518904416223 0 -0.48229644876780509 0.047569062231098462 0 -0.5 0.027913840208442509 0 -0.48125114215064502 0.027075044183246959 0 -0.48229644876780509 0.047569062231098462 0 -0.48125114215064502 0.027075044183246959 0 -0.48229644876780509 0.047569062231098462 0 -0.46845736008755018 0.034538787049881323 0 -0.48229644876780509 0.047569062231098462 0 -0.46695923447692761 0.058797521813512367 0 -0.46845736008755018 0.034538787049881323 0 -0.46695923447692761 0.058797521813512367 0 -0.45029577080626471 0.04328855122903421 0 -0.45492073207645672 0.068337609146842962 0 -0.46845736008755018 0.034538787049881323 0 -0.45029577080626471 0.04328855122903421 0 -0.46012562825221909 0.026784301757642421 0 -0.45029577080626471 0.04328855122903421 0 -0.46012562825221909 0.026784301757642421 0 -0.46695923447692761 0.058797521813512367 0 -0.46845736008755018 0.034538787049881323 0 -0.45029577080626471 0.04328855122903421 0 -0.46695923447692761 0.058797521813512367 0 -0.46845736008755018 0.034538787049881323 0 -0.44095844095393638 0.035471689366093788 0 -0.45029577080626471 0.04328855122903421 0 -0.44692994067363978 0.025059020426905831 0 -0.44095844095393638 0.035471689366093788 0 -0.44425078614102642 0.053438030559171297 0 -0.42914244200040652 0.032340645228912862 0 -0.45029577080626471 0.04328855122903421 0 -0.44692994067363978 0.025059020426905831 0 -0.45029577080626471 0.04328855122903421 0 -0.46012562825221909 0.026784301757642421 0 -0.44692994067363978 0.025059020426905831 0 -0.44095844095393638 0.035471689366093788 0 -0.45029577080626471 0.04328855122903421 0 -0.44425078614102642 0.053438030559171297 0 -0.45029577080626471 0.04328855122903421 0 -0.44425078614102642 0.053438030559171297 0 -0.45492073207645672 0.068337609146842962 0 -0.45029577080626471 0.04328855122903421 0 -0.45492073207645672 0.068337609146842962 0 -0.45029577080626471 0.04328855122903421 0 -0.44425078614102642 0.053438030559171297 0 -0.44425078614102642 0.053438030559171297 0 -0.45492073207645672 0.068337609146842962 0 -0.46385703546979462 0.004204968200863142 0 -0.44356411054101691 0.0068294896247770376 0 -0.45504124362105092 0.01434607984780259 0 -0.46385703546979462 0.004204968200863142 0 -0.44356411054101691 0.0068294896247770376 0 -0.45504124362105092 0.01434607984780259 0 -0.46385703546979462 0.004204968200863142 0 -0.46236015284664872 0.01180610333614639 0 -0.47089389985972208 -0.0049154293756578198 0 -0.46995548569817303 0.01028005228625024 0 -0.46385703546979462 0.004204968200863142 0 -0.46995548569817303 0.01028005228625024 0 -0.46385703546979462 0.004204968200863142 0 -0.46236015284664872 0.01180610333614639 0 -0.46995548569817303 0.01028005228625024 0 -0.46845736008755018 0.034538787049881323 0 -0.46012562825221909 0.026784301757642421 0 -0.46995548569817303 0.01028005228625024 0 -0.46236015284664872 0.01180610333614639 0 -0.46012562825221909 0.026784301757642421 0 -0.46995548569817303 0.01028005228625024 0 -0.46012562825221909 0.026784301757642421 0 -0.45504124362105092 0.01434607984780259 0 -0.46012562825221909 0.026784301757642421 0 -0.44692994067363978 0.025059020426905831 0 -0.45504124362105092 0.01434607984780259 0 -0.46236015284664872 0.01180610333614639 0 -0.46012562825221909 0.026784301757642421 0 -0.44692994067363978 0.025059020426905831 0 -0.44356411054101691 0.0068294896247770376 0 -0.44692994067363978 0.025059020426905831 0 -0.44356411054101691 0.0068294896247770376 0 -0.4341732651483427 0.023232199386445569 0 -0.44095844095393638 0.035471689366093788 0 -0.44692994067363978 0.025059020426905831 0 -0.4341732651483427 0.023232199386445569 0 -0.45504124362105092 0.01434607984780259 0 -0.44692994067363978 0.025059020426905831 0 -0.44356411054101691 0.0068294896247770376 0 -0.45068860397040023 -0.0092566380451985716 0 -0.46385703546979462 0.004204968200863142 0 -0.44356411054101691 0.0068294896247770376 0 -0.43644152960131011 -0.0028546993955502818 0 -0.42438147089531048 -0.0052512010872020204 0 -0.4136443853191058 0.010699062893198011 0 -0.44356411054101691 0.0068294896247770376 0 -0.4136443853191058 0.010699062893198011 0 -0.4341732651483427 0.023232199386445569 0 -0.44356411054101691 0.0068294896247770376 0 -0.4136443853191058 0.010699062893198011 0 -0.43644152960131011 -0.0028546993955502818 0 -0.44356411054101691 0.0068294896247770376 0 -0.4136443853191058 0.010699062893198011 0 -0.42438147089531048 -0.0052512010872020204 0 -0.4136443853191058 0.010699062893198011 0 -0.40791792823651118 0.0027026027567168659 0 -0.40838497036254512 0.0090755115053374087 0 -0.4136443853191058 0.010699062893198011 0 -0.39843313493572891 0.012666361971859731 0 -0.4136443853191058 0.010699062893198011 0 -0.40791792823651118 0.0027026027567168659 0 -0.40838497036254512 0.0090755115053374087 0 -0.4136443853191058 0.010699062893198011 0 -0.40791792823651118 0.0027026027567168659 0 -0.4136443853191058 0.010699062893198011 0 -0.42914244200040652 0.032340645228912862 0 -0.4136443853191058 0.010699062893198011 0 -0.40896343832398813 0.027435000423866759 0 -0.39843313493572891 0.012666361971859731 0 -0.4136443853191058 0.010699062893198011 0 -0.40896343832398813 0.027435000423866759 0 -0.42914244200040652 0.032340645228912862 0 -0.4136443853191058 0.010699062893198011 0 -0.4341732651483427 0.023232199386445569 0 -0.42914244200040652 0.032340645228912862 0 -0.4341732651483427 0.023232199386445569 0 -0.42914244200040652 0.032340645228912862 0 -0.44095844095393638 0.035471689366093788 0 -0.4341732651483427 0.023232199386445569 0 -0.42914244200040652 0.032340645228912862 0 -0.42914244200040652 0.032340645228912862 0 -0.4190805372575408 0.050558004839349399 0 -0.43532738426888418 0.046710808360132083 0 -0.42914244200040652 0.032340645228912862 0 -0.4190805372575408 0.050558004839349399 0 -0.44425078614102642 0.053438030559171297 0 -0.43532738426888418 0.046710808360132083 0 -0.42914244200040652 0.032340645228912862 0 -0.44425078614102642 0.053438030559171297 0 -0.42914244200040652 0.032340645228912862 0 -0.43532738426888418 0.046710808360132083 0 -0.4190805372575408 0.050558004839349399 0 -0.43532738426888418 0.046710808360132083 0 -0.42443287747805741 0.056461101916416297 0 -0.4190805372575408 0.050558004839349399 0 -0.44425078614102642 0.053438030559171297 0 -0.43124438173879631 0.059733950853590539 0 -0.43266375510024302 0.072892559984569713 0 -0.43532738426888418 0.046710808360132083 0 -0.43124438173879631 0.059733950853590539 0 -0.42443287747805741 0.056461101916416297 0 -0.44425078614102642 0.053438030559171297 0 -0.43532738426888418 0.046710808360132083 0 -0.43124438173879631 0.059733950853590539 0 -0.43124438173879631 0.059733950853590539 0 -0.42443287747805741 0.056461101916416297 0 -0.42170169630138987 0.06701351585550161 0 -0.4190805372575408 0.050558004839349399 0 -0.39665683425900361 0.055867859186276382 0 -0.41476633110015521 0.058264896039829581 0 -0.4190805372575408 0.050558004839349399 0 -0.39665683425900361 0.055867859186276382 0 -0.4190805372575408 0.050558004839349399 0 -0.40373444313597862 0.044403744654840822 0 -0.39665683425900361 0.055867859186276382 0 -0.42443287747805741 0.056461101916416297 0 -0.41476633110015521 0.058264896039829581 0 -0.42170169630138987 0.06701351585550161 0 -0.42443287747805741 0.056461101916416297 0 -0.41476633110015521 0.058264896039829581 0 -0.4190805372575408 0.050558004839349399 0 -0.41476633110015521 0.058264896039829581 0 -0.4190805372575408 0.050558004839349399 0 -0.40896343832398813 0.027435000423866759 0 -0.42914244200040652 0.032340645228912862 0 -0.41517487971532019 0.038461981068566027 0 -0.40896343832398813 0.027435000423866759 0 -0.41517487971532019 0.038461981068566027 0 -0.40373444313597862 0.044403744654840822 0 -0.42914244200040652 0.032340645228912862 0 -0.4190805372575408 0.050558004839349399 0 -0.41517487971532019 0.038461981068566027 0 -0.4190805372575408 0.050558004839349399 0 -0.41517487971532019 0.038461981068566027 0 -0.40373444313597862 0.044403744654840822 0 -0.40373444313597862 0.044403744654840822 0 -0.38222330239014329 0.034956108528420141 0 -0.40896343832398813 0.027435000423866759 0 -0.40373444313597862 0.044403744654840822 0 -0.39531524066763812 0.02681897532590119 0 -0.40373444313597862 0.044403744654840822 0 -0.38222330239014329 0.034956108528420141 0 -0.39531524066763812 0.02681897532590119 0 -0.41476633110015521 0.058264896039829581 0 -0.39449973118031068 0.059721304786516112 0 -0.39665683425900361 0.055867859186276382 0 -0.41476633110015521 0.058264896039829581 0 -0.39449973118031068 0.059721304786516112 0 -0.40373444313597862 0.044403744654840822 0 -0.39665683425900361 0.055867859186276382 0 -0.38333775136081438 0.049623873517442789 0 -0.39449973118031068 0.059721304786516112 0 -0.37423313126046631 0.061177713533202338 0 -0.39665683425900361 0.055867859186276382 0 -0.37423313126046631 0.061177713533202338 0 -0.39665683425900361 0.055867859186276382 0 -0.38333775136081438 0.049623873517442789 0 -0.37423313126046631 0.061177713533202338 0 -0.39449973118031068 0.059721304786516112 0 -0.39665683425900361 0.055867859186276382 0 -0.37423313126046631 0.061177713533202338 0 -0.38333775136081438 0.049623873517442789 0 -0.36866113695203728 0.043064204273069367 0 -0.37423313126046631 0.061177713533202338 0 -0.40373444313597862 0.044403744654840822 0 -0.38333775136081438 0.049623873517442789 0 -0.38222330239014329 0.034956108528420141 0 -0.38333775136081438 0.049623873517442789 0 -0.38222330239014329 0.034956108528420141 0 -0.36866113695203728 0.043064204273069367 0 -0.38222330239014329 0.034956108528420141 0 -0.38322188455235179 0.014633661050518819 0 -0.36071216164430758 0.025508472402000461 0 -0.38222330239014329 0.034956108528420141 0 -0.38322188455235179 0.014633661050518819 0 -0.39531524066763812 0.02681897532590119 0 -0.38322188455235179 0.014633661050518819 0 -0.37354310319873307 0.015885435701492579 0 -0.36800916043032761 -0.0041271905919835214 0 -0.38412445063278322 0.0011424343669239501 0 -0.37340753275891903 0.0060936975973046141 0 -0.38412445063278322 0.0011424343669239501 0 -0.38322188455235179 0.014633661050518819 0 -0.40023974083523928 0.0064120593258299337 0 -0.38322188455235179 0.014633661050518819 0 -0.37354310319873307 0.015885435701492579 0 -0.37340753275891903 0.0060936975973046141 0 -0.38412445063278322 0.0011424343669239501 0 -0.38322188455235179 0.014633661050518819 0 -0.37340753275891903 0.0060936975973046141 0 -0.38322188455235179 0.014633661050518819 0 -0.39843313493572891 0.012666361971859731 0 -0.38412445063278322 0.0011424343669239501 0 -0.40023974083523928 0.0064120593258299337 0 -0.38322188455235179 0.014633661050518819 0 -0.39843313493572891 0.012666361971859731 0 -0.40023974083523928 0.0064120593258299337 0 -0.38322188455235179 0.014633661050518819 0 -0.40023974083523928 0.0064120593258299337 0 -0.40838497036254512 0.0090755115053374087 0 -0.40791792823651118 0.0027026027567168659 0 -0.40023974083523928 0.0064120593258299337 0 -0.40838497036254512 0.0090755115053374087 0 -0.40023974083523928 0.0064120593258299337 0 -0.40791792823651118 0.0027026027567168659 0 -0.40023974083523928 0.0064120593258299337 0 -0.4136443853191058 0.010699062893198011 0 -0.39843313493572891 0.012666361971859731 0 -0.40838497036254512 0.0090755115053374087 0 -0.39843313493572891 0.012666361971859731 0 -0.40023974083523928 0.0064120593258299337 0 -0.40896343832398813 0.027435000423866759 0 -0.39843313493572891 0.012666361971859731 0 -0.39531524066763812 0.02681897532590119 0 -0.38322188455235179 0.014633661050518819 0 -0.39843313493572891 0.012666361971859731 0 -0.39531524066763812 0.02681897532590119 0 -0.38546588911088331 0.11141826431458179 0 -0.39524738868181442 0.093708586100890737 0 -0.41477886664459129 0.10737256943898631 0 -0.38546588911088331 0.11141826431458179 0 -0.41477886664459129 0.10737256943898631 0 -0.39789171765310283 0.12378059481973019 0 -0.38546588911088331 0.11141826431458179 0 -0.41477886664459129 0.10737256943898631 0 -0.39789171765310283 0.12378059481973019 0 -0.38546588911088331 0.11141826431458179 0 -0.37750887379202391 0.1258246628239878 0 -0.38546588911088331 0.11141826431458179 0 -0.37750887379202391 0.1258246628239878 0 -0.38546588911088331 0.11141826431458179 0 -0.37574270482976552 0.1127602309153935 0 -0.37750887379202391 0.1258246628239878 0 -0.38546588911088331 0.11141826431458179 0 -0.37574270482976552 0.1127602309153935 0 -0.38546588911088331 0.11141826431458179 0 -0.37574270482976552 0.1127602309153935 0 -0.37728664115199051 0.096549999617299043 0 -0.38546588911088331 0.11141826431458179 0 -0.37728664115199051 0.096549999617299043 0 -0.39524738868181442 0.093708586100890737 0 -0.38546588911088331 0.11141826431458179 0 -0.39524738868181442 0.093708586100890737 0 -0.37728664115199051 0.096549999617299043 0 -0.38516249845558131 0.078194868366674497 0 -0.39524738868181442 0.093708586100890737 0 -0.37728664115199051 0.096549999617299043 0 -0.38516249845558131 0.078194868366674497 0 -0.36467921020616101 0.082012698274938928 0 -0.39449973118031068 0.059721304786516112 0 -0.38516249845558131 0.078194868366674497 0 -0.37423313126046631 0.061177713533202338 0 -0.41476633110015521 0.058264896039829581 0 -0.39449973118031068 0.059721304786516112 0 -0.40502888825274541 0.07599890788719954 0 -0.39449973118031068 0.059721304786516112 0 -0.38516249845558131 0.078194868366674497 0 -0.40502888825274541 0.07599890788719954 0 -0.38516249845558131 0.078194868366674497 0 -0.40502888825274541 0.07599890788719954 0 -0.39524738868181442 0.093708586100890737 0 -0.40502888825274541 0.07599890788719954 0 -0.39524738868181442 0.093708586100890737 0 -0.41733147167793749 0.088984167262631475 0 -0.40502888825274541 0.07599890788719954 0 -0.39524738868181442 0.093708586100890737 0 -0.40502888825274541 0.07599890788719954 0 -0.41733147167793749 0.088984167262631475 0 -0.42172506837358431 0.077774682823827768 0 -0.41476633110015521 0.058264896039829581 0 -0.40502888825274541 0.07599890788719954 0 -0.42170169630138987 0.06701351585550161 0 -0.41476633110015521 0.058264896039829581 0 -0.40502888825274541 0.07599890788719954 0 -0.40502888825274541 0.07599890788719954 0 -0.42172506837358431 0.077774682823827768 0 -0.42170169630138987 0.06701351585550161 0 -0.43124438173879631 0.059733950853590539 0 -0.42170169630138987 0.06701351585550161 0 -0.43266375510024302 0.072892559984569713 0 -0.42172506837358431 0.077774682823827768 0 -0.42170169630138987 0.06701351585550161 0 -0.43266375510024302 0.072892559984569713 0 -0.41733147167793749 0.088984167262631475 0 -0.43189953053560542 0.083984263129236514 0 -0.43049750357199817 0.093968304400187913 0 -0.41733147167793749 0.088984167262631475 0 -0.42172506837358431 0.077774682823827768 0 -0.43189953053560542 0.083984263129236514 0 -0.42172506837358431 0.077774682823827768 0 -0.43266375510024302 0.072892559984569713 0 -0.43189953053560542 0.083984263129236514 0 -0.43266375510024302 0.072892559984569713 0 -0.43189953053560542 0.083984263129236514 0 -0.44358810087770112 0.086161436503399941 0 -0.43189953053560542 0.083984263129236514 0 -0.43049750357199817 0.093968304400187913 0 -0.44358810087770112 0.086161436503399941 0 -0.43049750357199817 0.093968304400187913 0 -0.41477886664459129 0.10737256943898631 0 -0.44409184417829922 0.1033268745633901 0 -0.41477886664459129 0.10737256943898631 0 -0.44409184417829922 0.1033268745633901 0 -0.41733147167793749 0.088984167262631475 0 -0.43049750357199817 0.093968304400187913 0 -0.41477886664459129 0.10737256943898631 0 -0.39524738868181442 0.093708586100890737 0 -0.41733147167793749 0.088984167262631475 0 -0.41477886664459129 0.10737256943898631 0 -0.39789171765310283 0.12378059481973019 0 -0.41477886664459129 0.10737256943898631 0 -0.41362606074197911 0.1252480519334859 0 -0.41477886664459129 0.10737256943898631 0 -0.42885901608313248 0.12178248185412829 0 -0.41362606074197911 0.1252480519334859 0 -0.41477886664459129 0.10737256943898631 0 -0.42885901608313248 0.12178248185412829 0 -0.44409184417829922 0.1033268745633901 0 -0.44409184417829922 0.1033268745633901 0 -0.44478620151515341 0.12698763162582741 0 -0.42885901608313248 0.12178248185412829 0 -0.44409184417829922 0.1033268745633901 0 -0.44478620151515341 0.12698763162582741 0 -0.4611232330349378 0.11339979176103659 0 -0.44478620151515341 0.12698763162582741 0 -0.44409184417829922 0.1033268745633901 0 -0.4611232330349378 0.11339979176103659 0 -0.44478620151515341 0.12698763162582741 0 -0.44409184417829922 0.1033268745633901 0 -0.46042071142290492 0.1010732101425791 0 -0.43049750357199817 0.093968304400187913 0 -0.44409184417829922 0.1033268745633901 0 -0.44358810087770112 0.086161436503399941 0 -0.44409184417829922 0.1033268745633901 0 -0.46042071142290492 0.1010732101425791 0 -0.45447718491422578 0.090826017412322713 0 -0.44409184417829922 0.1033268745633901 0 -0.44358810087770112 0.086161436503399941 0 -0.46042071142290492 0.1010732101425791 0 -0.4611232330349378 0.11339979176103659 0 -0.47674957866751039 0.098819545721767238 0 -0.44409184417829922 0.1033268745633901 0 -0.46042071142290492 0.1010732101425791 0 -0.4611232330349378 0.11339979176103659 0 -0.46042071142290492 0.1010732101425791 0 -0.46460144112325791 0.096976619205990294 0 -0.47674957866751039 0.098819545721767238 0 -0.46042071142290492 0.1010732101425791 0 -0.47674957866751039 0.098819545721767238 0 -0.46042071142290492 0.1010732101425791 0 -0.46460144112325791 0.096976619205990294 0 -0.45447718491422578 0.090826017412322713 0 -0.4611232330349378 0.11339979176103659 0 -0.44478620151515341 0.12698763162582741 0 -0.46121647776751817 0.1277530636040424 0 -0.4611232330349378 0.11339979176103659 0 -0.47453520727093268 0.1195024679642044 0 -0.46121647776751817 0.1277530636040424 0 -0.44308435757710313 0.068995998443409798 0 -0.44358810087770112 0.086161436503399941 0 -0.44308435757710313 0.068995998443409798 0 -0.45147886049860619 0.078540884738684535 0 -0.44358810087770112 0.086161436503399941 0 -0.43266375510024302 0.072892559984569713 0 -0.44308435757710313 0.068995998443409798 0 -0.44358810087770112 0.086161436503399941 0 -0.44425078614102642 0.053438030559171297 0 -0.43266375510024302 0.072892559984569713 0 -0.44308435757710313 0.068995998443409798 0 -0.44425078614102642 0.053438030559171297 0 -0.43266375510024302 0.072892559984569713 0 -0.44425078614102642 0.053438030559171297 0 -0.44308435757710313 0.068995998443409798 0 -0.45492073207645672 0.068337609146842962 0 -0.44308435757710313 0.068995998443409798 0 -0.45147886049860619 0.078540884738684535 0 -0.45492073207645672 0.068337609146842962 0 -0.44409184417829922 0.1033268745633901 0 -0.44358810087770112 0.086161436503399941 0 -0.45447718491422578 0.090826017412322713 0 -0.45147886049860619 0.078540884738684535 0 -0.44358810087770112 0.086161436503399941 0 -0.45447718491422578 0.090826017412322713 0 -0.46460144112325791 0.096976619205990294 0 -0.45447718491422578 0.090826017412322713 0 -0.46546110886630299 0.083056256577143273 0 -0.46460144112325791 0.096976619205990294 0 -0.46546110886630299 0.083056256577143273 0 -0.46546110886630299 0.083056256577143273 0 -0.45675668608998771 0.082491572085902479 0 -0.45604610145616231 0.07443267484022964 0 -0.45447718491422578 0.090826017412322713 0 -0.46546110886630299 0.083056256577143273 0 -0.45675668608998771 0.082491572085902479 0 -0.45147886049860619 0.078540884738684535 0 -0.45447718491422578 0.090826017412322713 0 -0.45675668608998771 0.082491572085902479 0 -0.45147886049860619 0.078540884738684535 0 -0.45675668608998771 0.082491572085902479 0 -0.45604610145616231 0.07443267484022964 0 -0.46695923447692761 0.058797521813512367 0 -0.46546110886630299 0.083056256577143273 0 -0.45492073207645672 0.068337609146842962 0 -0.46695923447692761 0.058797521813512367 0 -0.46546110886630299 0.083056256577143273 0 -0.46546110886630299 0.083056256577143273 0 -0.45604610145616231 0.07443267484022964 0 -0.45492073207645672 0.068337609146842962 0 -0.45147886049860619 0.078540884738684535 0 -0.45604610145616231 0.07443267484022964 0 -0.45492073207645672 0.068337609146842962 0 -0.46546110886630299 0.083056256577143273 0 -0.45492073207645672 0.068337609146842962 0 -0.45604610145616231 0.07443267484022964 0 -0.45492073207645672 0.068337609146842962 0 -0.48229644876780509 0.047569062231098462 0 -0.46695923447692761 0.058797521813512367 0 -0.4827036502976485 0.081594021171005643 0 -0.46695923447692761 0.058797521813512367 0 -0.46546110886630299 0.083056256577143273 0 -0.4827036502976485 0.081594021171005643 0 -0.46546110886630299 0.083056256577143273 0 -0.47674957866751039 0.098819545721767238 0 -0.46460144112325791 0.096976619205990294 0 -0.46546110886630299 0.083056256577143273 0 -0.47674957866751039 0.098819545721767238 0 -0.46546110886630299 0.083056256577143273 0 -0.4827036502976485 0.081594021171005643 0 -0.47674957866751039 0.098819545721767238 0 -0.4827036502976485 0.081594021171005643 0 -0.47903225280213668 0.098504497445335043 0 -0.47674957866751039 0.098819545721767238 0 -0.499999999999996 0.081065197600389938 0 -0.47903225280213668 0.098504497445335043 0 -0.499999999999996 0.081065197600389938 0 -0.47903225280213668 0.098504497445335043 0 -0.49999999999999722 0.095610587835039507 0 -0.4827036502976485 0.081594021171005643 0 -0.499999999999996 0.081065197600389938 0 -0.47903225280213668 0.098504497445335043 0 -0.5 0.054489518904416223 0 -0.4827036502976485 0.081594021171005643 0 -0.499999999999996 0.081065197600389938 0 -0.47453520727093268 0.1195024679642044 0 -0.48873013227736711 0.11554926498315091 0 -0.48346006637937511 0.13122725366127161 0 -0.47453520727093268 0.1195024679642044 0 -0.47674957866751039 0.098819545721767238 0 -0.48873013227736711 0.11554926498315091 0 -0.4611232330349378 0.11339979176103659 0 -0.47453520727093268 0.1195024679642044 0 -0.47674957866751039 0.098819545721767238 0 -0.4611232330349378 0.11339979176103659 0 -0.47674957866751039 0.098819545721767238 0 -0.47674957866751039 0.098819545721767238 0 -0.48873013227736711 0.11554926498315091 0 -0.47903225280213668 0.098504497445335043 0 -0.47674957866751039 0.098819545721767238 0 -0.48904452992684527 0.10458497702246421 0 -0.47903225280213668 0.098504497445335043 0 -0.47674957866751039 0.098819545721767238 0 -0.47674957866751039 0.098819545721767238 0 -0.48904452992684527 0.10458497702246421 0 -0.48873013227736711 0.11554926498315091 0 -0.49999999999999722 0.095610587835039507 0 -0.48904452992684527 0.10458497702246421 0 -0.5 0.11344858295254751 0 -0.47903225280213668 0.098504497445335043 0 -0.49999999999999722 0.095610587835039507 0 -0.47903225280213668 0.098504497445335043 0 -0.49999999999999722 0.095610587835039507 0 -0.48904452992684527 0.10458497702246421 0 -0.48904452992684527 0.10458497702246421 0 -0.5 0.11344858295254751 0 -0.48873013227736711 0.11554926498315091 0 -0.5 0.11344858295254751 0 -0.48873013227736711 0.11554926498315091 0 -0.50000000000000533 0.13128657807005539 0 -0.48873013227736711 0.11554926498315091 0 -0.50000000000000533 0.13128657807005539 0 -0.48873013227736711 0.11554926498315091 0 -0.50000000000000533 0.13128657807005539 0 -0.48346006637937511 0.13122725366127161 0 -0.50000000000000533 0.13128657807005539 0 -0.48346006637937511 0.13122725366127161 0 -0.48294262145415218 0.1477691352244524 0 -0.48346006637937511 0.13122725366127161 0 -0.46949315901923372 0.13849606702634179 0 -0.48294262145415218 0.1477691352244524 0 -0.47453520727093268 0.1195024679642044 0 -0.48346006637937511 0.13122725366127161 0 -0.46949315901923372 0.13849606702634179 0 -0.46949315901923372 0.13849606702634179 0 -0.48294262145415218 0.1477691352244524 0 -0.46429613899570621 0.15389568693615671 0 -0.50000000000000533 0.13128657807005539 0 -0.48294262145415218 0.1477691352244524 0 -0.5 0.15805902704269981 0 -0.5 0.15805902704269981 0 -0.5 0.184831476015344 0 -0.47588366704394769 0.170940119929851 0 -0.48294262145415218 0.1477691352244524 0 -0.5 0.15805902704269981 0 -0.47588366704394769 0.170940119929851 0 -0.5 0.184831476015344 0 -0.47588366704394769 0.170940119929851 0 -0.47722302021506929 0.19249533431850999 0 -0.47588366704394769 0.170940119929851 0 -0.47722302021506929 0.19249533431850999 0 -0.45344081906717892 0.18774640165664899 0 -0.48294262145415218 0.1477691352244524 0 -0.47588366704394769 0.170940119929851 0 -0.46429613899570621 0.15389568693615671 0 -0.47588366704394769 0.170940119929851 0 -0.45491566494536628 0.1671609365067179 0 -0.46429613899570621 0.15389568693615671 0 -0.45491566494536628 0.1671609365067179 0 -0.44559469981402833 0.15453782922540649 0 -0.46429613899570621 0.15389568693615671 0 -0.47588366704394769 0.170940119929851 0 -0.45491566494536628 0.1671609365067179 0 -0.45344081906717892 0.18774640165664899 0 -0.45344081906717892 0.18774640165664899 0 -0.42590427308512607 0.19462497869985479 0 -0.43536299980597037 0.16868464478552639 0 -0.45491566494536628 0.1671609365067179 0 -0.45344081906717892 0.18774640165664899 0 -0.43536299980597037 0.16868464478552639 0 -0.44559469981402833 0.15453782922540649 0 -0.43270949979210099 0.14951015732100309 0 -0.43536299980597037 0.16868464478552639 0 -0.45491566494536628 0.1671609365067179 0 -0.44559469981402833 0.15453782922540649 0 -0.43536299980597037 0.16868464478552639 0 -0.44559469981402833 0.15453782922540649 0 -0.44478620151515341 0.12698763162582741 0 -0.44559469981402833 0.15453782922540649 0 -0.43578268805750991 0.13447603604830641 0 -0.43270949979210099 0.14951015732100309 0 -0.44559469981402833 0.15453782922540649 0 -0.44478620151515341 0.12698763162582741 0 -0.45614458799733321 0.1403793596428019 0 -0.44559469981402833 0.15453782922540649 0 -0.44478620151515341 0.12698763162582741 0 -0.43578268805750991 0.13447603604830641 0 -0.44478620151515341 0.12698763162582741 0 -0.43578268805750991 0.13447603604830641 0 -0.47453520727093268 0.1195024679642044 0 -0.46949315901923372 0.13849606702634179 0 -0.46121647776751817 0.1277530636040424 0 -0.44478620151515341 0.12698763162582741 0 -0.45614458799733321 0.1403793596428019 0 -0.46121647776751817 0.1277530636040424 0 -0.46949315901923372 0.13849606702634179 0 -0.45614458799733321 0.1403793596428019 0 -0.46121647776751817 0.1277530636040424 0 -0.46949315901923372 0.13849606702634179 0 -0.45614458799733321 0.1403793596428019 0 -0.46429613899570621 0.15389568693615671 0 -0.44559469981402833 0.15453782922540649 0 -0.45614458799733321 0.1403793596428019 0 -0.46429613899570621 0.15389568693615671 0 -0.4777107433763656 0.23261797455159541 0 -0.46067917674487202 0.24578791896303159 0 -0.48400787175212889 0.23948172502518 0 -0.4777107433763656 0.23261797455159541 0 -0.47496881677379238 0.25062421766738041 0 -0.4777107433763656 0.23261797455159541 0 -0.47077952417142249 0.2252081329933085 0 -0.46067917674487202 0.24578791896303159 0 -0.4777107433763656 0.23261797455159541 0 -0.46067917674487202 0.24578791896303159 0 -0.47496881677379238 0.25062421766738041 0 -0.48400787175212889 0.23948172502518 0 -0.4902262165559268 0.24480711952533471 0 -0.49073105890795932 0.25297858040334048 0 -0.5 0.23837637396063249 0 -0.4957417560300621 0.23875679201432851 0 -0.49999999999999972 0.26514882293327691 0 -0.4902262165559268 0.24480711952533471 0 -0.4957417560300621 0.23875679201432851 0 -0.49073105890795932 0.25297858040334048 0 -0.4957417560300621 0.23875679201432851 0 -0.48869746897848487 0.23481224793742711 0 -0.48966832832915069 0.2394644711255676 0 -0.4902262165559268 0.24480711952533471 0 -0.4957417560300621 0.23875679201432851 0 -0.48966832832915069 0.2394644711255676 0 -0.48400787175212889 0.23948172502518 0 -0.4902262165559268 0.24480711952533471 0 -0.48966832832915069 0.2394644711255676 0 -0.48400787175212889 0.23948172502518 0 -0.48869746897848487 0.23481224793742711 0 -0.48966832832915069 0.2394644711255676 0 -0.5 0.23837637396063249 0 -0.49148351206012469 0.21236476109538011 0 -0.5 0.2116039249879883 0 -0.48400787175212889 0.23948172502518 0 -0.48869746897848487 0.23481224793742711 0 -0.48199343101925562 0.22796983251877209 0 -0.5 0.23837637396063249 0 -0.4957417560300621 0.23875679201432851 0 -0.49148351206012469 0.21236476109538011 0 -0.4957417560300621 0.23875679201432851 0 -0.49148351206012469 0.21236476109538011 0 -0.4957417560300621 0.23875679201432851 0 -0.48937716542715543 0.2267157986288191 0 -0.49148351206012469 0.21236476109538011 0 -0.4957417560300621 0.23875679201432851 0 -0.48869746897848487 0.23481224793742711 0 -0.48937716542715543 0.2267157986288191 0 -0.48869746897848487 0.23481224793742711 0 -0.48937716542715543 0.2267157986288191 0 -0.48199343101925562 0.22796983251877209 0 -0.48937716542715543 0.2267157986288191 0 -0.4845867387303458 0.21914278117625169 0 -0.48199343101925562 0.22796983251877209 0 -0.48937716542715543 0.2267157986288191 0 -0.4845867387303458 0.21914278117625169 0 -0.49148351206012469 0.21236476109538011 0 -0.4845867387303458 0.21914278117625169 0 -0.48199343101925562 0.22796983251877209 0 -0.47731240031577271 0.2182069761348274 0 -0.48199343101925562 0.22796983251877209 0 -0.47077952417142249 0.2252081329933085 0 -0.47731240031577271 0.2182069761348274 0 -0.48400787175212889 0.23948172502518 0 -0.4777107433763656 0.23261797455159541 0 -0.48199343101925562 0.22796983251877209 0 -0.4777107433763656 0.23261797455159541 0 -0.48199343101925562 0.22796983251877209 0 -0.47077952417142249 0.2252081329933085 0 -0.48160755418296852 0.20907870647212151 0 -0.47722302021506929 0.19249533431850999 0 -0.46622187808287407 0.21083401931047371 0 -0.48160755418296852 0.20907870647212151 0 -0.47731240031577271 0.2182069761348274 0 -0.46622187808287407 0.21083401931047371 0 -0.47077952417142249 0.2252081329933085 0 -0.47731240031577271 0.2182069761348274 0 -0.46622187808287407 0.21083401931047371 0 -0.4845867387303458 0.21914278117625169 0 -0.48160755418296852 0.20907870647212151 0 -0.47731240031577271 0.2182069761348274 0 -0.4845867387303458 0.21914278117625169 0 -0.48160755418296852 0.20907870647212151 0 -0.49148351206012469 0.21236476109538011 0 -0.49148351206012469 0.21236476109538011 0 -0.5 0.2116039249879883 0 -0.49004492276513267 0.19956226775057109 0 -0.48160755418296852 0.20907870647212151 0 -0.49148351206012469 0.21236476109538011 0 -0.49004492276513267 0.19956226775057109 0 -0.5 0.184831476015344 0 -0.5 0.2116039249879883 0 -0.49004492276513267 0.19956226775057109 0 -0.5 0.184831476015344 0 -0.49004492276513267 0.19956226775057109 0 -0.47722302021506929 0.19249533431850999 0 -0.48160755418296852 0.20907870647212151 0 -0.49004492276513267 0.19956226775057109 0 -0.47722302021506929 0.19249533431850999 0 -0.47722302021506929 0.19249533431850999 0 -0.45344081906717892 0.18774640165664899 0 -0.46622187808287407 0.21083401931047371 0 -0.45344081906717892 0.18774640165664899 0 -0.44449922720541402 0.21587353703306711 0 -0.45344081906717892 0.18774640165664899 0 -0.44449922720541402 0.21587353703306711 0 -0.42590427308512607 0.19462497869985479 0 -0.44449922720541402 0.21587353703306711 0 -0.46622187808287407 0.21083401931047371 0 -0.45753097077584082 0.22585121553349469 0 -0.45344081906717892 0.18774640165664899 0 -0.44449922720541402 0.21587353703306711 0 -0.46622187808287407 0.21083401931047371 0 -0.47077952417142249 0.2252081329933085 0 -0.45753097077584082 0.22585121553349469 0 -0.46067917674487202 0.24578791896303159 0 -0.47077952417142249 0.2252081329933085 0 -0.46622187808287407 0.21083401931047371 0 -0.45753097077584082 0.22585121553349469 0 -0.44449922720541402 0.21587353703306711 0 -0.45753097077584082 0.22585121553349469 0 -0.4487859626744779 0.23551111825593171 0 -0.44449922720541402 0.21587353703306711 0 -0.43555763534364911 0.24400067240948509 0 -0.44449922720541402 0.21587353703306711 0 -0.4487859626744779 0.23551111825593171 0 -0.43555763534364911 0.24400067240948509 0 -0.4487859626744779 0.23551111825593171 0 -0.43555763534364911 0.24400067240948509 0 -0.4436476101133785 0.25895786337446769 0 -0.4487859626744779 0.23551111825593171 0 -0.46067917674487202 0.24578791896303159 0 -0.4436476101133785 0.25895786337446769 0 -0.45753097077584082 0.22585121553349469 0 -0.4487859626744779 0.23551111825593171 0 -0.46067917674487202 0.24578791896303159 0 -0.42328482236974002 0.23446116313630311 0 -0.40167854475825282 0.24059208437640539 0 -0.42060660074010942 0.25473258134287657 0 -0.43555763534364911 0.24400067240948509 0 -0.42328482236974002 0.23446116313630311 0 -0.42060660074010942 0.25473258134287657 0 -0.44449922720541402 0.21587353703306711 0 -0.43555763534364911 0.24400067240948509 0 -0.42328482236974002 0.23446116313630311 0 -0.44449922720541402 0.21587353703306711 0 -0.42328482236974002 0.23446116313630311 0 -0.41408210380127469 0.2171069405196816 0 -0.42328482236974002 0.23446116313630311 0 -0.41408210380127469 0.2171069405196816 0 -0.40167854475825282 0.24059208437640539 0 -0.44449922720541402 0.21587353703306711 0 -0.41408210380127469 0.2171069405196816 0 -0.42590427308512607 0.19462497869985479 0 -0.41408210380127469 0.2171069405196816 0 -0.42590427308512607 0.19462497869985479 0 -0.40308419936571338 0.19337225810846431 0 -0.40308419936571338 0.19337225810846431 0 -0.37903381136129222 0.19782039269195281 0 -0.3932116165985492 0.17846036317337741 0 -0.40308419936571338 0.19337225810846431 0 -0.37903381136129222 0.19782039269195281 0 -0.39484244052267398 0.21029376986273299 0 -0.37903381136129222 0.19782039269195281 0 -0.39484244052267398 0.21029376986273299 0 -0.37996649634587798 0.2238659538747296 0 -0.37903381136129222 0.19782039269195281 0 -0.37996649634587798 0.2238659538747296 0 -0.41408210380127469 0.2171069405196816 0 -0.40308419936571338 0.19337225810846431 0 -0.39484244052267398 0.21029376986273299 0 -0.39484244052267398 0.21029376986273299 0 -0.37996649634587798 0.2238659538747296 0 -0.40167854475825282 0.24059208437640539 0 -0.41408210380127469 0.2171069405196816 0 -0.39484244052267398 0.21029376986273299 0 -0.40167854475825282 0.24059208437640539 0 -0.37996649634587798 0.2238659538747296 0 -0.38089918133046369 0.24991151505750661 0 -0.40167854475825282 0.24059208437640539 0 -0.37996649634587798 0.2238659538747296 0 -0.38089918133046369 0.24991151505750661 0 -0.36613552699662999 0.2498380616322399 0 -0.37996649634587798 0.2238659538747296 0 -0.38089918133046369 0.24991151505750661 0 -0.38089918133046369 0.24991151505750661 0 -0.40167854475825282 0.24059208437640539 0 -0.39219796448779942 0.25747026977617682 0 -0.40790265270205062 0.14969588176604079 0 -0.42112902719063128 0.13812359298361959 0 -0.40547167613843738 0.1351810205709652 0 -0.40790265270205062 0.14969588176604079 0 -0.42112902719063128 0.13812359298361959 0 -0.4222546429265801 0.1556044223086093 0 -0.41362606074197911 0.1252480519334859 0 -0.42112902719063128 0.13812359298361959 0 -0.40547167613843738 0.1351810205709652 0 -0.42885901608313248 0.12178248185412829 0 -0.41362606074197911 0.1252480519334859 0 -0.42112902719063128 0.13812359298361959 0 -0.42885901608313248 0.12178248185412829 0 -0.42112902719063128 0.13812359298361959 0 -0.43578268805750991 0.13447603604830641 0 -0.42885901608313248 0.12178248185412829 0 -0.44478620151515341 0.12698763162582741 0 -0.43578268805750991 0.13447603604830641 0 -0.42112902719063128 0.13812359298361959 0 -0.43578268805750991 0.13447603604830641 0 -0.43270949979210099 0.14951015732100309 0 -0.42112902719063128 0.13812359298361959 0 -0.4222546429265801 0.1556044223086093 0 -0.43270949979210099 0.14951015732100309 0 -0.4222546429265801 0.1556044223086093 0 -0.43270949979210099 0.14951015732100309 0 -0.43536299980597037 0.16868464478552639 0 -0.4222546429265801 0.1556044223086093 0 -0.43536299980597037 0.16868464478552639 0 -0.41209170193111161 0.17058418254244431 0 -0.42590427308512607 0.19462497869985479 0 -0.43536299980597037 0.16868464478552639 0 -0.41209170193111161 0.17058418254244431 0 -0.42590427308512607 0.19462497869985479 0 -0.40308419936571338 0.19337225810846431 0 -0.41209170193111161 0.17058418254244431 0 -0.40790265270205062 0.14969588176604079 0 -0.4222546429265801 0.1556044223086093 0 -0.41209170193111161 0.17058418254244431 0 -0.41209170193111161 0.17058418254244431 0 -0.39374724395792221 0.1587501510148496 0 -0.3932116165985492 0.17846036317337741 0 -0.40790265270205062 0.14969588176604079 0 -0.41209170193111161 0.17058418254244431 0 -0.39374724395792221 0.1587501510148496 0 -0.40308419936571338 0.19337225810846431 0 -0.41209170193111161 0.17058418254244431 0 -0.3932116165985492 0.17846036317337741 0 -0.37903381136129222 0.19782039269195281 0 -0.3781011263767064 0.171774831509176 0 -0.37903381136129222 0.19782039269195281 0 -0.3932116165985492 0.17846036317337741 0 -0.3781011263767064 0.171774831509176 0 -0.39374724395792221 0.1587501510148496 0 -0.3781011263767064 0.171774831509176 0 -0.37716844139212058 0.14572927032639921 0 -0.39374724395792221 0.1587501510148496 0 -0.3932116165985492 0.17846036317337741 0 -0.3781011263767064 0.171774831509176 0 -0.3781011263767064 0.171774831509176 0 -0.37716844139212058 0.14572927032639921 0 -0.39374724395792221 0.1587501510148496 0 -0.37716844139212058 0.14572927032639921 0 -0.39272162406762168 0.1399319211757567 0 -0.40790265270205062 0.14969588176604079 0 -0.39374724395792221 0.1587501510148496 0 -0.39272162406762168 0.1399319211757567 0 -0.40790265270205062 0.14969588176604079 0 -0.40547167613843738 0.1351810205709652 0 -0.39272162406762168 0.1399319211757567 0 -0.39789171765310283 0.12378059481973019 0 -0.40547167613843738 0.1351810205709652 0 -0.39272162406762168 0.1399319211757567 0 -0.39789171765310283 0.12378059481973019 0 -0.41362606074197911 0.1252480519334859 0 -0.40547167613843738 0.1351810205709652 0 -0.39789171765310283 0.12378059481973019 0 -0.39272162406762168 0.1399319211757567 0 -0.37750887379202391 0.1258246628239878 0 -0.37716844139212058 0.14572927032639921 0 -0.39272162406762168 0.1399319211757567 0 -0.37750887379202391 0.1258246628239878 0 -0.37716844139212058 0.14572927032639921 0 -0.3657684372237478 0.13220172536522559 0 -0.35647587307076278 0.14289703800607989 0 -0.37750887379202391 0.1258246628239878 0 -0.3657684372237478 0.13220172536522559 0 -0.36705056219853383 0.1194023578563024 0 -0.37716844139212058 0.14572927032639921 0 -0.37750887379202391 0.1258246628239878 0 -0.3657684372237478 0.13220172536522559 0 -0.35647587307076278 0.14289703800607989 0 -0.33732249104276257 0.131346910735954 0 -0.3544766847842245 0.1222383725199034 0 -0.3657684372237478 0.13220172536522559 0 -0.35647587307076278 0.14289703800607989 0 -0.3544766847842245 0.1222383725199034 0 -0.35647587307076278 0.14289703800607989 0 -0.35357979475610862 0.15700481946059139 0 -0.34343108307258757 0.1592076902785616 0 -0.35647587307076278 0.14289703800607989 0 -0.34343108307258757 0.1592076902785616 0 -0.33732249104276257 0.131346910735954 0 -0.35647587307076278 0.14289703800607989 0 -0.36287855408809822 0.1599056134502603 0 -0.35357979475610862 0.15700481946059139 0 -0.37716844139212058 0.14572927032639921 0 -0.35647587307076278 0.14289703800607989 0 -0.36287855408809822 0.1599056134502603 0 -0.3781011263767064 0.171774831509176 0 -0.36287855408809822 0.1599056134502603 0 -0.35964015679024341 0.17946935691621579 0 -0.3781011263767064 0.171774831509176 0 -0.37716844139212058 0.14572927032639921 0 -0.36287855408809822 0.1599056134502603 0 -0.37903381136129222 0.19782039269195281 0 -0.3781011263767064 0.171774831509176 0 -0.35964015679024341 0.17946935691621579 0 -0.35964015679024341 0.17946935691621579 0 -0.35153366879298581 0.16600893610746389 0 -0.34309734718244622 0.17838870404507201 0 -0.35964015679024341 0.17946935691621579 0 -0.34309734718244622 0.17838870404507201 0 -0.35210511399334521 0.19841662263689869 0 -0.36287855408809822 0.1599056134502603 0 -0.35964015679024341 0.17946935691621579 0 -0.35153366879298581 0.16600893610746389 0 -0.36287855408809822 0.1599056134502603 0 -0.35357979475610862 0.15700481946059139 0 -0.35153366879298581 0.16600893610746389 0 -0.35153366879298581 0.16600893610746389 0 -0.34174847804485808 0.16712149937682669 0 -0.34309734718244622 0.17838870404507201 0 -0.35153366879298581 0.16600893610746389 0 -0.34343108307258757 0.1592076902785616 0 -0.34174847804485808 0.16712149937682669 0 -0.35357979475610862 0.15700481946059139 0 -0.35153366879298581 0.16600893610746389 0 -0.34343108307258757 0.1592076902785616 0 -0.34343108307258757 0.1592076902785616 0 -0.33432708244801629 0.15811351469167401 0 -0.33475155756043201 0.1639364017332065 0 -0.34343108307258757 0.1592076902785616 0 -0.34174847804485808 0.16712149937682669 0 -0.33475155756043201 0.1639364017332065 0 -0.34343108307258757 0.1592076902785616 0 -0.33475155756043201 0.1639364017332065 0 -0.34174847804485808 0.16712149937682669 0 -0.33507698246585732 0.16840053263125401 0 -0.34309734718244622 0.17838870404507201 0 -0.34174847804485808 0.16712149937682669 0 -0.33507698246585732 0.16840053263125401 0 -0.33475155756043201 0.1639364017332065 0 -0.33507698246585732 0.16840053263125401 0 -0.33475155756043201 0.1639364017332065 0 -0.33432708244801629 0.15811351469167401 0 -0.33475155756043201 0.1639364017332065 0 -0.32432794481027177 0.1563985660706535 0 -0.33432708244801629 0.15811351469167401 0 -0.33475155756043201 0.1639364017332065 0 -0.33475155756043201 0.1639364017332065 0 -0.33072720783987869 0.1902815528335329 0 -0.33507698246585732 0.16840053263125401 0 -0.33475155756043201 0.1639364017332065 0 -0.33072720783987869 0.1902815528335329 0 -0.33507698246585732 0.16840053263125401 0 -0.34309734718244622 0.17838870404507201 0 -0.33072720783987869 0.1902815528335329 0 -0.33475155756043201 0.1639364017332065 0 -0.33072720783987869 0.1902815528335329 0 -0.31179304608146408 0.17644447905380189 0 -0.33475155756043201 0.1639364017332065 0 -0.31179304608146408 0.17644447905380189 0 -0.33475155756043201 0.1639364017332065 0 -0.31813664190152002 0.16295708823369881 0 -0.31179304608146408 0.17644447905380189 0 -0.33475155756043201 0.1639364017332065 0 -0.32432794481027177 0.1563985660706535 0 -0.31813664190152002 0.16295708823369881 0 -0.31813664190152002 0.16295708823369881 0 -0.30856386166484862 0.1645608001949356 0 -0.31179304608146408 0.17644447905380189 0 -0.32432794481027177 0.1563985660706535 0 -0.31813664190152002 0.16295708823369881 0 -0.31068956915755891 0.15163639437157039 0 -0.32432794481027177 0.1563985660706535 0 -0.32488084722991911 0.14472509056433 0 -0.31068956915755891 0.15163639437157039 0 -0.33432708244801629 0.15811351469167401 0 -0.32432794481027177 0.1563985660706535 0 -0.32488084722991911 0.14472509056433 0 -0.32488084722991911 0.14472509056433 0 -0.31637874872836419 0.13602927015073479 0 -0.31068956915755891 0.15163639437157039 0 -0.31637874872836419 0.13602927015073479 0 -0.31396029814211412 0.128045844920089 0 -0.31998236019302739 0.12711111886087451 0 -0.31637874872836419 0.13602927015073479 0 -0.31998236019302739 0.12711111886087451 0 -0.32416042792964311 0.1337897183166753 0 -0.31998236019302739 0.12711111886087451 0 -0.32503944756169523 0.12816637289491789 0 -0.32361881508428458 0.1201388783835504 0 -0.32503944756169523 0.12816637289491789 0 -0.33239618703982549 0.1316257760185712 0 -0.32361881508428458 0.1201388783835504 0 -0.32503944756169523 0.12816637289491789 0 -0.32416042792964311 0.1337897183166753 0 -0.33239618703982549 0.1316257760185712 0 -0.31998236019302739 0.12711111886087451 0 -0.32503944756169523 0.12816637289491789 0 -0.32416042792964311 0.1337897183166753 0 -0.32488084722991911 0.14472509056433 0 -0.32416042792964311 0.1337897183166753 0 -0.33239618703982549 0.1316257760185712 0 -0.32488084722991911 0.14472509056433 0 -0.31637874872836419 0.13602927015073479 0 -0.32416042792964311 0.1337897183166753 0 -0.33432708244801629 0.15811351469167401 0 -0.33732249104276257 0.131346910735954 0 -0.33239618703982549 0.1316257760185712 0 -0.33432708244801629 0.15811351469167401 0 -0.33239618703982549 0.1316257760185712 0 -0.34343108307258757 0.1592076902785616 0 -0.33432708244801629 0.15811351469167401 0 -0.33732249104276257 0.131346910735954 0 -0.33432708244801629 0.15811351469167401 0 -0.33732249104276257 0.131346910735954 0 -0.33432708244801629 0.15811351469167401 0 -0.32488084722991911 0.14472509056433 0 -0.33239618703982549 0.1316257760185712 0 -0.35815669801932182 0.23741593730322669 0 -0.343002765192368 0.226709150239149 0 -0.34640570802889492 0.25478041898938741 0 -0.35815669801932182 0.23741593730322669 0 -0.36613552699662999 0.2498380616322399 0 -0.34640570802889492 0.25478041898938741 0 -0.37996649634587798 0.2238659538747296 0 -0.35815669801932182 0.23741593730322669 0 -0.36613552699662999 0.2498380616322399 0 -0.37996649634587798 0.2238659538747296 0 -0.35815669801932182 0.23741593730322669 0 -0.35921964598704281 0.2183631755868444 0 -0.35815669801932182 0.23741593730322669 0 -0.35921964598704281 0.2183631755868444 0 -0.343002765192368 0.226709150239149 0 -0.35815669801932182 0.23741593730322669 0 -0.343002765192368 0.226709150239149 0 -0.35921964598704281 0.2183631755868444 0 -0.35210511399334521 0.19841662263689869 0 -0.34258071307560978 0.20995457289429931 0 -0.35921964598704281 0.2183631755868444 0 -0.34258071307560978 0.20995457289429931 0 -0.343002765192368 0.226709150239149 0 -0.37903381136129222 0.19782039269195281 0 -0.35921964598704281 0.2183631755868444 0 -0.35210511399334521 0.19841662263689869 0 -0.37903381136129222 0.19782039269195281 0 -0.37996649634587798 0.2238659538747296 0 -0.35921964598704281 0.2183631755868444 0 -0.37903381136129222 0.19782039269195281 0 -0.35964015679024341 0.17946935691621579 0 -0.35210511399334521 0.19841662263689869 0 -0.34309734718244622 0.17838870404507201 0 -0.35210511399334521 0.19841662263689869 0 -0.33072720783987869 0.1902815528335329 0 -0.35210511399334521 0.19841662263689869 0 -0.33072720783987869 0.1902815528335329 0 -0.34258071307560978 0.20995457289429931 0 -0.33072720783987869 0.1902815528335329 0 -0.32784883236541401 0.2160023631750719 0 -0.30891064852678651 0.2026218695397892 0 -0.33072720783987869 0.1902815528335329 0 -0.30891064852678651 0.2026218695397892 0 -0.31179304608146408 0.17644447905380189 0 -0.32784883236541401 0.2160023631750719 0 -0.30844096500423068 0.22337903807044199 0 -0.30891064852678651 0.2026218695397892 0 -0.32784883236541401 0.2160023631750719 0 -0.30891064852678651 0.2026218695397892 0 -0.33072720783987869 0.1902815528335329 0 -0.32784883236541401 0.2160023631750719 0 -0.34258071307560978 0.20995457289429931 0 -0.32784883236541401 0.2160023631750719 0 -0.34258071307560978 0.20995457289429931 0 -0.343002765192368 0.226709150239149 0 -0.33072720783987869 0.1902815528335329 0 -0.32784883236541401 0.2160023631750719 0 -0.32784883236541401 0.2160023631750719 0 -0.343002765192368 0.226709150239149 0 -0.32451948051288149 0.24575304313981139 0 -0.32784883236541401 0.2160023631750719 0 -0.343002765192368 0.226709150239149 0 -0.32784883236541401 0.2160023631750719 0 -0.32451948051288149 0.24575304313981139 0 -0.32784883236541401 0.2160023631750719 0 -0.32451948051288149 0.24575304313981139 0 -0.30844096500423068 0.22337903807044199 0 -0.32451948051288149 0.24575304313981139 0 -0.3049348337754611 0.24434814692371409 0 -0.30844096500423068 0.22337903807044199 0 -0.343002765192368 0.226709150239149 0 -0.32451948051288149 0.24575304313981139 0 -0.34640570802889492 0.25478041898938741 0 -0.28959499031476021 0.2320916660336404 0 -0.28937940074773799 0.25656505057758427 0 -0.28959499031476021 0.2320916660336404 0 -0.28294327759730942 0.23134468057995761 0 -0.27814010919050952 0.25176293348782253 0 -0.3049348337754611 0.24434814692371409 0 -0.28959499031476021 0.2320916660336404 0 -0.28937940074773799 0.25656505057758427 0 -0.28959499031476021 0.2320916660336404 0 -0.28937940074773799 0.25656505057758427 0 -0.27814010919050952 0.25176293348782253 0 -0.3049348337754611 0.24434814692371409 0 -0.30844096500423068 0.22337903807044199 0 -0.28959499031476021 0.2320916660336404 0 -0.30844096500423068 0.22337903807044199 0 -0.28959499031476021 0.2320916660336404 0 -0.29964575421616368 0.2109221122719975 0 -0.28959499031476021 0.2320916660336404 0 -0.28294327759730942 0.23134468057995761 0 -0.2816165828600119 0.21996524530816619 0 -0.28959499031476021 0.2320916660336404 0 -0.28984900016437098 0.20325687215512911 0 -0.29964575421616368 0.2109221122719975 0 -0.28959499031476021 0.2320916660336404 0 -0.28984900016437098 0.20325687215512911 0 -0.28959499031476021 0.2320916660336404 0 -0.2816165828600119 0.21996524530816619 0 -0.28984900016437098 0.20325687215512911 0 -0.28984900016437098 0.20325687215512911 0 -0.29964575421616368 0.2109221122719975 0 -0.29760537579140312 0.19865145002889309 0 -0.30844096500423068 0.22337903807044199 0 -0.29964575421616368 0.2109221122719975 0 -0.30891064852678651 0.2026218695397892 0 -0.29964575421616368 0.2109221122719975 0 -0.29760537579140312 0.19865145002889309 0 -0.30891064852678651 0.2026218695397892 0 -0.30891064852678651 0.2026218695397892 0 -0.28924622533874211 0.1887282622355636 0 -0.31179304608146408 0.17644447905380189 0 -0.30891064852678651 0.2026218695397892 0 -0.28924622533874211 0.1887282622355636 0 -0.29760537579140312 0.19865145002889309 0 -0.30891064852678651 0.2026218695397892 0 -0.28924622533874211 0.1887282622355636 0 -0.28924622533874211 0.1887282622355636 0 -0.27361342722148618 0.19724520148779021 0 -0.28984900016437098 0.20325687215512911 0 -0.28924622533874211 0.1887282622355636 0 -0.27361342722148618 0.19724520148779021 0 -0.28984900016437098 0.20325687215512911 0 -0.28924622533874211 0.1887282622355636 0 -0.28984900016437098 0.20325687215512911 0 -0.29760537579140312 0.19865145002889309 0 -0.28924622533874211 0.1887282622355636 0 -0.28984900016437098 0.20325687215512911 0 -0.29760537579140312 0.19865145002889309 0 -0.28924622533874211 0.1887282622355636 0 -0.27361342722148618 0.19724520148779021 0 -0.2727101439512673 0.1865456406387391 0 -0.27361342722148618 0.19724520148779021 0 -0.2727101439512673 0.1865456406387391 0 -0.2608686744814202 0.1871192703135045 0 -0.27361342722148618 0.19724520148779021 0 -0.25463573431352149 0.20422342595113879 0 -0.2608686744814202 0.1871192703135045 0 -0.25463573431352149 0.20422342595113879 0 -0.2608686744814202 0.1871192703135045 0 -0.24241414195184999 0.18797788129826851 0 -0.27361342722148618 0.19724520148779021 0 -0.25463573431352149 0.20422342595113879 0 -0.26792932170493411 0.21627189064201929 0 -0.25463573431352149 0.20422342595113879 0 -0.26792932170493411 0.21627189064201929 0 -0.24600964324549701 0.22928690912890909 0 -0.2816165828600119 0.21996524530816619 0 -0.28984900016437098 0.20325687215512911 0 -0.26792932170493411 0.21627189064201929 0 -0.28984900016437098 0.20325687215512911 0 -0.26792932170493411 0.21627189064201929 0 -0.28984900016437098 0.20325687215512911 0 -0.27361342722148618 0.19724520148779021 0 -0.26792932170493411 0.21627189064201929 0 -0.26792932170493411 0.21627189064201929 0 -0.27530817406882868 0.2239359110770868 0 -0.26406626432459401 0.23767814437306889 0 -0.2816165828600119 0.21996524530816619 0 -0.26792932170493411 0.21627189064201929 0 -0.27530817406882868 0.2239359110770868 0 -0.28294327759730942 0.23134468057995761 0 -0.2816165828600119 0.21996524530816619 0 -0.27530817406882868 0.2239359110770868 0 -0.28294327759730942 0.23134468057995761 0 -0.27530817406882868 0.2239359110770868 0 -0.27372490646797021 0.23435310599723211 0 -0.27530817406882868 0.2239359110770868 0 -0.27372490646797021 0.23435310599723211 0 -0.26406626432459401 0.23767814437306889 0 -0.26792932170493411 0.21627189064201929 0 -0.24600964324549701 0.22928690912890909 0 -0.26792932170493411 0.21627189064201929 0 -0.26406626432459401 0.23767814437306889 0 -0.24600964324549701 0.22928690912890909 0 -0.26406626432459401 0.23767814437306889 0 -0.24214295464715219 0.25181578413355249 0 -0.24600964324549701 0.22928690912890909 0 -0.28294327759730942 0.23134468057995761 0 -0.27814010919050952 0.25176293348782253 0 -0.27372490646797021 0.23435310599723211 0 -0.26406626432459401 0.23767814437306889 0 -0.27814010919050952 0.25176293348782253 0 -0.28294327759730942 0.23134468057995761 0 -0.27372490646797021 0.23435310599723211 0 -0.27814010919050952 0.25176293348782253 0 -0.29033787195669608 0.1477609243152149 0 -0.28459285848618299 0.13847238542715221 0 -0.29053418833428019 0.12547540156361031 0 -0.29033787195669608 0.1477609243152149 0 -0.29053418833428019 0.12547540156361031 0 -0.28459285848618299 0.13847238542715221 0 -0.29053418833428019 0.12547540156361031 0 -0.27294954465462068 0.12717409495958071 0 -0.29033787195669608 0.1477609243152149 0 -0.29053418833428019 0.12547540156361031 0 -0.30378778077063368 0.12994101069166569 0 -0.31637874872836419 0.13602927015073479 0 -0.30378778077063368 0.12994101069166569 0 -0.31068956915755891 0.15163639437157039 0 -0.31396029814211412 0.128045844920089 0 -0.30378778077063368 0.12994101069166569 0 -0.31331521520385308 0.1197024868491269 0 -0.31637874872836419 0.13602927015073479 0 -0.31396029814211412 0.128045844920089 0 -0.30378778077063368 0.12994101069166569 0 -0.29033787195669608 0.1477609243152149 0 -0.31068956915755891 0.15163639437157039 0 -0.30047619437735118 0.1600419100803154 0 -0.29033787195669608 0.1477609243152149 0 -0.31068956915755891 0.15163639437157039 0 -0.29033787195669608 0.1477609243152149 0 -0.30378778077063368 0.12994101069166569 0 -0.31068956915755891 0.15163639437157039 0 -0.31068956915755891 0.15163639437157039 0 -0.30856386166484862 0.1645608001949356 0 -0.30047619437735118 0.1600419100803154 0 -0.31813664190152002 0.16295708823369881 0 -0.31068956915755891 0.15163639437157039 0 -0.30856386166484862 0.1645608001949356 0 -0.30856386166484862 0.1645608001949356 0 -0.30172385680634872 0.17172412923529121 0 -0.31179304608146408 0.17644447905380189 0 -0.30172385680634872 0.17172412923529121 0 -0.30047619437735118 0.1600419100803154 0 -0.29017094391053938 0.16671033045398101 0 -0.30856386166484862 0.1645608001949356 0 -0.30172385680634872 0.17172412923529121 0 -0.30047619437735118 0.1600419100803154 0 -0.28924622533874211 0.1887282622355636 0 -0.30172385680634872 0.17172412923529121 0 -0.31179304608146408 0.17644447905380189 0 -0.28924622533874211 0.1887282622355636 0 -0.31179304608146408 0.17644447905380189 0 -0.28924622533874211 0.1887282622355636 0 -0.28412748171532132 0.17921415920581291 0 -0.29017094391053938 0.16671033045398101 0 -0.28924622533874211 0.1887282622355636 0 -0.30172385680634872 0.17172412923529121 0 -0.29017094391053938 0.16671033045398101 0 -0.28924622533874211 0.1887282622355636 0 -0.29017094391053938 0.16671033045398101 0 -0.29033787195669608 0.1477609243152149 0 -0.29017094391053938 0.16671033045398101 0 -0.29033787195669608 0.1477609243152149 0 -0.29017094391053938 0.16671033045398101 0 -0.26769298475079017 0.1569552180197499 0 -0.29033787195669608 0.1477609243152149 0 -0.30047619437735118 0.1600419100803154 0 -0.29017094391053938 0.16671033045398101 0 -0.30172385680634872 0.17172412923529121 0 -0.29017094391053938 0.16671033045398101 0 -0.29017094391053938 0.16671033045398101 0 -0.26769298475079017 0.1569552180197499 0 -0.29017094391053938 0.16671033045398101 0 -0.26769298475079017 0.1569552180197499 0 -0.26711224876342082 0.1730898285180977 0 -0.28924622533874211 0.1887282622355636 0 -0.28412748171532132 0.17921415920581291 0 -0.26711224876342082 0.1730898285180977 0 -0.28924622533874211 0.1887282622355636 0 -0.26711224876342082 0.1730898285180977 0 -0.28924622533874211 0.1887282622355636 0 -0.26711224876342082 0.1730898285180977 0 -0.2727101439512673 0.1865456406387391 0 -0.28412748171532132 0.17921415920581291 0 -0.29017094391053938 0.16671033045398101 0 -0.26711224876342082 0.1730898285180977 0 -0.26711224876342082 0.1730898285180977 0 -0.2727101439512673 0.1865456406387391 0 -0.2608686744814202 0.1871192703135045 0 -0.2608686744814202 0.1871192703135045 0 -0.25257003298746361 0.17477546459566609 0 -0.24241414195184999 0.18797788129826851 0 -0.26711224876342082 0.1730898285180977 0 -0.2608686744814202 0.1871192703135045 0 -0.25257003298746361 0.17477546459566609 0 -0.26769298475079017 0.1569552180197499 0 -0.26711224876342082 0.1730898285180977 0 -0.25632071909283261 0.16308063945061729 0 -0.26711224876342082 0.1730898285180977 0 -0.25257003298746361 0.17477546459566609 0 -0.25632071909283261 0.16308063945061729 0 -0.25257003298746361 0.17477546459566609 0 -0.25632071909283261 0.16308063945061729 0 -0.2459770815842531 0.16170448909819829 0 -0.26769298475079017 0.1569552180197499 0 -0.26470633974480962 0.14288004216542491 0 -0.24521502559104091 0.14720010558551899 0 -0.26769298475079017 0.1569552180197499 0 -0.24521502559104091 0.14720010558551899 0 -0.26470633974480962 0.14288004216542491 0 -0.24774217926603451 0.13964964347593009 0 -0.26470633974480962 0.14288004216542491 0 -0.24774217926603451 0.13964964347593009 0 -0.24521502559104091 0.14720010558551899 0 -0.26470633974480962 0.14288004216542491 0 -0.24521502559104091 0.14720010558551899 0 -0.26769298475079017 0.1569552180197499 0 -0.25632071909283261 0.16308063945061729 0 -0.24521502559104091 0.14720010558551899 0 -0.29033787195669608 0.1477609243152149 0 -0.26769298475079017 0.1569552180197499 0 -0.26470633974480962 0.14288004216542491 0 -0.29033787195669608 0.1477609243152149 0 -0.26470633974480962 0.14288004216542491 0 -0.29033787195669608 0.1477609243152149 0 -0.28459285848618299 0.13847238542715221 0 -0.26470633974480962 0.14288004216542491 0 -0.28459285848618299 0.13847238542715221 0 -0.26470633974480962 0.14288004216542491 0 -0.28459285848618299 0.13847238542715221 0 -0.26470633974480962 0.14288004216542491 0 -0.27294954465462068 0.12717409495958071 0 -0.26470633974480962 0.14288004216542491 0 -0.27294954465462068 0.12717409495958071 0 -0.2582266665269089 0.1307493748176754 0 -0.27294954465462068 0.12717409495958071 0 -0.2582266665269089 0.1307493748176754 0 -0.26077517672653422 0.11896779550668581 0 -0.2582266665269089 0.1307493748176754 0 -0.24467470510727141 0.12314208916258861 0 -0.24774217926603451 0.13964964347593009 0 -0.26470633974480962 0.14288004216542491 0 -0.2582266665269089 0.1307493748176754 0 -0.24774217926603451 0.13964964347593009 0 -0.26077517672653422 0.11896779550668581 0 -0.25458367379753782 0.1065984124678885 0 -0.27320328792144871 0.11064123070666319 0 -0.2582266665269089 0.1307493748176754 0 -0.26077517672653422 0.11896779550668581 0 -0.24467470510727141 0.12314208916258861 0 -0.26077517672653422 0.11896779550668581 0 -0.25458367379753782 0.1065984124678885 0 -0.24467470510727141 0.12314208916258861 0 -0.25458367379753782 0.1065984124678885 0 -0.26778285326097168 0.086384766596825396 0 -0.24463888543250151 0.091865177133262033 0 -0.25458367379753782 0.1065984124678885 0 -0.27320328792144871 0.11064123070666319 0 -0.26778285326097168 0.086384766596825396 0 -0.27320328792144871 0.11064123070666319 0 -0.29073050471186412 0.10318987881200579 0 -0.26778285326097168 0.086384766596825396 0 -0.29053418833428019 0.12547540156361031 0 -0.27294954465462068 0.12717409495958071 0 -0.27320328792144871 0.11064123070666319 0 -0.27294954465462068 0.12717409495958071 0 -0.26077517672653422 0.11896779550668581 0 -0.27320328792144871 0.11064123070666319 0 -0.29053418833428019 0.12547540156361031 0 -0.27320328792144871 0.11064123070666319 0 -0.29073050471186412 0.10318987881200579 0 -0.29053418833428019 0.12547540156361031 0 -0.29073050471186412 0.10318987881200579 0 -0.30085870291025668 0.1130384297868431 0 -0.29053418833428019 0.12547540156361031 0 -0.29073050471186412 0.10318987881200579 0 -0.29073050471186412 0.10318987881200579 0 -0.30393605586951239 0.099250599870062725 0 -0.29092682108944479 0.080904356060401209 0 -0.29073050471186412 0.10318987881200579 0 -0.30393605586951239 0.099250599870062725 0 -0.30085870291025668 0.1130384297868431 0 -0.30393605586951239 0.099250599870062725 0 -0.30977133298868781 0.090777064065670848 0 -0.3139326208486023 0.099688130692420177 0 -0.30393605586951239 0.099250599870062725 0 -0.30983202961862832 0.1096210262974341 0 -0.3139326208486023 0.099688130692420177 0 -0.30393605586951239 0.099250599870062725 0 -0.30983202961862832 0.1096210262974341 0 -0.30085870291025668 0.1130384297868431 0 -0.30983202961862832 0.1096210262974341 0 -0.30085870291025668 0.1130384297868431 0 -0.31331521520385308 0.1197024868491269 0 -0.30378778077063368 0.12994101069166569 0 -0.30085870291025668 0.1130384297868431 0 -0.31331521520385308 0.1197024868491269 0 -0.29053418833428019 0.12547540156361031 0 -0.30378778077063368 0.12994101069166569 0 -0.30085870291025668 0.1130384297868431 0 -0.29850497263064429 0.07910987631254246 0 -0.29562838419692478 0.068442285726245583 0 -0.32181836377492479 0.073589346928202556 0 -0.29562838419692478 0.068442285726245583 0 -0.32181836377492479 0.073589346928202556 0 -0.29850497263064429 0.07910987631254246 0 -0.32181836377492479 0.073589346928202556 0 -0.29520094554600262 0.066857164797817822 0 -0.30107103576395061 0.05707356279654225 0 -0.32007019034702261 0.065069998435682216 0 -0.29520094554600262 0.066857164797817822 0 -0.32007019034702261 0.065069998435682216 0 -0.29520094554600262 0.066857164797817822 0 -0.29562838419692478 0.068442285726245583 0 -0.32007019034702261 0.065069998435682216 0 -0.29850497263064429 0.07910987631254246 0 -0.29562838419692478 0.068442285726245583 0 -0.30393605586951239 0.099250599870062725 0 -0.29850497263064429 0.07910987631254246 0 -0.30393605586951239 0.099250599870062725 0 -0.30977133298868781 0.090777064065670848 0 -0.29850497263064429 0.07910987631254246 0 -0.29850497263064429 0.07910987631254246 0 -0.31391606373412267 0.083865301522364266 0 -0.32181836377492479 0.073589346928202556 0 -0.30393605586951239 0.099250599870062725 0 -0.29850497263064429 0.07910987631254246 0 -0.29092682108944479 0.080904356060401209 0 -0.30977133298868781 0.090777064065670848 0 -0.29850497263064429 0.07910987631254246 0 -0.31391606373412267 0.083865301522364266 0 -0.29850497263064429 0.07910987631254246 0 -0.29092682108944479 0.080904356060401209 0 -0.29073050471186412 0.10318987881200579 0 -0.29092682108944479 0.080904356060401209 0 -0.26778285326097168 0.086384766596825396 0 -0.29073050471186412 0.10318987881200579 0 -0.29092682108944479 0.080904356060401209 0 -0.29092682108944479 0.080904356060401209 0 -0.28960790882913462 0.067259094456827664 0 -0.2802601227364645 0.075755177533668894 0 -0.29092682108944479 0.080904356060401209 0 -0.29562838419692478 0.068442285726245583 0 -0.2910445370113271 0.067541431949920128 0 -0.29092682108944479 0.080904356060401209 0 -0.2910445370113271 0.067541431949920128 0 -0.29850497263064429 0.07910987631254246 0 -0.29092682108944479 0.080904356060401209 0 -0.29562838419692478 0.068442285726245583 0 -0.29092682108944479 0.080904356060401209 0 -0.2910445370113271 0.067541431949920128 0 -0.28960790882913462 0.067259094456827664 0 -0.2910445370113271 0.067541431949920128 0 -0.28960790882913462 0.067259094456827664 0 -0.28743445505387188 0.058969290886947148 0 -0.29520094554600262 0.066857164797817822 0 -0.29562838419692478 0.068442285726245583 0 -0.2910445370113271 0.067541431949920128 0 -0.29562838419692478 0.068442285726245583 0 -0.2910445370113271 0.067541431949920128 0 -0.29520094554600262 0.066857164797817822 0 -0.2910445370113271 0.067541431949920128 0 -0.29520094554600262 0.066857164797817822 0 -0.29562838419692478 0.068442285726245583 0 -0.2910445370113271 0.067541431949920128 0 -0.28960790882913462 0.067259094456827664 0 -0.28960790882913462 0.067259094456827664 0 -0.27272290776630359 0.068472493020621306 0 -0.26648610881661322 0.062715016084812919 0 -0.28960790882913462 0.067259094456827664 0 -0.27272290776630359 0.068472493020621306 0 -0.2802601227364645 0.075755177533668894 0 -0.28960790882913462 0.067259094456827664 0 -0.27272290776630359 0.068472493020621306 0 -0.28960790882913462 0.067259094456827664 0 -0.26648610881661322 0.062715016084812919 0 -0.27272290776630359 0.068472493020621306 0 -0.2802601227364645 0.075755177533668894 0 -0.26778285326097168 0.086384766596825396 0 -0.28960790882913462 0.067259094456827664 0 -0.26648610881661322 0.062715016084812919 0 -0.27493336567810078 0.059421307982294738 0 -0.29092682108944479 0.080904356060401209 0 -0.26778285326097168 0.086384766596825396 0 -0.29092682108944479 0.080904356060401209 0 -0.2802601227364645 0.075755177533668894 0 -0.26778285326097168 0.086384766596825396 0 -0.26778285326097168 0.086384766596825396 0 -0.24463888543250151 0.091865177133262033 0 -0.25583790670347267 0.069685891584415155 0 -0.24463888543250151 0.091865177133262033 0 -0.26778285326097168 0.086384766596825396 0 -0.25583790670347267 0.069685891584415155 0 -0.24463888543250151 0.091865177133262033 0 -0.27272290776630359 0.068472493020621306 0 -0.26648610881661322 0.062715016084812919 0 -0.25583790670347267 0.069685891584415155 0 -0.27272290776630359 0.068472493020621306 0 -0.25583790670347267 0.069685891584415155 0 -0.27272290776630359 0.068472493020621306 0 -0.26778285326097168 0.086384766596825396 0 -0.25583790670347267 0.069685891584415155 0 -0.25583790670347267 0.069685891584415155 0 -0.24514501346171769 0.070454309735769605 0 -0.25583790670347267 0.069685891584415155 0 -0.26418094752337168 0.053037090208517587 0 -0.2530487658585131 0.043979437238689002 0 -0.25583790670347267 0.069685891584415155 0 -0.2530487658585131 0.043979437238689002 0 -0.24514501346171769 0.070454309735769605 0 -0.26648610881661322 0.062715016084812919 0 -0.25583790670347267 0.069685891584415155 0 -0.26418094752337168 0.053037090208517587 0 -0.25583790670347267 0.069685891584415155 0 -0.26418094752337168 0.053037090208517587 0 -0.26418094752337168 0.053037090208517587 0 -0.2530487658585131 0.043979437238689002 0 -0.27252398834326869 0.03638828883261902 0 -0.2530487658585131 0.043979437238689002 0 -0.27252398834326869 0.03638828883261902 0 -0.26095251825530857 0.01750456474160824 0 -0.27250825342722018 0.044449182417825667 0 -0.27252398834326869 0.03638828883261902 0 -0.26418094752337168 0.053037090208517587 0 -0.27252398834326869 0.03638828883261902 0 -0.26418094752337168 0.053037090208517587 0 -0.27250825342722018 0.044449182417825667 0 -0.27252398834326869 0.03638828883261902 0 -0.27252398834326869 0.03638828883261902 0 -0.28092377144035102 0.041864104700090263 0 -0.28616344038116409 0.033342323435780287 0 -0.27250825342722018 0.044449182417825667 0 -0.28092377144035102 0.041864104700090263 0 -0.27843135279754361 0.049299505055936298 0 -0.27250825342722018 0.044449182417825667 0 -0.27252398834326869 0.03638828883261902 0 -0.28092377144035102 0.041864104700090263 0 -0.27250825342722018 0.044449182417825667 0 -0.27843135279754361 0.049299505055936298 0 -0.27213392257702251 0.052491260143875867 0 -0.27843135279754361 0.049299505055936298 0 -0.27493336567810078 0.059421307982294738 0 -0.27213392257702251 0.052491260143875867 0 -0.26648610881661322 0.062715016084812919 0 -0.26418094752337168 0.053037090208517587 0 -0.26943358614877699 0.056916168604875278 0 -0.26648610881661322 0.062715016084812919 0 -0.27493336567810078 0.059421307982294738 0 -0.26943358614877699 0.056916168604875278 0 -0.27493336567810078 0.059421307982294738 0 -0.26943358614877699 0.056916168604875278 0 -0.27213392257702251 0.052491260143875867 0 -0.26418094752337168 0.053037090208517587 0 -0.26943358614877699 0.056916168604875278 0 -0.27213392257702251 0.052491260143875867 0 -0.26418094752337168 0.053037090208517587 0 -0.27250825342722018 0.044449182417825667 0 -0.27213392257702251 0.052491260143875867 0 -0.26883646879479978 -0.0089039782930802475 0 -0.2605698332130289 8.0402539788944994e-05 0 -0.26095251825530857 0.01750456474160824 0 -0.26883646879479978 -0.0089039782930802475 0 -0.26095251825530857 0.01750456474160824 0 -0.2605698332130289 8.0402539788944994e-05 0 -0.25406732548350502 0.005811738835174279 0 -0.26095251825530857 0.01750456474160824 0 -0.25454557886518481 -0.002208813397413151 0 -0.25406732548350502 0.005811738835174279 0 -0.24862522939258691 0.002025091944098644 0 -0.25454557886518481 -0.002208813397413151 0 -0.2605698332130289 8.0402539788944994e-05 0 -0.25406732548350502 0.005811738835174279 0 -0.25406732548350502 0.005811738835174279 0 -0.26095251825530857 0.01750456474160824 0 -0.2461075249054161 0.0121032197105191 0 -0.2530487658585131 0.043979437238689002 0 -0.26095251825530857 0.01750456474160824 0 -0.2530487658585131 0.043979437238689002 0 -0.26095251825530857 0.01750456474160824 0 -0.24678590150662069 0.029992421989188521 0 -0.26095251825530857 0.01750456474160824 0 -0.24678590150662069 0.029992421989188521 0 -0.2461075249054161 0.0121032197105191 0 -0.26095251825530857 0.01750456474160824 0 -0.24678590150662069 0.029992421989188521 0 -0.27252398834326869 0.03638828883261902 0 -0.27257081662971511 0.01239846691613059 0 -0.28192567599656498 0.017626924275398258 0 -0.27252398834326869 0.03638828883261902 0 -0.26095251825530857 0.01750456474160824 0 -0.27257081662971511 0.01239846691613059 0 -0.27252398834326869 0.03638828883261902 0 -0.28192567599656498 0.017626924275398258 0 -0.27252398834326869 0.03638828883261902 0 -0.28192567599656498 0.017626924275398258 0 -0.28616344038116409 0.033342323435780287 0 -0.27252398834326869 0.03638828883261902 0 -0.27257081662971511 0.01239846691613059 0 -0.2726176449161643 -0.011591355000357869 0 -0.27257081662971511 0.01239846691613059 0 -0.27033073474202313 0.0092376771141261978 0 -0.26883646879479978 -0.0089039782930802475 0 -0.26095251825530857 0.01750456474160824 0 -0.27033073474202313 0.0092376771141261978 0 -0.2726176449161643 -0.011591355000357869 0 -0.27257081662971511 0.01239846691613059 0 -0.27423347697587541 -0.01089896037987154 0 -0.28192567599656498 0.017626924275398258 0 -0.27423347697587541 -0.01089896037987154 0 -0.27257081662971511 0.01239846691613059 0 -0.28192567599656498 0.017626924275398258 0 -0.26095251825530857 0.01750456474160824 0 -0.27257081662971511 0.01239846691613059 0 -0.27033073474202313 0.0092376771141261978 0 -0.26095251825530857 0.01750456474160824 0 -0.27033073474202313 0.0092376771141261978 0 -0.27423347697587541 -0.01089896037987154 0 -0.28918294955411111 0.0031448057530975991 0 -0.28192567599656498 0.017626924275398258 0 -0.29101078968297522 -0.0037097720016964829 0 -0.28918294955411111 0.0031448057530975991 0 -0.2981590546254097 0.0071380010349398598 0 -0.28918294955411111 0.0031448057530975991 0 -0.28192567599656498 0.017626924275398258 0 -0.28918294955411111 0.0031448057530975991 0 -0.29155502641102898 0.013903975571094679 0 -0.28192567599656498 0.017626924275398258 0 -0.28918294955411111 0.0031448057530975991 0 -0.29155502641102898 0.013903975571094679 0 -0.2981590546254097 0.0071380010349398598 0 -0.29155502641102898 0.013903975571094679 0 -0.29806729915099028 0.017850138549451069 0 -0.2981590546254097 0.0071380010349398598 0 -0.28192567599656498 0.017626924275398258 0 -0.28616344038116409 0.033342323435780287 0 -0.28192567599656498 0.017626924275398258 0 -0.29044015272806711 0.023760008242587172 0 -0.28616344038116409 0.033342323435780287 0 -0.29155502641102898 0.013903975571094679 0 -0.29044015272806711 0.023760008242587172 0 -0.29806729915099028 0.017850138549451069 0 -0.29155502641102898 0.013903975571094679 0 -0.28192567599656498 0.017626924275398258 0 -0.29044015272806711 0.023760008242587172 0 -0.29044015272806711 0.023760008242587172 0 -0.29806729915099028 0.017850138549451069 0 -0.30073071245799121 0.032198262069810073 0 -0.29044015272806711 0.023760008242587172 0 -0.28616344038116409 0.033342323435780287 0 -0.30073071245799121 0.032198262069810073 0 -0.30725226215731288 0.016053807823697471 0 -0.29806729915099028 0.017850138549451069 0 -0.30073071245799121 0.032198262069810073 0 -0.30725226215731288 0.016053807823697471 0 -0.30073071245799121 0.032198262069810073 0 -0.31534208246755302 0.032347119763871099 0 -0.29565872852974379 -0.0030628233792267972 0 -0.30778810239007659 0.0034794163764746791 0 -0.31756537222015518 0.0065585165944901606 0 -0.29101078968297522 -0.0037097720016964829 0 -0.30778810239007659 0.0034794163764746791 0 -0.2981590546254097 0.0071380010349398598 0 -0.29565872852974379 -0.0030628233792267972 0 -0.31756537222015518 0.0065585165944901606 0 -0.30725226215731288 0.016053807823697471 0 -0.29806729915099028 0.017850138549451069 0 -0.2981590546254097 0.0071380010349398598 0 -0.30725226215731288 0.016053807823697471 0 -0.30778810239007659 0.0034794163764746791 0 -0.2981590546254097 0.0071380010349398598 0 -0.30725226215731288 0.016053807823697471 0 -0.30778810239007659 0.0034794163764746791 0 -0.31756537222015518 0.0065585165944901606 0 -0.29118186022840248 0.051952718893436389 0 -0.29040120476576081 0.049057722596162992 0 -0.30107103576395061 0.05707356279654225 0 -0.29118186022840248 0.051952718893436389 0 -0.29040120476576081 0.049057722596162992 0 -0.28743445505387188 0.058969290886947148 0 -0.29118186022840248 0.051952718893436389 0 -0.29040120476576081 0.049057722596162992 0 -0.29520094554600262 0.066857164797817822 0 -0.29118186022840248 0.051952718893436389 0 -0.30107103576395061 0.05707356279654225 0 -0.2910445370113271 0.067541431949920128 0 -0.29118186022840248 0.051952718893436389 0 -0.2910445370113271 0.067541431949920128 0 -0.29118186022840248 0.051952718893436389 0 -0.28743445505387188 0.058969290886947148 0 -0.29520094554600262 0.066857164797817822 0 -0.2910445370113271 0.067541431949920128 0 -0.29118186022840248 0.051952718893436389 0 -0.29520094554600262 0.066857164797817822 0 -0.29118186022840248 0.051952718893436389 0 -0.28960790882913462 0.067259094456827664 0 -0.27493336567810078 0.059421307982294738 0 -0.28743445505387188 0.058969290886947148 0 -0.27493336567810078 0.059421307982294738 0 -0.29040120476576081 0.049057722596162992 0 -0.28743445505387188 0.058969290886947148 0 -0.27843135279754361 0.049299505055936298 0 -0.27493336567810078 0.059421307982294738 0 -0.29040120476576081 0.049057722596162992 0 -0.27493336567810078 0.059421307982294738 0 -0.29040120476576081 0.049057722596162992 0 -0.28092377144035102 0.041864104700090263 0 -0.27843135279754361 0.049299505055936298 0 -0.29040120476576081 0.049057722596162992 0 -0.28092377144035102 0.041864104700090263 0 -0.29040120476576081 0.049057722596162992 0 -0.28616344038116409 0.033342323435780287 0 -0.29040120476576081 0.049057722596162992 0 -0.29125787282230808 0.043323890205157513 0 -0.30073071245799121 0.032198262069810073 0 -0.29040120476576081 0.049057722596162992 0 -0.28616344038116409 0.033342323435780287 0 -0.29125787282230808 0.043323890205157513 0 -0.29040120476576081 0.049057722596162992 0 -0.28616344038116409 0.033342323435780287 0 -0.28616344038116409 0.033342323435780287 0 -0.29125787282230808 0.043323890205157513 0 -0.30073071245799121 0.032198262069810073 0 -0.29040120476576081 0.049057722596162992 0 -0.29125787282230808 0.043323890205157513 0 -0.29040120476576081 0.049057722596162992 0 -0.31534208246755302 0.032347119763871099 0 -0.29040120476576081 0.049057722596162992 0 -0.31115574236283228 0.043886811478422313 0 -0.31534208246755302 0.032347119763871099 0 -0.29040120476576081 0.049057722596162992 0 -0.30073071245799121 0.032198262069810073 0 -0.31534208246755302 0.032347119763871099 0 -0.30509359193750119 0.050440685130196783 0 -0.30107103576395061 0.05707356279654225 0 -0.3145711141776526 0.052573457263500267 0 -0.30107103576395061 0.05707356279654225 0 -0.3145711141776526 0.052573457263500267 0 -0.32007019034702261 0.065069998435682216 0 -0.31115574236283228 0.043886811478422313 0 -0.30509359193750119 0.050440685130196783 0 -0.3145711141776526 0.052573457263500267 0 -0.29040120476576081 0.049057722596162992 0 -0.31115574236283228 0.043886811478422313 0 -0.30509359193750119 0.050440685130196783 0 -0.29040120476576081 0.049057722596162992 0 -0.30509359193750119 0.050440685130196783 0 -0.30107103576395061 0.05707356279654225 0 -0.3145711141776526 0.052573457263500267 0 -0.3281560815124574 0.054700788573511697 0 -0.32007019034702261 0.065069998435682216 0 -0.3145711141776526 0.052573457263500267 0 -0.32188004314215168 0.044268897166646413 0 -0.3281560815124574 0.054700788573511697 0 -0.31115574236283228 0.043886811478422313 0 -0.3145711141776526 0.052573457263500267 0 -0.32188004314215168 0.044268897166646413 0 -0.31115574236283228 0.043886811478422313 0 -0.31534208246755302 0.032347119763871099 0 -0.32188004314215168 0.044268897166646413 0 -0.31534208246755302 0.032347119763871099 0 -0.32188004314215168 0.044268897166646413 0 -0.32838468249717651 0.032948107920393002 0 -0.32188004314215168 0.044268897166646413 0 -0.34129610239322988 0.034888684784323741 0 -0.33672460351926181 0.047077471812437592 0 -0.32188004314215168 0.044268897166646413 0 -0.34129610239322988 0.034888684784323741 0 -0.32188004314215168 0.044268897166646413 0 -0.32838468249717651 0.032948107920393002 0 -0.34129610239322988 0.034888684784323741 0 -0.32838468249717651 0.032948107920393002 0 -0.34129610239322988 0.034888684784323741 0 -0.33792487243494218 0.027183858352023409 0 -0.34129610239322988 0.034888684784323741 0 -0.33672460351926181 0.047077471812437592 0 -0.34780326289184188 0.037692018469648737 0 -0.33672460351926181 0.047077471812437592 0 -0.34780326289184188 0.037692018469648737 0 -0.34493943514804248 0.06328283207354482 0 -0.33672460351926181 0.047077471812437592 0 -0.3281560815124574 0.054700788573511697 0 -0.34493943514804248 0.06328283207354482 0 -0.3281560815124574 0.054700788573511697 0 -0.34493943514804248 0.06328283207354482 0 -0.32007019034702261 0.065069998435682216 0 -0.32188004314215168 0.044268897166646413 0 -0.33672460351926181 0.047077471812437592 0 -0.3281560815124574 0.054700788573511697 0 -0.31267493755550779 -0.0085487720730209691 0 -0.31756537222015518 0.0065585165944901606 0 -0.33251598666114068 0.0020107041850400608 0 -0.31534208246755302 0.032347119763871099 0 -0.32838468249717651 0.032948107920393002 0 -0.33947201591056692 0.016179856568206561 0 -0.31534208246755302 0.032347119763871099 0 -0.31756537222015518 0.0065585165944901606 0 -0.33947201591056692 0.016179856568206561 0 -0.30725226215731288 0.016053807823697471 0 -0.31534208246755302 0.032347119763871099 0 -0.31756537222015518 0.0065585165944901606 0 -0.31534208246755302 0.032347119763871099 0 -0.33947201591056692 0.016179856568206561 0 -0.32838468249717651 0.032948107920393002 0 -0.33792487243494218 0.027183858352023409 0 -0.33947201591056692 0.016179856568206561 0 -0.34129610239322988 0.034888684784323741 0 -0.33792487243494218 0.027183858352023409 0 -0.3425466889387957 0.02471878413516982 0 -0.33792487243494218 0.027183858352023409 0 -0.3425466889387957 0.02471878413516982 0 -0.33947201591056692 0.016179856568206561 0 -0.3425466889387957 0.02471878413516982 0 -0.33947201591056692 0.016179856568206561 0 -0.34711932036586829 0.019538532460631419 0 -0.33947201591056692 0.016179856568206561 0 -0.34711932036586829 0.019538532460631419 0 -0.31756537222015518 0.0065585165944901606 0 -0.33947201591056692 0.016179856568206561 0 -0.31756537222015518 0.0065585165944901606 0 -0.33947201591056692 0.016179856568206561 0 -0.33251598666114068 0.0020107041850400608 0 -0.33947201591056692 0.016179856568206561 0 -0.33251598666114068 0.0020107041850400608 0 -0.34499096338392232 0.0124821142360305 0 -0.33947201591056692 0.016179856568206561 0 -0.34499096338392232 0.0124821142360305 0 -0.34563008095609887 -0.001415402038955568 0 -0.33251598666114068 0.0020107041850400608 0 -0.34499096338392232 0.0124821142360305 0 -0.34499096338392232 0.0124821142360305 0 -0.34711932036586829 0.019538532460631419 0 -0.36234562177419838 0.002288930207415555 0 -0.34711932036586829 0.019538532460631419 0 -0.36234562177419838 0.002288930207415555 0 -0.34711932036586829 0.019538532460631419 0 -0.367188181184468 0.0115830439228789 0 -0.36234562177419838 0.002288930207415555 0 -0.34563008095609887 -0.001415402038955568 0 -0.34499096338392232 0.0124821142360305 0 -0.36234562177419838 0.002288930207415555 0 -0.34129610239322988 0.034888684784323741 0 -0.36071216164430758 0.025508472402000461 0 -0.34129610239322988 0.034888684784323741 0 -0.3425466889387957 0.02471878413516982 0 -0.36071216164430758 0.025508472402000461 0 -0.34711932036586829 0.019538532460631419 0 -0.36071216164430758 0.025508472402000461 0 -0.367188181184468 0.0115830439228789 0 -0.3425466889387957 0.02471878413516982 0 -0.34711932036586829 0.019538532460631419 0 -0.36071216164430758 0.025508472402000461 0 -0.34711932036586829 0.019538532460631419 0 -0.36071216164430758 0.025508472402000461 0 -0.33947201591056692 0.016179856568206561 0 -0.34499096338392232 0.0124821142360305 0 -0.34711932036586829 0.019538532460631419 0 -0.3425466889387957 0.02471878413516982 0 -0.34711932036586829 0.019538532460631419 0 -0.38322188455235179 0.014633661050518819 0 -0.36071216164430758 0.025508472402000461 0 -0.37354310319873307 0.015885435701492579 0 -0.38322188455235179 0.014633661050518819 0 -0.36071216164430758 0.025508472402000461 0 -0.38222330239014329 0.034956108528420141 0 -0.36071216164430758 0.025508472402000461 0 -0.36071216164430758 0.025508472402000461 0 -0.37354310319873307 0.015885435701492579 0 -0.367188181184468 0.0115830439228789 0 -0.37354310319873307 0.015885435701492579 0 -0.367188181184468 0.0115830439228789 0 -0.37340753275891903 0.0060936975973046141 0 -0.367188181184468 0.0115830439228789 0 -0.37340753275891903 0.0060936975973046141 0 -0.36234562177419838 0.002288930207415555 0 -0.36800916043032761 -0.0041271905919835214 0 -0.37340753275891903 0.0060936975973046141 0 -0.36234562177419838 0.002288930207415555 0 -0.367188181184468 0.0115830439228789 0 -0.36234562177419838 0.002288930207415555 0 -0.35718140894045991 0.049083478369856853 0 -0.37423313126046631 0.061177713533202338 0 -0.34493943514804248 0.06328283207354482 0 -0.34780326289184188 0.037692018469648737 0 -0.34493943514804248 0.06328283207354482 0 -0.35718140894045991 0.049083478369856853 0 -0.34780326289184188 0.037692018469648737 0 -0.34493943514804248 0.06328283207354482 0 -0.34129610239322988 0.034888684784323741 0 -0.36071216164430758 0.025508472402000461 0 -0.34780326289184188 0.037692018469648737 0 -0.36071216164430758 0.025508472402000461 0 -0.34780326289184188 0.037692018469648737 0 -0.35844184910103499 0.037384059719796747 0 -0.35718140894045991 0.049083478369856853 0 -0.34780326289184188 0.037692018469648737 0 -0.35844184910103499 0.037384059719796747 0 -0.36071216164430758 0.025508472402000461 0 -0.35844184910103499 0.037384059719796747 0 -0.36866113695203728 0.043064204273069367 0 -0.38222330239014329 0.034956108528420141 0 -0.36071216164430758 0.025508472402000461 0 -0.36866113695203728 0.043064204273069367 0 -0.35718140894045991 0.049083478369856853 0 -0.35844184910103499 0.037384059719796747 0 -0.36866113695203728 0.043064204273069367 0 -0.37423313126046631 0.061177713533202338 0 -0.34493943514804248 0.06328283207354482 0 -0.35718140894045991 0.049083478369856853 0 -0.36866113695203728 0.043064204273069367 0 -0.37423313126046631 0.061177713533202338 0 -0.37423313126046631 0.061177713533202338 0 -0.35930857995174897 0.064711795020442386 0 -0.36467921020616101 0.082012698274938928 0 -0.38516249845558131 0.078194868366674497 0 -0.37423313126046631 0.061177713533202338 0 -0.36467921020616101 0.082012698274938928 0 -0.37423313126046631 0.061177713533202338 0 -0.35930857995174897 0.064711795020442386 0 -0.34493943514804248 0.06328283207354482 0 -0.37423313126046631 0.061177713533202338 0 -0.35930857995174897 0.064711795020442386 0 -0.35930857995174897 0.064711795020442386 0 -0.34438402864303108 0.068245876507679049 0 -0.35930857995174897 0.064711795020442386 0 -0.34438402864303108 0.068245876507679049 0 -0.34331330823225609 0.077813702824514275 0 -0.35930857995174897 0.064711795020442386 0 -0.36467921020616101 0.082012698274938928 0 -0.34331330823225609 0.077813702824514275 0 -0.34438402864303108 0.068245876507679049 0 -0.34331330823225609 0.077813702824514275 0 -0.35930857995174897 0.064711795020442386 0 -0.34438402864303108 0.068245876507679049 0 -0.34493943514804248 0.06328283207354482 0 -0.34438402864303108 0.068245876507679049 0 -0.34493943514804248 0.06328283207354482 0 -0.36467921020616101 0.082012698274938928 0 -0.34331330823225609 0.077813702824514275 0 -0.35251663210970829 0.092098376384172259 0 -0.34031789963750919 0.1045803067802341 0 -0.34331330823225609 0.077813702824514275 0 -0.35251663210970829 0.092098376384172259 0 -0.36467921020616101 0.082012698274938928 0 -0.34331330823225609 0.077813702824514275 0 -0.35251663210970829 0.092098376384172259 0 -0.36467921020616101 0.082012698274938928 0 -0.3617561103629075 0.10398679765700181 0 -0.37728664115199051 0.096549999617299043 0 -0.36467921020616101 0.082012698274938928 0 -0.3617561103629075 0.10398679765700181 0 -0.37574270482976552 0.1127602309153935 0 -0.37728664115199051 0.096549999617299043 0 -0.3617561103629075 0.10398679765700181 0 -0.3617561103629075 0.10398679765700181 0 -0.36705056219853383 0.1194023578563024 0 -0.3544766847842245 0.1222383725199034 0 -0.37574270482976552 0.1127602309153935 0 -0.37750887379202391 0.1258246628239878 0 -0.36705056219853383 0.1194023578563024 0 -0.37574270482976552 0.1127602309153935 0 -0.3617561103629075 0.10398679765700181 0 -0.36705056219853383 0.1194023578563024 0 -0.3657684372237478 0.13220172536522559 0 -0.36705056219853383 0.1194023578563024 0 -0.3544766847842245 0.1222383725199034 0 -0.33732249104276257 0.131346910735954 0 -0.3544766847842245 0.1222383725199034 0 -0.34031789963750919 0.1045803067802341 0 -0.3617561103629075 0.10398679765700181 0 -0.3544766847842245 0.1222383725199034 0 -0.34031789963750919 0.1045803067802341 0 -0.35251663210970829 0.092098376384172259 0 -0.3617561103629075 0.10398679765700181 0 -0.34031789963750919 0.1045803067802341 0 -0.34031789963750919 0.1045803067802341 0 -0.33046529163163441 0.10513803734546839 0 -0.33536594103847828 0.091538195644305514 0 -0.33732249104276257 0.131346910735954 0 -0.34031789963750919 0.1045803067802341 0 -0.33239618703982549 0.1316257760185712 0 -0.33046529163163441 0.10513803734546839 0 -0.32361881508428458 0.1201388783835504 0 -0.33732249104276257 0.131346910735954 0 -0.33239618703982549 0.1316257760185712 0 -0.33046529163163441 0.10513803734546839 0 -0.33239618703982549 0.1316257760185712 0 -0.33046529163163441 0.10513803734546839 0 -0.33732249104276257 0.131346910735954 0 -0.34031789963750919 0.1045803067802341 0 -0.33046529163163441 0.10513803734546839 0 -0.33046529163163441 0.10513803734546839 0 -0.32361881508428458 0.1201388783835504 0 -0.3183898399802878 0.10779851523839511 0 -0.30983202961862832 0.1096210262974341 0 -0.31331521520385308 0.1197024868491269 0 -0.3183898399802878 0.10779851523839511 0 -0.32361881508428458 0.1201388783835504 0 -0.31331521520385308 0.1197024868491269 0 -0.3183898399802878 0.10779851523839511 0 -0.31998236019302739 0.12711111886087451 0 -0.32361881508428458 0.1201388783835504 0 -0.31331521520385308 0.1197024868491269 0 -0.31396029814211412 0.128045844920089 0 -0.31998236019302739 0.12711111886087451 0 -0.31331521520385308 0.1197024868491269 0 -0.33046529163163441 0.10513803734546839 0 -0.32272467555812301 0.098968719734577326 0 -0.32853439622344333 0.078650298672365671 0 -0.33046529163163441 0.10513803734546839 0 -0.32272467555812301 0.098968719734577326 0 -0.3183898399802878 0.10779851523839511 0 -0.32272467555812301 0.098968719734577326 0 -0.3183898399802878 0.10779851523839511 0 -0.3139326208486023 0.099688130692420177 0 -0.30983202961862832 0.1096210262974341 0 -0.3183898399802878 0.10779851523839511 0 -0.3139326208486023 0.099688130692420177 0 -0.32272467555812301 0.098968719734577326 0 -0.3139326208486023 0.099688130692420177 0 -0.3189417910763746 0.091712858948380951 0 -0.30977133298868781 0.090777064065670848 0 -0.3139326208486023 0.099688130692420177 0 -0.3189417910763746 0.091712858948380951 0 -0.30977133298868781 0.090777064065670848 0 -0.3189417910763746 0.091712858948380951 0 -0.31391606373412267 0.083865301522364266 0 -0.32272467555812301 0.098968719734577326 0 -0.3189417910763746 0.091712858948380951 0 -0.32853439622344333 0.078650298672365671 0 -0.3189417910763746 0.091712858948380951 0 -0.32080265370221628 0.081954451517828542 0 -0.32853439622344333 0.078650298672365671 0 -0.32080265370221628 0.081954451517828542 0 -0.31391606373412267 0.083865301522364266 0 -0.32181836377492479 0.073589346928202556 0 -0.3189417910763746 0.091712858948380951 0 -0.32080265370221628 0.081954451517828542 0 -0.31391606373412267 0.083865301522364266 0 -0.29562838419692478 0.068442285726245583 0 -0.32007019034702261 0.065069998435682216 0 -0.32181836377492479 0.073589346928202556 0 -0.32080265370221628 0.081954451517828542 0 -0.32181836377492479 0.073589346928202556 0 -0.32853439622344333 0.078650298672365671 0 -0.34493943514804248 0.06328283207354482 0 -0.32007019034702261 0.065069998435682216 0 -0.32181836377492479 0.073589346928202556 0 -0.34331330823225609 0.077813702824514275 0 -0.32853439622344333 0.078650298672365671 0 -0.34438402864303108 0.068245876507679049 0 -0.32181836377492479 0.073589346928202556 0 -0.34438402864303108 0.068245876507679049 0 -0.32181836377492479 0.073589346928202556 0 -0.34331330823225609 0.077813702824514275 0 -0.34438402864303108 0.068245876507679049 0 -0.32007019034702261 0.065069998435682216 0 -0.32181836377492479 0.073589346928202556 0 -0.34438402864303108 0.068245876507679049 0 -0.34493943514804248 0.06328283207354482 0 -0.32007019034702261 0.065069998435682216 0 -0.32181836377492479 0.073589346928202556 0 -0.34331330823225609 0.077813702824514275 0 -0.34031789963750919 0.1045803067802341 0 -0.34331330823225609 0.077813702824514275 0 -0.33536594103847828 0.091538195644305514 0 -0.34031789963750919 0.1045803067802341 0 -0.34331330823225609 0.077813702824514275 0 -0.33046529163163441 0.10513803734546839 0 -0.33536594103847828 0.091538195644305514 0 -0.32853439622344333 0.078650298672365671 0 -0.33046529163163441 0.10513803734546839 0 -0.32853439622344333 0.078650298672365671 0 -0.34331330823225609 0.077813702824514275 0 -0.33536594103847828 0.091538195644305514 0 -0.32853439622344333 0.078650298672365671 0 -0.40048400796718181 0.47703971778443571 0 -0.38446376869890919 0.48310862586315739 0 -0.38892092878364798 0.46319837857428559 0 -0.40048400796718181 0.47703971778443571 0 -0.39958999000350098 0.5 0 -0.38446376869890919 0.48310862586315739 0 -0.40048400796718181 0.47703971778443571 0 -0.39958999000350098 0.5 0 -0.4173191422869611 0.48151611402025618 0 -0.38446376869890919 0.48310862586315739 0 -0.36782199703103591 0.47258802124512161 0 -0.37368083654603879 0.49999999999999262 0 -0.39958999000350098 0.5 0 -0.38446376869890919 0.48310862586315739 0 -0.37368083654603879 0.49999999999999262 0 -0.38446376869890919 0.48310862586315739 0 -0.38892092878364798 0.46319837857428559 0 -0.36782199703103591 0.47258802124512161 0 -0.38892092878364798 0.46319837857428559 0 -0.37692936517546732 0.45425665042366792 0 -0.36782199703103591 0.47258802124512161 0 -0.38892092878364798 0.46319837857428559 0 -0.37692936517546732 0.45425665042366792 0 -0.38359682996978389 0.44387784281117748 0 -0.38359682996978389 0.44387784281117748 0 -0.37870989817609391 0.43349500203550279 0 -0.37390443285869412 0.44200958240375687 0 -0.37692936517546732 0.45425665042366792 0 -0.38359682996978389 0.44387784281117748 0 -0.37390443285869412 0.44200958240375687 0 -0.38359682996978389 0.44387784281117748 0 -0.40771231188760382 0.44820347084646539 0 -0.39377198850750411 0.43277117736120491 0 -0.40771231188760382 0.44820347084646539 0 -0.40940399663893701 0.43260896082227479 0 -0.39377198850750411 0.43277117736120491 0 -0.38892092878364798 0.46319837857428559 0 -0.38359682996978389 0.44387784281117748 0 -0.40771231188760382 0.44820347084646539 0 -0.38359682996978389 0.44387784281117748 0 -0.40771231188760382 0.44820347084646539 0 -0.40048400796718181 0.47703971778443571 0 -0.38892092878364798 0.46319837857428559 0 -0.41193061032440043 0.46265720357823542 0 -0.38892092878364798 0.46319837857428559 0 -0.41193061032440043 0.46265720357823542 0 -0.40771231188760382 0.44820347084646539 0 -0.41193061032440043 0.46265720357823542 0 -0.40771231188760382 0.44820347084646539 0 -0.43182779380542391 0.45252909888175291 0 -0.40771231188760382 0.44820347084646539 0 -0.43182779380542391 0.45252909888175291 0 -0.40771231188760382 0.44820347084646539 0 -0.42462660024182719 0.4360091227804459 0 -0.40940399663893701 0.43260896082227479 0 -0.40771231188760382 0.44820347084646539 0 -0.43182779380542391 0.45252909888175291 0 -0.42462660024182719 0.4360091227804459 0 -0.43182779380542391 0.45252909888175291 0 -0.44268670427198697 0.42504405656020661 0 -0.43182779380542391 0.45252909888175291 0 -0.44268670427198697 0.42504405656020661 0 -0.42462660024182719 0.4360091227804459 0 -0.41193061032440043 0.46265720357823542 0 -0.43182779380542391 0.45252909888175291 0 -0.42672885274621708 0.46543505397170221 0 -0.43182779380542391 0.45252909888175291 0 -0.42672885274621708 0.46543505397170221 0 -0.43182779380542391 0.45252909888175291 0 -0.42672885274621708 0.46543505397170221 0 -0.44040704932786839 0.46597007888789871 0 -0.42672885274621708 0.46543505397170221 0 -0.43358487404063489 0.47964575731103609 0 -0.44040704932786839 0.46597007888789871 0 -0.42672885274621708 0.46543505397170221 0 -0.43358487404063489 0.47964575731103609 0 -0.4173191422869611 0.48151611402025618 0 -0.40048400796718181 0.47703971778443571 0 -0.41193061032440043 0.46265720357823542 0 -0.4173191422869611 0.48151611402025618 0 -0.41193061032440043 0.46265720357823542 0 -0.42672885274621708 0.46543505397170221 0 -0.4173191422869611 0.48151611402025618 0 -0.39958999000350098 0.5 0 -0.4173191422869611 0.48151611402025618 0 -0.4254991434609634 0.5 0 -0.43358487404063489 0.47964575731103609 0 -0.4254991434609634 0.5 0 -0.45140829691842549 0.5 0 -0.43358487404063489 0.47964575731103609 0 -0.4173191422869611 0.48151611402025618 0 -0.4254991434609634 0.5 0 -0.43358487404063489 0.47964575731103609 0 -0.45140829691842549 0.5 0 -0.4528918818509185 0.47603658974160362 0 -0.43358487404063489 0.47964575731103609 0 -0.4528918818509185 0.47603658974160362 0 -0.44040704932786839 0.46597007888789871 0 -0.4528918818509185 0.47603658974160362 0 -0.46821023108548637 0.47279158631599072 0 -0.46436287364715501 0.48766267932278418 0 -0.45140829691842549 0.5 0 -0.4528918818509185 0.47603658974160362 0 -0.46436287364715501 0.48766267932278418 0 -0.45140829691842549 0.5 0 -0.46436287364715501 0.48766267932278418 0 -0.47731745037588769 0.49999999999999761 0 -0.47731745037588769 0.49999999999999761 0 -0.48096466964761703 0.48099852826867079 0 -0.49139413964174178 0.47693820713780138 0 -0.5 0.5 0 -0.49999999999999722 0.46475724374518879 0 -0.46436287364715501 0.48766267932278418 0 -0.47731745037588769 0.49999999999999761 0 -0.48096466964761703 0.48099852826867079 0 -0.48096466964761703 0.48099852826867079 0 -0.48461188891935342 0.46199705653734541 0 -0.46821023108548637 0.47279158631599072 0 -0.48096466964761703 0.48099852826867079 0 -0.48461188891935342 0.46199705653734541 0 -0.46821023108548637 0.47279158631599072 0 -0.46436287364715501 0.48766267932278418 0 -0.48096466964761703 0.48099852826867079 0 -0.48096466964761703 0.48099852826867079 0 -0.49139413964174178 0.47693820713780138 0 -0.48461188891935342 0.46199705653734541 0 -0.47731745037588769 0.49999999999999761 0 -0.48096466964761703 0.48099852826867079 0 -0.5 0.5 0 -0.48096466964761703 0.48099852826867079 0 -0.49139413964174178 0.47693820713780138 0 -0.5 0.5 0 -0.49405705401154759 0.44045684063000018 0 -0.5 0.44906001156674252 0 -0.50000000000000222 0.43336277938829632 0 -0.48749403650342921 0.44698149488220862 0 -0.49405705401154759 0.44045684063000018 0 -0.49037618408751182 0.43196593322707327 0 -0.48749403650342921 0.44698149488220862 0 -0.49037618408751182 0.43196593322707327 0 -0.48749403650342921 0.44698149488220862 0 -0.49405705401154759 0.44045684063000018 0 -0.5 0.44906001156674252 0 -0.48749403650342921 0.44698149488220862 0 -0.5 0.44906001156674252 0 -0.49246730937117061 0.45572047132892801 0 -0.49246730937117061 0.45572047132892801 0 -0.49999999999999722 0.46475724374518879 0 -0.48461188891935342 0.46199705653734541 0 -0.5 0.44906001156674252 0 -0.49246730937117061 0.45572047132892801 0 -0.49999999999999722 0.46475724374518879 0 -0.49999999999999722 0.46475724374518879 0 -0.48461188891935342 0.46199705653734541 0 -0.49139413964174178 0.47693820713780138 0 -0.49999999999999722 0.46475724374518879 0 -0.48461188891935342 0.46199705653734541 0 -0.48749403650342921 0.44698149488220862 0 -0.49246730937117061 0.45572047132892801 0 -0.48461188891935342 0.46199705653734541 0 -0.48749403650342921 0.44698149488220862 0 -0.48461188891935342 0.46199705653734541 0 -0.48749403650342921 0.44698149488220862 0 -0.48461188891935342 0.46199705653734541 0 -0.45821984136238852 0.45726307770954933 0 -0.48461188891935342 0.46199705653734541 0 -0.45821984136238852 0.45726307770954933 0 -0.46821023108548637 0.47279158631599072 0 -0.48461188891935342 0.46199705653734541 0 -0.45821984136238852 0.45726307770954933 0 -0.48749403650342921 0.44698149488220862 0 -0.45821984136238852 0.45726307770954933 0 -0.46653144417974929 0.4285049948936408 0 -0.43182779380542391 0.45252909888175291 0 -0.45821984136238852 0.45726307770954933 0 -0.44268670427198697 0.42504405656020661 0 -0.4528918818509185 0.47603658974160362 0 -0.46821023108548637 0.47279158631599072 0 -0.45821984136238852 0.45726307770954933 0 -0.43182779380542391 0.45252909888175291 0 -0.45821984136238852 0.45726307770954933 0 -0.44040704932786839 0.46597007888789871 0 -0.43182779380542391 0.45252909888175291 0 -0.45821984136238852 0.45726307770954933 0 -0.4528918818509185 0.47603658974160362 0 -0.45821984136238852 0.45726307770954933 0 -0.44040704932786839 0.46597007888789871 0 -0.45821984136238852 0.45726307770954933 0 -0.44268670427198697 0.42504405656020661 0 -0.46653144417974929 0.4285049948936408 0 -0.44268670427198697 0.42504405656020661 0 -0.46058469027537452 0.41434484606210398 0 -0.45273132444668301 0.39962006844875692 0 -0.44268670427198697 0.42504405656020661 0 -0.45273132444668301 0.39962006844875692 0 -0.43075024772865889 0.40295998759017643 0 -0.44268670427198697 0.42504405656020661 0 -0.45273132444668301 0.39962006844875692 0 -0.46058469027537452 0.41434484606210398 0 -0.46653144417974929 0.4285049948936408 0 -0.47493751870639439 0.41400223312603007 0 -0.46058469027537452 0.41434484606210398 0 -0.47493751870639439 0.41400223312603007 0 -0.46603645977205838 0.40455287728188649 0 -0.44268670427198697 0.42504405656020661 0 -0.46058469027537452 0.41434484606210398 0 -0.46653144417974929 0.4285049948936408 0 -0.44268670427198697 0.42504405656020661 0 -0.46653144417974929 0.4285049948936408 0 -0.48749403650342921 0.44698149488220862 0 -0.46653144417974929 0.4285049948936408 0 -0.49037618408751182 0.43196593322707327 0 -0.46653144417974929 0.4285049948936408 0 -0.47955432354338401 0.42191052021014269 0 -0.49037618408751182 0.43196593322707327 0 -0.46653144417974929 0.4285049948936408 0 -0.49037618408751182 0.43196593322707327 0 -0.46653144417974929 0.4285049948936408 0 -0.47955432354338401 0.42191052021014269 0 -0.47493751870639439 0.41400223312603007 0 -0.47493751870639439 0.41400223312603007 0 -0.48245250851162991 0.40205804532266731 0 -0.46603645977205838 0.40455287728188649 0 -0.47493751870639439 0.41400223312603007 0 -0.48637214719988109 0.41316891959382451 0 -0.48245250851162991 0.40205804532266731 0 -0.47955432354338401 0.42191052021014269 0 -0.47493751870639439 0.41400223312603007 0 -0.48637214719988109 0.41316891959382451 0 -0.49037618408751182 0.43196593322707327 0 -0.49536606802621852 0.40596937762130891 0 -0.5 0.40877236590846472 0 -0.49037618408751182 0.43196593322707327 0 -0.49536606802621852 0.40596937762130891 0 -0.48637214719988109 0.41316891959382451 0 -0.49037618408751182 0.43196593322707327 0 -0.49536606802621852 0.40596937762130891 0 -0.48637214719988109 0.41316891959382451 0 -0.48910179160554917 0.40443398601215907 0 -0.48245250851162991 0.40205804532266731 0 -0.48637214719988109 0.41316891959382451 0 -0.49536606802621852 0.40596937762130891 0 -0.48910179160554917 0.40443398601215907 0 -0.47955432354338401 0.42191052021014269 0 -0.48637214719988109 0.41316891959382451 0 -0.49037618408751182 0.43196593322707327 0 -0.5 0.40877236590846472 0 -0.50000000000000222 0.43336277938829632 0 -0.49037618408751182 0.43196593322707327 0 -0.49405705401154759 0.44045684063000018 0 -0.50000000000000222 0.43336277938829632 0 -0.49037618408751182 0.43196593322707327 0 -0.50000000000000222 0.43336277938829632 0 -0.49037618408751182 0.43196593322707327 0 -0.5 0.38418195242863312 0 -0.49221644268446779 0.396539601510836 0 -0.48351645561768059 0.38949926340776531 0 -0.5 0.38418195242863312 0 -0.48351645561768059 0.38949926340776531 0 -0.47958081921859619 0.37550870423523702 0 -0.5 0.40877236590846472 0 -0.5 0.38418195242863312 0 -0.49221644268446779 0.396539601510836 0 -0.49221644268446779 0.396539601510836 0 -0.49536606802621852 0.40596937762130891 0 -0.48910179160554917 0.40443398601215907 0 -0.5 0.40877236590846472 0 -0.49221644268446779 0.396539601510836 0 -0.49536606802621852 0.40596937762130891 0 -0.49221644268446779 0.396539601510836 0 -0.48910179160554917 0.40443398601215907 0 -0.48245250851162991 0.40205804532266731 0 -0.49221644268446779 0.396539601510836 0 -0.48245250851162991 0.40205804532266731 0 -0.48351645561768059 0.38949926340776531 0 -0.48245250851162991 0.40205804532266731 0 -0.47407574119002338 0.39398269719495638 0 -0.48351645561768059 0.38949926340776531 0 -0.48245250851162991 0.40205804532266731 0 -0.47407574119002338 0.39398269719495638 0 -0.46603645977205838 0.40455287728188649 0 -0.47407574119002338 0.39398269719495638 0 -0.47277322210136608 0.384724579754262 0 -0.46567853842630158 0.39141526060343368 0 -0.47277322210136608 0.384724579754262 0 -0.47958081921859619 0.37550870423523702 0 -0.46277594462137711 0.37419608033730639 0 -0.47277322210136608 0.384724579754262 0 -0.48351645561768059 0.38949926340776531 0 -0.47958081921859619 0.37550870423523702 0 -0.47407574119002338 0.39398269719495638 0 -0.47277322210136608 0.384724579754262 0 -0.48351645561768059 0.38949926340776531 0 -0.45273132444668301 0.39962006844875692 0 -0.46277594462137711 0.37419608033730639 0 -0.47277322210136608 0.384724579754262 0 -0.46567853842630158 0.39141526060343368 0 -0.46277594462137711 0.37419608033730639 0 -0.46567853842630158 0.39141526060343368 0 -0.45273132444668301 0.39962006844875692 0 -0.46277594462137711 0.37419608033730639 0 -0.45273132444668301 0.39962006844875692 0 -0.44940451384749769 0.38023448536030668 0 -0.46277594462137711 0.37419608033730639 0 -0.46603645977205838 0.40455287728188649 0 -0.46567853842630158 0.39141526060343368 0 -0.45273132444668301 0.39962006844875692 0 -0.47407574119002338 0.39398269719495638 0 -0.46603645977205838 0.40455287728188649 0 -0.46567853842630158 0.39141526060343368 0 -0.46058469027537452 0.41434484606210398 0 -0.46603645977205838 0.40455287728188649 0 -0.45273132444668301 0.39962006844875692 0 -0.45273132444668301 0.39962006844875692 0 -0.43722731906228429 0.3884827031630893 0 -0.43075024772865889 0.40295998759017643 0 -0.45273132444668301 0.39962006844875692 0 -0.44940451384749769 0.38023448536030668 0 -0.43722731906228429 0.3884827031630893 0 -0.44940451384749769 0.38023448536030668 0 -0.43472277428519468 0.37718058985670272 0 -0.43722731906228429 0.3884827031630893 0 -0.43472277428519468 0.37718058985670272 0 -0.42254090279310341 0.38424532459618371 0 -0.42487511763212121 0.36779714931772289 0 -0.43472277428519468 0.37718058985670272 0 -0.43722731906228429 0.3884827031630893 0 -0.42254090279310341 0.38424532459618371 0 -0.42254090279310341 0.38424532459618371 0 -0.4102278605539959 0.38523768344562659 0 -0.41089381354180632 0.37187348318713492 0 -0.42254090279310341 0.38424532459618371 0 -0.4102278605539959 0.38523768344562659 0 -0.40897583843372842 0.39855555757916711 0 -0.4102278605539959 0.38523768344562659 0 -0.39763918539791338 0.38111655572875042 0 -0.41089381354180632 0.37187348318713492 0 -0.42254090279310341 0.38424532459618371 0 -0.40897583843372842 0.39855555757916711 0 -0.43075024772865889 0.40295998759017643 0 -0.43722731906228429 0.3884827031630893 0 -0.42254090279310341 0.38424532459618371 0 -0.43075024772865889 0.40295998759017643 0 -0.44268670427198697 0.42504405656020661 0 -0.43075024772865889 0.40295998759017643 0 -0.42084051348005502 0.42187319709837939 0 -0.44268670427198697 0.42504405656020661 0 -0.42084051348005502 0.42187319709837939 0 -0.44268670427198697 0.42504405656020661 0 -0.42462660024182719 0.4360091227804459 0 -0.42084051348005502 0.42187319709837939 0 -0.40940399663893701 0.43260896082227479 0 -0.42084051348005502 0.42187319709837939 0 -0.39899432268812279 0.41870233763655268 0 -0.42462660024182719 0.4360091227804459 0 -0.40940399663893701 0.43260896082227479 0 -0.42084051348005502 0.42187319709837939 0 -0.40897583843372842 0.39855555757916711 0 -0.42084051348005502 0.42187319709837939 0 -0.39899432268812279 0.41870233763655268 0 -0.42084051348005502 0.42187319709837939 0 -0.39899432268812279 0.41870233763655268 0 -0.40897583843372842 0.39855555757916711 0 -0.43075024772865889 0.40295998759017643 0 -0.42084051348005502 0.42187319709837939 0 -0.39899432268812279 0.41870233763655268 0 -0.38544218349442422 0.41923028725360673 0 -0.38802431252112363 0.39933920511102922 0 -0.40940399663893701 0.43260896082227479 0 -0.39899432268812279 0.41870233763655268 0 -0.39377198850750411 0.43277117736120491 0 -0.39899432268812279 0.41870233763655268 0 -0.39377198850750411 0.43277117736120491 0 -0.38544218349442422 0.41923028725360673 0 -0.38359682996978389 0.44387784281117748 0 -0.39377198850750411 0.43277117736120491 0 -0.37870989817609391 0.43349500203550279 0 -0.39377198850750411 0.43277117736120491 0 -0.37870989817609391 0.43349500203550279 0 -0.38544218349442422 0.41923028725360673 0 -0.38544218349442422 0.41923028725360673 0 -0.38802431252112363 0.39933920511102922 0 -0.37360293226699409 0.40939973286782638 0 -0.37870989817609391 0.43349500203550279 0 -0.38544218349442422 0.41923028725360673 0 -0.37360293226699409 0.40939973286782638 0 -0.37870989817609391 0.43349500203550279 0 -0.37360293226699409 0.40939973286782638 0 -0.38802431252112363 0.39933920511102922 0 -0.3684959663578945 0.38530446370014998 0 -0.37360293226699409 0.40939973286782638 0 -0.38802431252112363 0.39933920511102922 0 -0.38395455760122488 0.38227123121330669 0 -0.39763918539791338 0.38111655572875042 0 -0.38802431252112363 0.39933920511102922 0 -0.38395455760122488 0.38227123121330669 0 -0.3684959663578945 0.38530446370014998 0 -0.38395455760122488 0.38227123121330669 0 -0.37528696268018708 0.37198715513043629 0 -0.3684959663578945 0.38530446370014998 0 -0.38395455760122488 0.38227123121330669 0 -0.39763918539791338 0.38111655572875042 0 -0.38616607085469978 0.36955797562589748 0 -0.4102278605539959 0.38523768344562659 0 -0.40897583843372842 0.39855555757916711 0 -0.39763918539791338 0.38111655572875042 0 -0.40897583843372842 0.39855555757916711 0 -0.38802431252112363 0.39933920511102922 0 -0.39763918539791338 0.38111655572875042 0 -0.40897583843372842 0.39855555757916711 0 -0.39899432268812279 0.41870233763655268 0 -0.38802431252112363 0.39933920511102922 0 -0.39456649753897882 0.35763274886154722 0 -0.39101422043087908 0.34758550679278089 0 -0.40444613248228911 0.34608785590364921 0 -0.39456649753897882 0.35763274886154722 0 -0.40444613248228911 0.34608785590364921 0 -0.40494630681743982 0.36112627493142768 0 -0.40494630681743982 0.36112627493142768 0 -0.39770428536895269 0.36809875754326898 0 -0.41089381354180632 0.37187348318713492 0 -0.39456649753897882 0.35763274886154722 0 -0.40494630681743982 0.36112627493142768 0 -0.39770428536895269 0.36809875754326898 0 -0.39763918539791338 0.38111655572875042 0 -0.39770428536895269 0.36809875754326898 0 -0.41089381354180632 0.37187348318713492 0 -0.39763918539791338 0.38111655572875042 0 -0.39770428536895269 0.36809875754326898 0 -0.38616607085469978 0.36955797562589748 0 -0.39456649753897882 0.35763274886154722 0 -0.39770428536895269 0.36809875754326898 0 -0.38616607085469978 0.36955797562589748 0 -0.39456649753897882 0.35763274886154722 0 -0.38616607085469978 0.36955797562589748 0 -0.38424931976243332 0.35696130308558988 0 -0.38395455760122488 0.38227123121330669 0 -0.38616607085469978 0.36955797562589748 0 -0.37528696268018708 0.37198715513043629 0 -0.38616607085469978 0.36955797562589748 0 -0.37528696268018708 0.37198715513043629 0 -0.37413640492081651 0.36130780354415809 0 -0.38616607085469978 0.36955797562589748 0 -0.38424931976243332 0.35696130308558988 0 -0.37413640492081651 0.36130780354415809 0 -0.38424931976243332 0.35696130308558988 0 -0.37999219374207199 0.34687376916698243 0 -0.37413640492081651 0.36130780354415809 0 -0.39456649753897882 0.35763274886154722 0 -0.39101422043087908 0.34758550679278089 0 -0.38424931976243332 0.35696130308558988 0 -0.39101422043087908 0.34758550679278089 0 -0.38424931976243332 0.35696130308558988 0 -0.37999219374207199 0.34687376916698243 0 -0.37999219374207199 0.34687376916698243 0 -0.37601543153736572 0.33313452262712728 0 -0.38943288509552071 0.33465909486214768 0 -0.37999219374207199 0.34687376916698243 0 -0.37601543153736572 0.33313452262712728 0 -0.36983217950573682 0.34039220066898879 0 -0.37601543153736572 0.33313452262712728 0 -0.38943288509552071 0.33465909486214768 0 -0.38081013793138108 0.32425707770014728 0 -0.39101422043087908 0.34758550679278089 0 -0.37999219374207199 0.34687376916698243 0 -0.38943288509552071 0.33465909486214768 0 -0.38943288509552071 0.33465909486214768 0 -0.38081013793138108 0.32425707770014728 0 -0.39191418996105082 0.31838610164523362 0 -0.38081013793138108 0.32425707770014728 0 -0.39191418996105082 0.31838610164523362 0 -0.3744393805172796 0.31247428710198982 0 -0.37601543153736572 0.33313452262712728 0 -0.38081013793138108 0.32425707770014728 0 -0.37137244083342141 0.32477040145267583 0 -0.38081013793138108 0.32425707770014728 0 -0.3744393805172796 0.31247428710198982 0 -0.37137244083342141 0.32477040145267583 0 -0.38943288509552071 0.33465909486214768 0 -0.39191418996105082 0.31838610164523362 0 -0.40304997030566209 0.32860445737715122 0 -0.39191418996105082 0.31838610164523362 0 -0.40304997030566209 0.32860445737715122 0 -0.41438993902560739 0.31176022368235079 0 -0.40444613248228911 0.34608785590364921 0 -0.38943288509552071 0.33465909486214768 0 -0.40304997030566209 0.32860445737715122 0 -0.39101422043087908 0.34758550679278089 0 -0.40444613248228911 0.34608785590364921 0 -0.38943288509552071 0.33465909486214768 0 -0.40444613248228911 0.34608785590364921 0 -0.40304997030566209 0.32860445737715122 0 -0.41633866804279579 0.33443011196028982 0 -0.40304997030566209 0.32860445737715122 0 -0.41633866804279579 0.33443011196028982 0 -0.41438993902560739 0.31176022368235079 0 -0.43921925047701771 0.32273891803891053 0 -0.41438993902560739 0.31176022368235079 0 -0.43921925047701771 0.32273891803891053 0 -0.43204107734184671 0.30685441950589148 0 -0.41438993902560739 0.31176022368235079 0 -0.41633866804279579 0.33443011196028982 0 -0.43921925047701771 0.32273891803891053 0 -0.41438993902560739 0.31176022368235079 0 -0.41633866804279579 0.33443011196028982 0 -0.43113312395714432 0.34496010591901238 0 -0.43921925047701771 0.32273891803891053 0 -0.43113312395714432 0.34496010591901238 0 -0.43049186520734012 0.35713342828446931 0 -0.44033324809686419 0.3531167737685238 0 -0.43049186520734012 0.35713342828446931 0 -0.43956601809096713 0.36514328684621078 0 -0.44033324809686419 0.3531167737685238 0 -0.43113312395714432 0.34496010591901238 0 -0.43049186520734012 0.35713342828446931 0 -0.4165518182596033 0.35464982557087638 0 -0.40444613248228911 0.34608785590364921 0 -0.41633866804279579 0.33443011196028982 0 -0.4165518182596033 0.35464982557087638 0 -0.41633866804279579 0.33443011196028982 0 -0.43113312395714432 0.34496010591901238 0 -0.4165518182596033 0.35464982557087638 0 -0.40444613248228911 0.34608785590364921 0 -0.40494630681743982 0.36112627493142768 0 -0.4165518182596033 0.35464982557087638 0 -0.4165518182596033 0.35464982557087638 0 -0.41089381354180632 0.37187348318713492 0 -0.42487511763212121 0.36779714931772289 0 -0.40494630681743982 0.36112627493142768 0 -0.4165518182596033 0.35464982557087638 0 -0.41089381354180632 0.37187348318713492 0 -0.42254090279310341 0.38424532459618371 0 -0.41089381354180632 0.37187348318713492 0 -0.42487511763212121 0.36779714931772289 0 -0.43049186520734012 0.35713342828446931 0 -0.4165518182596033 0.35464982557087638 0 -0.42487511763212121 0.36779714931772289 0 -0.43049186520734012 0.35713342828446931 0 -0.42487511763212121 0.36779714931772289 0 -0.43956601809096713 0.36514328684621078 0 -0.43472277428519468 0.37718058985670272 0 -0.42487511763212121 0.36779714931772289 0 -0.43956601809096713 0.36514328684621078 0 -0.44940451384749769 0.38023448536030668 0 -0.43472277428519468 0.37718058985670272 0 -0.43956601809096713 0.36514328684621078 0 -0.44940451384749769 0.38023448536030668 0 -0.43956601809096713 0.36514328684621078 0 -0.45672653788796308 0.35697604887788797 0 -0.44940451384749769 0.38023448536030668 0 -0.45672653788796308 0.35697604887788797 0 -0.43113312395714432 0.34496010591901238 0 -0.44033324809686419 0.3531167737685238 0 -0.44737128845083401 0.34221912372998609 0 -0.43956601809096713 0.36514328684621078 0 -0.44033324809686419 0.3531167737685238 0 -0.45672653788796308 0.35697604887788797 0 -0.44033324809686419 0.3531167737685238 0 -0.45672653788796308 0.35697604887788797 0 -0.44737128845083401 0.34221912372998609 0 -0.45672653788796308 0.35697604887788797 0 -0.46404856192842842 0.33371761239546938 0 -0.44737128845083401 0.34221912372998609 0 -0.45672653788796308 0.35697604887788797 0 -0.46404856192842842 0.33371761239546938 0 -0.45672653788796308 0.35697604887788797 0 -0.47282056479607121 0.34877209222585598 0 -0.46404856192842842 0.33371761239546938 0 -0.46277594462137711 0.37419608033730639 0 -0.47282056479607121 0.34877209222585598 0 -0.45672653788796308 0.35697604887788797 0 -0.46277594462137711 0.37419608033730639 0 -0.47282056479607121 0.34877209222585598 0 -0.44940451384749769 0.38023448536030668 0 -0.45672653788796308 0.35697604887788797 0 -0.46277594462137711 0.37419608033730639 0 -0.46277594462137711 0.37419608033730639 0 -0.47552563821392341 0.36464122554116601 0 -0.47282056479607121 0.34877209222585598 0 -0.47958081921859619 0.37550870423523702 0 -0.46277594462137711 0.37419608033730639 0 -0.47552563821392341 0.36464122554116601 0 -0.47958081921859619 0.37550870423523702 0 -0.47552563821392341 0.36464122554116601 0 -0.48692522421964901 0.36008802536626477 0 -0.47282056479607121 0.34877209222585598 0 -0.48692522421964901 0.36008802536626477 0 -0.48652777741376663 0.34365717260726969 0 -0.47552563821392341 0.36464122554116601 0 -0.47282056479607121 0.34877209222585598 0 -0.48692522421964901 0.36008802536626477 0 -0.49080092707593392 0.34554661703155592 0 -0.49309831698460571 0.35208634433392799 0 -0.5 0.33500112546896987 0 -0.49309831698460571 0.35208634433392799 0 -0.48692522421964901 0.36008802536626477 0 -0.48652777741376663 0.34365717260726969 0 -0.49309831698460571 0.35208634433392799 0 -0.5 0.35959153894880153 0 -0.5 0.33500112546896987 0 -0.48692522421964901 0.36008802536626477 0 -0.48652777741376663 0.34365717260726969 0 -0.49080092707593392 0.34554661703155592 0 -0.49309831698460571 0.35208634433392799 0 -0.48652777741376663 0.34365717260726969 0 -0.49080092707593392 0.34554661703155592 0 -0.48652777741376663 0.34365717260726969 0 -0.49309831698460571 0.35208634433392799 0 -0.5 0.35959153894880153 0 -0.48692522421964901 0.36008802536626477 0 -0.5 0.38418195242863312 0 -0.5 0.35959153894880153 0 -0.48692522421964901 0.36008802536626477 0 -0.5 0.38418195242863312 0 -0.47958081921859619 0.37550870423523702 0 -0.48692522421964901 0.36008802536626477 0 -0.48592825813183171 0.31887243940061771 0 -0.5 0.33500112546896987 0 -0.49999999999999861 0.31041071198913828 0 -0.48592825813183171 0.31887243940061771 0 -0.5 0.33500112546896987 0 -0.48652777741376663 0.34365717260726969 0 -0.48592825813183171 0.31887243940061771 0 -0.48652777741376663 0.34365717260726969 0 -0.49080092707593392 0.34554661703155592 0 -0.5 0.33500112546896987 0 -0.48652777741376663 0.34365717260726969 0 -0.47282056479607121 0.34877209222585598 0 -0.48652777741376663 0.34365717260726969 0 -0.46404856192842842 0.33371761239546938 0 -0.48592825813183171 0.31887243940061771 0 -0.48652777741376663 0.34365717260726969 0 -0.46404856192842842 0.33371761239546938 0 -0.48652777741376663 0.34365717260726969 0 -0.46404856192842842 0.33371761239546938 0 -0.48592825813183171 0.31887243940061771 0 -0.46404856192842842 0.33371761239546938 0 -0.47142843999141282 0.31027540239625101 0 -0.46404856192842842 0.33371761239546938 0 -0.47142843999141282 0.31027540239625101 0 -0.45529872585997128 0.31644224477087263 0 -0.46404856192842842 0.33371761239546938 0 -0.47142843999141282 0.31027540239625101 0 -0.46404856192842842 0.33371761239546938 0 -0.43921925047701771 0.32273891803891053 0 -0.43113312395714432 0.34496010591901238 0 -0.44737128845083401 0.34221912372998609 0 -0.43921925047701771 0.32273891803891053 0 -0.46404856192842842 0.33371761239546938 0 -0.44737128845083401 0.34221912372998609 0 -0.43921925047701771 0.32273891803891053 0 -0.45529872585997128 0.31644224477087263 0 -0.46404856192842842 0.33371761239546938 0 -0.43921925047701771 0.32273891803891053 0 -0.45529872585997128 0.31644224477087263 0 -0.43921925047701771 0.32273891803891053 0 -0.44712622457634649 0.30123014939894621 0 -0.43921925047701771 0.32273891803891053 0 -0.44712622457634649 0.30123014939894621 0 -0.43204107734184671 0.30685441950589148 0 -0.44712622457634649 0.30123014939894621 0 -0.43689910241905561 0.29603748260767182 0 -0.43204107734184671 0.30685441950589148 0 -0.44700363711970248 0.28864203712158482 0 -0.44507828897678159 0.27840574737841101 0 -0.43735529567774112 0.28489315462788278 0 -0.44700363711970248 0.28864203712158482 0 -0.43735529567774112 0.28489315462788278 0 -0.43689910241905561 0.29603748260767182 0 -0.44712622457634649 0.30123014939894621 0 -0.44700363711970248 0.28864203712158482 0 -0.43689910241905561 0.29603748260767182 0 -0.44712622457634649 0.30123014939894621 0 -0.44700363711970248 0.28864203712158482 0 -0.45807585156697361 0.29289630333145988 0 -0.44700363711970248 0.28864203712158482 0 -0.45699434826899688 0.28137922443773289 0 -0.44507828897678159 0.27840574737841101 0 -0.45699434826899688 0.28137922443773289 0 -0.45807585156697361 0.29289630333145988 0 -0.46756559898006539 0.28767268721147621 0 -0.44700363711970248 0.28864203712158482 0 -0.45699434826899688 0.28137922443773289 0 -0.45807585156697361 0.29289630333145988 0 -0.45699434826899688 0.28137922443773289 0 -0.46756559898006539 0.28767268721147621 0 -0.46857548463923843 0.27544830888716748 0 -0.45529872585997128 0.31644224477087263 0 -0.44712622457634649 0.30123014939894621 0 -0.47142843999141282 0.31027540239625101 0 -0.45807585156697361 0.29289630333145988 0 -0.46756559898006539 0.28767268721147621 0 -0.47142843999141282 0.31027540239625101 0 -0.44712622457634649 0.30123014939894621 0 -0.45807585156697361 0.29289630333145988 0 -0.47142843999141282 0.31027540239625101 0 -0.47142843999141282 0.31027540239625101 0 -0.47880831805439789 0.28683319239703281 0 -0.47142843999141282 0.31027540239625101 0 -0.47880831805439789 0.28683319239703281 0 -0.48532873884989641 0.29408770619396563 0 -0.48592825813183171 0.31887243940061771 0 -0.47142843999141282 0.31027540239625101 0 -0.48532873884989641 0.29408770619396563 0 -0.46756559898006539 0.28767268721147621 0 -0.47142843999141282 0.31027540239625101 0 -0.47880831805439789 0.28683319239703281 0 -0.47936177313079609 0.28507514029707248 0 -0.48532873884989641 0.29408770619396563 0 -0.48466830530101312 0.26678471560957279 0 -0.47936177313079609 0.28507514029707248 0 -0.47880831805439789 0.28683319239703281 0 -0.46857548463923843 0.27544830888716748 0 -0.46756559898006539 0.28767268721147621 0 -0.47880831805439789 0.28683319239703281 0 -0.46857548463923843 0.27544830888716748 0 -0.47936177313079609 0.28507514029707248 0 -0.47880831805439789 0.28683319239703281 0 -0.48532873884989641 0.29408770619396563 0 -0.47936177313079609 0.28507514029707248 0 -0.47880831805439789 0.28683319239703281 0 -0.47880831805439789 0.28683319239703281 0 -0.48532873884989641 0.29408770619396563 0 -0.5 0.28777976746120759 0 -0.48532873884989641 0.29408770619396563 0 -0.49345423925009257 0.27646429519724208 0 -0.5 0.28777976746120759 0 -0.48532873884989641 0.29408770619396563 0 -0.49999999999999861 0.31041071198913828 0 -0.48592825813183171 0.31887243940061771 0 -0.48532873884989641 0.29408770619396563 0 -0.49999999999999861 0.31041071198913828 0 -0.48592825813183171 0.31887243940061771 0 -0.48532873884989641 0.29408770619396563 0 -0.48532873884989641 0.29408770619396563 0 -0.49999999999999861 0.31041071198913828 0 -0.48400787175212889 0.23948172502518 0 -0.49073105890795932 0.25297858040334048 0 -0.48466830530101312 0.26678471560957279 0 -0.4957417560300621 0.23875679201432851 0 -0.49999999999999972 0.26514882293327691 0 -0.4957417560300621 0.23875679201432851 0 -0.49073105890795932 0.25297858040334048 0 -0.49999999999999972 0.26514882293327691 0 -0.49073105890795932 0.25297858040334048 0 -0.49999999999999972 0.26514882293327691 0 -0.48466830530101312 0.26678471560957279 0 -0.5 0.28777976746120759 0 -0.49999999999999972 0.26514882293327691 0 -0.49345423925009257 0.27646429519724208 0 -0.48532873884989641 0.29408770619396563 0 -0.49345423925009257 0.27646429519724208 0 -0.48466830530101312 0.26678471560957279 0 -0.48532873884989641 0.29408770619396563 0 -0.48466830530101312 0.26678471560957279 0 -0.49999999999999972 0.26514882293327691 0 -0.49345423925009257 0.27646429519724208 0 -0.48466830530101312 0.26678471560957279 0 -0.48466830530101312 0.26678471560957279 0 -0.46831493632022531 0.26165729838068319 0 -0.46857548463923843 0.27544830888716748 0 -0.47936177313079609 0.28507514029707248 0 -0.48466830530101312 0.26678471560957279 0 -0.46857548463923843 0.27544830888716748 0 -0.47880831805439789 0.28683319239703281 0 -0.46857548463923843 0.27544830888716748 0 -0.48400787175212889 0.23948172502518 0 -0.48466830530101312 0.26678471560957279 0 -0.48466830530101312 0.26678471560957279 0 -0.47496881677379238 0.25062421766738041 0 -0.46831493632022531 0.26165729838068319 0 -0.48400787175212889 0.23948172502518 0 -0.48466830530101312 0.26678471560957279 0 -0.47496881677379238 0.25062421766738041 0 -0.46067917674487202 0.24578791896303159 0 -0.46831493632022531 0.26165729838068319 0 -0.45484523825219808 0.26697463673635308 0 -0.46067917674487202 0.24578791896303159 0 -0.47496881677379238 0.25062421766738041 0 -0.46831493632022531 0.26165729838068319 0 -0.46831493632022531 0.26165729838068319 0 -0.46857548463923843 0.27544830888716748 0 -0.45484523825219808 0.26697463673635308 0 -0.45699434826899688 0.28137922443773289 0 -0.46857548463923843 0.27544830888716748 0 -0.45484523825219808 0.26697463673635308 0 -0.45699434826899688 0.28137922443773289 0 -0.45484523825219808 0.26697463673635308 0 -0.44507828897678159 0.27840574737841101 0 -0.45484523825219808 0.26697463673635308 0 -0.44241869297812608 0.27057436516883038 0 -0.44507828897678159 0.27840574737841101 0 -0.44241869297812608 0.27057436516883038 0 -0.4436476101133785 0.25895786337446769 0 -0.43225286510683131 0.27221487891833918 0 -0.44507828897678159 0.27840574737841101 0 -0.43626946244144088 0.27631869943658122 0 -0.43735529567774112 0.28489315462788278 0 -0.44241869297812608 0.27057436516883038 0 -0.44507828897678159 0.27840574737841101 0 -0.43626946244144088 0.27631869943658122 0 -0.46067917674487202 0.24578791896303159 0 -0.4436476101133785 0.25895786337446769 0 -0.46067917674487202 0.24578791896303159 0 -0.45484523825219808 0.26697463673635308 0 -0.4436476101133785 0.25895786337446769 0 -0.45484523825219808 0.26697463673635308 0 -0.44241869297812608 0.27057436516883038 0 -0.4436476101133785 0.25895786337446769 0 -0.4436476101133785 0.25895786337446769 0 -0.42661604348188448 0.2721278077859034 0 -0.43555763534364911 0.24400067240948509 0 -0.4436476101133785 0.25895786337446769 0 -0.42661604348188448 0.2721278077859034 0 -0.43555763534364911 0.24400067240948509 0 -0.42060660074010942 0.25473258134287657 0 -0.42661604348188448 0.2721278077859034 0 -0.43555763534364911 0.24400067240948509 0 -0.42661604348188448 0.2721278077859034 0 -0.42060660074010942 0.25473258134287657 0 -0.4165526710681558 0.26558490018247338 0 -0.40438226554742929 0.26342040343051221 0 -0.42060660074010942 0.25473258134287657 0 -0.4165526710681558 0.26558490018247338 0 -0.42661604348188448 0.2721278077859034 0 -0.40167854475825282 0.24059208437640539 0 -0.42060660074010942 0.25473258134287657 0 -0.40438226554742929 0.26342040343051221 0 -0.4165526710681558 0.26558490018247338 0 -0.41089089823461927 0.27288806951224981 0 -0.42661604348188448 0.2721278077859034 0 -0.41089089823461927 0.27288806951224981 0 -0.42661604348188448 0.2721278077859034 0 -0.40808833552804091 0.286454668555849 0 -0.42661604348188448 0.2721278077859034 0 -0.42722318679739379 0.28272390765424421 0 -0.40808833552804091 0.286454668555849 0 -0.42661604348188448 0.2721278077859034 0 -0.40808833552804091 0.286454668555849 0 -0.4165526710681558 0.26558490018247338 0 -0.41089089823461927 0.27288806951224981 0 -0.40438226554742929 0.26342040343051221 0 -0.42661604348188448 0.2721278077859034 0 -0.4303277363337249 0.27651977430647412 0 -0.42722318679739379 0.28272390765424421 0 -0.4436476101133785 0.25895786337446769 0 -0.42661604348188448 0.2721278077859034 0 -0.43225286510683131 0.27221487891833918 0 -0.42866686641450868 0.27331170210576539 0 -0.42661604348188448 0.2721278077859034 0 -0.4303277363337249 0.27651977430647412 0 -0.42866686641450868 0.27331170210576539 0 -0.42661604348188448 0.2721278077859034 0 -0.43225286510683131 0.27221487891833918 0 -0.44241869297812608 0.27057436516883038 0 -0.43225286510683131 0.27221487891833918 0 -0.43626946244144088 0.27631869943658122 0 -0.43321090817008973 0.28027204466830158 0 -0.43626946244144088 0.27631869943658122 0 -0.43735529567774112 0.28489315462788278 0 -0.43321090817008973 0.28027204466830158 0 -0.4303277363337249 0.27651977430647412 0 -0.43626946244144088 0.27631869943658122 0 -0.43321090817008973 0.28027204466830158 0 -0.4303277363337249 0.27651977430647412 0 -0.42722318679739379 0.28272390765424421 0 -0.42866686641450868 0.27331170210576539 0 -0.43225286510683131 0.27221487891833918 0 -0.4303277363337249 0.27651977430647412 0 -0.43225286510683131 0.27221487891833918 0 -0.4303277363337249 0.27651977430647412 0 -0.43626946244144088 0.27631869943658122 0 -0.43321090817008973 0.28027204466830158 0 -0.43735529567774112 0.28489315462788278 0 -0.42722318679739379 0.28272390765424421 0 -0.43735529567774112 0.28489315462788278 0 -0.42630197482938181 0.29482615070754631 0 -0.42722318679739379 0.28272390765424421 0 -0.43735529567774112 0.28489315462788278 0 -0.43689910241905561 0.29603748260767182 0 -0.42630197482938181 0.29482615070754631 0 -0.42630197482938181 0.29482615070754631 0 -0.43204107734184671 0.30685441950589148 0 -0.41438993902560739 0.31176022368235079 0 -0.43689910241905561 0.29603748260767182 0 -0.42630197482938181 0.29482615070754631 0 -0.43204107734184671 0.30685441950589148 0 -0.42630197482938181 0.29482615070754631 0 -0.41438993902560739 0.31176022368235079 0 -0.40808833552804091 0.286454668555849 0 -0.42630197482938181 0.29482615070754631 0 -0.42722318679739379 0.28272390765424421 0 -0.40808833552804091 0.286454668555849 0 -0.40808833552804091 0.286454668555849 0 -0.39061369645968907 0.28777406485344692 0 -0.39649337787972289 0.27737085594504129 0 -0.40808833552804091 0.286454668555849 0 -0.38956062757419618 0.30078152932579322 0 -0.39061369645968907 0.28777406485344692 0 -0.40808833552804091 0.286454668555849 0 -0.38956062757419618 0.30078152932579322 0 -0.39061369645968907 0.28777406485344692 0 -0.38865049628673692 0.28053292385147988 0 -0.39649337787972289 0.27737085594504129 0 -0.41438993902560739 0.31176022368235079 0 -0.40808833552804091 0.286454668555849 0 -0.38956062757419618 0.30078152932579322 0 -0.41438993902560739 0.31176022368235079 0 -0.38956062757419618 0.30078152932579322 0 -0.39191418996105082 0.31838610164523362 0 -0.41438993902560739 0.31176022368235079 0 -0.38956062757419618 0.30078152932579322 0 -0.39191418996105082 0.31838610164523362 0 -0.38956062757419618 0.30078152932579322 0 -0.3744393805172796 0.31247428710198982 0 -0.38956062757419618 0.30078152932579322 0 -0.37497241903855549 0.2943311095050084 0 -0.3744393805172796 0.31247428710198982 0 -0.38956062757419618 0.30078152932579322 0 -0.37497241903855549 0.2943311095050084 0 -0.38956062757419618 0.30078152932579322 0 -0.3744393805172796 0.31247428710198982 0 -0.38956062757419618 0.30078152932579322 0 -0.39061369645968907 0.28777406485344692 0 -0.37497241903855549 0.2943311095050084 0 -0.39061369645968907 0.28777406485344692 0 -0.381970544701139 0.27982971968294063 0 -0.37497241903855549 0.2943311095050084 0 -0.39061369645968907 0.28777406485344692 0 -0.381970544701139 0.27982971968294063 0 -0.38865049628673692 0.28053292385147988 0 -0.38183186631505212 0.27595707624028332 0 -0.381970544701139 0.27982971968294063 0 -0.38183186631505212 0.27595707624028332 0 -0.381970544701139 0.27982971968294063 0 -0.38865049628673692 0.28053292385147988 0 -0.38183186631505212 0.27595707624028332 0 -0.38865049628673692 0.28053292385147988 0 -0.39649337787972289 0.27737085594504129 0 -0.38089918133046369 0.24991151505750661 0 -0.38183186631505212 0.27595707624028332 0 -0.37118311982732283 0.26471588601651491 0 -0.38089918133046369 0.24991151505750661 0 -0.38183186631505212 0.27595707624028332 0 -0.38089918133046369 0.24991151505750661 0 -0.38183186631505212 0.27595707624028332 0 -0.39219796448779942 0.25747026977617682 0 -0.40167854475825282 0.24059208437640539 0 -0.39219796448779942 0.25747026977617682 0 -0.40438226554742929 0.26342040343051221 0 -0.38183186631505212 0.27595707624028332 0 -0.39219796448779942 0.25747026977617682 0 -0.40438226554742929 0.26342040343051221 0 -0.41089089823461927 0.27288806951224981 0 -0.40438226554742929 0.26342040343051221 0 -0.39649337787972289 0.27737085594504129 0 -0.38183186631505212 0.27595707624028332 0 -0.40438226554742929 0.26342040343051221 0 -0.38183186631505212 0.27595707624028332 0 -0.40438226554742929 0.26342040343051221 0 -0.39649337787972289 0.27737085594504129 0 -0.41089089823461927 0.27288806951224981 0 -0.40808833552804091 0.286454668555849 0 -0.39649337787972289 0.27737085594504129 0 -0.3531936270013627 0.27296428681047319 0 -0.34640570802889492 0.25478041898938741 0 -0.33677772351961199 0.2774426875701132 0 -0.3531936270013627 0.27296428681047319 0 -0.36038421050291441 0.28788068968422498 0 -0.33677772351961199 0.2774426875701132 0 -0.3531936270013627 0.27296428681047319 0 -0.36416145047644333 0.27337524294889842 0 -0.36038421050291441 0.28788068968422498 0 -0.36613552699662999 0.2498380616322399 0 -0.34640570802889492 0.25478041898938741 0 -0.36095997885807152 0.26366501307353962 0 -0.3531936270013627 0.27296428681047319 0 -0.34640570802889492 0.25478041898938741 0 -0.36095997885807152 0.26366501307353962 0 -0.36613552699662999 0.2498380616322399 0 -0.36095997885807152 0.26366501307353962 0 -0.37118311982732283 0.26471588601651491 0 -0.38089918133046369 0.24991151505750661 0 -0.36613552699662999 0.2498380616322399 0 -0.37118311982732283 0.26471588601651491 0 -0.37118311982732283 0.26471588601651491 0 -0.36416145047644333 0.27337524294889842 0 -0.37045317698238822 0.27550113327223491 0 -0.38183186631505212 0.27595707624028332 0 -0.381970544701139 0.27982971968294063 0 -0.36038421050291441 0.28788068968422498 0 -0.38183186631505212 0.27595707624028332 0 -0.37118311982732283 0.26471588601651491 0 -0.37045317698238822 0.27550113327223491 0 -0.38183186631505212 0.27595707624028332 0 -0.37045317698238822 0.27550113327223491 0 -0.36038421050291441 0.28788068968422498 0 -0.36095997885807152 0.26366501307353962 0 -0.37118311982732283 0.26471588601651491 0 -0.36416145047644333 0.27337524294889842 0 -0.3531936270013627 0.27296428681047319 0 -0.36095997885807152 0.26366501307353962 0 -0.36416145047644333 0.27337524294889842 0 -0.36416145047644333 0.27337524294889842 0 -0.37045317698238822 0.27550113327223491 0 -0.36038421050291441 0.28788068968422498 0 -0.38183186631505212 0.27595707624028332 0 -0.36038421050291441 0.28788068968422498 0 -0.381970544701139 0.27982971968294063 0 -0.37497241903855549 0.2943311095050084 0 -0.36038421050291441 0.28788068968422498 0 -0.37497241903855549 0.2943311095050084 0 -0.36038421050291441 0.28788068968422498 0 -0.37497241903855549 0.2943311095050084 0 -0.36038421050291441 0.28788068968422498 0 -0.36109113476700933 0.29857094419803842 0 -0.37497241903855549 0.2943311095050084 0 -0.3744393805172796 0.31247428710198982 0 -0.36557960009838392 0.30896346928429569 0 -0.37497241903855549 0.2943311095050084 0 -0.36109113476700933 0.29857094419803842 0 -0.36557960009838392 0.30896346928429569 0 -0.36109113476700933 0.29857094419803842 0 -0.36557960009838392 0.30896346928429569 0 -0.35593490501953851 0.30434676385610021 0 -0.36557960009838392 0.30896346928429569 0 -0.35593490501953851 0.30434676385610021 0 -0.3577311178113004 0.31268010782440281 0 -0.35593490501953851 0.30434676385610021 0 -0.34920718883245278 0.30567825279746552 0 -0.3577311178113004 0.31268010782440281 0 -0.36109113476700933 0.29857094419803842 0 -0.35593490501953851 0.30434676385610021 0 -0.34606548358854622 0.29584104517629839 0 -0.35593490501953851 0.30434676385610021 0 -0.34920718883245278 0.30567825279746552 0 -0.34606548358854622 0.29584104517629839 0 -0.34920718883245278 0.30567825279746552 0 -0.34485586012493308 0.31374122629784479 0 -0.3577311178113004 0.31268010782440281 0 -0.36038421050291441 0.28788068968422498 0 -0.33677772351961199 0.2774426875701132 0 -0.36038421050291441 0.28788068968422498 0 -0.34606548358854622 0.29584104517629839 0 -0.33677772351961199 0.2774426875701132 0 -0.36038421050291441 0.28788068968422498 0 -0.36109113476700933 0.29857094419803842 0 -0.34606548358854622 0.29584104517629839 0 -0.36038421050291441 0.28788068968422498 0 -0.34606548358854622 0.29584104517629839 0 -0.34606548358854622 0.29584104517629839 0 -0.33110280865141428 0.29299256061127932 0 -0.33677772351961199 0.2774426875701132 0 -0.33110280865141428 0.29299256061127932 0 -0.32103468670634311 0.28561740771421051 0 -0.33677772351961199 0.2774426875701132 0 -0.34920718883245278 0.30567825279746552 0 -0.34606548358854622 0.29584104517629839 0 -0.33174675667417591 0.30380140066836792 0 -0.34920718883245278 0.30567825279746552 0 -0.33174675667417591 0.30380140066836792 0 -0.34485586012493308 0.31374122629784479 0 -0.34606548358854622 0.29584104517629839 0 -0.33174675667417591 0.30380140066836792 0 -0.34606548358854622 0.29584104517629839 0 -0.33110280865141428 0.29299256061127932 0 -0.33174675667417591 0.30380140066836792 0 -0.33110280865141428 0.29299256061127932 0 -0.33174675667417591 0.30380140066836792 0 -0.32784487852360689 0.29971661717219122 0 -0.33174675667417591 0.30380140066836792 0 -0.32909824505711632 0.30245354363155291 0 -0.3252268787515345 0.30330085774374288 0 -0.33174675667417591 0.30380140066836792 0 -0.32909824505711632 0.30245354363155291 0 -0.32784487852360689 0.29971661717219122 0 -0.33174675667417591 0.30380140066836792 0 -0.31947495640036738 0.30600282422544972 0 -0.31112804952138667 0.31526416825272302 0 -0.33174675667417591 0.30380140066836792 0 -0.31112804952138667 0.31526416825272302 0 -0.33174675667417591 0.30380140066836792 0 -0.31112804952138667 0.31526416825272302 0 -0.32415951583201602 0.31663507166942428 0 -0.3252268787515345 0.30330085774374288 0 -0.31947495640036738 0.30600282422544972 0 -0.32294982564045949 0.29677488624087961 0 -0.33174675667417591 0.30380140066836792 0 -0.3252268787515345 0.30330085774374288 0 -0.31947495640036738 0.30600282422544972 0 -0.32909824505711632 0.30245354363155291 0 -0.3252268787515345 0.30330085774374288 0 -0.32784487852360689 0.29971661717219122 0 -0.3252268787515345 0.30330085774374288 0 -0.32784487852360689 0.29971661717219122 0 -0.32294982564045949 0.29677488624087961 0 -0.31947495640036738 0.30600282422544972 0 -0.31039103873462648 0.29595886643612918 0 -0.31061707089720608 0.3060677795354913 0 -0.31947495640036738 0.30600282422544972 0 -0.32294982564045949 0.29677488624087961 0 -0.31039103873462648 0.29595886643612918 0 -0.31947495640036738 0.30600282422544972 0 -0.31061707089720608 0.3060677795354913 0 -0.31112804952138667 0.31526416825272302 0 -0.33110280865141428 0.29299256061127932 0 -0.32784487852360689 0.29971661717219122 0 -0.32294982564045949 0.29677488624087961 0 -0.33110280865141428 0.29299256061127932 0 -0.32103468670634311 0.28561740771421051 0 -0.32294982564045949 0.29677488624087961 0 -0.32103468670634311 0.28561740771421051 0 -0.32294982564045949 0.29677488624087961 0 -0.31039103873462648 0.29595886643612918 0 -0.32103468670634311 0.28561740771421051 0 -0.31317123653630968 0.26700468545600059 0 -0.33677772351961199 0.2774426875701132 0 -0.32103468670634311 0.28561740771421051 0 -0.31317123653630968 0.26700468545600059 0 -0.30460498261159419 0.27985373466183111 0 -0.31317123653630968 0.26700468545600059 0 -0.33677772351961199 0.2774426875701132 0 -0.33021853714942451 0.26124520878882812 0 -0.31317123653630968 0.26700468545600059 0 -0.33677772351961199 0.2774426875701132 0 -0.32451948051288149 0.24575304313981139 0 -0.34640570802889492 0.25478041898938741 0 -0.33021853714942451 0.26124520878882812 0 -0.34640570802889492 0.25478041898938741 0 -0.33677772351961199 0.2774426875701132 0 -0.33021853714942451 0.26124520878882812 0 -0.32451948051288149 0.24575304313981139 0 -0.3049348337754611 0.24434814692371409 0 -0.31317123653630968 0.26700468545600059 0 -0.32451948051288149 0.24575304313981139 0 -0.31317123653630968 0.26700468545600059 0 -0.33021853714942451 0.26124520878882812 0 -0.31317123653630968 0.26700468545600059 0 -0.28937940074773799 0.25656505057758427 0 -0.28934098046515072 0.26092645991215169 0 -0.31317123653630968 0.26700468545600059 0 -0.28937940074773799 0.25656505057758427 0 -0.3049348337754611 0.24434814692371409 0 -0.31317123653630968 0.26700468545600059 0 -0.28937940074773799 0.25656505057758427 0 -0.31317123653630968 0.26700468545600059 0 -0.30460498261159419 0.27985373466183111 0 -0.28934098046515072 0.26092645991215169 0 -0.28934098046515072 0.26092645991215169 0 -0.27333694078370968 0.27218118639568739 0 -0.28119720026045059 0.28132108813136142 0 -0.28934098046515072 0.26092645991215169 0 -0.28908697061554112 0.28976125379066298 0 -0.30460498261159419 0.27985373466183111 0 -0.28934098046515072 0.26092645991215169 0 -0.28908697061554112 0.28976125379066298 0 -0.28934098046515072 0.26092645991215169 0 -0.28119720026045059 0.28132108813136142 0 -0.28908697061554112 0.28976125379066298 0 -0.28937940074773799 0.25656505057758427 0 -0.28934098046515072 0.26092645991215169 0 -0.28937940074773799 0.25656505057758427 0 -0.28934098046515072 0.26092645991215169 0 -0.27814010919050952 0.25176293348782253 0 -0.28934098046515072 0.26092645991215169 0 -0.27814010919050952 0.25176293348782253 0 -0.27333694078370968 0.27218118639568739 0 -0.27814010919050952 0.25176293348782253 0 -0.27333694078370968 0.27218118639568739 0 -0.26406626432459401 0.23767814437306889 0 -0.27814010919050952 0.25176293348782253 0 -0.26001647837282271 0.26160301861755331 0 -0.27814010919050952 0.25176293348782253 0 -0.27333694078370968 0.27218118639568739 0 -0.26001647837282271 0.26160301861755331 0 -0.27333694078370968 0.27218118639568739 0 -0.27325568514091231 0.2891296935192042 0 -0.28119720026045059 0.28132108813136142 0 -0.27333694078370968 0.27218118639568739 0 -0.2605132354383905 0.27886162704811451 0 -0.26853377237691117 0.29259943930355259 0 -0.2605132354383905 0.27886162704811451 0 -0.26001647837282271 0.26160301861755331 0 -0.2446388535331426 0.2762043510430276 0 -0.27333694078370968 0.27218118639568739 0 -0.2605132354383905 0.27886162704811451 0 -0.26001647837282271 0.26160301861755331 0 -0.26406626432459401 0.23767814437306889 0 -0.26001647837282271 0.26160301861755331 0 -0.24214295464715219 0.25181578413355249 0 -0.25314696190835279 0.30390594228787221 0 -0.26853377237691117 0.29259943930355259 0 -0.26282370428094581 0.31687291977103382 0 -0.25314696190835279 0.30390594228787221 0 -0.26282370428094581 0.31687291977103382 0 -0.23776015143979429 0.3152124452721915 0 -0.25314696190835279 0.30390594228787221 0 -0.26853377237691117 0.29259943930355259 0 -0.2605132354383905 0.27886162704811451 0 -0.25272870130594038 0.28890713845571209 0 -0.26853377237691117 0.29259943930355259 0 -0.2605132354383905 0.27886162704811451 0 -0.25272870130594038 0.28890713845571209 0 -0.2446388535331426 0.2762043510430276 0 -0.25314696190835279 0.30390594228787221 0 -0.25272870130594038 0.28890713845571209 0 -0.26853377237691117 0.29259943930355259 0 -0.27333694078370968 0.27218118639568739 0 -0.26853377237691117 0.29259943930355259 0 -0.27325568514091231 0.2891296935192042 0 -0.27333694078370968 0.27218118639568739 0 -0.26853377237691117 0.29259943930355259 0 -0.26853377237691117 0.29259943930355259 0 -0.27325568514091231 0.2891296935192042 0 -0.27325568514091231 0.2891296935192042 0 -0.28119720026045059 0.28132108813136142 0 -0.27922756028611889 0.29229739058858362 0 -0.26853377237691117 0.29259943930355259 0 -0.27325568514091231 0.2891296935192042 0 -0.27922756028611889 0.29229739058858362 0 -0.26853377237691117 0.29259943930355259 0 -0.27922756028611889 0.29229739058858362 0 -0.28058844501513741 0.30405656529710129 0 -0.26853377237691117 0.29259943930355259 0 -0.26282370428094581 0.31687291977103382 0 -0.26853377237691117 0.29259943930355259 0 -0.28058844501513741 0.30405656529710129 0 -0.26282370428094581 0.31687291977103382 0 -0.28908697061554112 0.28976125379066298 0 -0.28883296076592702 0.31859604766917438 0 -0.28058844501513741 0.30405656529710129 0 -0.28908697061554112 0.28976125379066298 0 -0.28883296076592702 0.31859604766917438 0 -0.28908697061554112 0.28976125379066298 0 -0.30163489900607182 0.30663995810010503 0 -0.28883296076592702 0.31859604766917438 0 -0.28119720026045059 0.28132108813136142 0 -0.27922756028611889 0.29229739058858362 0 -0.28908697061554112 0.28976125379066298 0 -0.27922756028611889 0.29229739058858362 0 -0.28058844501513741 0.30405656529710129 0 -0.28908697061554112 0.28976125379066298 0 -0.32103468670634311 0.28561740771421051 0 -0.30460498261159419 0.27985373466183111 0 -0.31039103873462648 0.29595886643612918 0 -0.30460498261159419 0.27985373466183111 0 -0.28908697061554112 0.28976125379066298 0 -0.31039103873462648 0.29595886643612918 0 -0.28908697061554112 0.28976125379066298 0 -0.31039103873462648 0.29595886643612918 0 -0.30163489900607182 0.30663995810010503 0 -0.31039103873462648 0.29595886643612918 0 -0.30163489900607182 0.30663995810010503 0 -0.31061707089720608 0.3060677795354913 0 -0.30163489900607182 0.30663995810010503 0 -0.31061707089720608 0.3060677795354913 0 -0.31112804952138667 0.31526416825272302 0 -0.31112804952138667 0.31526416825272302 0 -0.30125502667739917 0.319419016535546 0 -0.30691824557922792 0.3299887234924499 0 -0.30163489900607182 0.30663995810010503 0 -0.31112804952138667 0.31526416825272302 0 -0.30125502667739917 0.319419016535546 0 -0.30163489900607182 0.30663995810010503 0 -0.30125502667739917 0.319419016535546 0 -0.28883296076592702 0.31859604766917438 0 -0.30125502667739917 0.319419016535546 0 -0.30691824557922792 0.3299887234924499 0 -0.28864829602230269 0.33955889547743301 0 -0.30691824557922792 0.3299887234924499 0 -0.28864829602230269 0.33955889547743301 0 -0.30246175173771039 0.34422696886639959 0 -0.30246175173771039 0.34422696886639959 0 -0.31464955589821919 0.34993191472040419 0 -0.31391762701124942 0.33708925737457102 0 -0.30691824557922792 0.3299887234924499 0 -0.30246175173771039 0.34422696886639959 0 -0.31391762701124942 0.33708925737457102 0 -0.28864829602230269 0.33955889547743301 0 -0.28883296076592702 0.31859604766917438 0 -0.2726544183697161 0.33375354466263668 0 -0.28864829602230269 0.33955889547743301 0 -0.28883296076592702 0.31859604766917438 0 -0.30125502667739917 0.319419016535546 0 -0.28864829602230269 0.33955889547743301 0 -0.28883296076592702 0.31859604766917438 0 -0.30125502667739917 0.319419016535546 0 -0.28883296076592702 0.31859604766917438 0 -0.28883296076592702 0.31859604766917438 0 -0.2726544183697161 0.33375354466263668 0 -0.26282370428094581 0.31687291977103382 0 -0.28058844501513741 0.30405656529710129 0 -0.28883296076592702 0.31859604766917438 0 -0.26282370428094581 0.31687291977103382 0 -0.28883296076592702 0.31859604766917438 0 -0.26282370428094581 0.31687291977103382 0 -0.2726544183697161 0.33375354466263668 0 -0.26807762084896142 0.34588115685936088 0 -0.27767665119464541 0.35040078766436289 0 -0.28864829602230269 0.33955889547743301 0 -0.2726544183697161 0.33375354466263668 0 -0.27767665119464541 0.35040078766436289 0 -0.2726544183697161 0.33375354466263668 0 -0.25704488749120552 0.34143865070691742 0 -0.26807762084896142 0.34588115685936088 0 -0.25704488749120552 0.34143865070691742 0 -0.26282370428094581 0.31687291977103382 0 -0.2726544183697161 0.33375354466263668 0 -0.25704488749120552 0.34143865070691742 0 -0.26282370428094581 0.31687291977103382 0 -0.25704488749120552 0.34143865070691742 0 -0.25389434779743858 0.32383608782264178 0 -0.24565220057314491 0.33603888307632612 0 -0.26282370428094581 0.31687291977103382 0 -0.23776015143979429 0.3152124452721915 0 -0.25704488749120552 0.34143865070691742 0 -0.25389434779743858 0.32383608782264178 0 -0.26282370428094581 0.31687291977103382 0 -0.25389434779743858 0.32383608782264178 0 -0.26282370428094581 0.31687291977103382 0 -0.23776015143979429 0.3152124452721915 0 -0.26379989327169828 0.36827120351384351 0 -0.25126607070146301 0.36600438164280041 0 -0.2668852268214022 0.35725629733907049 0 -0.26379989327169828 0.36827120351384351 0 -0.27004792936901217 0.37443205298337162 0 -0.26007906330776021 0.38034583881876782 0 -0.26379989327169828 0.36827120351384351 0 -0.25126607070146301 0.36600438164280041 0 -0.26007906330776021 0.38034583881876782 0 -0.25704488749120552 0.34143865070691742 0 -0.2668852268214022 0.35725629733907049 0 -0.26807762084896142 0.34588115685936088 0 -0.25704488749120552 0.34143865070691742 0 -0.25126607070146301 0.36600438164280041 0 -0.2668852268214022 0.35725629733907049 0 -0.25704488749120552 0.34143865070691742 0 -0.25126607070146301 0.36600438164280041 0 -0.25704488749120552 0.34143865070691742 0 -0.25126607070146301 0.36600438164280041 0 -0.24410524378779749 0.35581516123685802 0 -0.2668852268214022 0.35725629733907049 0 -0.26807762084896142 0.34588115685936088 0 -0.27767665119464541 0.35040078766436289 0 -0.2668852268214022 0.35725629733907049 0 -0.27767665119464541 0.35040078766436289 0 -0.27661296498871613 0.35800535908112319 0 -0.27767665119464541 0.35040078766436289 0 -0.27661296498871613 0.35800535908112319 0 -0.28449375984198477 0.36048531913324577 0 -0.27661296498871613 0.35800535908112319 0 -0.27917029157203271 0.36219267703247321 0 -0.28449375984198477 0.36048531913324577 0 -0.27917029157203271 0.36219267703247321 0 -0.27402391517212321 0.36562632346096807 0 -0.28155052628530708 0.36465370645455558 0 -0.27661296498871613 0.35800535908112319 0 -0.27917029157203271 0.36219267703247321 0 -0.27402391517212321 0.36562632346096807 0 -0.26379989327169828 0.36827120351384351 0 -0.2668852268214022 0.35725629733907049 0 -0.27402391517212321 0.36562632346096807 0 -0.2668852268214022 0.35725629733907049 0 -0.27661296498871613 0.35800535908112319 0 -0.27402391517212321 0.36562632346096807 0 -0.26379989327169828 0.36827120351384351 0 -0.27402391517212321 0.36562632346096807 0 -0.27004792936901217 0.37443205298337162 0 -0.27402391517212321 0.36562632346096807 0 -0.27004792936901217 0.37443205298337162 0 -0.2815265797335253 0.37447278862882011 0 -0.27402391517212321 0.36562632346096807 0 -0.2815265797335253 0.37447278862882011 0 -0.28155052628530708 0.36465370645455558 0 -0.28846363127867142 0.36052174328569159 0 -0.28825624646783221 0.38406373696565382 0 -0.28846363127867142 0.36052174328569159 0 -0.30088930960570098 0.37285361298283481 0 -0.28825624646783221 0.38406373696565382 0 -0.2815265797335253 0.37447278862882011 0 -0.28846363127867142 0.36052174328569159 0 -0.28825624646783221 0.38406373696565382 0 -0.2815265797335253 0.37447278862882011 0 -0.28155052628530708 0.36465370645455558 0 -0.28846363127867142 0.36052174328569159 0 -0.28155052628530708 0.36465370645455558 0 -0.28449375984198477 0.36048531913324577 0 -0.28846363127867142 0.36052174328569159 0 -0.27917029157203271 0.36219267703247321 0 -0.28155052628530708 0.36465370645455558 0 -0.28449375984198477 0.36048531913324577 0 -0.28449375984198477 0.36048531913324577 0 -0.28846363127867142 0.36052174328569159 0 -0.28864829602230269 0.33955889547743301 0 -0.28846363127867142 0.36052174328569159 0 -0.30246175173771039 0.34422696886639959 0 -0.28864829602230269 0.33955889547743301 0 -0.27767665119464541 0.35040078766436289 0 -0.28846363127867142 0.36052174328569159 0 -0.28864829602230269 0.33955889547743301 0 -0.28846363127867142 0.36052174328569159 0 -0.27767665119464541 0.35040078766436289 0 -0.28449375984198477 0.36048531913324577 0 -0.28846363127867142 0.36052174328569159 0 -0.28846363127867142 0.36052174328569159 0 -0.30246175173771039 0.34422696886639959 0 -0.30617371452314751 0.3606842358958966 0 -0.30246175173771039 0.34422696886639959 0 -0.30617371452314751 0.3606842358958966 0 -0.31464955589821919 0.34993191472040419 0 -0.28846363127867142 0.36052174328569159 0 -0.30617371452314751 0.3606842358958966 0 -0.28846363127867142 0.36052174328569159 0 -0.30088930960570098 0.37285361298283481 0 -0.30617371452314751 0.3606842358958966 0 -0.30088930960570098 0.37285361298283481 0 -0.30617371452314751 0.3606842358958966 0 -0.31514558450882602 0.37328169242434472 0 -0.30617371452314751 0.3606842358958966 0 -0.32388379776762349 0.36084672850610222 0 -0.31514558450882602 0.37328169242434472 0 -0.32388379776762349 0.36084672850610222 0 -0.33308183247715828 0.37221042966199519 0 -0.30617371452314751 0.3606842358958966 0 -0.31514558450882602 0.37328169242434472 0 -0.32388379776762349 0.36084672850610222 0 -0.31514558450882602 0.37328169242434472 0 -0.32388379776762349 0.36084672850610222 0 -0.33308183247715828 0.37221042966199519 0 -0.34438663897101612 0.36294010622563999 0 -0.33589615148725122 0.38655675863451278 0 -0.32388379776762349 0.36084672850610222 0 -0.34397862200044788 0.36103110146449757 0 -0.32388379776762349 0.36084672850610222 0 -0.33308183247715828 0.37221042966199519 0 -0.34397862200044788 0.36103110146449757 0 -0.34438663897101612 0.36294010622563999 0 -0.33589615148725122 0.38655675863451278 0 -0.33308183247715828 0.37221042966199519 0 -0.34438663897101612 0.36294010622563999 0 -0.34397862200044788 0.36103110146449757 0 -0.32388379776762349 0.36084672850610222 0 -0.32458273369428647 0.33927851261392572 0 -0.33926190670246442 0.33896282340193279 0 -0.33926190670246442 0.33896282340193279 0 -0.34397862200044788 0.36103110146449757 0 -0.34605925440558299 0.35828765518469552 0 -0.32388379776762349 0.36084672850610222 0 -0.33926190670246442 0.33896282340193279 0 -0.34397862200044788 0.36103110146449757 0 -0.33926190670246442 0.33896282340193279 0 -0.34397862200044788 0.36103110146449757 0 -0.32388379776762349 0.36084672850610222 0 -0.33926190670246442 0.33896282340193279 0 -0.32388379776762349 0.36084672850610222 0 -0.31464955589821919 0.34993191472040419 0 -0.32458273369428647 0.33927851261392572 0 -0.30617371452314751 0.3606842358958966 0 -0.32388379776762349 0.36084672850610222 0 -0.31464955589821919 0.34993191472040419 0 -0.31464955589821919 0.34993191472040419 0 -0.31391762701124942 0.33708925737457102 0 -0.32458273369428647 0.33927851261392572 0 -0.32458273369428647 0.33927851261392572 0 -0.31981498419011878 0.32588868332349291 0 -0.33550433168832 0.32138211203515038 0 -0.31391762701124942 0.33708925737457102 0 -0.32458273369428647 0.33927851261392572 0 -0.31981498419011878 0.32588868332349291 0 -0.30691824557922792 0.3299887234924499 0 -0.31391762701124942 0.33708925737457102 0 -0.31981498419011878 0.32588868332349291 0 -0.31981498419011878 0.32588868332349291 0 -0.32415951583201602 0.31663507166942428 0 -0.33550433168832 0.32138211203515038 0 -0.31112804952138667 0.31526416825272302 0 -0.31981498419011878 0.32588868332349291 0 -0.32415951583201602 0.31663507166942428 0 -0.31112804952138667 0.31526416825272302 0 -0.30691824557922792 0.3299887234924499 0 -0.31981498419011878 0.32588868332349291 0 -0.33174675667417591 0.30380140066836792 0 -0.32415951583201602 0.31663507166942428 0 -0.33550433168832 0.32138211203515038 0 -0.33174675667417591 0.30380140066836792 0 -0.33550433168832 0.32138211203515038 0 -0.33174675667417591 0.30380140066836792 0 -0.33550433168832 0.32138211203515038 0 -0.34485586012493308 0.31374122629784479 0 -0.33550433168832 0.32138211203515038 0 -0.34485586012493308 0.31374122629784479 0 -0.34849651225688211 0.3258214656131676 0 -0.32458273369428647 0.33927851261392572 0 -0.33550433168832 0.32138211203515038 0 -0.33926190670246442 0.33896282340193279 0 -0.33550433168832 0.32138211203515038 0 -0.33926190670246442 0.33896282340193279 0 -0.33550433168832 0.32138211203515038 0 -0.33926190670246442 0.33896282340193279 0 -0.34849651225688211 0.3258214656131676 0 -0.3588008488537362 0.3395617526593932 0 -0.35410577375879571 0.31783917423179697 0 -0.33926190670246442 0.33896282340193279 0 -0.34940709710788331 0.34234690000780449 0 -0.34849651225688211 0.3258214656131676 0 -0.34940709710788331 0.34234690000780449 0 -0.3588008488537362 0.3395617526593932 0 -0.34849651225688211 0.3258214656131676 0 -0.33926190670246442 0.33896282340193279 0 -0.34940709710788331 0.34234690000780449 0 -0.348244447933588 0.34927448671583039 0 -0.33926190670246442 0.33896282340193279 0 -0.34849651225688211 0.3258214656131676 0 -0.3588008488537362 0.3395617526593932 0 -0.3593181334603624 0.3241670448781856 0 -0.35410577375879571 0.31783917423179697 0 -0.3588008488537362 0.3395617526593932 0 -0.34849651225688211 0.3258214656131676 0 -0.35410577375879571 0.31783917423179697 0 -0.34485586012493308 0.31374122629784479 0 -0.34849651225688211 0.3258214656131676 0 -0.35410577375879571 0.31783917423179697 0 -0.34849651225688211 0.3258214656131676 0 -0.35410577375879571 0.31783917423179697 0 -0.3593181334603624 0.3241670448781856 0 -0.35410577375879571 0.31783917423179697 0 -0.3577311178113004 0.31268010782440281 0 -0.34485586012493308 0.31374122629784479 0 -0.35410577375879571 0.31783917423179697 0 -0.3577311178113004 0.31268010782440281 0 -0.35410577375879571 0.31783917423179697 0 -0.3577311178113004 0.31268010782440281 0 -0.3744393805172796 0.31247428710198982 0 -0.3593181334603624 0.3241670448781856 0 -0.36557960009838392 0.30896346928429569 0 -0.3593181334603624 0.3241670448781856 0 -0.3577311178113004 0.31268010782440281 0 -0.3744393805172796 0.31247428710198982 0 -0.36557960009838392 0.30896346928429569 0 -0.3593181334603624 0.3241670448781856 0 -0.3593181334603624 0.3241670448781856 0 -0.37137244083342141 0.32477040145267583 0 -0.36690568109338728 0.33241492031725478 0 -0.3744393805172796 0.31247428710198982 0 -0.3593181334603624 0.3241670448781856 0 -0.37137244083342141 0.32477040145267583 0 -0.3588008488537362 0.3395617526593932 0 -0.36983217950573682 0.34039220066898879 0 -0.36906799974949411 0.34987867997437988 0 -0.3588008488537362 0.3395617526593932 0 -0.36690568109338728 0.33241492031725478 0 -0.36983217950573682 0.34039220066898879 0 -0.3588008488537362 0.3395617526593932 0 -0.3593181334603624 0.3241670448781856 0 -0.36690568109338728 0.33241492031725478 0 -0.37601543153736572 0.33313452262712728 0 -0.37137244083342141 0.32477040145267583 0 -0.36690568109338728 0.33241492031725478 0 -0.37601543153736572 0.33313452262712728 0 -0.36690568109338728 0.33241492031725478 0 -0.36983217950573682 0.34039220066898879 0 -0.37999219374207199 0.34687376916698243 0 -0.36983217950573682 0.34039220066898879 0 -0.36906799974949411 0.34987867997437988 0 -0.3588008488537362 0.3395617526593932 0 -0.36906799974949411 0.34987867997437988 0 -0.36338900044879469 0.36120919453247369 0 -0.3588008488537362 0.3395617526593932 0 -0.36338900044879469 0.36120919453247369 0 -0.36906799974949411 0.34987867997437988 0 -0.37413640492081651 0.36130780354415809 0 -0.36338900044879469 0.36120919453247369 0 -0.37999219374207199 0.34687376916698243 0 -0.36906799974949411 0.34987867997437988 0 -0.37413640492081651 0.36130780354415809 0 -0.37528696268018708 0.37198715513043629 0 -0.37413640492081651 0.36130780354415809 0 -0.36338900044879469 0.36120919453247369 0 -0.37413640492081651 0.36130780354415809 0 -0.36338900044879469 0.36120919453247369 0 -0.36338900044879469 0.36120919453247369 0 -0.3684959663578945 0.38530446370014998 0 -0.36338900044879469 0.36120919453247369 0 -0.35608132841044637 0.37470739330589098 0 -0.3684959663578945 0.38530446370014998 0 -0.37528696268018708 0.37198715513043629 0 -0.36338900044879469 0.36120919453247369 0 -0.3684959663578945 0.38530446370014998 0 -0.36338900044879469 0.36120919453247369 0 -0.34397862200044788 0.36103110146449757 0 -0.36338900044879469 0.36120919453247369 0 -0.34397862200044788 0.36103110146449757 0 -0.35213730136185861 0.35639934901025061 0 -0.36338900044879469 0.36120919453247369 0 -0.35241579985970167 0.36594741370831269 0 -0.34397862200044788 0.36103110146449757 0 -0.36338900044879469 0.36120919453247369 0 -0.35241579985970167 0.36594741370831269 0 -0.35608132841044637 0.37470739330589098 0 -0.35241579985970167 0.36594741370831269 0 -0.35608132841044637 0.37470739330589098 0 -0.34438663897101612 0.36294010622563999 0 -0.35241579985970167 0.36594741370831269 0 -0.34438663897101612 0.36294010622563999 0 -0.34397862200044788 0.36103110146449757 0 -0.34438663897101612 0.36294010622563999 0 -0.34397862200044788 0.36103110146449757 0 -0.34397862200044788 0.36103110146449757 0 -0.34605925440558299 0.35828765518469552 0 -0.34605925440558299 0.35828765518469552 0 -0.348244447933588 0.34927448671583039 0 -0.35213730136185861 0.35639934901025061 0 -0.34397862200044788 0.36103110146449757 0 -0.34605925440558299 0.35828765518469552 0 -0.35213730136185861 0.35639934901025061 0 -0.3588008488537362 0.3395617526593932 0 -0.36338900044879469 0.36120919453247369 0 -0.35435668009014948 0.35037570597446849 0 -0.33926190670246442 0.33896282340193279 0 -0.34605925440558299 0.35828765518469552 0 -0.348244447933588 0.34927448671583039 0 -0.34940709710788331 0.34234690000780449 0 -0.348244447933588 0.34927448671583039 0 -0.35435668009014948 0.35037570597446849 0 -0.34940709710788331 0.34234690000780449 0 -0.3588008488537362 0.3395617526593932 0 -0.35435668009014948 0.35037570597446849 0 -0.36338900044879469 0.36120919453247369 0 -0.35435668009014948 0.35037570597446849 0 -0.35213730136185861 0.35639934901025061 0 -0.348244447933588 0.34927448671583039 0 -0.35435668009014948 0.35037570597446849 0 -0.35213730136185861 0.35639934901025061 0 -0.35024547848602278 0.39035208498051011 0 -0.35610431800102721 0.41776406373538072 0 -0.35024547848602278 0.39035208498051011 0 -0.35610431800102721 0.41776406373538072 0 -0.34039545811519178 0.4012426762486716 0 -0.35024547848602278 0.39035208498051011 0 -0.36211217377798471 0.4007050863209668 0 -0.35610431800102721 0.41776406373538072 0 -0.34438663897101612 0.36294010622563999 0 -0.35024547848602278 0.39035208498051011 0 -0.35608132841044637 0.37470739330589098 0 -0.35024547848602278 0.39035208498051011 0 -0.3684959663578945 0.38530446370014998 0 -0.35608132841044637 0.37470739330589098 0 -0.34438663897101612 0.36294010622563999 0 -0.35024547848602278 0.39035208498051011 0 -0.35024547848602278 0.39035208498051011 0 -0.3684959663578945 0.38530446370014998 0 -0.36211217377798471 0.4007050863209668 0 -0.3684959663578945 0.38530446370014998 0 -0.37360293226699409 0.40939973286782638 0 -0.3684959663578945 0.38530446370014998 0 -0.36211217377798471 0.4007050863209668 0 -0.37360293226699409 0.40939973286782638 0 -0.37360293226699409 0.40939973286782638 0 -0.36930721869085031 0.4228990471545786 0 -0.35610431800102721 0.41776406373538072 0 -0.36211217377798471 0.4007050863209668 0 -0.37360293226699409 0.40939973286782638 0 -0.35610431800102721 0.41776406373538072 0 -0.36799780504853941 0.432268747563894 0 -0.35610431800102721 0.41776406373538072 0 -0.36196315751603159 0.44517604249025122 0 -0.37870989817609391 0.43349500203550279 0 -0.37360293226699409 0.40939973286782638 0 -0.36930721869085031 0.4228990471545786 0 -0.37870989817609391 0.43349500203550279 0 -0.36799780504853941 0.432268747563894 0 -0.37390443285869412 0.44200958240375687 0 -0.37870989817609391 0.43349500203550279 0 -0.36799780504853941 0.432268747563894 0 -0.36930721869085031 0.4228990471545786 0 -0.36799780504853941 0.432268747563894 0 -0.36930721869085031 0.4228990471545786 0 -0.35610431800102721 0.41776406373538072 0 -0.35610431800102721 0.41776406373538072 0 -0.33806631918041907 0.44189250286057802 0 -0.36196315751603159 0.44517604249025122 0 -0.35610431800102721 0.41776406373538072 0 -0.36196315751603159 0.44517604249025122 0 -0.35610431800102721 0.41776406373538072 0 -0.32740566400348903 0.41017341104338662 0 -0.33806631918041907 0.44189250286057802 0 -0.35610431800102721 0.41776406373538072 0 -0.32740566400348903 0.41017341104338662 0 -0.34039545811519178 0.4012426762486716 0 -0.31891517651972678 0.43379006345226029 0 -0.32740566400348903 0.41017341104338662 0 -0.33806631918041907 0.44189250286057802 0 -0.31891517651972678 0.43379006345226029 0 -0.32740566400348903 0.41017341104338662 0 -0.31891517651972678 0.43379006345226029 0 -0.32740566400348903 0.41017341104338662 0 -0.30503875852983903 0.42317271652439109 0 -0.32740566400348903 0.41017341104338662 0 -0.30767725922891498 0.40429603296439059 0 -0.30503875852983903 0.42317271652439109 0 -0.32740566400348903 0.41017341104338662 0 -0.32097926349112849 0.38893056841450258 0 -0.30767725922891498 0.40429603296439059 0 -0.32740566400348903 0.41017341104338662 0 -0.33589615148725122 0.38655675863451278 0 -0.32097926349112849 0.38893056841450258 0 -0.32740566400348903 0.41017341104338662 0 -0.33589615148725122 0.38655675863451278 0 -0.32740566400348903 0.41017341104338662 0 -0.34039545811519178 0.4012426762486716 0 -0.33589615148725122 0.38655675863451278 0 -0.35024547848602278 0.39035208498051011 0 -0.34039545811519178 0.4012426762486716 0 -0.33589615148725122 0.38655675863451278 0 -0.34438663897101612 0.36294010622563999 0 -0.35024547848602278 0.39035208498051011 0 -0.33589615148725122 0.38655675863451278 0 -0.33308183247715828 0.37221042966199519 0 -0.33589615148725122 0.38655675863451278 0 -0.32097926349112849 0.38893056841450258 0 -0.31514558450882602 0.37328169242434472 0 -0.32097926349112849 0.38893056841450258 0 -0.30640737125002798 0.38571665634258689 0 -0.31514558450882602 0.37328169242434472 0 -0.33308183247715828 0.37221042966199519 0 -0.32097926349112849 0.38893056841450258 0 -0.30088930960570098 0.37285361298283481 0 -0.31514558450882602 0.37328169242434472 0 -0.30640737125002798 0.38571665634258689 0 -0.31514558450882602 0.37328169242434472 0 -0.30640737125002798 0.38571665634258689 0 -0.30640737125002798 0.38571665634258689 0 -0.29759743465094141 0.39542053922956177 0 -0.28825624646783221 0.38406373696565382 0 -0.30088930960570098 0.37285361298283481 0 -0.30640737125002798 0.38571665634258689 0 -0.28825624646783221 0.38406373696565382 0 -0.30640737125002798 0.38571665634258689 0 -0.29759743465094141 0.39542053922956177 0 -0.30767725922891498 0.40429603296439059 0 -0.29759743465094141 0.39542053922956177 0 -0.30767725922891498 0.40429603296439059 0 -0.28804886165699051 0.407605730645616 0 -0.32097926349112849 0.38893056841450258 0 -0.30640737125002798 0.38571665634258689 0 -0.30767725922891498 0.40429603296439059 0 -0.28825624646783221 0.38406373696565382 0 -0.28804886165699051 0.407605730645616 0 -0.28825624646783221 0.38406373696565382 0 -0.27556050558319428 0.38668296322479512 0 -0.28804886165699051 0.407605730645616 0 -0.29759743465094141 0.39542053922956177 0 -0.28825624646783221 0.38406373696565382 0 -0.28804886165699051 0.407605730645616 0 -0.2815265797335253 0.37447278862882011 0 -0.28825624646783221 0.38406373696565382 0 -0.27556050558319428 0.38668296322479512 0 -0.27556050558319428 0.38668296322479512 0 -0.26540435296404591 0.39917763130654138 0 -0.26007906330776021 0.38034583881876782 0 -0.27004792936901217 0.37443205298337162 0 -0.2815265797335253 0.37447278862882011 0 -0.27556050558319428 0.38668296322479512 0 -0.27004792936901217 0.37443205298337162 0 -0.27556050558319428 0.38668296322479512 0 -0.26007906330776021 0.38034583881876782 0 -0.27556050558319428 0.38668296322479512 0 -0.26540435296404591 0.39917763130654138 0 -0.28804886165699051 0.407605730645616 0 -0.26540435296404591 0.39917763130654138 0 -0.2456386847525929 0.40787162408274008 0 -0.24548725391172049 0.39057011257868351 0 -0.26540435296404591 0.39917763130654138 0 -0.26007906330776021 0.38034583881876782 0 -0.24548725391172049 0.39057011257868351 0 -0.25126607070146301 0.36600438164280041 0 -0.26007906330776021 0.38034583881876782 0 -0.24548725391172049 0.39057011257868351 0 -0.25943662115342331 0.41822236232351828 0 -0.26506222418692971 0.43821267548703052 0 -0.24342013868608661 0.42700584217287041 0 -0.26540435296404591 0.39917763130654138 0 -0.25943662115342331 0.41822236232351828 0 -0.2456386847525929 0.40787162408274008 0 -0.26540435296404591 0.39917763130654138 0 -0.25943662115342331 0.41822236232351828 0 -0.27521222224944619 0.41916740197112001 0 -0.26540435296404591 0.39917763130654138 0 -0.27521222224944619 0.41916740197112001 0 -0.28804886165699051 0.407605730645616 0 -0.27521222224944619 0.41916740197112001 0 -0.28784147684614869 0.4311477243255783 0 -0.26506222418692971 0.43821267548703052 0 -0.25943662115342331 0.41822236232351828 0 -0.27521222224944619 0.41916740197112001 0 -0.26506222418692971 0.43821267548703052 0 -0.27521222224944619 0.41916740197112001 0 -0.28784147684614869 0.4311477243255783 0 -0.28804886165699051 0.407605730645616 0 -0.28784147684614869 0.4311477243255783 0 -0.28804886165699051 0.407605730645616 0 -0.28784147684614869 0.4311477243255783 0 -0.28804886165699051 0.407605730645616 0 -0.30503875852983903 0.42317271652439109 0 -0.30767725922891498 0.40429603296439059 0 -0.28804886165699051 0.407605730645616 0 -0.30503875852983903 0.42317271652439109 0 -0.31891517651972678 0.43379006345226029 0 -0.30503875852983903 0.42317271652439109 0 -0.30958983243718019 0.45034499801735117 0 -0.28784147684614869 0.4311477243255783 0 -0.30503875852983903 0.42317271652439109 0 -0.30958983243718019 0.45034499801735117 0 -0.30958983243718019 0.45034499801735117 0 -0.28763409203530688 0.45468971800554059 0 -0.30618792226412572 0.47551155597232048 0 -0.28784147684614869 0.4311477243255783 0 -0.30958983243718019 0.45034499801735117 0 -0.28763409203530688 0.45468971800554059 0 -0.28784147684614869 0.4311477243255783 0 -0.28763409203530688 0.45468971800554059 0 -0.28784147684614869 0.4311477243255783 0 -0.28763409203530688 0.45468971800554059 0 -0.26506222418692971 0.43821267548703052 0 -0.28763409203530688 0.45468971800554059 0 -0.25895280360746681 0.46832641025596522 0 -0.26506222418692971 0.43821267548703052 0 -0.28763409203530688 0.45468971800554059 0 -0.25895280360746681 0.46832641025596522 0 -0.27987072047513473 0.47843571809411178 0 -0.25895280360746681 0.46832641025596522 0 -0.26506222418692971 0.43821267548703052 0 -0.2413482777130499 0.44976265373286178 0 -0.25895280360746681 0.46832641025596522 0 -0.25663776707636959 0.5 0 -0.27987072047513473 0.47843571809411178 0 -0.25663776707636959 0.5 0 -0.27987072047513473 0.47843571809411178 0 -0.28589853444378688 0.5 0 -0.27987072047513473 0.47843571809411178 0 -0.28589853444378688 0.5 0 -0.30618792226412572 0.47551155597232048 0 -0.28763409203530688 0.45468971800554059 0 -0.27987072047513473 0.47843571809411178 0 -0.30618792226412572 0.47551155597232048 0 -0.28589853444378688 0.5 0 -0.30618792226412572 0.47551155597232048 0 -0.31515930181120422 0.5 0 -0.30618792226412572 0.47551155597232048 0 -0.31515930181120422 0.5 0 -0.32917563666724459 0.48477294321774161 0 -0.31515930181120422 0.5 0 -0.32917563666724459 0.48477294321774161 0 -0.34442006917862139 0.5 0 -0.32917563666724459 0.48477294321774161 0 -0.34442006917862139 0.5 0 -0.34849373467714012 0.47978249647359311 0 -0.32917563666724459 0.48477294321774161 0 -0.33279413129979452 0.46399256240493841 0 -0.34849373467714012 0.47978249647359311 0 -0.30618792226412572 0.47551155597232048 0 -0.32917563666724459 0.48477294321774161 0 -0.33279413129979452 0.46399256240493841 0 -0.30958983243718019 0.45034499801735117 0 -0.30618792226412572 0.47551155597232048 0 -0.33279413129979452 0.46399256240493841 0 -0.31891517651972678 0.43379006345226029 0 -0.30958983243718019 0.45034499801735117 0 -0.33806631918041907 0.44189250286057802 0 -0.30958983243718019 0.45034499801735117 0 -0.33806631918041907 0.44189250286057802 0 -0.33279413129979452 0.46399256240493841 0 -0.36196315751603159 0.44517604249025122 0 -0.36782199703103591 0.47258802124512161 0 -0.34849373467714012 0.47978249647359311 0 -0.33279413129979452 0.46399256240493841 0 -0.36196315751603159 0.44517604249025122 0 -0.34849373467714012 0.47978249647359311 0 -0.33806631918041907 0.44189250286057802 0 -0.33279413129979452 0.46399256240493841 0 -0.36196315751603159 0.44517604249025122 0 -0.37692936517546732 0.45425665042366792 0 -0.36196315751603159 0.44517604249025122 0 -0.37390443285869412 0.44200958240375687 0 -0.36799780504853941 0.432268747563894 0 -0.36196315751603159 0.44517604249025122 0 -0.37390443285869412 0.44200958240375687 0 -0.37692936517546732 0.45425665042366792 0 -0.36196315751603159 0.44517604249025122 0 -0.36782199703103591 0.47258802124512161 0 -0.36196315751603159 0.44517604249025122 0 -0.36782199703103591 0.47258802124512161 0 -0.36782199703103591 0.47258802124512161 0 -0.37368083654603879 0.49999999999999262 0 -0.34849373467714012 0.47978249647359311 0 -0.36782199703103591 0.47258802124512161 0 -0.37368083654603879 0.49999999999999262 0 -0.37368083654603879 0.49999999999999262 0 -0.34442006917862139 0.5 0 -0.34849373467714012 0.47978249647359311 0 -0.15079920995705301 0.4826083196489801 0 -0.13516243602910141 0.46906199381621683 0 -0.15650679812162049 0.46272277012715501 0 -0.15079920995705301 0.4826083196489801 0 -0.1395946976067004 0.5 0 -0.16885546497411771 0.5 0 -0.15079920995705301 0.4826083196489801 0 -0.1395946976067004 0.5 0 -0.12852006188031539 0.48580009003701241 0 -0.1395946976067004 0.5 0 -0.12852006188031539 0.48580009003701241 0 -0.11033393023928301 0.49999999999999029 0 -0.12852006188031539 0.48580009003701241 0 -0.13516243602910141 0.46906199381621683 0 -0.1138180739365813 0.47540121750527509 0 -0.15079920995705301 0.4826083196489801 0 -0.12852006188031539 0.48580009003701241 0 -0.13516243602910141 0.46906199381621683 0 -0.13516243602910141 0.46906199381621683 0 -0.13516292960171661 0.44965322455976581 0 -0.11740563481913539 0.45007228807421451 0 -0.13516292960171661 0.44965322455976581 0 -0.15650679812162049 0.46272277012715501 0 -0.1477581697742672 0.4365617608779383 0 -0.13516243602910141 0.46906199381621683 0 -0.15650679812162049 0.46272277012715501 0 -0.13516243602910141 0.46906199381621683 0 -0.13516292960171661 0.44965322455976581 0 -0.15650679812162049 0.46272277012715501 0 -0.15650679812162049 0.46272277012715501 0 -0.17785116021413949 0.45638354643809309 0 -0.16902848154144651 0.47586321682287541 0 -0.15650679812162049 0.46272277012715501 0 -0.16563626736773379 0.44558793947311032 0 -0.17785116021413949 0.45638354643809309 0 -0.15650679812162049 0.46272277012715501 0 -0.17785116021413949 0.45638354643809309 0 -0.15650679812162049 0.46272277012715501 0 -0.16563626736773379 0.44558793947311032 0 -0.1477581697742672 0.4365617608779383 0 -0.16563626736773379 0.44558793947311032 0 -0.18246844461892259 0.44033308527523429 0 -0.17785116021413949 0.45638354643809309 0 -0.16563626736773379 0.44558793947311032 0 -0.18246844461892259 0.44033308527523429 0 -0.16924071834674251 0.42991690394625992 0 -0.18246844461892259 0.44033308527523429 0 -0.17785116021413949 0.45638354643809309 0 -0.2005222594300147 0.45183469246612179 0 -0.17785116021413949 0.45638354643809309 0 -0.16902848154144651 0.47586321682287541 0 -0.19112977444030149 0.47760144790014891 0 -0.15079920995705301 0.4826083196489801 0 -0.15650679812162049 0.46272277012715501 0 -0.16902848154144651 0.47586321682287541 0 -0.15079920995705301 0.4826083196489801 0 -0.16902848154144651 0.47586321682287541 0 -0.16885546497411771 0.5 0 -0.16885546497411771 0.5 0 -0.19811623234153511 0.5 0 -0.19112977444030149 0.47760144790014891 0 -0.16902848154144651 0.47586321682287541 0 -0.16885546497411771 0.5 0 -0.19112977444030149 0.47760144790014891 0 -0.19811623234153511 0.5 0 -0.19112977444030149 0.47760144790014891 0 -0.2126588529248325 0.48556801617299189 0 -0.19112977444030149 0.47760144790014891 0 -0.2126588529248325 0.48556801617299189 0 -0.21252271591448979 0.46789540356910708 0 -0.19811623234153511 0.5 0 -0.2126588529248325 0.48556801617299189 0 -0.22737699970895231 0.5 0 -0.25895280360746681 0.46832641025596522 0 -0.25663776707636959 0.5 0 -0.23338324798329849 0.47484417343622731 0 -0.2126588529248325 0.48556801617299189 0 -0.22737699970895231 0.5 0 -0.23338324798329849 0.47484417343622731 0 -0.2126588529248325 0.48556801617299189 0 -0.23338324798329849 0.47484417343622731 0 -0.21252271591448979 0.46789540356910708 0 -0.25663776707636959 0.5 0 -0.22737699970895231 0.5 0 -0.23338324798329849 0.47484417343622731 0 -0.26506222418692971 0.43821267548703052 0 -0.2413482777130499 0.44976265373286178 0 -0.24342013868608661 0.42700584217287041 0 -0.25895280360746681 0.46832641025596522 0 -0.23338324798329849 0.47484417343622731 0 -0.2413482777130499 0.44976265373286178 0 -0.23338324798329849 0.47484417343622731 0 -0.2227606979298882 0.45355985503061519 0 -0.21252271591448979 0.46789540356910708 0 -0.23338324798329849 0.47484417343622731 0 -0.2413482777130499 0.44976265373286178 0 -0.2227606979298882 0.45355985503061519 0 -0.2413482777130499 0.44976265373286178 0 -0.2227606979298882 0.45355985503061519 0 -0.21961007065196711 0.43336527125855367 0 -0.2005222594300147 0.45183469246612179 0 -0.19694266061626239 0.43553852646567798 0 -0.21961007065196711 0.43336527125855367 0 -0.2227606979298882 0.45355985503061519 0 -0.2005222594300147 0.45183469246612179 0 -0.21961007065196711 0.43336527125855367 0 -0.2227606979298882 0.45355985503061519 0 -0.21252271591448979 0.46789540356910708 0 -0.2005222594300147 0.45183469246612179 0 -0.19112977444030149 0.47760144790014891 0 -0.21252271591448979 0.46789540356910708 0 -0.2005222594300147 0.45183469246612179 0 -0.17785116021413949 0.45638354643809309 0 -0.19112977444030149 0.47760144790014891 0 -0.2005222594300147 0.45183469246612179 0 -0.18246844461892259 0.44033308527523429 0 -0.2005222594300147 0.45183469246612179 0 -0.19694266061626239 0.43553852646567798 0 -0.18246844461892259 0.44033308527523429 0 -0.19694266061626239 0.43553852646567798 0 -0.18461760173864261 0.42273690286214349 0 -0.19694266061626239 0.43553852646567798 0 -0.2054896016415706 0.40859506632477299 0 -0.18461760173864261 0.42273690286214349 0 -0.2054896016415706 0.40859506632477299 0 -0.18335621756880849 0.40592991673122658 0 -0.2054896016415706 0.40859506632477299 0 -0.18335621756880849 0.40592991673122658 0 -0.18461760173864261 0.42273690286214349 0 -0.2054896016415706 0.40859506632477299 0 -0.21961007065196711 0.43336527125855367 0 -0.22942495365855731 0.41460046615251811 0 -0.19694266061626239 0.43553852646567798 0 -0.2054896016415706 0.40859506632477299 0 -0.21961007065196711 0.43336527125855367 0 -0.21961007065196711 0.43336527125855367 0 -0.22942495365855731 0.41460046615251811 0 -0.24342013868608661 0.42700584217287041 0 -0.2054896016415706 0.40859506632477299 0 -0.22942495365855731 0.41460046615251811 0 -0.22979151261342459 0.39859023952124573 0 -0.22942495365855731 0.41460046615251811 0 -0.2456386847525929 0.40787162408274008 0 -0.22979151261342459 0.39859023952124573 0 -0.22942495365855731 0.41460046615251811 0 -0.2456386847525929 0.40787162408274008 0 -0.24342013868608661 0.42700584217287041 0 -0.25943662115342331 0.41822236232351828 0 -0.2456386847525929 0.40787162408274008 0 -0.24342013868608661 0.42700584217287041 0 -0.2413482777130499 0.44976265373286178 0 -0.21961007065196711 0.43336527125855367 0 -0.24342013868608661 0.42700584217287041 0 -0.25126607070146301 0.36600438164280041 0 -0.24548725391172049 0.39057011257868351 0 -0.25126607070146301 0.36600438164280041 0 -0.24548725391172049 0.39057011257868351 0 -0.240225890160054 0.36907964246716041 0 -0.24548725391172049 0.39057011257868351 0 -0.23259755694977841 0.38335475081955478 0 -0.240225890160054 0.36907964246716041 0 -0.24548725391172049 0.39057011257868351 0 -0.22979151261342459 0.39859023952124573 0 -0.23259755694977841 0.38335475081955478 0 -0.2456386847525929 0.40787162408274008 0 -0.24548725391172049 0.39057011257868351 0 -0.22979151261342459 0.39859023952124573 0 -0.23259755694977841 0.38335475081955478 0 -0.2241597565869172 0.37464663398491121 0 -0.240225890160054 0.36907964246716041 0 -0.22979151261342459 0.39859023952124573 0 -0.21882027540412621 0.38740767305844098 0 -0.23259755694977841 0.38335475081955478 0 -0.21882027540412621 0.38740767305844098 0 -0.23259755694977841 0.38335475081955478 0 -0.2241597565869172 0.37464663398491121 0 -0.21882027540412621 0.38740767305844098 0 -0.21033514500598921 0.37560702035644322 0 -0.2241597565869172 0.37464663398491121 0 -0.21882027540412621 0.38740767305844098 0 -0.20404403104991239 0.3883852914542687 0 -0.21033514500598921 0.37560702035644322 0 -0.2054896016415706 0.40859506632477299 0 -0.22979151261342459 0.39859023952124573 0 -0.21882027540412621 0.38740767305844098 0 -0.2054896016415706 0.40859506632477299 0 -0.21882027540412621 0.38740767305844098 0 -0.20404403104991239 0.3883852914542687 0 -0.2054896016415706 0.40859506632477299 0 -0.18984594420595791 0.39344033661889261 0 -0.18335621756880849 0.40592991673122658 0 -0.2054896016415706 0.40859506632477299 0 -0.20404403104991239 0.3883852914542687 0 -0.18984594420595791 0.39344033661889261 0 -0.20404403104991239 0.3883852914542687 0 -0.21033514500598921 0.37560702035644322 0 -0.19348576743013721 0.3778229693545358 0 -0.20404403104991239 0.3883852914542687 0 -0.18984594420595791 0.39344033661889261 0 -0.19348576743013721 0.3778229693545358 0 -0.18984594420595791 0.39344033661889261 0 -0.17821186112014059 0.38168011341388908 0 -0.17408634616728691 0.3963969415956406 0 -0.19348576743013721 0.3778229693545358 0 -0.17821186112014059 0.38168011341388908 0 -0.184224201153661 0.373504030361553 0 -0.18984594420595791 0.39344033661889261 0 -0.19348576743013721 0.3778229693545358 0 -0.17821186112014059 0.38168011341388908 0 -0.17821186112014059 0.38168011341388908 0 -0.16611399087285511 0.38924268979752752 0 -0.17408634616728691 0.3963969415956406 0 -0.17821186112014059 0.38168011341388908 0 -0.16349741231276749 0.3769489739477348 0 -0.17491272394858409 0.36699598183422799 0 -0.17821186112014059 0.38168011341388908 0 -0.16611399087285511 0.38924268979752752 0 -0.16349741231276749 0.3769489739477348 0 -0.16611399087285511 0.38924268979752752 0 -0.16349741231276749 0.3769489739477348 0 -0.15355150126803421 0.38792265289269362 0 -0.16611399087285511 0.38924268979752752 0 -0.16122283349604641 0.40326476713767978 0 -0.15355150126803421 0.38792265289269362 0 -0.16611399087285511 0.38924268979752752 0 -0.16122283349604641 0.40326476713767978 0 -0.17408634616728691 0.3963969415956406 0 -0.16122283349604641 0.40326476713767978 0 -0.17408634616728691 0.3963969415956406 0 -0.16122283349604641 0.40326476713767978 0 -0.18335621756880849 0.40592991673122658 0 -0.16122283349604641 0.40326476713767978 0 -0.18335621756880849 0.40592991673122658 0 -0.17408634616728691 0.3963969415956406 0 -0.18984594420595791 0.39344033661889261 0 -0.18335621756880849 0.40592991673122658 0 -0.17408634616728691 0.3963969415956406 0 -0.16122283349604641 0.40326476713767978 0 -0.18335621756880849 0.40592991673122658 0 -0.1711745339230468 0.41587909891472669 0 -0.18335621756880849 0.40592991673122658 0 -0.18461760173864261 0.42273690286214349 0 -0.1711745339230468 0.41587909891472669 0 -0.18246844461892259 0.44033308527523429 0 -0.18461760173864261 0.42273690286214349 0 -0.16924071834674251 0.42991690394625992 0 -0.18461760173864261 0.42273690286214349 0 -0.16924071834674251 0.42991690394625992 0 -0.1711745339230468 0.41587909891472669 0 -0.16924071834674251 0.42991690394625992 0 -0.15706772345018799 0.41882253111801437 0 -0.1477581697742672 0.4365617608779383 0 -0.16563626736773379 0.44558793947311032 0 -0.16924071834674251 0.42991690394625992 0 -0.1477581697742672 0.4365617608779383 0 -0.16924071834674251 0.42991690394625992 0 -0.1711745339230468 0.41587909891472669 0 -0.15706772345018799 0.41882253111801437 0 -0.16122283349604641 0.40326476713767978 0 -0.1711745339230468 0.41587909891472669 0 -0.15706772345018799 0.41882253111801437 0 -0.16122283349604641 0.40326476713767978 0 -0.1411080145988679 0.41400406289041602 0 -0.16122283349604641 0.40326476713767978 0 -0.15706772345018799 0.41882253111801437 0 -0.1411080145988679 0.41400406289041602 0 -0.15706772345018799 0.41882253111801437 0 -0.1411080145988679 0.41400406289041602 0 -0.1477581697742672 0.4365617608779383 0 -0.1411080145988679 0.41400406289041602 0 -0.1477581697742672 0.4365617608779383 0 -0.1209931957016903 0.42474335864315388 0 -0.13516292960171661 0.44965322455976581 0 -0.1477581697742672 0.4365617608779383 0 -0.1209931957016903 0.42474335864315388 0 -0.13272711020643169 0.40799955885712019 0 -0.1246590016832242 0.39886200246445103 0 -0.1209931957016903 0.42474335864315388 0 -0.1411080145988679 0.41400406289041602 0 -0.1209931957016903 0.42474335864315388 0 -0.1411080145988679 0.41400406289041602 0 -0.13272711020643169 0.40799955885712019 0 -0.1209931957016903 0.42474335864315388 0 -0.1411080145988679 0.41400406289041602 0 -0.13272711020643169 0.40799955885712019 0 -0.14294091758963501 0.40106338480106851 0 -0.13272711020643169 0.40799955885712019 0 -0.14294091758963501 0.40106338480106851 0 -0.1246590016832242 0.39886200246445103 0 -0.14294091758963501 0.40106338480106851 0 -0.1246590016832242 0.39886200246445103 0 -0.13949411153955241 0.3873339499478794 0 -0.14294091758963501 0.40106338480106851 0 -0.1246590016832242 0.39886200246445103 0 -0.13949411153955241 0.3873339499478794 0 -0.14813483823840559 0.37484904218810611 0 -0.12818429891846311 0.37397266739307772 0 -0.12818429891846311 0.37397266739307772 0 -0.1246590016832242 0.39886200246445103 0 -0.13949411153955241 0.3873339499478794 0 -0.12818429891846311 0.37397266739307772 0 -0.1246590016832242 0.39886200246445103 0 -0.13949411153955241 0.3873339499478794 0 -0.15355150126803421 0.38792265289269362 0 -0.14813483823840559 0.37484904218810611 0 -0.16349741231276749 0.3769489739477348 0 -0.15355150126803421 0.38792265289269362 0 -0.14813483823840559 0.37484904218810611 0 -0.16122283349604641 0.40326476713767978 0 -0.15355150126803421 0.38792265289269362 0 -0.14294091758963501 0.40106338480106851 0 -0.16122283349604641 0.40326476713767978 0 -0.1411080145988679 0.41400406289041602 0 -0.14294091758963501 0.40106338480106851 0 -0.16122283349604641 0.40326476713767978 0 -0.14294091758963501 0.40106338480106851 0 -0.13949411153955241 0.3873339499478794 0 -0.15355150126803421 0.38792265289269362 0 -0.14294091758963501 0.40106338480106851 0 -0.14838266520830909 0.35808241794341389 0 -0.14585543034207851 0.34730534376345013 0 -0.13170959615369729 0.34908333232170391 0 -0.14585543034207851 0.34730534376345013 0 -0.1543289563620879 0.33895973527599149 0 -0.15699093223328961 0.34933854051957391 0 -0.14838266520830909 0.35808241794341389 0 -0.14585543034207851 0.34730534376345013 0 -0.15699093223328961 0.34933854051957391 0 -0.14838266520830909 0.35808241794341389 0 -0.14813483823840559 0.37484904218810611 0 -0.12818429891846311 0.37397266739307772 0 -0.14838266520830909 0.35808241794341389 0 -0.14813483823840559 0.37484904218810611 0 -0.1590426842102842 0.36659822175231288 0 -0.12818429891846311 0.37397266739307772 0 -0.13170959615369729 0.34908333232170391 0 -0.14838266520830909 0.35808241794341389 0 -0.12818429891846311 0.37397266739307772 0 -0.13170959615369729 0.34908333232170391 0 -0.14585543034207851 0.34730534376345013 0 -0.13170959615369729 0.34908333232170391 0 -0.1365967502022907 0.34277446205133699 0 -0.13170959615369729 0.34908333232170391 0 -0.1365967502022907 0.34277446205133699 0 -0.13170959615369729 0.34908333232170391 0 -0.13247766581341211 0.3436606000404076 0 -0.1365967502022907 0.34277446205133699 0 -0.13170959615369729 0.34908333232170391 0 -0.13247766581341211 0.3436606000404076 0 -0.1189739103913849 0.35635357820431551 0 -0.13170959615369729 0.34908333232170391 0 -0.13247766581341211 0.3436606000404076 0 -0.1265632746693858 0.33778813180784772 0 -0.13247766581341211 0.3436606000404076 0 -0.13414590083340791 0.33188251223112641 0 -0.13414590083340791 0.33188251223112641 0 -0.1181453227407285 0.32627188207417512 0 -0.1265632746693858 0.33778813180784772 0 -0.13414590083340791 0.33188251223112641 0 -0.1181453227407285 0.32627188207417512 0 -0.13414590083340791 0.33188251223112641 0 -0.1369302383112154 0.33742308013083272 0 -0.14270834649272221 0.33488494849031492 0 -0.13414590083340791 0.33188251223112641 0 -0.14270834649272221 0.33488494849031492 0 -0.1365967502022907 0.34277446205133699 0 -0.14270834649272221 0.33488494849031492 0 -0.13247766581341211 0.3436606000404076 0 -0.13414590083340791 0.33188251223112641 0 -0.1369302383112154 0.33742308013083272 0 -0.1369302383112154 0.33742308013083272 0 -0.1365967502022907 0.34277446205133699 0 -0.14270834649272221 0.33488494849031492 0 -0.13247766581341211 0.3436606000404076 0 -0.13414590083340791 0.33188251223112641 0 -0.13247766581341211 0.3436606000404076 0 -0.1365967502022907 0.34277446205133699 0 -0.13247766581341211 0.3436606000404076 0 -0.1369302383112154 0.33742308013083272 0 -0.1365967502022907 0.34277446205133699 0 -0.13414590083340791 0.33188251223112641 0 -0.1379272418805654 0.30518545434872729 0 -0.13414590083340791 0.33188251223112641 0 -0.1379272418805654 0.30518545434872729 0 -0.1220041442996021 0.31214405643054388 0 -0.13414590083340791 0.33188251223112641 0 -0.14758462415470469 0.31569071233397061 0 -0.1379272418805654 0.30518545434872729 0 -0.13414590083340791 0.33188251223112641 0 -0.14758462415470469 0.31569071233397061 0 -0.14858447086479379 0.32477399050676331 0 -0.14858447086479379 0.32477399050676331 0 -0.15611866096003749 0.32759456133466491 0 -0.1596570203405446 0.31969689283030911 0 -0.14858447086479379 0.32477399050676331 0 -0.15611866096003749 0.32759456133466491 0 -0.14530303436335049 0.33153544303067889 0 -0.14758462415470469 0.31569071233397061 0 -0.14858447086479379 0.32477399050676331 0 -0.1596570203405446 0.31969689283030911 0 -0.1365967502022907 0.34277446205133699 0 -0.1543289563620879 0.33895973527599149 0 -0.1365967502022907 0.34277446205133699 0 -0.14270834649272221 0.33488494849031492 0 -0.1543289563620879 0.33895973527599149 0 -0.14585543034207851 0.34730534376345013 0 -0.1365967502022907 0.34277446205133699 0 -0.1543289563620879 0.33895973527599149 0 -0.13414590083340791 0.33188251223112641 0 -0.14858447086479379 0.32477399050676331 0 -0.14530303436335049 0.33153544303067889 0 -0.13414590083340791 0.33188251223112641 0 -0.14270834649272221 0.33488494849031492 0 -0.14530303436335049 0.33153544303067889 0 -0.14270834649272221 0.33488494849031492 0 -0.14530303436335049 0.33153544303067889 0 -0.1543289563620879 0.33895973527599149 0 -0.14270834649272221 0.33488494849031492 0 -0.14530303436335049 0.33153544303067889 0 -0.15611866096003749 0.32759456133466491 0 -0.14530303436335049 0.33153544303067889 0 -0.1543289563620879 0.33895973527599149 0 -0.14270834649272221 0.33488494849031492 0 -0.1543289563620879 0.33895973527599149 0 -0.1543289563620879 0.33895973527599149 0 -0.17969551650810431 0.33350263110545703 0 -0.17188484644587121 0.34511573825073749 0 -0.1543289563620879 0.33895973527599149 0 -0.1681526843371853 0.32576703743224689 0 -0.17969551650810431 0.33350263110545703 0 -0.1543289563620879 0.33895973527599149 0 -0.17188484644587121 0.34511573825073749 0 -0.1543289563620879 0.33895973527599149 0 -0.17969551650810431 0.33350263110545703 0 -0.15611866096003749 0.32759456133466491 0 -0.1543289563620879 0.33895973527599149 0 -0.1681526843371853 0.32576703743224689 0 -0.15611866096003749 0.32759456133466491 0 -0.1596570203405446 0.31969689283030911 0 -0.1681526843371853 0.32576703743224689 0 -0.1596570203405446 0.31969689283030911 0 -0.1681526843371853 0.32576703743224689 0 -0.17375107469143411 0.31097180786900291 0 -0.185364877160903 0.32387659617805742 0 -0.19508743360755421 0.31238535367006598 0 -0.17375107469143411 0.31097180786900291 0 -0.1681526843371853 0.32576703743224689 0 -0.185364877160903 0.32387659617805742 0 -0.17969551650810431 0.33350263110545703 0 -0.1681526843371853 0.32576703743224689 0 -0.185364877160903 0.32387659617805742 0 -0.17375107469143411 0.31097180786900291 0 -0.17969551650810431 0.33350263110545703 0 -0.18310995454294091 0.34102928945955241 0 -0.17188484644587121 0.34511573825073749 0 -0.185364877160903 0.32387659617805742 0 -0.17969551650810431 0.33350263110545703 0 -0.19210004506533751 0.33586744363300958 0 -0.18310995454294091 0.34102928945955241 0 -0.1864266478083591 0.34489588381668512 0 -0.17188484644587121 0.34511573825073749 0 -0.17969551650810431 0.33350263110545703 0 -0.18310995454294091 0.34102928945955241 0 -0.19210004506533751 0.33586744363300958 0 -0.18310995454294091 0.34102928945955241 0 -0.1864266478083591 0.34489588381668512 0 -0.19210004506533751 0.33586744363300958 0 -0.1864266478083591 0.34489588381668512 0 -0.17188484644587121 0.34511573825073749 0 -0.18944073652965451 0.35127174122548299 0 -0.17715330492017331 0.35650207212886809 0 -0.17188484644587121 0.34511573825073749 0 -0.18944073652965451 0.35127174122548299 0 -0.17188484644587121 0.34511573825073749 0 -0.18944073652965451 0.35127174122548299 0 -0.18451989363563151 0.35900363954785469 0 -0.17715330492017331 0.35650207212886809 0 -0.18944073652965451 0.35127174122548299 0 -0.17715330492017331 0.35650207212886809 0 -0.18944073652965451 0.35127174122548299 0 -0.14838266520830909 0.35808241794341389 0 -0.16450276280810089 0.35722946736427758 0 -0.15699093223328961 0.34933854051957391 0 -0.1543289563620879 0.33895973527599149 0 -0.17188484644587121 0.34511573825073749 0 -0.15699093223328961 0.34933854051957391 0 -0.17188484644587121 0.34511573825073749 0 -0.16450276280810089 0.35722946736427758 0 -0.15699093223328961 0.34933854051957391 0 -0.17715330492017331 0.35650207212886809 0 -0.17188484644587121 0.34511573825073749 0 -0.16450276280810089 0.35722946736427758 0 -0.16349741231276749 0.3769489739477348 0 -0.1590426842102842 0.36659822175231288 0 -0.17491272394858409 0.36699598183422799 0 -0.16450276280810089 0.35722946736427758 0 -0.1590426842102842 0.36659822175231288 0 -0.17491272394858409 0.36699598183422799 0 -0.14838266520830909 0.35808241794341389 0 -0.16450276280810089 0.35722946736427758 0 -0.1590426842102842 0.36659822175231288 0 -0.16349741231276749 0.3769489739477348 0 -0.14813483823840559 0.37484904218810611 0 -0.1590426842102842 0.36659822175231288 0 -0.17821186112014059 0.38168011341388908 0 -0.17491272394858409 0.36699598183422799 0 -0.184224201153661 0.373504030361553 0 -0.17715330492017331 0.35650207212886809 0 -0.16450276280810089 0.35722946736427758 0 -0.17491272394858409 0.36699598183422799 0 -0.18451989363563151 0.35900363954785469 0 -0.17715330492017331 0.35650207212886809 0 -0.17491272394858409 0.36699598183422799 0 -0.18451989363563151 0.35900363954785469 0 -0.17491272394858409 0.36699598183422799 0 -0.18965607851380159 0.36583604042883883 0 -0.17491272394858409 0.36699598183422799 0 -0.184224201153661 0.373504030361553 0 -0.18965607851380159 0.36583604042883883 0 -0.19348576743013721 0.3778229693545358 0 -0.18965607851380159 0.36583604042883883 0 -0.2012835144717143 0.36747572270036211 0 -0.21033514500598921 0.37560702035644322 0 -0.19348576743013721 0.3778229693545358 0 -0.2012835144717143 0.36747572270036211 0 -0.19348576743013721 0.3778229693545358 0 -0.184224201153661 0.373504030361553 0 -0.18965607851380159 0.36583604042883883 0 -0.18451989363563151 0.35900363954785469 0 -0.18965607851380159 0.36583604042883883 0 -0.19019289814064011 0.35910794138716129 0 -0.18965607851380159 0.36583604042883883 0 -0.19715488388347269 0.36032034434646859 0 -0.19019289814064011 0.35910794138716129 0 -0.18965607851380159 0.36583604042883883 0 -0.19715488388347269 0.36032034434646859 0 -0.2012835144717143 0.36747572270036211 0 -0.19715488388347269 0.36032034434646859 0 -0.18944073652965451 0.35127174122548299 0 -0.214833313344854 0.36017569184632242 0 -0.18944073652965451 0.35127174122548299 0 -0.2109252736189153 0.34212652342453459 0 -0.18944073652965451 0.35127174122548299 0 -0.214833313344854 0.36017569184632242 0 -0.18944073652965451 0.35127174122548299 0 -0.1926676783510439 0.34834719939098968 0 -0.2109252736189153 0.34212652342453459 0 -0.1864266478083591 0.34489588381668512 0 -0.18944073652965451 0.35127174122548299 0 -0.1926676783510439 0.34834719939098968 0 -0.19715488388347269 0.36032034434646859 0 -0.18944073652965451 0.35127174122548299 0 -0.19019289814064011 0.35910794138716129 0 -0.18451989363563151 0.35900363954785469 0 -0.18944073652965451 0.35127174122548299 0 -0.19019289814064011 0.35910794138716129 0 -0.214833313344854 0.36017569184632242 0 -0.22568678395604991 0.34812349089422662 0 -0.2109252736189153 0.34212652342453459 0 -0.18944073652965451 0.35127174122548299 0 -0.214833313344854 0.36017569184632242 0 -0.2109252736189153 0.34212652342453459 0 -0.19715488388347269 0.36032034434646859 0 -0.2012835144717143 0.36747572270036211 0 -0.214833313344854 0.36017569184632242 0 -0.21033514500598921 0.37560702035644322 0 -0.2012835144717143 0.36747572270036211 0 -0.214833313344854 0.36017569184632242 0 -0.21033514500598921 0.37560702035644322 0 -0.214833313344854 0.36017569184632242 0 -0.2241597565869172 0.37464663398491121 0 -0.214833313344854 0.36017569184632242 0 -0.23272961429050629 0.35665364321525478 0 -0.240225890160054 0.36907964246716041 0 -0.214833313344854 0.36017569184632242 0 -0.240225890160054 0.36907964246716041 0 -0.214833313344854 0.36017569184632242 0 -0.2241597565869172 0.37464663398491121 0 -0.240225890160054 0.36907964246716041 0 -0.214833313344854 0.36017569184632242 0 -0.22568678395604991 0.34812349089422662 0 -0.23272961429050629 0.35665364321525478 0 -0.22568678395604991 0.34812349089422662 0 -0.23272961429050629 0.35665364321525478 0 -0.23925975629575871 0.34589948815215699 0 -0.23272961429050629 0.35665364321525478 0 -0.23925975629575871 0.34589948815215699 0 -0.24410524378779749 0.35581516123685802 0 -0.25704488749120552 0.34143865070691742 0 -0.23925975629575871 0.34589948815215699 0 -0.24410524378779749 0.35581516123685802 0 -0.25126607070146301 0.36600438164280041 0 -0.24410524378779749 0.35581516123685802 0 -0.240225890160054 0.36907964246716041 0 -0.23272961429050629 0.35665364321525478 0 -0.24410524378779749 0.35581516123685802 0 -0.240225890160054 0.36907964246716041 0 -0.25389434779743858 0.32383608782264178 0 -0.23776015143979429 0.3152124452721915 0 -0.2324098107081769 0.33298130562358819 0 -0.25704488749120552 0.34143865070691742 0 -0.23925975629575871 0.34589948815215699 0 -0.24565220057314491 0.33603888307632612 0 -0.25389434779743858 0.32383608782264178 0 -0.2324098107081769 0.33298130562358819 0 -0.25389434779743858 0.32383608782264178 0 -0.24565220057314491 0.33603888307632612 0 -0.2324098107081769 0.33298130562358819 0 -0.23925975629575871 0.34589948815215699 0 -0.24565220057314491 0.33603888307632612 0 -0.2324098107081769 0.33298130562358819 0 -0.22568678395604991 0.34812349089422662 0 -0.2324098107081769 0.33298130562358819 0 -0.2109252736189153 0.34212652342453459 0 -0.2324098107081769 0.33298130562358819 0 -0.2109252736189153 0.34212652342453459 0 -0.2324098107081769 0.33298130562358819 0 -0.2109252736189153 0.34212652342453459 0 -0.21521391489541891 0.33177982233159031 0 -0.22568678395604991 0.34812349089422662 0 -0.23925975629575871 0.34589948815215699 0 -0.2324098107081769 0.33298130562358819 0 -0.23776015143979429 0.3152124452721915 0 -0.21521391489541891 0.33177982233159031 0 -0.23776015143979429 0.3152124452721915 0 -0.21642379252367419 0.31379889947112932 0 -0.21521391489541891 0.33177982233159031 0 -0.23776015143979429 0.3152124452721915 0 -0.21642379252367419 0.31379889947112932 0 -0.23776015143979429 0.3152124452721915 0 -0.2324098107081769 0.33298130562358819 0 -0.21521391489541891 0.33177982233159031 0 -0.20639337075039799 0.32129987855314368 0 -0.21521391489541891 0.33177982233159031 0 -0.19884834197494489 0.3272354387397895 0 -0.21642379252367419 0.31379889947112932 0 -0.20639337075039799 0.32129987855314368 0 -0.19508743360755421 0.31238535367006598 0 -0.21642379252367419 0.31379889947112932 0 -0.19508743360755421 0.31238535367006598 0 -0.21642379252367419 0.31379889947112932 0 -0.20639337075039799 0.32129987855314368 0 -0.21521391489541891 0.33177982233159031 0 -0.1926676783510439 0.34834719939098968 0 -0.2109252736189153 0.34212652342453459 0 -0.21521391489541891 0.33177982233159031 0 -0.1926676783510439 0.34834719939098968 0 -0.21521391489541891 0.33177982233159031 0 -0.1926676783510439 0.34834719939098968 0 -0.21521391489541891 0.33177982233159031 0 -0.19210004506533751 0.33586744363300958 0 -0.21521391489541891 0.33177982233159031 0 -0.19210004506533751 0.33586744363300958 0 -0.19884834197494489 0.3272354387397895 0 -0.185364877160903 0.32387659617805742 0 -0.19210004506533751 0.33586744363300958 0 -0.19884834197494489 0.3272354387397895 0 -0.1864266478083591 0.34489588381668512 0 -0.1926676783510439 0.34834719939098968 0 -0.19210004506533751 0.33586744363300958 0 -0.20639337075039799 0.32129987855314368 0 -0.19884834197494489 0.3272354387397895 0 -0.19508743360755421 0.31238535367006598 0 -0.185364877160903 0.32387659617805742 0 -0.19884834197494489 0.3272354387397895 0 -0.19508743360755421 0.31238535367006598 0 -0.19508743360755421 0.31238535367006598 0 -0.20292943430116239 0.29611266934391528 0 -0.18607291488755609 0.29962226133129682 0 -0.20292943430116239 0.29611266934391528 0 -0.18508067252636101 0.28375653636313403 0 -0.18607291488755609 0.29962226133129682 0 -0.20292943430116239 0.29611266934391528 0 -0.200726590430303 0.27975628776512718 0 -0.18508067252636101 0.28375653636313403 0 -0.20292943430116239 0.29611266934391528 0 -0.2160525164793235 0.28464283468022289 0 -0.200726590430303 0.27975628776512718 0 -0.20292943430116239 0.29611266934391528 0 -0.2160525164793235 0.28464283468022289 0 -0.22199531560337171 0.30054623627269028 0 -0.21642379252367419 0.31379889947112932 0 -0.20292943430116239 0.29611266934391528 0 -0.22199531560337171 0.30054623627269028 0 -0.21642379252367419 0.31379889947112932 0 -0.19508743360755421 0.31238535367006598 0 -0.20292943430116239 0.29611266934391528 0 -0.23776015143979429 0.3152124452721915 0 -0.21642379252367419 0.31379889947112932 0 -0.22199531560337171 0.30054623627269028 0 -0.23776015143979429 0.3152124452721915 0 -0.22199531560337171 0.30054623627269028 0 -0.23681068327290461 0.29296433259599303 0 -0.2160525164793235 0.28464283468022289 0 -0.23681068327290461 0.29296433259599303 0 -0.2294378302900125 0.27941730610060223 0 -0.2160525164793235 0.28464283468022289 0 -0.22199531560337171 0.30054623627269028 0 -0.23681068327290461 0.29296433259599303 0 -0.23681068327290461 0.29296433259599303 0 -0.2446388535331426 0.2762043510430276 0 -0.2294378302900125 0.27941730610060223 0 -0.25272870130594038 0.28890713845571209 0 -0.23681068327290461 0.29296433259599303 0 -0.2446388535331426 0.2762043510430276 0 -0.25314696190835279 0.30390594228787221 0 -0.25272870130594038 0.28890713845571209 0 -0.23681068327290461 0.29296433259599303 0 -0.25314696190835279 0.30390594228787221 0 -0.23776015143979429 0.3152124452721915 0 -0.23681068327290461 0.29296433259599303 0 -0.25314696190835279 0.30390594228787221 0 -0.23776015143979429 0.3152124452721915 0 -0.24214295464715219 0.25181578413355249 0 -0.2446388535331426 0.2762043510430276 0 -0.22552834967111479 0.26259810963350738 0 -0.26001647837282271 0.26160301861755331 0 -0.24214295464715219 0.25181578413355249 0 -0.2446388535331426 0.2762043510430276 0 -0.2294378302900125 0.27941730610060223 0 -0.22552834967111479 0.26259810963350738 0 -0.21111821067560221 0.27091883046688608 0 -0.2446388535331426 0.2762043510430276 0 -0.2294378302900125 0.27941730610060223 0 -0.22552834967111479 0.26259810963350738 0 -0.2160525164793235 0.28464283468022289 0 -0.2294378302900125 0.27941730610060223 0 -0.21111821067560221 0.27091883046688608 0 -0.24214295464715219 0.25181578413355249 0 -0.22552834967111479 0.26259810963350738 0 -0.22408996478605989 0.2423019276157988 0 -0.22552834967111479 0.26259810963350738 0 -0.21111821067560221 0.27091883046688608 0 -0.20217028632662271 0.25531694610268851 0 -0.22552834967111479 0.26259810963350738 0 -0.20217028632662271 0.25531694610268851 0 -0.22408996478605989 0.2423019276157988 0 -0.2160525164793235 0.28464283468022289 0 -0.21111821067560221 0.27091883046688608 0 -0.200726590430303 0.27975628776512718 0 -0.21111821067560221 0.27091883046688608 0 -0.200726590430303 0.27975628776512718 0 -0.19111745026351951 0.26710024320822467 0 -0.200726590430303 0.27975628776512718 0 -0.19111745026351951 0.26710024320822467 0 -0.18508067252636101 0.28375653636313403 0 -0.21111821067560221 0.27091883046688608 0 -0.19111745026351951 0.26710024320822467 0 -0.20217028632662271 0.25531694610268851 0 -0.19111745026351951 0.26710024320822467 0 -0.20217028632662271 0.25531694610268851 0 -0.18907429363208569 0.24597533798117549 0 -0.19111745026351951 0.26710024320822467 0 -0.17660799176630809 0.25779113883275923 0 -0.18907429363208569 0.24597533798117549 0 -0.19111745026351951 0.26710024320822467 0 -0.17660799176630809 0.25779113883275923 0 -0.17721964701317641 0.2714764028399908 0 -0.17660799176630809 0.25779113883275923 0 -0.1610489578705937 0.25479123870834558 0 -0.17721964701317641 0.2714764028399908 0 -0.17660799176630809 0.25779113883275923 0 -0.1610489578705937 0.25479123870834558 0 -0.17660799176630809 0.25779113883275923 0 -0.1610489578705937 0.25479123870834558 0 -0.1725451204332964 0.23836412612381239 0 -0.1610489578705937 0.25479123870834558 0 -0.16412402151462349 0.27833136455463992 0 -0.17721964701317641 0.2714764028399908 0 -0.1610489578705937 0.25479123870834558 0 -0.16412402151462349 0.27833136455463992 0 -0.15298028422293861 0.26638389450449362 0 -0.16412402151462349 0.27833136455463992 0 -0.17721964701317641 0.2714764028399908 0 -0.18508067252636101 0.28375653636313403 0 -0.19111745026351951 0.26710024320822467 0 -0.17721964701317641 0.2714764028399908 0 -0.18508067252636101 0.28375653636313403 0 -0.16412402151462349 0.27833136455463992 0 -0.17351595931126881 0.29488493941036592 0 -0.18508067252636101 0.28375653636313403 0 -0.17351595931126881 0.29488493941036592 0 -0.18508067252636101 0.28375653636313403 0 -0.18607291488755609 0.29962226133129682 0 -0.17351595931126881 0.29488493941036592 0 -0.18607291488755609 0.29962226133129682 0 -0.17375107469143411 0.31097180786900291 0 -0.19508743360755421 0.31238535367006598 0 -0.17375107469143411 0.31097180786900291 0 -0.19508743360755421 0.31238535367006598 0 -0.18607291488755609 0.29962226133129682 0 -0.17375107469143411 0.31097180786900291 0 -0.1596570203405446 0.31969689283030911 0 -0.17375107469143411 0.31097180786900291 0 -0.1568955035458377 0.30046422397333478 0 -0.17351595931126881 0.29488493941036592 0 -0.17375107469143411 0.31097180786900291 0 -0.1568955035458377 0.30046422397333478 0 -0.16412402151462349 0.27833136455463992 0 -0.17351595931126881 0.29488493941036592 0 -0.1568955035458377 0.30046422397333478 0 -0.16412402151462349 0.27833136455463992 0 -0.1568955035458377 0.30046422397333478 0 -0.14170858292772279 0.27848839646632823 0 -0.1568955035458377 0.30046422397333478 0 -0.1379272418805654 0.30518545434872729 0 -0.14170858292772279 0.27848839646632823 0 -0.14758462415470469 0.31569071233397061 0 -0.1596570203405446 0.31969689283030911 0 -0.1568955035458377 0.30046422397333478 0 -0.14758462415470469 0.31569071233397061 0 -0.1568955035458377 0.30046422397333478 0 -0.1379272418805654 0.30518545434872729 0 -0.1379272418805654 0.30518545434872729 0 -0.1249241939559888 0.29082657914631499 0 -0.1220041442996021 0.31214405643054388 0 -0.1379272418805654 0.30518545434872729 0 -0.14170858292772279 0.27848839646632823 0 -0.1379272418805654 0.30518545434872729 0 -0.14170858292772279 0.27848839646632823 0 -0.1249241939559888 0.29082657914631499 0 -0.12548953687431649 0.27287876808634082 0 -0.131694275278922 0.26027706337356132 0 -0.14170858292772279 0.27848839646632823 0 -0.12548953687431649 0.27287876808634082 0 -0.14170858292772279 0.27848839646632823 0 -0.1249241939559888 0.29082657914631499 0 -0.131694275278922 0.26027706337356132 0 -0.14548992397487989 0.25179133858392899 0 -0.14170858292772279 0.27848839646632823 0 -0.131694275278922 0.26027706337356132 0 -0.14548992397487989 0.25179133858392899 0 -0.12312998757139799 0.247480172707678 0 -0.14548992397487989 0.25179133858392899 0 -0.14170858292772279 0.27848839646632823 0 -0.15298028422293861 0.26638389450449362 0 -0.14548992397487989 0.25179133858392899 0 -0.14170858292772279 0.27848839646632823 0 -0.1610489578705937 0.25479123870834558 0 -0.14548992397487989 0.25179133858392899 0 -0.15298028422293861 0.26638389450449362 0 -0.1610489578705937 0.25479123870834558 0 -0.14548992397487989 0.25179133858392899 0 -0.16412402151462349 0.27833136455463992 0 -0.14170858292772279 0.27848839646632823 0 -0.15298028422293861 0.26638389450449362 0 -0.1134755153829717 0.27915682635765848 0 -0.091437387881953269 0.28705153337159051 0 -0.09056717850155438 0.27082639185571211 0 -0.10143686110155679 0.2589456254520347 0 -0.1134755153829717 0.27915682635765848 0 -0.09056717850155438 0.27082639185571211 0 -0.10143686110155679 0.2589456254520347 0 -0.085644315488926481 0.25551381652575039 0 -0.1007700511679166 0.24316900683142401 0 -0.10143686110155679 0.2589456254520347 0 -0.11722229787211839 0.25935344471396388 0 -0.1007700511679166 0.24316900683142401 0 -0.11722229787211839 0.25935344471396388 0 -0.1007700511679166 0.24316900683142401 0 -0.12312998757139799 0.247480172707678 0 -0.131694275278922 0.26027706337356132 0 -0.11722229787211839 0.25935344471396388 0 -0.12312998757139799 0.247480172707678 0 -0.12548953687431649 0.27287876808634082 0 -0.131694275278922 0.26027706337356132 0 -0.11722229787211839 0.25935344471396388 0 -0.12548953687431649 0.27287876808634082 0 -0.11722229787211839 0.25935344471396388 0 -0.1134755153829717 0.27915682635765848 0 -0.12548953687431649 0.27287876808634082 0 -0.1134755153829717 0.27915682635765848 0 -0.1249241939559888 0.29082657914631499 0 -0.10143686110155679 0.2589456254520347 0 -0.11722229787211839 0.25935344471396388 0 -0.1134755153829717 0.27915682635765848 0 -0.11722229787211839 0.25935344471396388 0 -0.1134755153829717 0.27915682635765848 0 -0.1134755153829717 0.27915682635765848 0 -0.1249241939559888 0.29082657914631499 0 -0.109728732893825 0.29896020800135298 0 -0.1134755153829717 0.27915682635765848 0 -0.109728732893825 0.29896020800135298 0 -0.1249241939559888 0.29082657914631499 0 -0.109728732893825 0.29896020800135298 0 -0.1220041442996021 0.31214405643054388 0 -0.109728732893825 0.29896020800135298 0 -0.1220041442996021 0.31214405643054388 0 -0.10598195040467739 0.31876358964504742 0 -0.090215145048658338 0.30418939366959669 0 -0.10598195040467739 0.31876358964504742 0 -0.109728732893825 0.29896020800135298 0 -0.10598195040467739 0.31876358964504742 0 -0.109728732893825 0.29896020800135298 0 -0.090215145048658338 0.30418939366959669 0 -0.10598195040467739 0.31876358964504742 0 -0.109728732893825 0.29896020800135298 0 -0.091437387881953269 0.28705153337159051 0 -0.090215145048658338 0.30418939366959669 0 -0.1134755153829717 0.27915682635765848 0 -0.109728732893825 0.29896020800135298 0 -0.091437387881953269 0.28705153337159051 0 -0.091437387881953269 0.28705153337159051 0 -0.090215145048658338 0.30418939366959669 0 -0.074448339692640572 0.28961519769414468 0 -0.091437387881953269 0.28705153337159051 0 -0.074448339692640572 0.28961519769414468 0 -0.082757243897781607 0.28028863438695489 0 -0.090215145048658338 0.30418939366959669 0 -0.074448339692640572 0.28961519769414468 0 -0.090215145048658338 0.30418939366959669 0 -0.079007615176067317 0.30219290191388809 0 -0.074448339692640572 0.28961519769414468 0 -0.090215145048658338 0.30418939366959669 0 -0.079007615176067317 0.30219290191388809 0 -0.083155696795120707 0.31622750442676251 0 -0.079007615176067317 0.30219290191388809 0 -0.067640865999680222 0.30889120187600622 0 -0.083155696795120707 0.31622750442676251 0 -0.079007615176067317 0.30219290191388809 0 -0.070487734909432956 0.30120779968374373 0 -0.067640865999680222 0.30889120187600622 0 -0.079007615176067317 0.30219290191388809 0 -0.070487734909432956 0.30120779968374373 0 -0.072480609672512561 0.29286590323627432 0 -0.070487734909432956 0.30120779968374373 0 -0.067640865999680222 0.30889120187600622 0 -0.057443837540459002 0.29887752995292699 0 -0.070487734909432956 0.30120779968374373 0 -0.072480609672512561 0.29286590323627432 0 -0.057443837540459002 0.29887752995292699 0 -0.074448339692640572 0.28961519769414468 0 -0.064206234863755859 0.28701010948948941 0 -0.058681534336627893 0.27504100171868717 0 -0.074448339692640572 0.28961519769414468 0 -0.058681534336627893 0.27504100171868717 0 -0.079007615176067317 0.30219290191388809 0 -0.074448339692640572 0.28961519769414468 0 -0.072480609672512561 0.29286590323627432 0 -0.074448339692640572 0.28961519769414468 0 -0.072480609672512561 0.29286590323627432 0 -0.065382535415150822 0.29188611431025452 0 -0.072480609672512561 0.29286590323627432 0 -0.057443837540459002 0.29887752995292699 0 -0.074448339692640572 0.28961519769414468 0 -0.065382535415150822 0.29188611431025452 0 -0.064206234863755859 0.28701010948948941 0 -0.072480609672512561 0.29286590323627432 0 -0.065382535415150822 0.29188611431025452 0 -0.057443837540459002 0.29887752995292699 0 -0.065382535415150822 0.29188611431025452 0 -0.064206234863755859 0.28701010948948941 0 -0.058333655306386151 0.29106183117843692 0 -0.074448339692640572 0.28961519769414468 0 -0.074576069514978194 0.2736614146263725 0 -0.082757243897781607 0.28028863438695489 0 -0.074448339692640572 0.28961519769414468 0 -0.074576069514978194 0.2736614146263725 0 -0.058681534336627893 0.27504100171868717 0 -0.068545824550532347 0.25694942133692961 0 -0.058681534336627893 0.27504100171868717 0 -0.074576069514978194 0.2736614146263725 0 -0.068545824550532347 0.25694942133692961 0 -0.058681534336627893 0.27504100171868717 0 -0.091437387881953269 0.28705153337159051 0 -0.09056717850155438 0.27082639185571211 0 -0.082757243897781607 0.28028863438695489 0 -0.074576069514978194 0.2736614146263725 0 -0.09056717850155438 0.27082639185571211 0 -0.085644315488926481 0.25551381652575039 0 -0.074576069514978194 0.2736614146263725 0 -0.09056717850155438 0.27082639185571211 0 -0.082757243897781607 0.28028863438695489 0 -0.10143686110155679 0.2589456254520347 0 -0.09056717850155438 0.27082639185571211 0 -0.085644315488926481 0.25551381652575039 0 -0.074576069514978194 0.2736614146263725 0 -0.085644315488926481 0.25551381652575039 0 -0.068545824550532347 0.25694942133692961 0 -0.085644315488926481 0.25551381652575039 0 -0.068545824550532347 0.25694942133692961 0 -0.078410114764434921 0.2388578409551709 0 -0.068545824550532347 0.25694942133692961 0 -0.047312044774248448 0.26453150627675892 0 -0.058681534336627893 0.27504100171868717 0 -0.068545824550532347 0.25694942133692961 0 -0.047312044774248448 0.26453150627675892 0 -0.064322961266428391 0.24490656945370051 0 -0.047312044774248448 0.26453150627675892 0 -0.052781921422815223 0.24246660685113591 0 -0.047312044774248448 0.26453150627675892 0 -0.064322961266428391 0.24490656945370051 0 -0.052781921422815223 0.24246660685113591 0 -0.047312044774248448 0.26453150627675892 0 -0.058681534336627893 0.27504100171868717 0 -0.042643511277578858 0.28336387283410408 0 -0.047312044774248448 0.26453150627675892 0 -0.058681534336627893 0.27504100171868717 0 -0.047312044774248448 0.26453150627675892 0 -0.042643511277578858 0.28336387283410408 0 -0.047312044774248448 0.26453150627675892 0 -0.033405582734770303 0.27863138646628682 0 -0.042643511277578858 0.28336387283410408 0 -0.047312044774248448 0.26453150627675892 0 -0.033405582734770303 0.27863138646628682 0 -0.026645333279002599 0.26866554283165772 0 -0.047312044774248448 0.26453150627675892 0 -0.026645333279002599 0.26866554283165772 0 -0.025966110251752189 0.244800189374869 0 -0.047312044774248448 0.26453150627675892 0 -0.052781921422815223 0.24246660685113591 0 -0.025966110251752189 0.244800189374869 0 -0.047312044774248448 0.26453150627675892 0 -0.025966110251752189 0.244800189374869 0 -0.026645333279002599 0.26866554283165772 0 -0.012601642581572991 0.2569366073914971 0 -0.025966110251752189 0.244800189374869 0 -0.026645333279002599 0.26866554283165772 0 -0.0078333566736051106 0.27176121962468153 0 -0.019092905262668609 0.28597771206626937 0 -0.026645333279002599 0.26866554283165772 0 -0.0078333566736051106 0.27176121962468153 0 -0.012601642581572991 0.2569366073914971 0 -0.033405582734770303 0.27863138646628682 0 -0.026645333279002599 0.26866554283165772 0 -0.019092905262668609 0.28597771206626937 0 -0.0078333566736051106 0.27176121962468153 0 -0.012601642581572991 0.2569366073914971 0 0.0047846334504887383 0.25646387099740009 0 -0.012601642581572991 0.2569366073914971 0 -0.0043755340704045732 0.244462551133488 0 0.0047846334504887383 0.25646387099740009 0 -0.009675874912022089 0.2986990909518954 0 -0.01974051849454701 0.3139511293991622 0 0.0029260284193114439 0.32301310212874462 0 -0.0078333566736051106 0.27176121962468153 0 -0.019092905262668609 0.28597771206626937 0 0.0022251657888577091 0.2891371856952531 0 -0.009675874912022089 0.2986990909518954 0 -0.019092905262668609 0.28597771206626937 0 0.0022251657888577091 0.2891371856952531 0 -0.009675874912022089 0.2986990909518954 0 -0.019092905262668609 0.28597771206626937 0 -0.023563679106099501 0.29828849402628399 0 -0.033405582734770303 0.27863138646628682 0 -0.019092905262668609 0.28597771206626937 0 -0.031334119080352989 0.29061829832264408 0 -0.019092905262668609 0.28597771206626937 0 -0.023563679106099501 0.29828849402628399 0 -0.031334119080352989 0.29061829832264408 0 -0.023563679106099501 0.29828849402628399 0 -0.037974977780906818 0.30219623939144891 0 -0.031334119080352989 0.29061829832264408 0 -0.042407065408408433 0.30488915666958738 0 -0.01974051849454701 0.3139511293991622 0 -0.023563679106099501 0.29828849402628399 0 -0.037974977780906818 0.30219623939144891 0 -0.01974051849454701 0.3139511293991622 0 -0.009675874912022089 0.2986990909518954 0 -0.023563679106099501 0.29828849402628399 0 -0.01974051849454701 0.3139511293991622 0 -0.037974977780906818 0.30219623939144891 0 -0.042407065408408433 0.30488915666958738 0 -0.01974051849454701 0.3139511293991622 0 -0.037974977780906818 0.30219623939144891 0 -0.042407065408408433 0.30488915666958738 0 -0.05054429987252175 0.28996507919413922 0 -0.042407065408408433 0.30488915666958738 0 -0.05054429987252175 0.28996507919413922 0 -0.037974977780906818 0.30219623939144891 0 -0.042643511277578858 0.28336387283410408 0 -0.05054429987252175 0.28996507919413922 0 -0.037974977780906818 0.30219623939144891 0 -0.031334119080352989 0.29061829832264408 0 -0.042643511277578858 0.28336387283410408 0 -0.037974977780906818 0.30219623939144891 0 -0.042643511277578858 0.28336387283410408 0 -0.033405582734770303 0.27863138646628682 0 -0.031334119080352989 0.29061829832264408 0 -0.042643511277578858 0.28336387283410408 0 -0.064206234863755859 0.28701010948948941 0 -0.058681534336627893 0.27504100171868717 0 -0.058333655306386151 0.29106183117843692 0 -0.058681534336627893 0.27504100171868717 0 -0.042643511277578858 0.28336387283410408 0 -0.05054429987252175 0.28996507919413922 0 -0.058681534336627893 0.27504100171868717 0 -0.05054429987252175 0.28996507919413922 0 -0.058333655306386151 0.29106183117843692 0 -0.058681534336627893 0.27504100171868717 0 -0.05054429987252175 0.28996507919413922 0 -0.05054429987252175 0.28996507919413922 0 -0.058333655306386151 0.29106183117843692 0 -0.057443837540459002 0.29887752995292699 0 -0.065382535415150822 0.29188611431025452 0 -0.058333655306386151 0.29106183117843692 0 -0.057443837540459002 0.29887752995292699 0 -0.042407065408408433 0.30488915666958738 0 -0.055269213097297459 0.31161405201959907 0 -0.04615675236690369 0.32050184671567822 0 -0.042407065408408433 0.30488915666958738 0 -0.057443837540459002 0.29887752995292699 0 -0.055269213097297459 0.31161405201959907 0 -0.042407065408408433 0.30488915666958738 0 -0.05054429987252175 0.28996507919413922 0 -0.057443837540459002 0.29887752995292699 0 -0.042407065408408433 0.30488915666958738 0 -0.057443837540459002 0.29887752995292699 0 -0.067640865999680222 0.30889120187600622 0 -0.057443837540459002 0.29887752995292699 0 -0.055269213097297459 0.31161405201959907 0 -0.067640865999680222 0.30889120187600622 0 -0.055269213097297459 0.31161405201959907 0 -0.062697544171030406 0.32491052488379379 0 -0.041102320943985499 0.3358996591744744 0 -0.04615675236690369 0.32050184671567822 0 -0.062697544171030406 0.32491052488379379 0 -0.055269213097297459 0.31161405201959907 0 -0.04615675236690369 0.32050184671567822 0 -0.062697544171030406 0.32491052488379379 0 -0.041102320943985499 0.3358996591744744 0 -0.062697544171030406 0.32491052488379379 0 -0.041102320943985499 0.3358996591744744 0 -0.058511465414554063 0.34901156758387331 0 -0.062697544171030406 0.32491052488379379 0 -0.041102320943985499 0.3358996591744744 0 -0.019507097716940591 0.34688879346515522 0 -0.039824621726783332 0.34814897417551061 0 -0.042407065408408433 0.30488915666958738 0 -0.030957081562677319 0.3258889750673728 0 -0.042407065408408433 0.30488915666958738 0 -0.04615675236690369 0.32050184671567822 0 -0.030957081562677319 0.3258889750673728 0 -0.041102320943985499 0.3358996591744744 0 -0.04615675236690369 0.32050184671567822 0 -0.030957081562677319 0.3258889750673728 0 -0.01974051849454701 0.3139511293991622 0 -0.030957081562677319 0.3258889750673728 0 -0.014214492288097879 0.3303816269983037 0 -0.042407065408408433 0.30488915666958738 0 -0.01974051849454701 0.3139511293991622 0 -0.030957081562677319 0.3258889750673728 0 -0.041102320943985499 0.3358996591744744 0 -0.030957081562677319 0.3258889750673728 0 -0.019507097716940591 0.34688879346515522 0 -0.030957081562677319 0.3258889750673728 0 -0.019507097716940591 0.34688879346515522 0 -0.041102320943985499 0.3358996591744744 0 -0.019507097716940591 0.34688879346515522 0 -0.030957081562677319 0.3258889750673728 0 -0.014214492288097879 0.3303816269983037 0 -0.019507097716940591 0.34688879346515522 0 -0.014214492288097879 0.3303816269983037 0 -0.0029822272574283049 0.3407341138868607 0 0.0029260284193114439 0.32301310212874462 0 -0.014214492288097879 0.3303816269983037 0 -0.0029822272574283049 0.3407341138868607 0 -0.019507097716940591 0.34688879346515522 0 -0.01974051849454701 0.3139511293991622 0 -0.014214492288097879 0.3303816269983037 0 0.0029260284193114439 0.32301310212874462 0 -0.01974051849454701 0.3139511293991622 0 0.0029260284193114439 0.32301310212874462 0 -0.0054244803145113568 0.37271698781030083 0 -0.019507097716940591 0.34688879346515522 0 -0.0029822272574283049 0.3407341138868607 0 -0.019507097716940591 0.34688879346515522 0 0.0012384392129950129 0.35744554895031388 0 -0.0054244803145113568 0.37271698781030083 0 -0.019507097716940591 0.34688879346515522 0 0.0012384392129950129 0.35744554895031388 0 -0.019507097716940591 0.34688879346515522 0 0.0012384392129950129 0.35744554895031388 0 -0.0054244803145113568 0.37271698781030083 0 -0.019507097716940591 0.34688879346515522 0 -0.027183601978905691 0.37693002858629782 0 -0.019507097716940591 0.34688879346515522 0 -0.040177602831653142 0.36079587647853978 0 -0.027183601978905691 0.37693002858629782 0 -0.040177602831653142 0.36079587647853978 0 -0.057649982056093327 0.37855517556031337 0 -0.027183601978905691 0.37693002858629782 0 -0.041102320943985499 0.3358996591744744 0 -0.039824621726783332 0.34814897417551061 0 -0.058511465414554063 0.34901156758387331 0 -0.040177602831653142 0.36079587647853978 0 -0.039824621726783332 0.34814897417551061 0 -0.058511465414554063 0.34901156758387331 0 -0.019507097716940591 0.34688879346515522 0 -0.040177602831653142 0.36079587647853978 0 -0.039824621726783332 0.34814897417551061 0 -0.040177602831653142 0.36079587647853978 0 -0.058511465414554063 0.34901156758387331 0 -0.057649982056093327 0.37855517556031337 0 -0.058511465414554063 0.34901156758387331 0 -0.076389653115006867 0.36147635229444841 0 -0.057649982056093327 0.37855517556031337 0 -0.076389653115006867 0.36147635229444841 0 -0.076762926251155189 0.37779349277566188 0 -0.057649982056093327 0.37855517556031337 0 -0.076389653115006867 0.36147635229444841 0 -0.057649982056093327 0.37855517556031337 0 -0.076389653115006867 0.36147635229444841 0 -0.089637963040922433 0.35473435802380471 0 -0.095654452441911508 0.37334892631019428 0 -0.076389653115006867 0.36147635229444841 0 -0.095654452441911508 0.37334892631019428 0 -0.076762926251155189 0.37779349277566188 0 -0.091276491486405043 0.34646986063175877 0 -0.089637963040922433 0.35473435802380471 0 -0.083062762385679167 0.34594502828343288 0 -0.091276491486405043 0.34646986063175877 0 -0.083062762385679167 0.34594502828343288 0 -0.091587039095723632 0.33914379824217672 0 -0.076389653115006867 0.36147635229444841 0 -0.089637963040922433 0.35473435802380471 0 -0.083062762385679167 0.34594502828343288 0 -0.058511465414554063 0.34901156758387331 0 -0.076389653115006867 0.36147635229444841 0 -0.083062762385679167 0.34594502828343288 0 -0.058511465414554063 0.34901156758387331 0 -0.083062762385679167 0.34594502828343288 0 -0.072335951597321993 0.3363319161972369 0 -0.058511465414554063 0.34901156758387331 0 -0.072335951597321993 0.3363319161972369 0 -0.062697544171030406 0.32491052488379379 0 -0.072335951597321993 0.3363319161972369 0 -0.062697544171030406 0.32491052488379379 0 -0.084447810747017113 0.32962142274013062 0 -0.067640865999680222 0.30889120187600622 0 -0.062697544171030406 0.32491052488379379 0 -0.083155696795120707 0.31622750442676251 0 -0.062697544171030406 0.32491052488379379 0 -0.083155696795120707 0.31622750442676251 0 -0.084447810747017113 0.32962142274013062 0 -0.090215145048658338 0.30418939366959669 0 -0.083155696795120707 0.31622750442676251 0 -0.10598195040467739 0.31876358964504742 0 -0.083155696795120707 0.31622750442676251 0 -0.084447810747017113 0.32962142274013062 0 -0.094334482781782497 0.32910112807089498 0 -0.083062762385679167 0.34594502828343288 0 -0.084447810747017113 0.32962142274013062 0 -0.091587039095723632 0.33914379824217672 0 -0.083062762385679167 0.34594502828343288 0 -0.072335951597321993 0.3363319161972369 0 -0.084447810747017113 0.32962142274013062 0 -0.084447810747017113 0.32962142274013062 0 -0.091587039095723632 0.33914379824217672 0 -0.094334482781782497 0.32910112807089498 0 -0.091587039095723632 0.33914379824217672 0 -0.094334482781782497 0.32910112807089498 0 -0.1008182014232949 0.34605625797762091 0 -0.10900401260230071 0.34201930072819903 0 -0.10598195040467739 0.31876358964504742 0 -0.1008182014232949 0.34605625797762091 0 -0.10598195040467739 0.31876358964504742 0 -0.1008182014232949 0.34605625797762091 0 -0.094334482781782497 0.32910112807089498 0 -0.10598195040467739 0.31876358964504742 0 -0.1008182014232949 0.34605625797762091 0 -0.083155696795120707 0.31622750442676251 0 -0.094334482781782497 0.32910112807089498 0 -0.10598195040467739 0.31876358964504742 0 -0.13414590083340791 0.33188251223112641 0 -0.1220041442996021 0.31214405643054388 0 -0.1181453227407285 0.32627188207417512 0 -0.1265632746693858 0.33778813180784772 0 -0.10598195040467739 0.31876358964504742 0 -0.1181453227407285 0.32627188207417512 0 -0.1220041442996021 0.31214405643054388 0 -0.10598195040467739 0.31876358964504742 0 -0.1181453227407285 0.32627188207417512 0 -0.1265632746693858 0.33778813180784772 0 -0.13247766581341211 0.3436606000404076 0 -0.11550511214516559 0.33750926015590921 0 -0.1265632746693858 0.33778813180784772 0 -0.10598195040467739 0.31876358964504742 0 -0.1265632746693858 0.33778813180784772 0 -0.10598195040467739 0.31876358964504742 0 -0.11550511214516559 0.33750926015590921 0 -0.13247766581341211 0.3436606000404076 0 -0.10900401260230071 0.34201930072819903 0 -0.11550511214516559 0.33750926015590921 0 -0.10900401260230071 0.34201930072819903 0 -0.10598195040467739 0.31876358964504742 0 -0.11550511214516559 0.33750926015590921 0 -0.13247766581341211 0.3436606000404076 0 -0.1039847509972469 0.34979027640878119 0 -0.13170959615369729 0.34908333232170391 0 -0.1189739103913849 0.35635357820431551 0 -0.11380244331640769 0.372199833876314 0 -0.13247766581341211 0.3436606000404076 0 -0.1126552178531272 0.35402796739925613 0 -0.1189739103913849 0.35635357820431551 0 -0.13247766581341211 0.3436606000404076 0 -0.1126552178531272 0.35402796739925613 0 -0.1039847509972469 0.34979027640878119 0 -0.13247766581341211 0.3436606000404076 0 -0.10900401260230071 0.34201930072819903 0 -0.1039847509972469 0.34979027640878119 0 -0.1126552178531272 0.35402796739925613 0 -0.1189739103913849 0.35635357820431551 0 -0.10855073559843489 0.3625779984773897 0 -0.1189739103913849 0.35635357820431551 0 -0.11380244331640769 0.372199833876314 0 -0.10855073559843489 0.3625779984773897 0 -0.12818429891846311 0.37397266739307772 0 -0.13170959615369729 0.34908333232170391 0 -0.11380244331640769 0.372199833876314 0 -0.13170959615369729 0.34908333232170391 0 -0.11380244331640769 0.372199833876314 0 -0.11380244331640769 0.372199833876314 0 -0.095654452441911508 0.37334892631019428 0 -0.10855073559843489 0.3625779984773897 0 -0.095654452441911508 0.37334892631019428 0 -0.10855073559843489 0.3625779984773897 0 -0.1041506511014577 0.35652579981898341 0 -0.095654452441911508 0.37334892631019428 0 -0.1008182014232949 0.34605625797762091 0 -0.095654452441911508 0.37334892631019428 0 -0.1008182014232949 0.34605625797762091 0 -0.1041506511014577 0.35652579981898341 0 -0.089637963040922433 0.35473435802380471 0 -0.095654452441911508 0.37334892631019428 0 -0.1008182014232949 0.34605625797762091 0 -0.091276491486405043 0.34646986063175877 0 -0.089637963040922433 0.35473435802380471 0 -0.1008182014232949 0.34605625797762091 0 -0.091276491486405043 0.34646986063175877 0 -0.091587039095723632 0.33914379824217672 0 -0.1008182014232949 0.34605625797762091 0 -0.1008182014232949 0.34605625797762091 0 -0.1039847509972469 0.34979027640878119 0 -0.1041506511014577 0.35652579981898341 0 -0.10900401260230071 0.34201930072819903 0 -0.1008182014232949 0.34605625797762091 0 -0.1039847509972469 0.34979027640878119 0 -0.1126552178531272 0.35402796739925613 0 -0.10855073559843489 0.3625779984773897 0 -0.1041506511014577 0.35652579981898341 0 -0.1126552178531272 0.35402796739925613 0 -0.1039847509972469 0.34979027640878119 0 -0.1041506511014577 0.35652579981898341 0 -0.1041613186130048 0.39639381271436491 0 -0.095895290479122444 0.39531633543092731 0 -0.1133404706020444 0.38734893037582702 0 -0.1041613186130048 0.39639381271436491 0 -0.1005795356372487 0.40304937784810302 0 -0.1106942084479562 0.40687922775048202 0 -0.1005795356372487 0.40304937784810302 0 -0.095895290479122444 0.39531633543092731 0 -0.090490703460528107 0.40064159464276772 0 -0.1041613186130048 0.39639381271436491 0 -0.1005795356372487 0.40304937784810302 0 -0.095895290479122444 0.39531633543092731 0 -0.095654452441911508 0.37334892631019428 0 -0.095895290479122444 0.39531633543092731 0 -0.090490703460528107 0.40064159464276772 0 -0.11380244331640769 0.372199833876314 0 -0.095654452441911508 0.37334892631019428 0 -0.095895290479122444 0.39531633543092731 0 -0.11380244331640769 0.372199833876314 0 -0.095895290479122444 0.39531633543092731 0 -0.1133404706020444 0.38734893037582702 0 -0.11380244331640769 0.372199833876314 0 -0.095895290479122444 0.39531633543092731 0 -0.12818429891846311 0.37397266739307772 0 -0.1133404706020444 0.38734893037582702 0 -0.1246590016832242 0.39886200246445103 0 -0.12818429891846311 0.37397266739307772 0 -0.11380244331640769 0.372199833876314 0 -0.1133404706020444 0.38734893037582702 0 -0.1041613186130048 0.39639381271436491 0 -0.1246590016832242 0.39886200246445103 0 -0.1041613186130048 0.39639381271436491 0 -0.1246590016832242 0.39886200246445103 0 -0.1106942084479562 0.40687922775048202 0 -0.1041613186130048 0.39639381271436491 0 -0.1133404706020444 0.38734893037582702 0 -0.1246590016832242 0.39886200246445103 0 -0.1106942084479562 0.40687922775048202 0 -0.1209931957016903 0.42474335864315388 0 -0.1015485077747463 0.41636936597783891 0 -0.1246590016832242 0.39886200246445103 0 -0.1209931957016903 0.42474335864315388 0 -0.1246590016832242 0.39886200246445103 0 -0.1106942084479562 0.40687922775048202 0 -0.1209931957016903 0.42474335864315388 0 -0.1209931957016903 0.42474335864315388 0 -0.1026931403400789 0.43451375269066528 0 -0.11740563481913539 0.45007228807421451 0 -0.1209931957016903 0.42474335864315388 0 -0.1026931403400789 0.43451375269066528 0 -0.1209931957016903 0.42474335864315388 0 -0.11740563481913539 0.45007228807421451 0 -0.1026931403400789 0.43451375269066528 0 -0.1015485077747463 0.41636936597783891 0 -0.085326954479144693 0.42793426297534121 0 -0.1209931957016903 0.42474335864315388 0 -0.1026931403400789 0.43451375269066528 0 -0.1015485077747463 0.41636936597783891 0 -0.1005795356372487 0.40304937784810302 0 -0.1015485077747463 0.41636936597783891 0 -0.090490703460528107 0.40064159464276772 0 -0.1005795356372487 0.40304937784810302 0 -0.1106942084479562 0.40687922775048202 0 -0.1015485077747463 0.41636936597783891 0 -0.1015485077747463 0.41636936597783891 0 -0.085326954479144693 0.42793426297534121 0 -0.090490703460528107 0.40064159464276772 0 -0.078130916894869618 0.41244477306765792 0 -0.085326954479144693 0.42793426297534121 0 -0.090490703460528107 0.40064159464276772 0 -0.085326954479144693 0.42793426297534121 0 -0.090490703460528107 0.40064159464276772 0 -0.1026931403400789 0.43451375269066528 0 -0.085326954479144693 0.42793426297534121 0 -0.084393084978468355 0.44428414673817812 0 -0.069504274941454211 0.42442926199730618 0 -0.056064567002227339 0.4357079007640382 0 -0.06822179828740027 0.44071342303891392 0 -0.085326954479144693 0.42793426297534121 0 -0.069504274941454211 0.42442926199730618 0 -0.06822179828740027 0.44071342303891392 0 -0.069504274941454211 0.42442926199730618 0 -0.066321644944970337 0.4079098482181146 0 -0.055193316034793272 0.42129397100701849 0 -0.078130916894869618 0.41244477306765792 0 -0.085326954479144693 0.42793426297534121 0 -0.069504274941454211 0.42442926199730618 0 -0.078130916894869618 0.41244477306765792 0 -0.069504274941454211 0.42442926199730618 0 -0.066321644944970337 0.4079098482181146 0 -0.078130916894869618 0.41244477306765792 0 -0.066321644944970337 0.4079098482181146 0 -0.079011006648250656 0.40130889750476001 0 -0.066321644944970337 0.4079098482181146 0 -0.07262673580794915 0.39174491204632722 0 -0.079011006648250656 0.40130889750476001 0 -0.066321644944970337 0.4079098482181146 0 -0.07262673580794915 0.39174491204632722 0 -0.057036644164677158 0.3959014771188677 0 -0.07262673580794915 0.39174491204632722 0 -0.079011006648250656 0.40130889750476001 0 -0.082008126220309896 0.39497272230231611 0 -0.078130916894869618 0.41244477306765792 0 -0.079011006648250656 0.40130889750476001 0 -0.090490703460528107 0.40064159464276772 0 -0.079011006648250656 0.40130889750476001 0 -0.082008126220309896 0.39497272230231611 0 -0.090490703460528107 0.40064159464276772 0 -0.07262673580794915 0.39174491204632722 0 -0.082008126220309896 0.39497272230231611 0 -0.08590405896451167 0.38619548501540968 0 -0.082008126220309896 0.39497272230231611 0 -0.090490703460528107 0.40064159464276772 0 -0.08590405896451167 0.38619548501540968 0 -0.095654452441911508 0.37334892631019428 0 -0.090490703460528107 0.40064159464276772 0 -0.095654452441911508 0.37334892631019428 0 -0.090490703460528107 0.40064159464276772 0 -0.08590405896451167 0.38619548501540968 0 -0.095654452441911508 0.37334892631019428 0 -0.08590405896451167 0.38619548501540968 0 -0.076762926251155189 0.37779349277566188 0 -0.07262673580794915 0.39174491204632722 0 -0.08590405896451167 0.38619548501540968 0 -0.076762926251155189 0.37779349277566188 0 -0.07262673580794915 0.39174491204632722 0 -0.076762926251155189 0.37779349277566188 0 -0.057649982056093327 0.37855517556031337 0 -0.057649982056093327 0.37855517556031337 0 -0.057036644164677158 0.3959014771188677 0 -0.038910310997179752 0.39563399882617839 0 -0.07262673580794915 0.39174491204632722 0 -0.057649982056093327 0.37855517556031337 0 -0.057036644164677158 0.3959014771188677 0 -0.057649982056093327 0.37855517556031337 0 -0.038910310997179752 0.39563399882617839 0 -0.057036644164677158 0.3959014771188677 0 -0.038910310997179752 0.39563399882617839 0 -0.051357094211629567 0.4080090287501838 0 -0.066321644944970337 0.4079098482181146 0 -0.057036644164677158 0.3959014771188677 0 -0.051357094211629567 0.4080090287501838 0 -0.057649982056093327 0.37855517556031337 0 -0.038910310997179752 0.39563399882617839 0 -0.027183601978905691 0.37693002858629782 0 -0.038910310997179752 0.39563399882617839 0 -0.027183601978905691 0.37693002858629782 0 -0.012436301854645631 0.39371880367991291 0 -0.038910310997179752 0.39563399882617839 0 -0.020170639938266319 0.41271282209204341 0 -0.038910310997179752 0.39563399882617839 0 -0.012436301854645631 0.39371880367991291 0 -0.020170639938266319 0.41271282209204341 0 -0.012436301854645631 0.39371880367991291 0 -0.00074221871097843097 0.41583171984994571 0 0.0086581370879179401 0.39854518215544638 0 -0.0054244803145113568 0.37271698781030083 0 -0.012436301854645631 0.39371880367991291 0 0.0086581370879179401 0.39854518215544638 0 -0.0054244803145113568 0.37271698781030083 0 -0.027183601978905691 0.37693002858629782 0 -0.012436301854645631 0.39371880367991291 0 -0.0052094923632051964 0.43526164348507312 0 -0.00074221871097843097 0.41583171984994571 0 -0.02294182244616905 0.43047735757632888 0 -0.012436301854645631 0.39371880367991291 0 -0.00074221871097843097 0.41583171984994571 0 -0.020170639938266319 0.41271282209204341 0 -0.00074221871097843097 0.41583171984994571 0 -0.020170639938266319 0.41271282209204341 0 -0.02294182244616905 0.43047735757632888 0 -0.020170639938266319 0.41271282209204341 0 -0.02294182244616905 0.43047735757632888 0 -0.039323554916527392 0.4193058485807396 0 -0.0052094923632051964 0.43526164348507312 0 -0.02294182244616905 0.43047735757632888 0 -0.02282418897077295 0.44136496539883829 0 -0.040686309574329928 0.43660876979453622 0 -0.039323554916527392 0.4193058485807396 0 -0.047816936881969481 0.42822912253658307 0 -0.02294182244616905 0.43047735757632888 0 -0.040686309574329928 0.43660876979453622 0 -0.03102552468263076 0.44175809326872528 0 -0.02294182244616905 0.43047735757632888 0 -0.040686309574329928 0.43660876979453622 0 -0.039323554916527392 0.4193058485807396 0 -0.038910310997179752 0.39563399882617839 0 -0.039323554916527392 0.4193058485807396 0 -0.051357094211629567 0.4080090287501838 0 -0.038910310997179752 0.39563399882617839 0 -0.020170639938266319 0.41271282209204341 0 -0.039323554916527392 0.4193058485807396 0 -0.039323554916527392 0.4193058485807396 0 -0.051357094211629567 0.4080090287501838 0 -0.055193316034793272 0.42129397100701849 0 -0.066321644944970337 0.4079098482181146 0 -0.051357094211629567 0.4080090287501838 0 -0.055193316034793272 0.42129397100701849 0 -0.039323554916527392 0.4193058485807396 0 -0.055193316034793272 0.42129397100701849 0 -0.047816936881969481 0.42822912253658307 0 -0.040686309574329928 0.43660876979453622 0 -0.047816936881969481 0.42822912253658307 0 -0.056064567002227339 0.4357079007640382 0 -0.055193316034793272 0.42129397100701849 0 -0.047816936881969481 0.42822912253658307 0 -0.056064567002227339 0.4357079007640382 0 -0.069504274941454211 0.42442926199730618 0 -0.055193316034793272 0.42129397100701849 0 -0.056064567002227339 0.4357079007640382 0 -0.056064567002227339 0.4357079007640382 0 -0.053978123605127132 0.44739926558063842 0 -0.06822179828740027 0.44071342303891392 0 -0.053978123605127132 0.44739926558063842 0 -0.065251089838838122 0.45564936978252513 0 -0.06822179828740027 0.44071342303891392 0 -0.040686309574329928 0.43660876979453622 0 -0.056064567002227339 0.4357079007640382 0 -0.053978123605127132 0.44739926558063842 0 -0.053978123605127132 0.44739926558063842 0 -0.053208161624805142 0.46503136578081489 0 -0.040436815303162031 0.45068476432300209 0 -0.053978123605127132 0.44739926558063842 0 -0.053208161624805142 0.46503136578081489 0 -0.065251089838838122 0.45564936978252513 0 -0.053208161624805142 0.46503136578081489 0 -0.034374688468694022 0.46188826212926098 0 -0.040436815303162031 0.45068476432300209 0 -0.034374688468694022 0.46188826212926098 0 -0.040436815303162031 0.45068476432300209 0 -0.028238487118719829 0.44965460925092082 0 -0.040686309574329928 0.43660876979453622 0 -0.053978123605127132 0.44739926558063842 0 -0.040436815303162031 0.45068476432300209 0 -0.040436815303162031 0.45068476432300209 0 -0.03102552468263076 0.44175809326872528 0 -0.028238487118719829 0.44965460925092082 0 -0.040686309574329928 0.43660876979453622 0 -0.040436815303162031 0.45068476432300209 0 -0.03102552468263076 0.44175809326872528 0 -0.02294182244616905 0.43047735757632888 0 -0.03102552468263076 0.44175809326872528 0 -0.02282418897077295 0.44136496539883829 0 -0.03102552468263076 0.44175809326872528 0 -0.02282418897077295 0.44136496539883829 0 -0.028238487118719829 0.44965460925092082 0 -0.017301074439852519 0.44974655781760342 0 -0.028238487118719829 0.44965460925092082 0 -0.02282418897077295 0.44136496539883829 0 -0.017301074439852519 0.44974655781760342 0 -0.028238487118719829 0.44965460925092082 0 -0.034374688468694022 0.46188826212926098 0 -0.017301074439852519 0.44974655781760342 0 -0.028238487118719829 0.44965460925092082 0 -0.034374688468694022 0.46188826212926098 0 -0.017301074439852519 0.44974655781760342 0 -0.023697120474604049 0.4748732789088021 0 -0.017301074439852519 0.44974655781760342 0 -0.01147799246148431 0.46490968690221568 0 -0.023697120474604049 0.4748732789088021 0 -0.017301074439852519 0.44974655781760342 0 -0.023697120474604049 0.4748732789088021 0 -0.017301074439852519 0.44974655781760342 0 -0.01147799246148431 0.46490968690221568 0 -0.01301859844821714 0.44978255970770742 0 -0.01147799246148431 0.46490968690221568 0 -0.01301859844821714 0.44978255970770742 0 0.0060165733909027727 0.46697482077036129 0 -0.01301859844821714 0.44978255970770742 0 0.0060165733909027727 0.46697482077036129 0 -0.0052094923632051964 0.43526164348507312 0 -0.01301859844821714 0.44978255970770742 0 0.0097611487264646687 0.44997406433166343 0 -0.01301859844821714 0.44978255970770742 0 0.0097611487264646687 0.44997406433166343 0 -0.0052094923632051964 0.43526164348507312 0 -0.02282418897077295 0.44136496539883829 0 -0.017301074439852519 0.44974655781760342 0 -0.0052094923632051964 0.43526164348507312 0 -0.017301074439852519 0.44974655781760342 0 -0.01301859844821714 0.44978255970770742 0 -0.017301074439852519 0.44974655781760342 0 -0.01301859844821714 0.44978255970770742 0 -0.0053626627449780973 0.5 0 -0.0093840284783354815 0.48249154585877091 0 0.0067487602434605949 0.48597569081655001 0 -0.0053626627449780973 0.5 0 -0.0093840284783354815 0.48249154585877091 0 -0.030093166509354039 0.50000000000000122 0 -0.01147799246148431 0.46490968690221568 0 -0.0093840284783354815 0.48249154585877091 0 -0.023697120474604049 0.4748732789088021 0 -0.01147799246148431 0.46490968690221568 0 -0.0093840284783354815 0.48249154585877091 0 0.0060165733909027727 0.46697482077036129 0 -0.0093840284783354815 0.48249154585877091 0 -0.023697120474604049 0.4748732789088021 0 -0.030093166509354039 0.50000000000000122 0 -0.023697120474604049 0.4748732789088021 0 -0.030093166509354039 0.50000000000000122 0 -0.030093166509354039 0.50000000000000122 0 -0.043366471851020577 0.48133899669442198 0 -0.056840087752663693 0.5 0 -0.023697120474604049 0.4748732789088021 0 -0.030093166509354039 0.50000000000000122 0 -0.043366471851020577 0.48133899669442198 0 -0.053208161624805142 0.46503136578081489 0 -0.034374688468694022 0.46188826212926098 0 -0.043366471851020577 0.48133899669442198 0 -0.034374688468694022 0.46188826212926098 0 -0.023697120474604049 0.4748732789088021 0 -0.043366471851020577 0.48133899669442198 0 -0.053208161624805142 0.46503136578081489 0 -0.043366471851020577 0.48133899669442198 0 -0.06039901984282741 0.48041162909114099 0 -0.053208161624805142 0.46503136578081489 0 -0.06039901984282741 0.48041162909114099 0 -0.070222922623790762 0.46975484790390287 0 -0.043366471851020577 0.48133899669442198 0 -0.06039901984282741 0.48041162909114099 0 -0.056840087752663693 0.5 0 -0.06039901984282741 0.48041162909114099 0 -0.056840087752663693 0.5 0 -0.078357455361856843 0.48593293507656538 0 -0.056840087752663693 0.5 0 -0.083587008995973378 0.5 0 -0.078357455361856843 0.48593293507656538 0 -0.078357455361856843 0.48593293507656538 0 -0.08918656903187866 0.48991271642708201 0 -0.096087764649219629 0.48066707629092209 0 -0.083587008995973378 0.5 0 -0.078357455361856843 0.48593293507656538 0 -0.08918656903187866 0.48991271642708201 0 -0.078357455361856843 0.48593293507656538 0 -0.088084569368711133 0.46694243054787621 0 -0.096087764649219629 0.48066707629092209 0 -0.078357455361856843 0.48593293507656538 0 -0.070222922623790762 0.46975484790390287 0 -0.088084569368711133 0.46694243054787621 0 -0.078357455361856843 0.48593293507656538 0 -0.096087764649219629 0.48066707629092209 0 -0.06039901984282741 0.48041162909114099 0 -0.078357455361856843 0.48593293507656538 0 -0.070222922623790762 0.46975484790390287 0 -0.053208161624805142 0.46503136578081489 0 -0.070222922623790762 0.46975484790390287 0 -0.065251089838838122 0.45564936978252513 0 -0.070222922623790762 0.46975484790390287 0 -0.065251089838838122 0.45564936978252513 0 -0.080163205497761264 0.45522693130791458 0 -0.085326954479144693 0.42793426297534121 0 -0.06822179828740027 0.44071342303891392 0 -0.080163205497761264 0.45522693130791458 0 -0.065251089838838122 0.45564936978252513 0 -0.06822179828740027 0.44071342303891392 0 -0.080163205497761264 0.45522693130791458 0 -0.085326954479144693 0.42793426297534121 0 -0.080163205497761264 0.45522693130791458 0 -0.085326954479144693 0.42793426297534121 0 -0.084393084978468355 0.44428414673817812 0 -0.080163205497761264 0.45522693130791458 0 -0.1026931403400789 0.43451375269066528 0 -0.084393084978468355 0.44428414673817812 0 -0.1026931403400789 0.43451375269066528 0 -0.084393084978468355 0.44428414673817812 0 -0.089906547318651803 0.45270426027634569 0 -0.084393084978468355 0.44428414673817812 0 -0.089906547318651803 0.45270426027634569 0 -0.080163205497761264 0.45522693130791458 0 -0.070222922623790762 0.46975484790390287 0 -0.080163205497761264 0.45522693130791458 0 -0.088084569368711133 0.46694243054787621 0 -0.089906547318651803 0.45270426027634569 0 -0.080163205497761264 0.45522693130791458 0 -0.088084569368711133 0.46694243054787621 0 -0.089906547318651803 0.45270426027634569 0 -0.088084569368711133 0.46694243054787621 0 -0.099552332284367107 0.45520335861690681 0 -0.088084569368711133 0.46694243054787621 0 -0.099552332284367107 0.45520335861690681 0 -0.1027931272498106 0.46664308282290679 0 -0.099552332284367107 0.45520335861690681 0 -0.1027931272498106 0.46664308282290679 0 -0.11740563481913539 0.45007228807421451 0 -0.1026931403400789 0.43451375269066528 0 -0.089906547318651803 0.45270426027634569 0 -0.099552332284367107 0.45520335861690681 0 -0.1026931403400789 0.43451375269066528 0 -0.099552332284367107 0.45520335861690681 0 -0.11740563481913539 0.45007228807421451 0 -0.13516292960171661 0.44965322455976581 0 -0.1209931957016903 0.42474335864315388 0 -0.11740563481913539 0.45007228807421451 0 -0.13516243602910141 0.46906199381621683 0 -0.11740563481913539 0.45007228807421451 0 -0.1138180739365813 0.47540121750527509 0 -0.1027931272498106 0.46664308282290679 0 -0.11740563481913539 0.45007228807421451 0 -0.1138180739365813 0.47540121750527509 0 -0.11740563481913539 0.45007228807421451 0 -0.1138180739365813 0.47540121750527509 0 -0.13516243602910141 0.46906199381621683 0 -0.1138180739365813 0.47540121750527509 0 -0.12852006188031539 0.48580009003701241 0 -0.1138180739365813 0.47540121750527509 0 -0.11033393023928301 0.49999999999999029 0 -0.1138180739365813 0.47540121750527509 0 -0.11033393023928301 0.49999999999999029 0 -0.1138180739365813 0.47540121750527509 0 -0.11033393023928301 0.49999999999999029 0 -0.096087764649219629 0.48066707629092209 0 -0.08918656903187866 0.48991271642708201 0 -0.11033393023928301 0.49999999999999029 0 -0.096087764649219629 0.48066707629092209 0 -0.083587008995973378 0.5 0 -0.08918656903187866 0.48991271642708201 0 -0.11033393023928301 0.49999999999999029 0 -0.1027931272498106 0.46664308282290679 0 -0.1138180739365813 0.47540121750527509 0 -0.096087764649219629 0.48066707629092209 0 -0.1138180739365813 0.47540121750527509 0 -0.096087764649219629 0.48066707629092209 0 -0.088084569368711133 0.46694243054787621 0 -0.1027931272498106 0.46664308282290679 0 -0.096087764649219629 0.48066707629092209 0 -0.16961381529586969 0.075882171246410363 0 -0.17006333988594891 0.10044960298698111 0 -0.15199610654598389 0.095159123707473786 0 -0.16961381529586969 0.075882171246410363 0 -0.1458557664497894 0.077589484277727286 0 -0.1543589191676468 0.067906130066869644 0 -0.16961381529586969 0.075882171246410363 0 -0.1458557664497894 0.077589484277727286 0 -0.16567400973839991 0.06469656740249187 0 -0.16961381529586969 0.075882171246410363 0 -0.1543589191676468 0.067906130066869644 0 -0.16567400973839991 0.06469656740249187 0 -0.1543589191676468 0.067906130066869644 0 -0.15652771442602589 0.060948234357097189 0 -0.16567400973839991 0.06469656740249187 0 -0.16961381529586969 0.075882171246410363 0 -0.18010182618289849 0.064354042903557784 0 -0.16961381529586969 0.075882171246410363 0 -0.18010182618289849 0.064354042903557784 0 -0.19337311312365221 0.074192238371951963 0 -0.16961381529586969 0.075882171246410363 0 -0.19337311312365221 0.074192238371951963 0 -0.16961381529586969 0.075882171246410363 0 -0.185909983407782 0.090967767967412128 0 -0.17006333988594891 0.10044960298698111 0 -0.16961381529586969 0.075882171246410363 0 -0.185909983407782 0.090967767967412128 0 -0.19337311312365221 0.074192238371951963 0 -0.17249501376828461 0.11886832425123529 0 -0.17006333988594891 0.10044960298698111 0 -0.18966488750057461 0.1077277171609843 0 -0.185909983407782 0.090967767967412128 0 -0.17006333988594891 0.10044960298698111 0 -0.18966488750057461 0.1077277171609843 0 -0.17249501376828461 0.11886832425123529 0 -0.18961910453139949 0.1217950061864484 0 -0.18966488750057461 0.1077277171609843 0 -0.17249501376828461 0.11886832425123529 0 -0.18966488750057461 0.1077277171609843 0 -0.17249501376828461 0.11886832425123529 0 -0.1533949464146572 0.1129657407012821 0 -0.15532514003599471 0.13000893134148619 0 -0.17249501376828461 0.11886832425123529 0 -0.15532514003599471 0.13000893134148619 0 -0.17249501376828461 0.11886832425123529 0 -0.17006333988594891 0.10044960298698111 0 -0.1533949464146572 0.1129657407012821 0 -0.17006333988594891 0.10044960298698111 0 -0.15199610654598389 0.095159123707473786 0 -0.1533949464146572 0.1129657407012821 0 -0.15199610654598389 0.095159123707473786 0 -0.14300046670922781 0.1043621634128421 0 -0.1533949464146572 0.1129657407012821 0 -0.15199610654598389 0.095159123707473786 0 -0.14300046670922781 0.1043621634128421 0 -0.13736328076155829 0.092161304070877637 0 -0.1533949464146572 0.1129657407012821 0 -0.15532514003599471 0.13000893134148619 0 -0.14394943667733151 0.12574043048764161 0 -0.14300046670922781 0.1043621634128421 0 -0.1533949464146572 0.1129657407012821 0 -0.1385018827476612 0.1146676464666347 0 -0.1533949464146572 0.1129657407012821 0 -0.1385018827476612 0.1146676464666347 0 -0.14394943667733151 0.12574043048764161 0 -0.13336413733565949 0.1226541595693881 0 -0.1385018827476612 0.1146676464666347 0 -0.14394943667733151 0.12574043048764161 0 -0.13336413733565949 0.1226541595693881 0 -0.1385018827476612 0.1146676464666347 0 -0.1292441336541986 0.11340788685384171 0 -0.1385018827476612 0.1146676464666347 0 -0.1292441336541986 0.11340788685384171 0 -0.13305612932328709 0.10436548741651031 0 -0.1292441336541986 0.11340788685384171 0 -0.1240747090480155 0.1058960799589593 0 -0.1227949117246859 0.111337436456521 0 -0.12547712541990549 0.1168704235612987 0 -0.1292441336541986 0.11340788685384171 0 -0.1227949117246859 0.111337436456521 0 -0.13336413733565949 0.1226541595693881 0 -0.12547712541990549 0.1168704235612987 0 -0.1292441336541986 0.11340788685384171 0 -0.13336413733565949 0.1226541595693881 0 -0.12547712541990549 0.1168704235612987 0 -0.12688413323997941 0.1277235279650504 0 -0.14300046670922781 0.1043621634128421 0 -0.13305612932328709 0.10436548741651031 0 -0.13736328076155829 0.092161304070877637 0 -0.14300046670922781 0.1043621634128421 0 -0.1385018827476612 0.1146676464666347 0 -0.13305612932328709 0.10436548741651031 0 -0.13305612932328709 0.10436548741651031 0 -0.1233385787441182 0.095052943995671366 0 -0.1240747090480155 0.1058960799589593 0 -0.1292441336541986 0.11340788685384171 0 -0.13305612932328709 0.10436548741651031 0 -0.1240747090480155 0.1058960799589593 0 -0.13305612932328709 0.10436548741651031 0 -0.13736328076155829 0.092161304070877637 0 -0.1233385787441182 0.095052943995671366 0 -0.13736328076155829 0.092161304070877637 0 -0.1458557664497894 0.077589484277727286 0 -0.1220977176037092 0.079296797309044209 0 -0.1458557664497894 0.077589484277727286 0 -0.1220977176037092 0.079296797309044209 0 -0.13736328076155829 0.092161304070877637 0 -0.1220977176037092 0.079296797309044209 0 -0.1233385787441182 0.095052943995671366 0 -0.15199610654598389 0.095159123707473786 0 -0.13736328076155829 0.092161304070877637 0 -0.1458557664497894 0.077589484277727286 0 -0.16961381529586969 0.075882171246410363 0 -0.15199610654598389 0.095159123707473786 0 -0.1458557664497894 0.077589484277727286 0 -0.1458557664497894 0.077589484277727286 0 -0.1543589191676468 0.067906130066869644 0 -0.13815821537356901 0.068109932290240663 0 -0.1543589191676468 0.067906130066869644 0 -0.13815821537356901 0.068109932290240663 0 -0.14746208463518579 0.061459140186594888 0 -0.1543589191676468 0.067906130066869644 0 -0.14746208463518579 0.061459140186594888 0 -0.15652771442602589 0.060948234357097189 0 -0.1458557664497894 0.077589484277727286 0 -0.13815821537356901 0.068109932290240663 0 -0.1220977176037092 0.079296797309044209 0 -0.13815821537356901 0.068109932290240663 0 -0.1220977176037092 0.079296797309044209 0 -0.11807988910961301 0.057388915499099732 0 -0.14601553155016339 0.055704127728663323 0 -0.1434372136447315 0.057098739089340753 0 -0.11807988910961301 0.057388915499099732 0 -0.14601553155016339 0.055704127728663323 0 -0.11807988910961301 0.057388915499099732 0 -0.1313644189270744 0.042240778430714887 0 -0.14601553155016339 0.055704127728663323 0 -0.11807988910961301 0.057388915499099732 0 -0.13815821537356901 0.068109932290240663 0 -0.1434372136447315 0.057098739089340753 0 -0.11807988910961301 0.057388915499099732 0 -0.1313644189270744 0.042240778430714887 0 -0.14311215162608171 0.043083674787198691 0 -0.14601553155016339 0.055704127728663323 0 -0.1313644189270744 0.042240778430714887 0 -0.1362030456203811 0.027250533052470459 0 -0.11441225685918641 0.029434972527870688 0 -0.1313644189270744 0.042240778430714887 0 -0.14311215162608171 0.043083674787198691 0 -0.1362030456203811 0.027250533052470459 0 -0.14311215162608171 0.043083674787198691 0 -0.1509401848587929 0.034050455690090173 0 -0.14926314277423619 0.044438514521356318 0 -0.14311215162608171 0.043083674787198691 0 -0.1509401848587929 0.034050455690090173 0 -0.1362030456203811 0.027250533052470459 0 -0.1509401848587929 0.034050455690090173 0 -0.14926314277423619 0.044438514521356318 0 -0.15698470306190679 0.044915799879473098 0 -0.14926314277423619 0.044438514521356318 0 -0.14601553155016339 0.055704127728663323 0 -0.15698470306190679 0.044915799879473098 0 -0.14601553155016339 0.055704127728663323 0 -0.14746208463518579 0.061459140186594888 0 -0.15652771442602589 0.060948234357097189 0 -0.13815821537356901 0.068109932290240663 0 -0.14746208463518579 0.061459140186594888 0 -0.1434372136447315 0.057098739089340753 0 -0.14601553155016339 0.055704127728663323 0 -0.14746208463518579 0.061459140186594888 0 -0.1434372136447315 0.057098739089340753 0 -0.14601553155016339 0.055704127728663323 0 -0.1434372136447315 0.057098739089340753 0 -0.14311215162608171 0.043083674787198691 0 -0.14926314277423619 0.044438514521356318 0 -0.14601553155016339 0.055704127728663323 0 -0.12705603436313739 0.011468810593014351 0 -0.1362030456203811 0.027250533052470459 0 -0.11441225685918641 0.029434972527870688 0 -0.12705603436313739 0.011468810593014351 0 -0.1362030456203811 0.027250533052470459 0 -0.1568189069987071 0.01162741287239054 0 -0.1509401848587929 0.034050455690090173 0 -0.1362030456203811 0.027250533052470459 0 -0.1568189069987071 0.01162741287239054 0 -0.14306110324583091 -0.0044799994510859691 0 -0.12705603436313739 0.011468810593014351 0 -0.1568189069987071 0.01162741287239054 0 -0.12705603436313739 0.011468810593014351 0 -0.1568189069987071 0.01162741287239054 0 -0.1568189069987071 0.01162741287239054 0 -0.1865817796342768 0.01178601515176673 0 -0.16329241061398961 -0.01075854211927168 0 -0.1568189069987071 0.01162741287239054 0 -0.1865817796342768 0.01178601515176673 0 -0.1568189069987071 0.01162741287239054 0 -0.1634309799137538 0.030287744802557321 0 -0.17786585274955691 0.026760253801302921 0 -0.1509401848587929 0.034050455690090173 0 -0.1568189069987071 0.01162741287239054 0 -0.1634309799137538 0.030287744802557321 0 -0.17786585274955691 0.026760253801302921 0 -0.1865817796342768 0.01178601515176673 0 -0.19501967333768949 0.029197802533780799 0 -0.1568189069987071 0.01162741287239054 0 -0.17786585274955691 0.026760253801302921 0 -0.1865817796342768 0.01178601515176673 0 -0.14601553155016339 0.055704127728663323 0 -0.17051760244392641 0.042450965131221742 0 -0.14601553155016339 0.055704127728663323 0 -0.15698470306190679 0.044915799879473098 0 -0.17051760244392641 0.042450965131221742 0 -0.14601553155016339 0.055704127728663323 0 -0.16776777361955841 0.054392258438524348 0 -0.14601553155016339 0.055704127728663323 0 -0.16776777361955841 0.054392258438524348 0 -0.17051760244392641 0.042450965131221742 0 -0.14601553155016339 0.055704127728663323 0 -0.16776777361955841 0.054392258438524348 0 -0.15652771442602589 0.060948234357097189 0 -0.16567400973839991 0.06469656740249187 0 -0.18010182618289849 0.064354042903557784 0 -0.16776777361955841 0.054392258438524348 0 -0.16567400973839991 0.06469656740249187 0 -0.16776777361955841 0.054392258438524348 0 -0.15652771442602589 0.060948234357097189 0 -0.1634309799137538 0.030287744802557321 0 -0.15698470306190679 0.044915799879473098 0 -0.17051760244392641 0.042450965131221742 0 -0.1634309799137538 0.030287744802557321 0 -0.17786585274955691 0.026760253801302921 0 -0.17051760244392641 0.042450965131221742 0 -0.1509401848587929 0.034050455690090173 0 -0.1634309799137538 0.030287744802557321 0 -0.15698470306190679 0.044915799879473098 0 -0.17051760244392641 0.042450965131221742 0 -0.18390445389851159 0.04421791961543739 0 -0.19501967333768949 0.029197802533780799 0 -0.17051760244392641 0.042450965131221742 0 -0.19501967333768949 0.029197802533780799 0 -0.17786585274955691 0.026760253801302921 0 -0.17051760244392641 0.042450965131221742 0 -0.19501967333768949 0.029197802533780799 0 -0.16776777361955841 0.054392258438524348 0 -0.18390445389851159 0.04421791961543739 0 -0.1895200156889533 0.05308038914838481 0 -0.16776777361955841 0.054392258438524348 0 -0.1895200156889533 0.05308038914838481 0 -0.16776777361955841 0.054392258438524348 0 -0.17051760244392641 0.042450965131221742 0 -0.18390445389851159 0.04421791961543739 0 -0.18010182618289849 0.064354042903557784 0 -0.16776777361955841 0.054392258438524348 0 -0.1895200156889533 0.05308038914838481 0 -0.18010182618289849 0.064354042903557784 0 -0.1895200156889533 0.05308038914838481 0 -0.19330197621178241 0.063297684851241584 0 -0.1895200156889533 0.05308038914838481 0 -0.21127225775834821 0.051768519858245279 0 -0.1895200156889533 0.05308038914838481 0 -0.1966972044024303 0.041968182825275223 0 -0.21127225775834821 0.051768519858245279 0 -0.20287391813732611 0.058548437862800909 0 -0.1895200156889533 0.05308038914838481 0 -0.19330197621178241 0.063297684851241584 0 -0.20287391813732611 0.058548437862800909 0 -0.1895200156889533 0.05308038914838481 0 -0.21127225775834821 0.051768519858245279 0 -0.18390445389851159 0.04421791961543739 0 -0.1895200156889533 0.05308038914838481 0 -0.1966972044024303 0.041968182825275223 0 -0.18390445389851159 0.04421791961543739 0 -0.1966972044024303 0.041968182825275223 0 -0.19501967333768949 0.029197802533780799 0 -0.1966972044024303 0.041968182825275223 0 -0.20594862956869109 0.034267552828895258 0 -0.19501967333768949 0.029197802533780799 0 -0.2073949918871581 0.041976174141488243 0 -0.21308724905886969 0.044925337856662972 0 -0.21127225775834821 0.051768519858245279 0 -0.1966972044024303 0.041968182825275223 0 -0.2073949918871581 0.041976174141488243 0 -0.21127225775834821 0.051768519858245279 0 -0.1966972044024303 0.041968182825275223 0 -0.2073949918871581 0.041976174141488243 0 -0.20594862956869109 0.034267552828895258 0 -0.2073949918871581 0.041976174141488243 0 -0.20594862956869109 0.034267552828895258 0 -0.21326690023552269 0.039671369733773512 0 -0.20594862956869109 0.034267552828895258 0 -0.2146979801344199 0.033406566937613277 0 -0.21326690023552269 0.039671369733773512 0 -0.20594862956869109 0.034267552828895258 0 -0.2146979801344199 0.033406566937613277 0 -0.21305763072902109 0.027064584185229161 0 -0.2146979801344199 0.033406566937613277 0 -0.22036488327071499 0.033982354506922843 0 -0.21883170506546329 0.038286374600644123 0 -0.2146979801344199 0.033406566937613277 0 -0.21326690023552269 0.039671369733773512 0 -0.21883170506546329 0.038286374600644123 0 -0.2146979801344199 0.033406566937613277 0 -0.21786194508613421 0.030181924586794528 0 -0.22036488327071499 0.033982354506922843 0 -0.2073949918871581 0.041976174141488243 0 -0.21308724905886969 0.044925337856662972 0 -0.21326690023552269 0.039671369733773512 0 -0.21308724905886969 0.044925337856662972 0 -0.21326690023552269 0.039671369733773512 0 -0.21729663464353621 0.043236791037642899 0 -0.21326690023552269 0.039671369733773512 0 -0.21729663464353621 0.043236791037642899 0 -0.21883170506546329 0.038286374600644123 0 -0.21308724905886969 0.044925337856662972 0 -0.21729663464353621 0.043236791037642899 0 -0.21620546076978331 0.047973834512164963 0 -0.21729663464353621 0.043236791037642899 0 -0.21620546076978331 0.047973834512164963 0 -0.2225014027314263 0.043357282921613893 0 -0.21308724905886969 0.044925337856662972 0 -0.21620546076978331 0.047973834512164963 0 -0.21127225775834821 0.051768519858245279 0 -0.21620546076978331 0.047973834512164963 0 -0.21127225775834821 0.051768519858245279 0 -0.21763154192849329 0.055691958230967342 0 -0.21763154192849329 0.055691958230967342 0 -0.20264379909905361 0.068903637225165529 0 -0.20287391813732611 0.058548437862800909 0 -0.21763154192849329 0.055691958230967342 0 -0.20264379909905361 0.068903637225165529 0 -0.20287391813732611 0.058548437862800909 0 -0.21127225775834821 0.051768519858245279 0 -0.21763154192849329 0.055691958230967342 0 -0.18656919721888451 -0.011866890122376669 0 -0.1865817796342768 0.01178601515176673 0 -0.20595653275629711 0.0100010409540266 0 -0.1865817796342768 0.01178601515176673 0 -0.20595653275629711 0.0100010409540266 0 -0.21634465226984639 0.011944617431142911 0 -0.1865817796342768 0.01178601515176673 0 -0.21634465226984639 0.011944617431142911 0 -0.1865817796342768 0.01178601515176673 0 -0.19501967333768949 0.029197802533780799 0 -0.21634465226984639 0.011944617431142911 0 -0.20594862956869109 0.034267552828895258 0 -0.19501967333768949 0.029197802533780799 0 -0.21305763072902109 0.027064584185229161 0 -0.19501967333768949 0.029197802533780799 0 -0.21634465226984639 0.011944617431142911 0 -0.2195217442314526 0.015944639936339839 0 -0.19501967333768949 0.029197802533780799 0 -0.21305763072902109 0.027064584185229161 0 -0.2195217442314526 0.015944639936339839 0 -0.19501967333768949 0.029197802533780799 0 -0.2195217442314526 0.015944639936339839 0 -0.2146979801344199 0.033406566937613277 0 -0.21786194508613421 0.030181924586794528 0 -0.21305763072902109 0.027064584185229161 0 -0.21786194508613421 0.030181924586794528 0 -0.21305763072902109 0.027064584185229161 0 -0.21888147837893149 0.026299098076500431 0 -0.21305763072902109 0.027064584185229161 0 -0.21969060472171029 0.022570669837413009 0 -0.21888147837893149 0.026299098076500431 0 -0.21305763072902109 0.027064584185229161 0 -0.2195217442314526 0.015944639936339839 0 -0.21969060472171029 0.022570669837413009 0 -0.20595653275629711 0.0100010409540266 0 -0.21634465226984639 0.011944617431142911 0 -0.21261263221628951 0.005745472707778569 0 -0.21634465226984639 0.011944617431142911 0 -0.21261263221628951 0.005745472707778569 0 -0.2176439914819886 0.0059642160132264777 0 -0.2066496501855046 -0.0025137608563201982 0 -0.21261263221628951 0.005745472707778569 0 -0.21748899213025111 0.0010571944288816661 0 -0.21261263221628951 0.005745472707778569 0 -0.2176439914819886 0.0059642160132264777 0 -0.21748899213025111 0.0010571944288816661 0 -0.2066496501855046 -0.0025137608563201982 0 -0.20595653275629711 0.0100010409540266 0 -0.21261263221628951 0.005745472707778569 0 -0.21634465226984639 0.011944617431142911 0 -0.22651946576868481 0.003714465585732938 0 -0.2461075249054161 0.0121032197105191 0 -0.21634465226984639 0.011944617431142911 0 -0.2342413452914946 0.019148248823491958 0 -0.2461075249054161 0.0121032197105191 0 -0.21634465226984639 0.011944617431142911 0 -0.2461075249054161 0.0121032197105191 0 -0.2294508146791108 -0.0010370962082505879 0 -0.22651946576868481 0.003714465585732938 0 -0.23527211258631189 0.00096094505569513204 0 -0.2176439914819886 0.0059642160132264777 0 -0.21748899213025111 0.0010571944288816661 0 -0.22651946576868481 0.003714465585732938 0 -0.21634465226984639 0.011944617431142911 0 -0.2176439914819886 0.0059642160132264777 0 -0.22651946576868481 0.003714465585732938 0 -0.21634465226984639 0.011944617431142911 0 -0.2342413452914946 0.019148248823491958 0 -0.2195217442314526 0.015944639936339839 0 -0.2342413452914946 0.019148248823491958 0 -0.22868167588740679 0.021967254967704759 0 -0.2195217442314526 0.015944639936339839 0 -0.2342413452914946 0.019148248823491958 0 -0.22868167588740679 0.021967254967704759 0 -0.2342289226416899 0.026717851931933 0 -0.22868167588740679 0.021967254967704759 0 -0.2195217442314526 0.015944639936339839 0 -0.22412246175050621 0.022086848796593121 0 -0.2195217442314526 0.015944639936339839 0 -0.21969060472171029 0.022570669837413009 0 -0.22412246175050621 0.022086848796593121 0 -0.21969060472171029 0.022570669837413009 0 -0.22412246175050621 0.022086848796593121 0 -0.22290239494344061 0.025379177406513818 0 -0.22412246175050621 0.022086848796593121 0 -0.22290239494344061 0.025379177406513818 0 -0.22754522932500881 0.0266877224143071 0 -0.21969060472171029 0.022570669837413009 0 -0.22290239494344061 0.025379177406513818 0 -0.21888147837893149 0.026299098076500431 0 -0.22290239494344061 0.025379177406513818 0 -0.21888147837893149 0.026299098076500431 0 -0.2223077529175837 0.03015701922770694 0 -0.21786194508613421 0.030181924586794528 0 -0.21888147837893149 0.026299098076500431 0 -0.2223077529175837 0.03015701922770694 0 -0.2223077529175837 0.03015701922770694 0 -0.22754522932500881 0.0266877224143071 0 -0.22739526357296311 0.03174081059329778 0 -0.22290239494344061 0.025379177406513818 0 -0.2223077529175837 0.03015701922770694 0 -0.22754522932500881 0.0266877224143071 0 -0.2300321660746508 0.029837817046726101 0 -0.22754522932500881 0.0266877224143071 0 -0.22739526357296311 0.03174081059329778 0 -0.22868167588740679 0.021967254967704759 0 -0.22754522932500881 0.0266877224143071 0 -0.2342289226416899 0.026717851931933 0 -0.22868167588740679 0.021967254967704759 0 -0.22412246175050621 0.022086848796593121 0 -0.22754522932500881 0.0266877224143071 0 -0.2300321660746508 0.029837817046726101 0 -0.22754522932500881 0.0266877224143071 0 -0.2342289226416899 0.026717851931933 0 -0.2300321660746508 0.029837817046726101 0 -0.2342289226416899 0.026717851931933 0 -0.23263668262207679 0.032954477586658808 0 -0.2342413452914946 0.019148248823491958 0 -0.24678590150662069 0.029992421989188521 0 -0.2461075249054161 0.0121032197105191 0 -0.2342289226416899 0.026717851931933 0 -0.24678590150662069 0.029992421989188521 0 -0.23263668262207679 0.032954477586658808 0 -0.2342413452914946 0.019148248823491958 0 -0.2342289226416899 0.026717851931933 0 -0.24678590150662069 0.029992421989188521 0 -0.22651946576868481 0.003714465585732938 0 -0.2461075249054161 0.0121032197105191 0 -0.23527211258631189 0.00096094505569513204 0 -0.2461075249054161 0.0121032197105191 0 -0.24862522939258691 0.002025091944098644 0 -0.24219842850912701 0.0008805445637728726 0 -0.25406732548350502 0.005811738835174279 0 -0.2461075249054161 0.0121032197105191 0 -0.24862522939258691 0.002025091944098644 0 -0.2461075249054161 0.0121032197105191 0 -0.24219842850912701 0.0008805445637728726 0 -0.23527211258631189 0.00096094505569513204 0 -0.2326192847579335 0.042480279236769697 0 -0.229614154373495 0.071570396257885568 0 -0.21763154192849329 0.055691958230967342 0 -0.2326192847579335 0.042480279236769697 0 -0.229614154373495 0.071570396257885568 0 -0.21620546076978331 0.047973834512164963 0 -0.21763154192849329 0.055691958230967342 0 -0.2225014027314263 0.043357282921613893 0 -0.21763154192849329 0.055691958230967342 0 -0.2326192847579335 0.042480279236769697 0 -0.21763154192849329 0.055691958230967342 0 -0.2225014027314263 0.043357282921613893 0 -0.2326192847579335 0.042480279236769697 0 -0.21729663464353621 0.043236791037642899 0 -0.2225014027314263 0.043357282921613893 0 -0.21883170506546329 0.038286374600644123 0 -0.2225014027314263 0.043357282921613893 0 -0.21883170506546329 0.038286374600644123 0 -0.22460009587350341 0.035891890450154007 0 -0.2225014027314263 0.043357282921613893 0 -0.22460009587350341 0.035891890450154007 0 -0.22914864415966829 0.038125814759044273 0 -0.21786194508613421 0.030181924586794528 0 -0.2223077529175837 0.03015701922770694 0 -0.22036488327071499 0.033982354506922843 0 -0.2223077529175837 0.03015701922770694 0 -0.22036488327071499 0.033982354506922843 0 -0.22460009587350341 0.035891890450154007 0 -0.22036488327071499 0.033982354506922843 0 -0.21883170506546329 0.038286374600644123 0 -0.22460009587350341 0.035891890450154007 0 -0.2223077529175837 0.03015701922770694 0 -0.22460009587350341 0.035891890450154007 0 -0.22739526357296311 0.03174081059329778 0 -0.22817229752956361 0.034694946791924218 0 -0.22739526357296311 0.03174081059329778 0 -0.23263668262207679 0.032954477586658808 0 -0.2300321660746508 0.029837817046726101 0 -0.22739526357296311 0.03174081059329778 0 -0.23263668262207679 0.032954477586658808 0 -0.22460009587350341 0.035891890450154007 0 -0.22817229752956361 0.034694946791924218 0 -0.22739526357296311 0.03174081059329778 0 -0.22460009587350341 0.035891890450154007 0 -0.22817229752956361 0.034694946791924218 0 -0.22914864415966829 0.038125814759044273 0 -0.22817229752956361 0.034694946791924218 0 -0.22914864415966829 0.038125814759044273 0 -0.23263668262207679 0.032954477586658808 0 -0.22914864415966829 0.038125814759044273 0 -0.23263668262207679 0.032954477586658808 0 -0.23286850080545901 0.040067830171803348 0 -0.2225014027314263 0.043357282921613893 0 -0.22914864415966829 0.038125814759044273 0 -0.2326192847579335 0.042480279236769697 0 -0.22914864415966829 0.038125814759044273 0 -0.23286850080545901 0.040067830171803348 0 -0.2326192847579335 0.042480279236769697 0 -0.23286850080545901 0.040067830171803348 0 -0.2326192847579335 0.042480279236769697 0 -0.2530487658585131 0.043979437238689002 0 -0.24678590150662069 0.029992421989188521 0 -0.2326192847579335 0.042480279236769697 0 -0.24678590150662069 0.029992421989188521 0 -0.2326192847579335 0.042480279236769697 0 -0.24678590150662069 0.029992421989188521 0 -0.23286850080545901 0.040067830171803348 0 -0.2326192847579335 0.042480279236769697 0 -0.24678590150662069 0.029992421989188521 0 -0.23263668262207679 0.032954477586658808 0 -0.23286850080545901 0.040067830171803348 0 -0.2326192847579335 0.042480279236769697 0 -0.24196389382814831 0.055087404009729037 0 -0.229614154373495 0.071570396257885568 0 -0.2530487658585131 0.043979437238689002 0 -0.2326192847579335 0.042480279236769697 0 -0.24196389382814831 0.055087404009729037 0 -0.2530487658585131 0.043979437238689002 0 -0.24196389382814831 0.055087404009729037 0 -0.24514501346171769 0.070454309735769605 0 -0.2530487658585131 0.043979437238689002 0 -0.24514501346171769 0.070454309735769605 0 -0.24196389382814831 0.055087404009729037 0 -0.24514501346171769 0.070454309735769605 0 -0.229614154373495 0.071570396257885568 0 -0.25583790670347267 0.069685891584415155 0 -0.24514501346171769 0.070454309735769605 0 -0.24463888543250151 0.091865177133262033 0 -0.24514501346171769 0.070454309735769605 0 -0.23653304097465341 0.082860095683330026 0 -0.229614154373495 0.071570396257885568 0 -0.24514501346171769 0.070454309735769605 0 -0.229614154373495 0.071570396257885568 0 -0.24463888543250151 0.091865177133262033 0 -0.23653304097465341 0.082860095683330026 0 -0.2270752180795885 0.096147683912804247 0 -0.24514501346171769 0.070454309735769605 0 -0.24463888543250151 0.091865177133262033 0 -0.23653304097465341 0.082860095683330026 0 -0.22842485626857181 0.083082981942803502 0 -0.2068347612328644 0.096587110070732923 0 -0.2270752180795885 0.096147683912804247 0 -0.22842485626857181 0.083082981942803502 0 -0.2270752180795885 0.096147683912804247 0 -0.23653304097465341 0.082860095683330026 0 -0.22842485626857181 0.083082981942803502 0 -0.2270752180795885 0.096147683912804247 0 -0.23653304097465341 0.082860095683330026 0 -0.22842485626857181 0.083082981942803502 0 -0.229614154373495 0.071570396257885568 0 -0.22842485626857181 0.083082981942803502 0 -0.229614154373495 0.071570396257885568 0 -0.21149300925772249 0.072872627236489823 0 -0.21763154192849329 0.055691958230967342 0 -0.229614154373495 0.071570396257885568 0 -0.21149300925772249 0.072872627236489823 0 -0.229614154373495 0.071570396257885568 0 -0.21149300925772249 0.072872627236489823 0 -0.22842485626857181 0.083082981942803502 0 -0.229614154373495 0.071570396257885568 0 -0.21763154192849329 0.055691958230967342 0 -0.21149300925772249 0.072872627236489823 0 -0.20264379909905361 0.068903637225165529 0 -0.21149300925772249 0.072872627236489823 0 -0.19337311312365221 0.074192238371951963 0 -0.2068347612328644 0.096587110070732923 0 -0.22842485626857181 0.083082981942803502 0 -0.21149300925772249 0.072872627236489823 0 -0.2068347612328644 0.096587110070732923 0 -0.22842485626857181 0.083082981942803502 0 -0.2068347612328644 0.096587110070732923 0 -0.185909983407782 0.090967767967412128 0 -0.19337311312365221 0.074192238371951963 0 -0.2068347612328644 0.096587110070732923 0 -0.19337311312365221 0.074192238371951963 0 -0.2068347612328644 0.096587110070732923 0 -0.21149300925772249 0.072872627236489823 0 -0.19337311312365221 0.074192238371951963 0 -0.21149300925772249 0.072872627236489823 0 -0.19337311312365221 0.074192238371951963 0 -0.20264379909905361 0.068903637225165529 0 -0.18010182618289849 0.064354042903557784 0 -0.19337311312365221 0.074192238371951963 0 -0.19330197621178241 0.063297684851241584 0 -0.19337311312365221 0.074192238371951963 0 -0.19330197621178241 0.063297684851241584 0 -0.20264379909905361 0.068903637225165529 0 -0.20287391813732611 0.058548437862800909 0 -0.19330197621178241 0.063297684851241584 0 -0.20264379909905361 0.068903637225165529 0 -0.20247855838368259 0.1116349804390598 0 -0.18961910453139949 0.1217950061864484 0 -0.20355189485401731 0.12373615801775351 0 -0.20247855838368259 0.1116349804390598 0 -0.18961910453139949 0.1217950061864484 0 -0.18966488750057461 0.1077277171609843 0 -0.18966488750057461 0.1077277171609843 0 -0.2068347612328644 0.096587110070732923 0 -0.185909983407782 0.090967767967412128 0 -0.18966488750057461 0.1077277171609843 0 -0.2068347612328644 0.096587110070732923 0 -0.20247855838368259 0.1116349804390598 0 -0.18966488750057461 0.1077277171609843 0 -0.2068347612328644 0.096587110070732923 0 -0.2068347612328644 0.096587110070732923 0 -0.2188063900100615 0.1165031774285844 0 -0.2270752180795885 0.096147683912804247 0 -0.20247855838368259 0.1116349804390598 0 -0.2068347612328644 0.096587110070732923 0 -0.2188063900100615 0.1165031774285844 0 -0.2068347612328644 0.096587110070732923 0 -0.2188063900100615 0.1165031774285844 0 -0.20247855838368259 0.1116349804390598 0 -0.20355189485401731 0.12373615801775351 0 -0.2188063900100615 0.1165031774285844 0 -0.20355189485401731 0.12373615801775351 0 -0.2188063900100615 0.1165031774285844 0 -0.21099720770149941 0.12787046373561889 0 -0.23635955781961329 0.1085555517836507 0 -0.2280126536898387 0.1252120625163842 0 -0.22453628178568219 0.12072497156772299 0 -0.2188063900100615 0.1165031774285844 0 -0.23077801878725929 0.13641924478643561 0 -0.22453628178568219 0.12072497156772299 0 -0.23635955781961329 0.1085555517836507 0 -0.2280126536898387 0.1252120625163842 0 -0.22453628178568219 0.12072497156772299 0 -0.2188063900100615 0.1165031774285844 0 -0.2270752180795885 0.096147683912804247 0 -0.22453628178568219 0.12072497156772299 0 -0.2270752180795885 0.096147683912804247 0 -0.23635955781961329 0.1085555517836507 0 -0.22453628178568219 0.12072497156772299 0 -0.2270752180795885 0.096147683912804247 0 -0.25458367379753782 0.1065984124678885 0 -0.24463888543250151 0.091865177133262033 0 -0.23635955781961329 0.1085555517836507 0 -0.24463888543250151 0.091865177133262033 0 -0.2270752180795885 0.096147683912804247 0 -0.23635955781961329 0.1085555517836507 0 -0.24463888543250151 0.091865177133262033 0 -0.23635955781961329 0.1085555517836507 0 -0.25458367379753782 0.1065984124678885 0 -0.23635955781961329 0.1085555517836507 0 -0.24467470510727141 0.12314208916258861 0 -0.23635955781961329 0.1085555517836507 0 -0.24467470510727141 0.12314208916258861 0 -0.2280126536898387 0.1252120625163842 0 -0.24774217926603451 0.13964964347593009 0 -0.23077801878725929 0.13641924478643561 0 -0.24774217926603451 0.13964964347593009 0 -0.23077801878725929 0.13641924478643561 0 -0.23445021610123781 0.14252833239829241 0 -0.24467470510727141 0.12314208916258861 0 -0.24774217926603451 0.13964964347593009 0 -0.23725233075676461 0.12973861359425279 0 -0.24774217926603451 0.13964964347593009 0 -0.23725233075676461 0.12973861359425279 0 -0.23077801878725929 0.13641924478643561 0 -0.24467470510727141 0.12314208916258861 0 -0.23725233075676461 0.12973861359425279 0 -0.2280126536898387 0.1252120625163842 0 -0.2188063900100615 0.1165031774285844 0 -0.23077801878725929 0.13641924478643561 0 -0.2170964209512436 0.1338139277844545 0 -0.23725233075676461 0.12973861359425279 0 -0.2280126536898387 0.1252120625163842 0 -0.23077801878725929 0.13641924478643561 0 -0.2188063900100615 0.1165031774285844 0 -0.23077801878725929 0.13641924478643561 0 -0.22453628178568219 0.12072497156772299 0 -0.2280126536898387 0.1252120625163842 0 -0.23077801878725929 0.13641924478643561 0 -0.23077801878725929 0.13641924478643561 0 -0.22053282488964229 0.13648838388270751 0 -0.23445021610123781 0.14252833239829241 0 -0.22053282488964229 0.13648838388270751 0 -0.23445021610123781 0.14252833239829241 0 -0.23077801878725929 0.13641924478643561 0 -0.23445021610123781 0.14252833239829241 0 -0.23077801878725929 0.13641924478643561 0 -0.22053282488964229 0.13648838388270751 0 -0.2170964209512436 0.1338139277844545 0 -0.23077801878725929 0.13641924478643561 0 -0.2170964209512436 0.1338139277844545 0 -0.22053282488964229 0.13648838388270751 0 -0.22601480263567919 0.14408472749116871 0 -0.21685845183459129 0.14532328079031051 0 -0.22297628088596949 0.1521291107183326 0 -0.22601480263567919 0.14408472749116871 0 -0.21685845183459129 0.14532328079031051 0 -0.22053282488964229 0.13648838388270751 0 -0.22601480263567919 0.14408472749116871 0 -0.23445021610123781 0.14252833239829241 0 -0.22297628088596949 0.1521291107183326 0 -0.22601480263567919 0.14408472749116871 0 -0.23819386045964361 0.14875627970550301 0 -0.22601480263567919 0.14408472749116871 0 -0.23819386045964361 0.14875627970550301 0 -0.23445021610123781 0.14252833239829241 0 -0.22297628088596949 0.1521291107183326 0 -0.23819386045964361 0.14875627970550301 0 -0.2318749068983155 0.16280736681237359 0 -0.22297628088596949 0.1521291107183326 0 -0.23819386045964361 0.14875627970550301 0 -0.23819386045964361 0.14875627970550301 0 -0.2459770815842531 0.16170448909819829 0 -0.23445021610123781 0.14252833239829241 0 -0.24521502559104091 0.14720010558551899 0 -0.23819386045964361 0.14875627970550301 0 -0.23445021610123781 0.14252833239829241 0 -0.24521502559104091 0.14720010558551899 0 -0.23819386045964361 0.14875627970550301 0 -0.23445021610123781 0.14252833239829241 0 -0.23819386045964361 0.14875627970550301 0 -0.24521502559104091 0.14720010558551899 0 -0.24774217926603451 0.13964964347593009 0 -0.23445021610123781 0.14252833239829241 0 -0.24521502559104091 0.14720010558551899 0 -0.23819386045964361 0.14875627970550301 0 -0.24521502559104091 0.14720010558551899 0 -0.2459770815842531 0.16170448909819829 0 -0.25632071909283261 0.16308063945061729 0 -0.24521502559104091 0.14720010558551899 0 -0.2459770815842531 0.16170448909819829 0 -0.25257003298746361 0.17477546459566609 0 -0.2459770815842531 0.16170448909819829 0 -0.2399923441208045 0.17292138623155609 0 -0.2459770815842531 0.16170448909819829 0 -0.2399923441208045 0.17292138623155609 0 -0.2318749068983155 0.16280736681237359 0 -0.23819386045964361 0.14875627970550301 0 -0.2459770815842531 0.16170448909819829 0 -0.2318749068983155 0.16280736681237359 0 -0.2399923441208045 0.17292138623155609 0 -0.2263580600443329 0.17675979079325441 0 -0.24241414195184999 0.18797788129826851 0 -0.25257003298746361 0.17477546459566609 0 -0.2399923441208045 0.17292138623155609 0 -0.24241414195184999 0.18797788129826851 0 -0.2263580600443329 0.17675979079325441 0 -0.24241414195184999 0.18797788129826851 0 -0.2208785630207131 0.19550779959160269 0 -0.22297628088596949 0.1521291107183326 0 -0.2318749068983155 0.16280736681237359 0 -0.21553904526712581 0.16570551726924571 0 -0.2263580600443329 0.17675979079325441 0 -0.2318749068983155 0.16280736681237359 0 -0.21553904526712581 0.16570551726924571 0 -0.2399923441208045 0.17292138623155609 0 -0.2263580600443329 0.17675979079325441 0 -0.2318749068983155 0.16280736681237359 0 -0.21553904526712581 0.16570551726924571 0 -0.20674581461942851 0.18115906637446089 0 -0.19922672259750029 0.1648766192872281 0 -0.22297628088596949 0.1521291107183326 0 -0.21553904526712581 0.16570551726924571 0 -0.20775870131229501 0.15550194173116111 0 -0.21553904526712581 0.16570551726924571 0 -0.19922672259750029 0.1648766192872281 0 -0.20775870131229501 0.15550194173116111 0 -0.2263580600443329 0.17675979079325441 0 -0.21553904526712581 0.16570551726924571 0 -0.20674581461942851 0.18115906637446089 0 -0.2263580600443329 0.17675979079325441 0 -0.20674581461942851 0.18115906637446089 0 -0.2208785630207131 0.19550779959160269 0 -0.20674581461942851 0.18115906637446089 0 -0.19922672259750029 0.1648766192872281 0 -0.18053983500751791 0.18263620436368491 0 -0.19922672259750029 0.1648766192872281 0 -0.19941059416733051 0.1476454083288207 0 -0.1853663452113046 0.15661157765599559 0 -0.19922672259750029 0.1648766192872281 0 -0.1853663452113046 0.15661157765599559 0 -0.18053983500751791 0.18263620436368491 0 -0.19922672259750029 0.1648766192872281 0 -0.19941059416733051 0.1476454083288207 0 -0.20775870131229501 0.15550194173116111 0 -0.19941059416733051 0.1476454083288207 0 -0.1919657002034926 0.1360341330452994 0 -0.1853663452113046 0.15661157765599559 0 -0.18961910453139949 0.1217950061864484 0 -0.20355189485401731 0.12373615801775351 0 -0.1919657002034926 0.1360341330452994 0 -0.20355189485401731 0.12373615801775351 0 -0.1919657002034926 0.1360341330452994 0 -0.20676536532829631 0.135943577400021 0 -0.19941059416733051 0.1476454083288207 0 -0.1919657002034926 0.1360341330452994 0 -0.20676536532829631 0.135943577400021 0 -0.2188063900100615 0.1165031774285844 0 -0.21099720770149941 0.12787046373561889 0 -0.2170964209512436 0.1338139277844545 0 -0.20676536532829631 0.135943577400021 0 -0.21450439281200309 0.13933661349950899 0 -0.2093637084719592 0.1443989074189844 0 -0.20355189485401731 0.12373615801775351 0 -0.20676536532829631 0.135943577400021 0 -0.21099720770149941 0.12787046373561889 0 -0.20676536532829631 0.135943577400021 0 -0.21099720770149941 0.12787046373561889 0 -0.2170964209512436 0.1338139277844545 0 -0.22053282488964229 0.13648838388270751 0 -0.21450439281200309 0.13933661349950899 0 -0.21685845183459129 0.14532328079031051 0 -0.20676536532829631 0.135943577400021 0 -0.21450439281200309 0.13933661349950899 0 -0.2170964209512436 0.1338139277844545 0 -0.22053282488964229 0.13648838388270751 0 -0.21450439281200309 0.13933661349950899 0 -0.2170964209512436 0.1338139277844545 0 -0.21685845183459129 0.14532328079031051 0 -0.20775870131229501 0.15550194173116111 0 -0.2093637084719592 0.1443989074189844 0 -0.21450439281200309 0.13933661349950899 0 -0.21685845183459129 0.14532328079031051 0 -0.2093637084719592 0.1443989074189844 0 -0.22297628088596949 0.1521291107183326 0 -0.21685845183459129 0.14532328079031051 0 -0.20775870131229501 0.15550194173116111 0 -0.22297628088596949 0.1521291107183326 0 -0.20775870131229501 0.15550194173116111 0 -0.19941059416733051 0.1476454083288207 0 -0.20775870131229501 0.15550194173116111 0 -0.2093637084719592 0.1443989074189844 0 -0.19941059416733051 0.1476454083288207 0 -0.20676536532829631 0.135943577400021 0 -0.2093637084719592 0.1443989074189844 0 -0.24214295464715219 0.25181578413355249 0 -0.22408996478605989 0.2423019276157988 0 -0.24600964324549701 0.22928690912890909 0 -0.22408996478605989 0.2423019276157988 0 -0.24600964324549701 0.22928690912890909 0 -0.22408996478605989 0.2423019276157988 0 -0.24600964324549701 0.22928690912890909 0 -0.21728792448464709 0.21956121725997749 0 -0.23656051229652131 0.20694858333754571 0 -0.2208785630207131 0.19550779959160269 0 -0.21728792448464709 0.21956121725997749 0 -0.24600964324549701 0.22928690912890909 0 -0.23656051229652131 0.20694858333754571 0 -0.21728792448464709 0.21956121725997749 0 -0.25463573431352149 0.20422342595113879 0 -0.24600964324549701 0.22928690912890909 0 -0.23656051229652131 0.20694858333754571 0 -0.25463573431352149 0.20422342595113879 0 -0.23656051229652131 0.20694858333754571 0 -0.24241414195184999 0.18797788129826851 0 -0.23656051229652131 0.20694858333754571 0 -0.24241414195184999 0.18797788129826851 0 -0.2208785630207131 0.19550779959160269 0 -0.20674581461942851 0.18115906637446089 0 -0.2208785630207131 0.19550779959160269 0 -0.19745041303685049 0.20139267922685219 0 -0.20674581461942851 0.18115906637446089 0 -0.19745041303685049 0.20139267922685219 0 -0.18053983500751791 0.18263620436368491 0 -0.19745041303685049 0.20139267922685219 0 -0.21728792448464709 0.21956121725997749 0 -0.18846039293573749 0.2235106383664992 0 -0.2208785630207131 0.19550779959160269 0 -0.19745041303685049 0.20139267922685219 0 -0.21728792448464709 0.21956121725997749 0 -0.21728792448464709 0.21956121725997749 0 -0.18846039293573749 0.2235106383664992 0 -0.20484504707871781 0.23686978164302541 0 -0.22408996478605989 0.2423019276157988 0 -0.21728792448464709 0.21956121725997749 0 -0.20484504707871781 0.23686978164302541 0 -0.20217028632662271 0.25531694610268851 0 -0.18907429363208569 0.24597533798117549 0 -0.20484504707871781 0.23686978164302541 0 -0.18846039293573749 0.2235106383664992 0 -0.18907429363208569 0.24597533798117549 0 -0.20484504707871781 0.23686978164302541 0 -0.20217028632662271 0.25531694610268851 0 -0.22408996478605989 0.2423019276157988 0 -0.20484504707871781 0.23686978164302541 0 -0.20217028632662271 0.25531694610268851 0 -0.22408996478605989 0.2423019276157988 0 -0.1610489578705937 0.25479123870834558 0 -0.15919092532091991 0.2377068496274799 0 -0.1725451204332964 0.23836412612381239 0 -0.17660799176630809 0.25779113883275923 0 -0.18907429363208569 0.24597533798117549 0 -0.1725451204332964 0.23836412612381239 0 -0.18846039293573749 0.2235106383664992 0 -0.18907429363208569 0.24597533798117549 0 -0.1725451204332964 0.23836412612381239 0 -0.18846039293573749 0.2235106383664992 0 -0.1725451204332964 0.23836412612381239 0 -0.1671519527602662 0.22240518108118121 0 -0.1671519527602662 0.22240518108118121 0 -0.16103034428728061 0.21087275271646111 0 -0.1495693821566092 0.22298951144159229 0 -0.15919092532091991 0.2377068496274799 0 -0.1671519527602662 0.22240518108118121 0 -0.1495693821566092 0.22298951144159229 0 -0.15919092532091991 0.2377068496274799 0 -0.1725451204332964 0.23836412612381239 0 -0.1671519527602662 0.22240518108118121 0 -0.1671519527602662 0.22240518108118121 0 -0.16103034428728061 0.21087275271646111 0 -0.17375120189391041 0.2039086340438154 0 -0.19745041303685049 0.20139267922685219 0 -0.18846039293573749 0.2235106383664992 0 -0.17375120189391041 0.2039086340438154 0 -0.18846039293573749 0.2235106383664992 0 -0.1671519527602662 0.22240518108118121 0 -0.17375120189391041 0.2039086340438154 0 -0.19745041303685049 0.20139267922685219 0 -0.17375120189391041 0.2039086340438154 0 -0.18053983500751791 0.18263620436368491 0 -0.1536488403383367 0.19418768429925551 0 -0.18053983500751791 0.18263620436368491 0 -0.16103034428728061 0.21087275271646111 0 -0.17375120189391041 0.2039086340438154 0 -0.1536488403383367 0.19418768429925551 0 -0.17375120189391041 0.2039086340438154 0 -0.1536488403383367 0.19418768429925551 0 -0.18053983500751791 0.18263620436368491 0 -0.1536488403383367 0.19418768429925551 0 -0.1316619551247504 0.20363252137258789 0 -0.1536488403383367 0.19418768429925551 0 -0.14439400872732169 0.1886757166978609 0 -0.1316619551247504 0.20363252137258789 0 -0.1536488403383367 0.19418768429925551 0 -0.1551773431729444 0.1833961349150586 0 -0.1536488403383367 0.19418768429925551 0 -0.14439400872732169 0.1886757166978609 0 -0.1551773431729444 0.1833961349150586 0 -0.1316619551247504 0.20363252137258789 0 -0.13623431800876709 0.184505379499044 0 -0.1206330972516169 0.18317828504492839 0 -0.14439400872732169 0.1886757166978609 0 -0.1316619551247504 0.20363252137258789 0 -0.13623431800876709 0.184505379499044 0 -0.1316619551247504 0.20363252137258789 0 -0.1495693821566092 0.22298951144159229 0 -0.12204749744513679 0.2278444913649661 0 -0.16103034428728061 0.21087275271646111 0 -0.1536488403383367 0.19418768429925551 0 -0.1495693821566092 0.22298951144159229 0 -0.1536488403383367 0.19418768429925551 0 -0.1495693821566092 0.22298951144159229 0 -0.1536488403383367 0.19418768429925551 0 -0.1316619551247504 0.20363252137258789 0 -0.1495693821566092 0.22298951144159229 0 -0.1495693821566092 0.22298951144159229 0 -0.13553273356041659 0.23741992574435081 0 -0.12204749744513679 0.2278444913649661 0 -0.13553273356041659 0.23741992574435081 0 -0.12312998757139799 0.247480172707678 0 -0.12204749744513679 0.2278444913649661 0 -0.14548992397487989 0.25179133858392899 0 -0.13553273356041659 0.23741992574435081 0 -0.12312998757139799 0.247480172707678 0 -0.14548992397487989 0.25179133858392899 0 -0.12312998757139799 0.247480172707678 0 -0.1610489578705937 0.25479123870834558 0 -0.14548992397487989 0.25179133858392899 0 -0.15919092532091991 0.2377068496274799 0 -0.14548992397487989 0.25179133858392899 0 -0.15919092532091991 0.2377068496274799 0 -0.1495693821566092 0.22298951144159229 0 -0.14548992397487989 0.25179133858392899 0 -0.1495693821566092 0.22298951144159229 0 -0.13553273356041659 0.23741992574435081 0 -0.14548992397487989 0.25179133858392899 0 -0.1495693821566092 0.22298951144159229 0 -0.17370443427162391 0.13792034727476829 0 -0.1669160178872075 0.15656539066677991 0 -0.15587037344636309 0.14643506547861859 0 -0.1669160178872075 0.15656539066677991 0 -0.15254426457889569 0.16566749811357909 0 -0.15587037344636309 0.14643506547861859 0 -0.17249501376828461 0.11886832425123529 0 -0.17370443427162391 0.13792034727476829 0 -0.15532514003599471 0.13000893134148619 0 -0.17370443427162391 0.13792034727476829 0 -0.15587037344636309 0.14643506547861859 0 -0.15532514003599471 0.13000893134148619 0 -0.17249501376828461 0.11886832425123529 0 -0.18961910453139949 0.1217950061864484 0 -0.17370443427162391 0.13792034727476829 0 -0.18961910453139949 0.1217950061864484 0 -0.1919657002034926 0.1360341330452994 0 -0.17370443427162391 0.13792034727476829 0 -0.17370443427162391 0.13792034727476829 0 -0.1853663452113046 0.15661157765599559 0 -0.1669160178872075 0.15656539066677991 0 -0.1919657002034926 0.1360341330452994 0 -0.17370443427162391 0.13792034727476829 0 -0.1853663452113046 0.15661157765599559 0 -0.1853663452113046 0.15661157765599559 0 -0.18053983500751791 0.18263620436368491 0 -0.16785887021828139 0.17160196086156901 0 -0.1853663452113046 0.15661157765599559 0 -0.1669160178872075 0.15656539066677991 0 -0.16785887021828139 0.17160196086156901 0 -0.1536488403383367 0.19418768429925551 0 -0.18053983500751791 0.18263620436368491 0 -0.1551773431729444 0.1833961349150586 0 -0.16785887021828139 0.17160196086156901 0 -0.15254426457889569 0.16566749811357909 0 -0.1551773431729444 0.1833961349150586 0 -0.18053983500751791 0.18263620436368491 0 -0.16785887021828139 0.17160196086156901 0 -0.1551773431729444 0.1833961349150586 0 -0.1669160178872075 0.15656539066677991 0 -0.16785887021828139 0.17160196086156901 0 -0.15254426457889569 0.16566749811357909 0 -0.15254426457889569 0.16566749811357909 0 -0.1452475869918099 0.1776568634033584 0 -0.13659900165202249 0.1703130580432021 0 -0.15254426457889569 0.16566749811357909 0 -0.13659900165202249 0.1703130580432021 0 -0.13866995533495499 0.1462179489684082 0 -0.15254426457889569 0.16566749811357909 0 -0.1551773431729444 0.1833961349150586 0 -0.1452475869918099 0.1776568634033584 0 -0.14439400872732169 0.1886757166978609 0 -0.1452475869918099 0.1776568634033584 0 -0.13623431800876709 0.184505379499044 0 -0.14439400872732169 0.1886757166978609 0 -0.1551773431729444 0.1833961349150586 0 -0.1452475869918099 0.1776568634033584 0 -0.13623431800876709 0.184505379499044 0 -0.13659900165202249 0.1703130580432021 0 -0.1206330972516169 0.18317828504492839 0 -0.1452475869918099 0.1776568634033584 0 -0.13623431800876709 0.184505379499044 0 -0.13659900165202249 0.1703130580432021 0 -0.13659900165202249 0.1703130580432021 0 -0.13866995533495499 0.1462179489684082 0 -0.12148057295623529 0.16188989965911549 0 -0.13659900165202249 0.1703130580432021 0 -0.12148057295623529 0.16188989965911549 0 -0.1206330972516169 0.18317828504492839 0 -0.13866995533495499 0.1462179489684082 0 -0.1231141014545194 0.14619198163497499 0 -0.12148057295623529 0.16188989965911549 0 -0.13866995533495499 0.1462179489684082 0 -0.1237099839896731 0.1306475231929396 0 -0.1231141014545194 0.14619198163497499 0 -0.13866995533495499 0.1462179489684082 0 -0.15587037344636309 0.14643506547861859 0 -0.15532514003599471 0.13000893134148619 0 -0.15254426457889569 0.16566749811357909 0 -0.13866995533495499 0.1462179489684082 0 -0.15587037344636309 0.14643506547861859 0 -0.13866995533495499 0.1462179489684082 0 -0.15532514003599471 0.13000893134148619 0 -0.14394943667733151 0.12574043048764161 0 -0.13336413733565949 0.1226541595693881 0 -0.13866995533495499 0.1462179489684082 0 -0.14394943667733151 0.12574043048764161 0 -0.13336413733565949 0.1226541595693881 0 -0.13866995533495499 0.1462179489684082 0 -0.12688413323997941 0.1277235279650504 0 -0.13866995533495499 0.1462179489684082 0 -0.12688413323997941 0.1277235279650504 0 -0.13866995533495499 0.1462179489684082 0 -0.12688413323997941 0.1277235279650504 0 -0.1237099839896731 0.1306475231929396 0 -0.1237099839896731 0.1306475231929396 0 -0.1188146628740837 0.1302036642666746 0 -0.1166769103878514 0.12346009443389359 0 -0.1237099839896731 0.1306475231929396 0 -0.1188146628740837 0.1302036642666746 0 -0.11912100381936649 0.1381099274994485 0 -0.1237099839896731 0.1306475231929396 0 -0.11912100381936649 0.1381099274994485 0 -0.1231141014545194 0.14619198163497499 0 -0.1188146628740837 0.1302036642666746 0 -0.11912100381936649 0.1381099274994485 0 -0.1151325589808626 0.13191553261351369 0 -0.11912100381936649 0.1381099274994485 0 -0.1151325589808626 0.13191553261351369 0 -0.10917244671014199 0.13682919752908451 0 -0.1151325589808626 0.13191553261351369 0 -0.1114798624555096 0.12746559923364431 0 -0.10917244671014199 0.13682919752908451 0 -0.1188146628740837 0.1302036642666746 0 -0.11519728670512031 0.12739422686189769 0 -0.1166769103878514 0.12346009443389359 0 -0.11519728670512031 0.12739422686189769 0 -0.1114798624555096 0.12746559923364431 0 -0.11388243882729419 0.12392624376176251 0 -0.1188146628740837 0.1302036642666746 0 -0.11519728670512031 0.12739422686189769 0 -0.1151325589808626 0.13191553261351369 0 -0.11519728670512031 0.12739422686189769 0 -0.1151325589808626 0.13191553261351369 0 -0.1114798624555096 0.12746559923364431 0 -0.1114798624555096 0.12746559923364431 0 -0.10540272701199351 0.12932555536201351 0 -0.1083303094454002 0.12283836377898701 0 -0.10540272701199351 0.12932555536201351 0 -0.099840978436991301 0.12566498740148779 0 -0.1083303094454002 0.12283836377898701 0 -0.1114798624555096 0.12746559923364431 0 -0.10540272701199351 0.12932555536201351 0 -0.10917244671014199 0.13682919752908451 0 -0.10540272701199351 0.12932555536201351 0 -0.10917244671014199 0.13682919752908451 0 -0.098190038011924455 0.13382962886686409 0 -0.10917244671014199 0.13682919752908451 0 -0.098190038011924455 0.13382962886686409 0 -0.098356392370339718 0.14812198660195031 0 -0.10540272701199351 0.12932555536201351 0 -0.098190038011924455 0.13382962886686409 0 -0.099840978436991301 0.12566498740148779 0 -0.098190038011924455 0.13382962886686409 0 -0.099840978436991301 0.12566498740148779 0 -0.088973339360985587 0.12735164772417679 0 -0.098356392370339718 0.14812198660195031 0 -0.11226237736289341 0.15011456443276189 0 -0.10232974686675721 0.1695443936719975 0 -0.098190038011924455 0.13382962886686409 0 -0.098356392370339718 0.14812198660195031 0 -0.089534928169694106 0.1399596441835706 0 -0.10917244671014199 0.13682919752908451 0 -0.098356392370339718 0.14812198660195031 0 -0.11226237736289341 0.15011456443276189 0 -0.11226237736289341 0.15011456443276189 0 -0.1231141014545194 0.14619198163497499 0 -0.12148057295623529 0.16188989965911549 0 -0.11912100381936649 0.1381099274994485 0 -0.10917244671014199 0.13682919752908451 0 -0.11226237736289341 0.15011456443276189 0 -0.11912100381936649 0.1381099274994485 0 -0.11226237736289341 0.15011456443276189 0 -0.1231141014545194 0.14619198163497499 0 -0.11226237736289341 0.15011456443276189 0 -0.12148057295623529 0.16188989965911549 0 -0.10232974686675721 0.1695443936719975 0 -0.12148057295623529 0.16188989965911549 0 -0.1206330972516169 0.18317828504492839 0 -0.10232974686675721 0.1695443936719975 0 -0.1206330972516169 0.18317828504492839 0 -0.10557484068831199 0.185762104800787 0 -0.10232974686675721 0.1695443936719975 0 -0.1206330972516169 0.18317828504492839 0 -0.10232974686675721 0.1695443936719975 0 -0.10557484068831199 0.185762104800787 0 -0.10232974686675721 0.1695443936719975 0 -0.088436373773960145 0.18292492331448171 0 -0.098356392370339718 0.14812198660195031 0 -0.10232974686675721 0.1695443936719975 0 -0.084026396481897636 0.15591050229906661 0 -0.088436373773960145 0.18292492331448171 0 -0.06782192743242299 0.1700437963265857 0 -0.084026396481897636 0.15591050229906661 0 -0.10232974686675721 0.1695443936719975 0 -0.088436373773960145 0.18292492331448171 0 -0.084026396481897636 0.15591050229906661 0 -0.10232974686675721 0.1695443936719975 0 -0.084026396481897636 0.15591050229906661 0 -0.088436373773960145 0.18292492331448171 0 -0.06782192743242299 0.1700437963265857 0 -0.073963275105227322 0.19475409899272109 0 -0.06782192743242299 0.1700437963265857 0 -0.073963275105227322 0.19475409899272109 0 -0.056557733609882477 0.1885492467843945 0 -0.065723046097038065 0.1422766109261358 0 -0.084026396481897636 0.15591050229906661 0 -0.065723046097038065 0.1422766109261358 0 -0.078128474623323146 0.13458445542579539 0 -0.084026396481897636 0.15591050229906661 0 -0.06782192743242299 0.1700437963265857 0 -0.065723046097038065 0.1422766109261358 0 -0.084026396481897636 0.15591050229906661 0 -0.078128474623323146 0.13458445542579539 0 -0.064212613735401311 0.1246656517006846 0 -0.077783884837755488 0.1169685852607581 0 -0.065723046097038065 0.1422766109261358 0 -0.078128474623323146 0.13458445542579539 0 -0.064212613735401311 0.1246656517006846 0 -0.078128474623323146 0.13458445542579539 0 -0.088973339360985587 0.12735164772417679 0 -0.077783884837755488 0.1169685852607581 0 -0.078128474623323146 0.13458445542579539 0 -0.088973339360985587 0.12735164772417679 0 -0.089534928169694106 0.1399596441835706 0 -0.098190038011924455 0.13382962886686409 0 -0.088973339360985587 0.12735164772417679 0 -0.089534928169694106 0.1399596441835706 0 -0.078128474623323146 0.13458445542579539 0 -0.089534928169694106 0.1399596441835706 0 -0.084026396481897636 0.15591050229906661 0 -0.098356392370339718 0.14812198660195031 0 -0.089534928169694106 0.1399596441835706 0 -0.084026396481897636 0.15591050229906661 0 -0.1007700511679166 0.24316900683142401 0 -0.1028094631901752 0.22740907496168311 0 -0.092419453455026793 0.23298952956688421 0 -0.1007700511679166 0.24316900683142401 0 -0.12312998757139799 0.247480172707678 0 -0.1007700511679166 0.24316900683142401 0 -0.12312998757139799 0.247480172707678 0 -0.12204749744513679 0.2278444913649661 0 -0.12204749744513679 0.2278444913649661 0 -0.1028094631901752 0.22740907496168311 0 -0.10967506991116539 0.21307735844592329 0 -0.1007700511679166 0.24316900683142401 0 -0.12204749744513679 0.2278444913649661 0 -0.1028094631901752 0.22740907496168311 0 -0.1028094631901752 0.22740907496168311 0 -0.10967506991116539 0.21307735844592329 0 -0.087402057777127007 0.22236618709313979 0 -0.1028094631901752 0.22740907496168311 0 -0.087402057777127007 0.22236618709313979 0 -0.092419453455026793 0.23298952956688421 0 -0.10967506991116539 0.21307735844592329 0 -0.10054125333360329 0.1982682735679879 0 -0.089475684049019247 0.2185630572615794 0 -0.10054125333360329 0.1982682735679879 0 -0.089475684049019247 0.2185630572615794 0 -0.10967506991116539 0.21307735844592329 0 -0.089475684049019247 0.2185630572615794 0 -0.087402057777127007 0.22236618709313979 0 -0.10967506991116539 0.21307735844592329 0 -0.087402057777127007 0.22236618709313979 0 -0.10967506991116539 0.21307735844592329 0 -0.1157532158367285 0.1980794784912594 0 -0.10054125333360329 0.1982682735679879 0 -0.1316619551247504 0.20363252137258789 0 -0.10967506991116539 0.21307735844592329 0 -0.1316619551247504 0.20363252137258789 0 -0.12204749744513679 0.2278444913649661 0 -0.10967506991116539 0.21307735844592329 0 -0.1316619551247504 0.20363252137258789 0 -0.10967506991116539 0.21307735844592329 0 -0.1157532158367285 0.1980794784912594 0 -0.1316619551247504 0.20363252137258789 0 -0.1206330972516169 0.18317828504492839 0 -0.1157532158367285 0.1980794784912594 0 -0.1206330972516169 0.18317828504492839 0 -0.10557484068831199 0.185762104800787 0 -0.1157532158367285 0.1980794784912594 0 -0.10557484068831199 0.185762104800787 0 -0.088436373773960145 0.18292492331448171 0 -0.10054125333360329 0.1982682735679879 0 -0.10557484068831199 0.185762104800787 0 -0.1157532158367285 0.1980794784912594 0 -0.10054125333360329 0.1982682735679879 0 -0.088436373773960145 0.18292492331448171 0 -0.073963275105227322 0.19475409899272109 0 -0.08926990701268922 0.205286760332208 0 -0.088436373773960145 0.18292492331448171 0 -0.10054125333360329 0.1982682735679879 0 -0.08926990701268922 0.205286760332208 0 -0.073963275105227322 0.19475409899272109 0 -0.077602244316411495 0.2091009209117968 0 -0.08926990701268922 0.205286760332208 0 -0.073963275105227322 0.19475409899272109 0 -0.061876185618725481 0.20616115650165409 0 -0.056557733609882477 0.1885492467843945 0 -0.077602244316411495 0.2091009209117968 0 -0.070619180993747699 0.2173901018931671 0 -0.061876185618725481 0.20616115650165409 0 -0.073963275105227322 0.19475409899272109 0 -0.077602244316411495 0.2091009209117968 0 -0.061876185618725481 0.20616115650165409 0 -0.070619180993747699 0.2173901018931671 0 -0.058251798071379521 0.22040170742551229 0 -0.061876185618725481 0.20616115650165409 0 -0.077602244316411495 0.2091009209117968 0 -0.070619180993747699 0.2173901018931671 0 -0.080424996058377676 0.21610411260653581 0 -0.10054125333360329 0.1982682735679879 0 -0.08926990701268922 0.205286760332208 0 -0.089475684049019247 0.2185630572615794 0 -0.080424996058377676 0.21610411260653581 0 -0.084193207859124403 0.21226371277802999 0 -0.089475684049019247 0.2185630572615794 0 -0.077602244316411495 0.2091009209117968 0 -0.080424996058377676 0.21610411260653581 0 -0.084193207859124403 0.21226371277802999 0 -0.077602244316411495 0.2091009209117968 0 -0.084193207859124403 0.21226371277802999 0 -0.08926990701268922 0.205286760332208 0 -0.084193207859124403 0.21226371277802999 0 -0.08926990701268922 0.205286760332208 0 -0.089475684049019247 0.2185630572615794 0 -0.087402057777127007 0.22236618709313979 0 -0.092419453455026793 0.23298952956688421 0 -0.078410114764434921 0.2388578409551709 0 -0.087402057777127007 0.22236618709313979 0 -0.078410114764434921 0.2388578409551709 0 -0.087402057777127007 0.22236618709313979 0 -0.076779393789408887 0.22937588468778849 0 -0.078410114764434921 0.2388578409551709 0 -0.089475684049019247 0.2185630572615794 0 -0.087402057777127007 0.22236618709313979 0 -0.080424996058377676 0.21610411260653581 0 -0.089475684049019247 0.2185630572615794 0 -0.077123308047050823 0.2228244839199835 0 -0.089475684049019247 0.2185630572615794 0 -0.087402057777127007 0.22236618709313979 0 -0.076779393789408887 0.22937588468778849 0 -0.089475684049019247 0.2185630572615794 0 -0.077123308047050823 0.2228244839199835 0 -0.076779393789408887 0.22937588468778849 0 -0.070619180993747699 0.2173901018931671 0 -0.077123308047050823 0.2228244839199835 0 -0.066997022471172729 0.22903316620120781 0 -0.070619180993747699 0.2173901018931671 0 -0.080424996058377676 0.21610411260653581 0 -0.077123308047050823 0.2228244839199835 0 -0.070619180993747699 0.2173901018931671 0 -0.066997022471172729 0.22903316620120781 0 -0.058251798071379521 0.22040170742551229 0 -0.077123308047050823 0.2228244839199835 0 -0.066997022471172729 0.22903316620120781 0 -0.076779393789408887 0.22937588468778849 0 -0.066997022471172729 0.22903316620120781 0 -0.076779393789408887 0.22937588468778849 0 -0.071890839615366423 0.2376008751010005 0 -0.068545824550532347 0.25694942133692961 0 -0.078410114764434921 0.2388578409551709 0 -0.076779393789408887 0.22937588468778849 0 -0.071890839615366423 0.2376008751010005 0 -0.078410114764434921 0.2388578409551709 0 -0.066997022471172729 0.22903316620120781 0 -0.071890839615366423 0.2376008751010005 0 -0.064322961266428391 0.24490656945370051 0 -0.068545824550532347 0.25694942133692961 0 -0.064322961266428391 0.24490656945370051 0 -0.078410114764434921 0.2388578409551709 0 -0.071890839615366423 0.2376008751010005 0 -0.064322961266428391 0.24490656945370051 0 -0.078410114764434921 0.2388578409551709 0 -0.071890839615366423 0.2376008751010005 0 -0.078410114764434921 0.2388578409551709 0 -0.1007700511679166 0.24316900683142401 0 -0.092419453455026793 0.23298952956688421 0 -0.078410114764434921 0.2388578409551709 0 -0.1007700511679166 0.24316900683142401 0 -0.078410114764434921 0.2388578409551709 0 -0.085644315488926481 0.25551381652575039 0 -0.1007700511679166 0.24316900683142401 0 -0.078410114764434921 0.2388578409551709 0 -0.052781921422815223 0.24246660685113591 0 -0.033053404596193818 0.22061804524623149 0 -0.025966110251752189 0.244800189374869 0 -0.066997022471172729 0.22903316620120781 0 -0.064322961266428391 0.24490656945370051 0 -0.052781921422815223 0.24246660685113591 0 -0.052781921422815223 0.24246660685113591 0 -0.058251798071379521 0.22040170742551229 0 -0.033053404596193818 0.22061804524623149 0 -0.052781921422815223 0.24246660685113591 0 -0.058251798071379521 0.22040170742551229 0 -0.066997022471172729 0.22903316620120781 0 -0.052781921422815223 0.24246660685113591 0 -0.058251798071379521 0.22040170742551229 0 -0.058251798071379521 0.22040170742551229 0 -0.033053404596193818 0.22061804524623149 0 -0.045574890853295157 0.21145838798279909 0 -0.033053404596193818 0.22061804524623149 0 -0.045574890853295157 0.21145838798279909 0 -0.040890525511778658 0.1966684028368457 0 -0.033053404596193818 0.22061804524623149 0 -0.040890525511778658 0.1966684028368457 0 -0.019871325807300371 0.20654406590104299 0 -0.058251798071379521 0.22040170742551229 0 -0.045574890853295157 0.21145838798279909 0 -0.061876185618725481 0.20616115650165409 0 -0.045574890853295157 0.21145838798279909 0 -0.061876185618725481 0.20616115650165409 0 -0.040890525511778658 0.1966684028368457 0 -0.061876185618725481 0.20616115650165409 0 -0.056557733609882477 0.1885492467843945 0 -0.040890525511778658 0.1966684028368457 0 -0.040890525511778658 0.1966684028368457 0 -0.019827996343026889 0.19079171827913299 0 -0.040206656175701162 0.17947263390243939 0 -0.056557733609882477 0.1885492467843945 0 -0.040890525511778658 0.1966684028368457 0 -0.040206656175701162 0.17947263390243939 0 -0.040890525511778658 0.1966684028368457 0 -0.019827996343026889 0.19079171827913299 0 -0.019871325807300371 0.20654406590104299 0 -0.019827996343026889 0.19079171827913299 0 -0.0009645268562457458 0.19957329067002691 0 -0.019871325807300371 0.20654406590104299 0 -0.019827996343026889 0.19079171827913299 0 -0.0009645268562457458 0.19957329067002691 0 -0.0020124373959203661 0.17839985613399431 0 -0.0009645268562457458 0.19957329067002691 0 -0.019871325807300371 0.20654406590104299 0 -0.0046201757292567477 0.22506887247297819 0 -0.033053404596193818 0.22061804524623149 0 -0.019871325807300371 0.20654406590104299 0 -0.0046201757292567477 0.22506887247297819 0 -0.033053404596193818 0.22061804524623149 0 -0.0046201757292567477 0.22506887247297819 0 -0.025966110251752189 0.244800189374869 0 -0.0046201757292567477 0.22506887247297819 0 -0.025966110251752189 0.244800189374869 0 -0.0046201757292567477 0.22506887247297819 0 -0.0043755340704045732 0.244462551133488 0 -0.025966110251752189 0.244800189374869 0 -0.012601642581572991 0.2569366073914971 0 -0.0043755340704045732 0.244462551133488 0 -0.025966110251752189 0.244800189374869 0 -0.034080576162193697 0.15170376027300431 0 -0.036751756369701197 0.1398405960150558 0 -0.048907802219992892 0.15250578935423961 0 -0.036751756369701197 0.1398405960150558 0 -0.047419695712178453 0.12864271955320489 0 -0.048907802219992892 0.15250578935423961 0 -0.036751756369701197 0.1398405960150558 0 -0.047419695712178453 0.12864271955320489 0 -0.028796115663273659 0.12790035980269041 0 -0.065723046097038065 0.1422766109261358 0 -0.047419695712178453 0.12864271955320489 0 -0.064212613735401311 0.1246656517006846 0 -0.065723046097038065 0.1422766109261358 0 -0.047419695712178453 0.12864271955320489 0 -0.065723046097038065 0.1422766109261358 0 -0.047419695712178453 0.12864271955320489 0 -0.048907802219992892 0.15250578935423961 0 -0.06782192743242299 0.1700437963265857 0 -0.065723046097038065 0.1422766109261358 0 -0.048907802219992892 0.15250578935423961 0 -0.06782192743242299 0.1700437963265857 0 -0.048907802219992892 0.15250578935423961 0 -0.052281737218402541 0.17173240721379579 0 -0.056557733609882477 0.1885492467843945 0 -0.052281737218402541 0.17173240721379579 0 -0.040206656175701162 0.17947263390243939 0 -0.06782192743242299 0.1700437963265857 0 -0.056557733609882477 0.1885492467843945 0 -0.052281737218402541 0.17173240721379579 0 -0.040206656175701162 0.17947263390243939 0 -0.036873654438105009 0.16488231080621649 0 -0.022024462685296842 0.17372325228189051 0 -0.052281737218402541 0.17173240721379579 0 -0.040206656175701162 0.17947263390243939 0 -0.036873654438105009 0.16488231080621649 0 -0.048907802219992892 0.15250578935423961 0 -0.052281737218402541 0.17173240721379579 0 -0.036873654438105009 0.16488231080621649 0 -0.034080576162193697 0.15170376027300431 0 -0.048907802219992892 0.15250578935423961 0 -0.036873654438105009 0.16488231080621649 0 -0.034080576162193697 0.15170376027300431 0 -0.036873654438105009 0.16488231080621649 0 -0.022723975584301181 0.15891869073020359 0 -0.036873654438105009 0.16488231080621649 0 -0.022723975584301181 0.15891869073020359 0 -0.022024462685296842 0.17372325228189051 0 -0.022723975584301181 0.15891869073020359 0 -0.022024462685296842 0.17372325228189051 0 -0.01000701235277646 0.1654021572420723 0 -0.019827996343026889 0.19079171827913299 0 -0.040206656175701162 0.17947263390243939 0 -0.022024462685296842 0.17372325228189051 0 -0.019827996343026889 0.19079171827913299 0 -0.022024462685296842 0.17372325228189051 0 -0.0020124373959203661 0.17839985613399431 0 -0.022024462685296842 0.17372325228189051 0 -0.0020124373959203661 0.17839985613399431 0 -0.01000701235277646 0.1654021572420723 0 -0.022723975584301181 0.15891869073020359 0 -0.01000701235277646 0.1654021572420723 0 -0.007726169365710734 0.15277462447414769 0 -0.0020124373959203661 0.17839985613399431 0 -0.01000701235277646 0.1654021572420723 0 0.0044519832673468162 0.1631943625901254 0 -0.01000701235277646 0.1654021572420723 0 -0.007726169365710734 0.15277462447414769 0 0.0044519832673468162 0.1631943625901254 0 -0.007726169365710734 0.15277462447414769 0 -0.00048726366279250359 0.14167917974636529 0 0.005583746424612122 0.15123205850768889 0 -0.007726169365710734 0.15277462447414769 0 -0.00048726366279250359 0.14167917974636529 0 -0.010392592788942889 0.14075086267192621 0 -0.007726169365710734 0.15277462447414769 0 -0.010392592788942889 0.14075086267192621 0 -0.02259741169000213 0.14264481159555481 0 -0.022723975584301181 0.15891869073020359 0 -0.007726169365710734 0.15277462447414769 0 -0.02259741169000213 0.14264481159555481 0 -0.034080576162193697 0.15170376027300431 0 -0.022723975584301181 0.15891869073020359 0 -0.02259741169000213 0.14264481159555481 0 -0.034080576162193697 0.15170376027300431 0 -0.036751756369701197 0.1398405960150558 0 -0.02259741169000213 0.14264481159555481 0 -0.036751756369701197 0.1398405960150558 0 -0.02259741169000213 0.14264481159555481 0 -0.028796115663273659 0.12790035980269041 0 -0.010392592788942889 0.14075086267192621 0 -0.02259741169000213 0.14264481159555481 0 -0.017893316168609171 0.12976176574791171 0 -0.02259741169000213 0.14264481159555481 0 -0.028796115663273659 0.12790035980269041 0 -0.017893316168609171 0.12976176574791171 0 -0.017893316168609171 0.12976176574791171 0 -0.0069497786981698936 0.13136640170252889 0 -0.01040299208029591 0.1216235279800781 0 -0.010392592788942889 0.14075086267192621 0 -0.017893316168609171 0.12976176574791171 0 -0.0069497786981698936 0.13136640170252889 0 -0.00048726366279250359 0.14167917974636529 0 -0.0069497786981698936 0.13136640170252889 0 0.0030207331985755881 0.13042772028312261 0 -0.00048726366279250359 0.14167917974636529 0 -0.010392592788942889 0.14075086267192621 0 -0.0069497786981698936 0.13136640170252889 0 -0.01040299208029591 0.1216235279800781 0 0.0030207331985755881 0.13042772028312261 0 -0.0069497786981698936 0.13136640170252889 0 0.0030207331985755881 0.13042772028312261 0 -0.0069497786981698936 0.13136640170252889 0 -0.01040299208029591 0.1216235279800781 0 0.0030207331985755881 0.13042772028312261 0 -0.01040299208029591 0.1216235279800781 0 0.00073919274506113004 0.11770919909287821 0 0.0030207331985755881 0.13042772028312261 0 -0.01040299208029591 0.1216235279800781 0 -0.012732330732955609 0.1120715507590226 0 0.00073919274506113004 0.11770919909287821 0 -0.012732330732955609 0.1120715507590226 0 -0.006272828410093783 0.1053412510084622 0 0.00073919274506113004 0.11770919909287821 0 -0.006272828410093783 0.1053412510084622 0 -0.0076135289647085479 0.091821168524714253 0 0.0086662749107039236 0.10693835184074631 0 -0.006272828410093783 0.1053412510084622 0 -0.017833407038348521 0.1009715748551737 0 -0.0076135289647085479 0.091821168524714253 0 -0.012732330732955609 0.1120715507590226 0 -0.006272828410093783 0.1053412510084622 0 -0.017833407038348521 0.1009715748551737 0 -0.017833407038348521 0.1009715748551737 0 -0.02307028133728703 0.083282822394420933 0 -0.031374318387360982 0.10066041381654101 0 -0.012732330732955609 0.1120715507590226 0 -0.017833407038348521 0.1009715748551737 0 -0.023826717359166801 0.1128193356770326 0 -0.017833407038348521 0.1009715748551737 0 -0.023826717359166801 0.1128193356770326 0 -0.031374318387360982 0.10066041381654101 0 -0.028796115663273659 0.12790035980269041 0 -0.023826717359166801 0.1128193356770326 0 -0.031374318387360982 0.10066041381654101 0 -0.017893316168609171 0.12976176574791171 0 -0.01040299208029591 0.1216235279800781 0 -0.023826717359166801 0.1128193356770326 0 -0.028796115663273659 0.12790035980269041 0 -0.031374318387360982 0.10066041381654101 0 -0.028796115663273659 0.12790035980269041 0 -0.017893316168609171 0.12976176574791171 0 -0.023826717359166801 0.1128193356770326 0 -0.01040299208029591 0.1216235279800781 0 -0.023826717359166801 0.1128193356770326 0 -0.01040299208029591 0.1216235279800781 0 -0.012732330732955609 0.1120715507590226 0 -0.023826717359166801 0.1128193356770326 0 -0.011840771648368069 0.070036276409794568 0 0.0046698397351421896 0.084356734639687847 0 0.0067128332214790448 0.066304310358282131 0 -0.011840771648368069 0.070036276409794568 0 -0.0087575758547522118 0.054061196402823801 0 0.0067128332214790448 0.066304310358282131 0 -0.011840771648368069 0.070036276409794568 0 -0.0076135289647085479 0.091821168524714253 0 0.0046698397351421896 0.084356734639687847 0 -0.011840771648368069 0.070036276409794568 0 -0.0076135289647085479 0.091821168524714253 0 -0.02307028133728703 0.083282822394420933 0 -0.02307028133728703 0.083282822394420933 0 -0.033433994531230207 0.073413929101007136 0 -0.031374318387360982 0.10066041381654101 0 -0.017833407038348521 0.1009715748551737 0 -0.0076135289647085479 0.091821168524714253 0 -0.02307028133728703 0.083282822394420933 0 -0.033433994531230207 0.073413929101007136 0 -0.024957510961105728 0.052554086559175192 0 -0.022126256647668052 0.066005960114057474 0 -0.033433994531230207 0.073413929101007136 0 -0.024957510961105728 0.052554086559175192 0 -0.011840771648368069 0.070036276409794568 0 -0.02307028133728703 0.083282822394420933 0 -0.02261782604113834 0.073184747004820028 0 -0.02261782604113834 0.073184747004820028 0 -0.022126256647668052 0.066005960114057474 0 -0.033433994531230207 0.073413929101007136 0 -0.02307028133728703 0.083282822394420933 0 -0.02261782604113834 0.073184747004820028 0 -0.033433994531230207 0.073413929101007136 0 -0.011840771648368069 0.070036276409794568 0 -0.022126256647668052 0.066005960114057474 0 -0.017111491781406619 0.059445348841143608 0 -0.011840771648368069 0.070036276409794568 0 -0.02261782604113834 0.073184747004820028 0 -0.022126256647668052 0.066005960114057474 0 -0.045088766875976363 0.068589362908175758 0 -0.048685917327770167 0.062976449455659819 0 -0.042150101728099743 0.06140274416018604 0 -0.045088766875976363 0.068589362908175758 0 -0.040414738060108181 0.068708835554056949 0 -0.041365161266192323 0.073205377192550714 0 -0.045088766875976363 0.068589362908175758 0 -0.040414738060108181 0.068708835554056949 0 -0.042150101728099743 0.06140274416018604 0 -0.040414738060108181 0.068708835554056949 0 -0.03791295026989655 0.064766833259344736 0 -0.042150101728099743 0.06140274416018604 0 -0.03791295026989655 0.064766833259344736 0 -0.037476623068205747 0.072663333565666649 0 -0.033433994531230207 0.073413929101007136 0 -0.040414738060108181 0.068708835554056949 0 -0.03791295026989655 0.064766833259344736 0 -0.037476623068205747 0.072663333565666649 0 -0.037476623068205747 0.072663333565666649 0 -0.033433994531230207 0.073413929101007136 0 -0.038378904221087431 0.077001327619629675 0 -0.037476623068205747 0.072663333565666649 0 -0.038378904221087431 0.077001327619629675 0 -0.041365161266192323 0.073205377192550714 0 -0.038378904221087431 0.077001327619629675 0 -0.041799419709355183 0.076749278025213877 0 -0.041365161266192323 0.073205377192550714 0 -0.040414738060108181 0.068708835554056949 0 -0.037476623068205747 0.072663333565666649 0 -0.041365161266192323 0.073205377192550714 0 -0.045088766875976363 0.068589362908175758 0 -0.041365161266192323 0.073205377192550714 0 -0.046553078700956471 0.075074525034256309 0 -0.041799419709355183 0.076749278025213877 0 -0.046553078700956471 0.075074525034256309 0 -0.043843932750518212 0.07976199353934324 0 -0.041799419709355183 0.076749278025213877 0 -0.041365161266192323 0.073205377192550714 0 -0.046553078700956471 0.075074525034256309 0 -0.033433994531230207 0.073413929101007136 0 -0.031374318387360982 0.10066041381654101 0 -0.033433994531230207 0.073413929101007136 0 -0.038070641279029441 0.086500792269476143 0 -0.031374318387360982 0.10066041381654101 0 -0.046553078700956471 0.075074525034256309 0 -0.043843932750518212 0.07976199353934324 0 -0.047467128467359079 0.082155223575858485 0 -0.042760853219731942 0.084177924880877789 0 -0.044618271601479742 0.088792937185616844 0 -0.047467128467359079 0.082155223575858485 0 -0.043843932750518212 0.07976199353934324 0 -0.042760853219731942 0.084177924880877789 0 -0.047467128467359079 0.082155223575858485 0 -0.042760853219731942 0.084177924880877789 0 -0.040639183655188357 0.080653016180509754 0 -0.038070641279029441 0.086500792269476143 0 -0.043843932750518212 0.07976199353934324 0 -0.042760853219731942 0.084177924880877789 0 -0.040639183655188357 0.080653016180509754 0 -0.041799419709355183 0.076749278025213877 0 -0.043843932750518212 0.07976199353934324 0 -0.040639183655188357 0.080653016180509754 0 -0.038378904221087431 0.077001327619629675 0 -0.041799419709355183 0.076749278025213877 0 -0.040639183655188357 0.080653016180509754 0 -0.038378904221087431 0.077001327619629675 0 -0.040639183655188357 0.080653016180509754 0 -0.038070641279029441 0.086500792269476143 0 -0.033433994531230207 0.073413929101007136 0 -0.038378904221087431 0.077001327619629675 0 -0.038070641279029441 0.086500792269476143 0 -0.038070641279029441 0.086500792269476143 0 -0.044618271601479742 0.088792937185616844 0 -0.04157937905232785 0.095144540362098295 0 -0.044618271601479742 0.088792937185616844 0 -0.04157937905232785 0.095144540362098295 0 -0.050370124245390738 0.095147753892104267 0 -0.042760853219731942 0.084177924880877789 0 -0.038070641279029441 0.086500792269476143 0 -0.044618271601479742 0.088792937185616844 0 -0.044618271601479742 0.088792937185616844 0 -0.051489410213499849 0.088680826071530661 0 -0.050370124245390738 0.095147753892104267 0 -0.044618271601479742 0.088792937185616844 0 -0.051489410213499849 0.088680826071530661 0 -0.047467128467359079 0.082155223575858485 0 -0.051489410213499849 0.088680826071530661 0 -0.0581330206996864 0.092451767798047049 0 -0.050370124245390738 0.095147753892104267 0 -0.0581330206996864 0.092451767798047049 0 -0.058387528945798593 0.085782252786122143 0 -0.065686144755577977 0.088179049878505222 0 -0.051489410213499849 0.088680826071530661 0 -0.0581330206996864 0.092451767798047049 0 -0.058387528945798593 0.085782252786122143 0 -0.058387528945798593 0.085782252786122143 0 -0.058422534543839152 0.079896641320102685 0 -0.053297257458587433 0.08307562203139876 0 -0.058387528945798593 0.085782252786122143 0 -0.058422534543839152 0.079896641320102685 0 -0.063492521453658426 0.082135151614612656 0 -0.058422534543839152 0.079896641320102685 0 -0.063492521453658426 0.082135151614612656 0 -0.06317355168302824 0.077213441623431023 0 -0.058422534543839152 0.079896641320102685 0 -0.053297257458587433 0.08307562203139876 0 -0.052851559649509813 0.077329431577246116 0 -0.053297257458587433 0.08307562203139876 0 -0.047467128467359079 0.082155223575858485 0 -0.052851559649509813 0.077329431577246116 0 -0.051489410213499849 0.088680826071530661 0 -0.058387528945798593 0.085782252786122143 0 -0.053297257458587433 0.08307562203139876 0 -0.051489410213499849 0.088680826071530661 0 -0.053297257458587433 0.08307562203139876 0 -0.047467128467359079 0.082155223575858485 0 -0.046553078700956471 0.075074525034256309 0 -0.047467128467359079 0.082155223575858485 0 -0.052851559649509813 0.077329431577246116 0 -0.046553078700956471 0.075074525034256309 0 -0.052851559649509813 0.077329431577246116 0 -0.052720106971499058 0.069580770931483224 0 -0.045088766875976363 0.068589362908175758 0 -0.046553078700956471 0.075074525034256309 0 -0.052720106971499058 0.069580770931483224 0 -0.058649251754817687 0.074193806570377357 0 -0.062352018119930512 0.067677702987684468 0 -0.052720106971499058 0.069580770931483224 0 -0.058422534543839152 0.079896641320102685 0 -0.052851559649509813 0.077329431577246116 0 -0.058649251754817687 0.074193806570377357 0 -0.058422534543839152 0.079896641320102685 0 -0.058649251754817687 0.074193806570377357 0 -0.06317355168302824 0.077213441623431023 0 -0.058649251754817687 0.074193806570377357 0 -0.064370285895549981 0.072578537163389426 0 -0.06317355168302824 0.077213441623431023 0 -0.058649251754817687 0.074193806570377357 0 -0.062352018119930512 0.067677702987684468 0 -0.064370285895549981 0.072578537163389426 0 -0.052851559649509813 0.077329431577246116 0 -0.058649251754817687 0.074193806570377357 0 -0.052720106971499058 0.069580770931483224 0 -0.062352018119930512 0.067677702987684468 0 -0.052720106971499058 0.069580770931483224 0 -0.054962991487983427 0.061089652044746513 0 -0.062352018119930512 0.067677702987684468 0 -0.054962991487983427 0.061089652044746513 0 -0.062181979903238163 0.060812796880851297 0 -0.052720106971499058 0.069580770931483224 0 -0.048685917327770167 0.062976449455659819 0 -0.054962991487983427 0.061089652044746513 0 -0.045088766875976363 0.068589362908175758 0 -0.052720106971499058 0.069580770931483224 0 -0.048685917327770167 0.062976449455659819 0 -0.047419695712178453 0.12864271955320489 0 -0.028796115663273659 0.12790035980269041 0 -0.040632536985239227 0.1151969786901279 0 -0.028796115663273659 0.12790035980269041 0 -0.040632536985239227 0.1151969786901279 0 -0.031374318387360982 0.10066041381654101 0 -0.040632536985239227 0.1151969786901279 0 -0.044476775209006093 0.10377929899040381 0 -0.053143198955808643 0.11436495758821071 0 -0.040632536985239227 0.1151969786901279 0 -0.031374318387360982 0.10066041381654101 0 -0.044476775209006093 0.10377929899040381 0 -0.038070641279029441 0.086500792269476143 0 -0.031374318387360982 0.10066041381654101 0 -0.04157937905232785 0.095144540362098295 0 -0.04157937905232785 0.095144540362098295 0 -0.044476775209006093 0.10377929899040381 0 -0.050370124245390738 0.095147753892104267 0 -0.031374318387360982 0.10066041381654101 0 -0.04157937905232785 0.095144540362098295 0 -0.044476775209006093 0.10377929899040381 0 -0.044476775209006093 0.10377929899040381 0 -0.057803305117852789 0.10171689654855599 0 -0.053143198955808643 0.11436495758821071 0 -0.044476775209006093 0.10377929899040381 0 -0.050370124245390738 0.095147753892104267 0 -0.057803305117852789 0.10171689654855599 0 -0.0581330206996864 0.092451767798047049 0 -0.057803305117852789 0.10171689654855599 0 -0.065020070319752515 0.095535311087652564 0 -0.0581330206996864 0.092451767798047049 0 -0.050370124245390738 0.095147753892104267 0 -0.057803305117852789 0.10171689654855599 0 -0.047419695712178453 0.12864271955320489 0 -0.053143198955808643 0.11436495758821071 0 -0.064212613735401311 0.1246656517006846 0 -0.057803305117852789 0.10171689654855599 0 -0.053143198955808643 0.11436495758821071 0 -0.064314266975173992 0.1121882000462873 0 -0.053143198955808643 0.11436495758821071 0 -0.064212613735401311 0.1246656517006846 0 -0.064314266975173992 0.1121882000462873 0 -0.047419695712178453 0.12864271955320489 0 -0.040632536985239227 0.1151969786901279 0 -0.053143198955808643 0.11436495758821071 0 -0.064212613735401311 0.1246656517006846 0 -0.064314266975173992 0.1121882000462873 0 -0.077783884837755488 0.1169685852607581 0 -0.064314266975173992 0.1121882000462873 0 -0.077783884837755488 0.1169685852607581 0 -0.070359446533259457 0.1033730641616592 0 -0.088973339360985587 0.12735164772417679 0 -0.077783884837755488 0.1169685852607581 0 -0.088932870564360722 0.117886917518154 0 -0.077783884837755488 0.1169685852607581 0 -0.087773942828528267 0.1099310153838676 0 -0.088932870564360722 0.117886917518154 0 -0.077783884837755488 0.1169685852607581 0 -0.087773942828528267 0.1099310153838676 0 -0.079576124081011501 0.10576773012544009 0 -0.087773942828528267 0.1099310153838676 0 -0.097849768269263573 0.1130869027582596 0 -0.095445822888057821 0.1060510468834588 0 -0.087773942828528267 0.1099310153838676 0 -0.088932870564360722 0.117886917518154 0 -0.097849768269263573 0.1130869027582596 0 -0.088973339360985587 0.12735164772417679 0 -0.088932870564360722 0.117886917518154 0 -0.094964632568524027 0.1207633551279803 0 -0.088083402990933271 0.1004013245441376 0 -0.082830745124202604 0.091558590605990503 0 -0.092654118272398278 0.092563282028138183 0 -0.088083402990933271 0.1004013245441376 0 -0.092654118272398278 0.092563282028138183 0 -0.097777983277490682 0.099823202100299671 0 -0.087773942828528267 0.1099310153838676 0 -0.088083402990933271 0.1004013245441376 0 -0.095445822888057821 0.1060510468834588 0 -0.087773942828528267 0.1099310153838676 0 -0.088083402990933271 0.1004013245441376 0 -0.079576124081011501 0.10576773012544009 0 -0.088083402990933271 0.1004013245441376 0 -0.079576124081011501 0.10576773012544009 0 -0.079308309841675903 0.098719805687763645 0 -0.079308309841675903 0.098719805687763645 0 -0.073605760788925501 0.093340800127444362 0 -0.082830745124202604 0.091558590605990503 0 -0.088083402990933271 0.1004013245441376 0 -0.079308309841675903 0.098719805687763645 0 -0.082830745124202604 0.091558590605990503 0 -0.079308309841675903 0.098719805687763645 0 -0.070359446533259457 0.1033730641616592 0 -0.073605760788925501 0.093340800127444362 0 -0.077783884837755488 0.1169685852607581 0 -0.079576124081011501 0.10576773012544009 0 -0.070359446533259457 0.1033730641616592 0 -0.079576124081011501 0.10576773012544009 0 -0.079308309841675903 0.098719805687763645 0 -0.070359446533259457 0.1033730641616592 0 -0.057803305117852789 0.10171689654855599 0 -0.064314266975173992 0.1121882000462873 0 -0.070359446533259457 0.1033730641616592 0 -0.070359446533259457 0.1033730641616592 0 -0.065020070319752515 0.095535311087652564 0 -0.073605760788925501 0.093340800127444362 0 -0.057803305117852789 0.10171689654855599 0 -0.070359446533259457 0.1033730641616592 0 -0.065020070319752515 0.095535311087652564 0 -0.065020070319752515 0.095535311087652564 0 -0.065686144755577977 0.088179049878505222 0 -0.073605760788925501 0.093340800127444362 0 -0.0581330206996864 0.092451767798047049 0 -0.065020070319752515 0.095535311087652564 0 -0.065686144755577977 0.088179049878505222 0 -0.058387528945798593 0.085782252786122143 0 -0.065686144755577977 0.088179049878505222 0 -0.063492521453658426 0.082135151614612656 0 -0.065686144755577977 0.088179049878505222 0 -0.063492521453658426 0.082135151614612656 0 -0.068158273054967841 0.083020185557971402 0 -0.063492521453658426 0.082135151614612656 0 -0.067302782942075562 0.07884748034932014 0 -0.068158273054967841 0.083020185557971402 0 -0.063492521453658426 0.082135151614612656 0 -0.067302782942075562 0.07884748034932014 0 -0.06317355168302824 0.077213441623431023 0 -0.067302782942075562 0.07884748034932014 0 -0.068158273054967841 0.083020185557971402 0 -0.071195349613958098 0.079705411444572355 0 -0.065686144755577977 0.088179049878505222 0 -0.068158273054967841 0.083020185557971402 0 -0.07301192073484937 0.085713341323638087 0 -0.068158273054967841 0.083020185557971402 0 -0.07301192073484937 0.085713341323638087 0 -0.071195349613958098 0.079705411444572355 0 -0.07301192073484937 0.085713341323638087 0 -0.071195349613958098 0.079705411444572355 0 -0.075770934847371754 0.0800666795378632 0 -0.071195349613958098 0.079705411444572355 0 -0.075770934847371754 0.0800666795378632 0 -0.074098140010994684 0.075669956375088637 0 -0.075770934847371754 0.0800666795378632 0 -0.079307668415497093 0.083177453583088451 0 -0.079265179789025392 0.079676506104400385 0 -0.075770934847371754 0.0800666795378632 0 -0.077888144753474414 0.076540276618142514 0 -0.079265179789025392 0.079676506104400385 0 -0.07301192073484937 0.085713341323638087 0 -0.075770934847371754 0.0800666795378632 0 -0.079307668415497093 0.083177453583088451 0 -0.07301192073484937 0.085713341323638087 0 -0.077632649722529201 0.088101996375162014 0 -0.079307668415497093 0.083177453583088451 0 -0.077632649722529201 0.088101996375162014 0 -0.073605760788925501 0.093340800127444362 0 -0.082830745124202604 0.091558590605990503 0 -0.07301192073484937 0.085713341323638087 0 -0.077632649722529201 0.088101996375162014 0 -0.073605760788925501 0.093340800127444362 0 -0.065686144755577977 0.088179049878505222 0 -0.07301192073484937 0.085713341323638087 0 -0.073605760788925501 0.093340800127444362 0 -0.062352018119930512 0.067677702987684468 0 -0.068329508596145297 0.062660012020854514 0 -0.062181979903238163 0.060812796880851297 0 -0.062352018119930512 0.067677702987684468 0 -0.068790042784106775 0.069110436598158048 0 -0.064370285895549981 0.072578537163389426 0 -0.062352018119930512 0.067677702987684468 0 -0.068329508596145297 0.062660012020854514 0 -0.068790042784106775 0.069110436598158048 0 -0.068790042784106775 0.069110436598158048 0 -0.064370285895549981 0.072578537163389426 0 -0.068886565135866704 0.074697298037296217 0 -0.064370285895549981 0.072578537163389426 0 -0.06317355168302824 0.077213441623431023 0 -0.068886565135866704 0.074697298037296217 0 -0.067302782942075562 0.07884748034932014 0 -0.071195349613958098 0.079705411444572355 0 -0.068886565135866704 0.074697298037296217 0 -0.067302782942075562 0.07884748034932014 0 -0.06317355168302824 0.077213441623431023 0 -0.068886565135866704 0.074697298037296217 0 -0.071195349613958098 0.079705411444572355 0 -0.068886565135866704 0.074697298037296217 0 -0.074098140010994684 0.075669956375088637 0 -0.074098140010994684 0.075669956375088637 0 -0.077888144753474414 0.076540276618142514 0 -0.077943995183908016 0.072197992848007417 0 -0.075770934847371754 0.0800666795378632 0 -0.074098140010994684 0.075669956375088637 0 -0.077888144753474414 0.076540276618142514 0 -0.074098140010994684 0.075669956375088637 0 -0.077943995183908016 0.072197992848007417 0 -0.073591819010420778 0.071273948375400936 0 -0.068790042784106775 0.069110436598158048 0 -0.068886565135866704 0.074697298037296217 0 -0.073591819010420778 0.071273948375400936 0 -0.068886565135866704 0.074697298037296217 0 -0.074098140010994684 0.075669956375088637 0 -0.073591819010420778 0.071273948375400936 0 -0.068329508596145297 0.062660012020854514 0 -0.075470513042479814 0.066711638880650653 0 -0.076355506708763551 0.060612851998245461 0 -0.068790042784106775 0.069110436598158048 0 -0.073591819010420778 0.071273948375400936 0 -0.075470513042479814 0.066711638880650653 0 -0.077943995183908016 0.072197992848007417 0 -0.075470513042479814 0.066711638880650653 0 -0.080689043877833044 0.068811488614803365 0 -0.077943995183908016 0.072197992848007417 0 -0.073591819010420778 0.071273948375400936 0 -0.075470513042479814 0.066711638880650653 0 -0.075470513042479814 0.066711638880650653 0 -0.07953954724113256 0.065122825244123342 0 -0.076355506708763551 0.060612851998245461 0 -0.068329508596145297 0.062660012020854514 0 -0.068790042784106775 0.069110436598158048 0 -0.075470513042479814 0.066711638880650653 0 -0.098339668757629006 0.081004110340360799 0 -0.088512651209730508 0.061775074958739157 0 -0.087540143596341005 0.072188716596220406 0 -0.098339668757629006 0.081004110340360799 0 -0.084866426143491672 0.061788953492769749 0 -0.098339668757629006 0.081004110340360799 0 -0.088512651209730508 0.061775074958739157 0 -0.084866426143491672 0.061788953492769749 0 -0.098339668757629006 0.081004110340360799 0 -0.084866426143491672 0.061788953492769749 0 -0.083134493794999653 0.066477158967679667 0 -0.087540143596341005 0.072188716596220406 0 -0.084866426143491672 0.061788953492769749 0 -0.080973993472096856 0.063500447425704556 0 -0.083134493794999653 0.066477158967679667 0 -0.084866426143491672 0.061788953492769749 0 -0.080973993472096856 0.063500447425704556 0 -0.07953954724113256 0.065122825244123342 0 -0.076355506708763551 0.060612851998245461 0 -0.080973993472096856 0.063500447425704556 0 -0.07953954724113256 0.065122825244123342 0 -0.083134493794999653 0.066477158967679667 0 -0.07953954724113256 0.065122825244123342 0 -0.080689043877833044 0.068811488614803365 0 -0.083134493794999653 0.066477158967679667 0 -0.075470513042479814 0.066711638880650653 0 -0.07953954724113256 0.065122825244123342 0 -0.080689043877833044 0.068811488614803365 0 -0.080689043877833044 0.068811488614803365 0 -0.083520651545722552 0.070066704140278449 0 -0.083134493794999653 0.066477158967679667 0 -0.083520651545722552 0.070066704140278449 0 -0.083134493794999653 0.066477158967679667 0 -0.087540143596341005 0.072188716596220406 0 -0.083520651545722552 0.070066704140278449 0 -0.082458156844591513 0.073509373887956142 0 -0.087540143596341005 0.072188716596220406 0 -0.080689043877833044 0.068811488614803365 0 -0.083520651545722552 0.070066704140278449 0 -0.082458156844591513 0.073509373887956142 0 -0.082458156844591513 0.073509373887956142 0 -0.085411241706369018 0.076353327937829896 0 -0.087540143596341005 0.072188716596220406 0 -0.077943995183908016 0.072197992848007417 0 -0.080689043877833044 0.068811488614803365 0 -0.082458156844591513 0.073509373887956142 0 -0.077888144753474414 0.076540276618142514 0 -0.077943995183908016 0.072197992848007417 0 -0.082458156844591513 0.073509373887956142 0 -0.077888144753474414 0.076540276618142514 0 -0.082458156844591513 0.073509373887956142 0 -0.081934702179710633 0.077807201963773984 0 -0.077888144753474414 0.076540276618142514 0 -0.081934702179710633 0.077807201963773984 0 -0.079265179789025392 0.079676506104400385 0 -0.082458156844591513 0.073509373887956142 0 -0.081934702179710633 0.077807201963773984 0 -0.085411241706369018 0.076353327937829896 0 -0.081934702179710633 0.077807201963773984 0 -0.085411241706369018 0.076353327937829896 0 -0.085339303366446392 0.080065132052536361 0 -0.087540143596341005 0.072188716596220406 0 -0.089852067703229954 0.078235131748296577 0 -0.098339668757629006 0.081004110340360799 0 -0.085411241706369018 0.076353327937829896 0 -0.087540143596341005 0.072188716596220406 0 -0.089852067703229954 0.078235131748296577 0 -0.082830745124202604 0.091558590605990503 0 -0.083925934408088793 0.084726815299361879 0 -0.089303017378105587 0.08687732990267219 0 -0.077632649722529201 0.088101996375162014 0 -0.082830745124202604 0.091558590605990503 0 -0.083925934408088793 0.084726815299361879 0 -0.077632649722529201 0.088101996375162014 0 -0.079307668415497093 0.083177453583088451 0 -0.083925934408088793 0.084726815299361879 0 -0.079307668415497093 0.083177453583088451 0 -0.082100261070202116 0.081188686283539979 0 -0.083925934408088793 0.084726815299361879 0 -0.079307668415497093 0.083177453583088451 0 -0.079265179789025392 0.079676506104400385 0 -0.082100261070202116 0.081188686283539979 0 -0.081934702179710633 0.077807201963773984 0 -0.079265179789025392 0.079676506104400385 0 -0.082100261070202116 0.081188686283539979 0 -0.082100261070202116 0.081188686283539979 0 -0.085339303366446392 0.080065132052536361 0 -0.083925934408088793 0.084726815299361879 0 -0.081934702179710633 0.077807201963773984 0 -0.082100261070202116 0.081188686283539979 0 -0.085339303366446392 0.080065132052536361 0 -0.083925934408088793 0.084726815299361879 0 -0.08900252767269351 0.082210938421058866 0 -0.089303017378105587 0.08687732990267219 0 -0.085339303366446392 0.080065132052536361 0 -0.083925934408088793 0.084726815299361879 0 -0.08900252767269351 0.082210938421058866 0 -0.085339303366446392 0.080065132052536361 0 -0.08900252767269351 0.082210938421058866 0 -0.089852067703229954 0.078235131748296577 0 -0.085411241706369018 0.076353327937829896 0 -0.085339303366446392 0.080065132052536361 0 -0.089852067703229954 0.078235131748296577 0 -0.08900252767269351 0.082210938421058866 0 -0.089852067703229954 0.078235131748296577 0 -0.093480866825941367 0.08135327604451055 0 -0.08900252767269351 0.082210938421058866 0 -0.093480866825941367 0.08135327604451055 0 -0.091879612364940633 0.084338258833803678 0 -0.08900252767269351 0.082210938421058866 0 -0.091879612364940633 0.084338258833803678 0 -0.089303017378105587 0.08687732990267219 0 -0.093480866825941367 0.08135327604451055 0 -0.091879612364940633 0.084338258833803678 0 -0.095732037583022081 0.086911490966973093 0 -0.091879612364940633 0.084338258833803678 0 -0.089303017378105587 0.08687732990267219 0 -0.095732037583022081 0.086911490966973093 0 -0.082830745124202604 0.091558590605990503 0 -0.089303017378105587 0.08687732990267219 0 -0.092654118272398278 0.092563282028138183 0 -0.089303017378105587 0.08687732990267219 0 -0.092654118272398278 0.092563282028138183 0 -0.095732037583022081 0.086911490966973093 0 -0.092654118272398278 0.092563282028138183 0 -0.095732037583022081 0.086911490966973093 0 -0.1033124890500281 0.090734685958334699 0 -0.095732037583022081 0.086911490966973093 0 -0.098339668757629006 0.081004110340360799 0 -0.1033124890500281 0.090734685958334699 0 -0.089852067703229954 0.078235131748296577 0 -0.093480866825941367 0.08135327604451055 0 -0.098339668757629006 0.081004110340360799 0 -0.093480866825941367 0.08135327604451055 0 -0.095732037583022081 0.086911490966973093 0 -0.098339668757629006 0.081004110340360799 0 -0.098339668757629006 0.081004110340360799 0 -0.1033124890500281 0.090734685958334699 0 -0.093480866825941367 0.08135327604451055 0 -0.098339668757629006 0.081004110340360799 0 -0.098339668757629006 0.081004110340360799 0 -0.1033124890500281 0.090734685958334699 0 -0.1122071280233978 0.088609733266333923 0 -0.098339668757629006 0.081004110340360799 0 -0.1000783098585961 0.071615381060907965 0 -0.088512651209730508 0.061775074958739157 0 -0.098339668757629006 0.081004110340360799 0 -0.1000783098585961 0.071615381060907965 0 -0.1220977176037092 0.079296797309044209 0 -0.097418716352107637 0.063249181466969048 0 -0.1000783098585961 0.071615381060907965 0 -0.1066879075446879 0.065891723769493302 0 -0.097418716352107637 0.063249181466969048 0 -0.1000783098585961 0.071615381060907965 0 -0.088512651209730508 0.061775074958739157 0 -0.1066879075446879 0.065891723769493302 0 -0.1220977176037092 0.079296797309044209 0 -0.11807988910961301 0.057388915499099732 0 -0.1000783098585961 0.071615381060907965 0 -0.1066879075446879 0.065891723769493302 0 -0.1220977176037092 0.079296797309044209 0 -0.098339668757629006 0.081004110340360799 0 -0.1220977176037092 0.079296797309044209 0 -0.1122071280233978 0.088609733266333923 0 -0.098339668757629006 0.081004110340360799 0 -0.1220977176037092 0.079296797309044209 0 -0.1220977176037092 0.079296797309044209 0 -0.1122071280233978 0.088609733266333923 0 -0.1233385787441182 0.095052943995671366 0 -0.1033124890500281 0.090734685958334699 0 -0.1122071280233978 0.088609733266333923 0 -0.11394718596150449 0.096960128728258529 0 -0.1122071280233978 0.088609733266333923 0 -0.1233385787441182 0.095052943995671366 0 -0.11394718596150449 0.096960128728258529 0 -0.1233385787441182 0.095052943995671366 0 -0.1187657539566133 0.1030102265700619 0 -0.1240747090480155 0.1058960799589593 0 -0.1233385787441182 0.095052943995671366 0 -0.11394718596150449 0.096960128728258529 0 -0.1187657539566133 0.1030102265700619 0 -0.1033124890500281 0.090734685958334699 0 -0.11394718596150449 0.096960128728258529 0 -0.1150983111450038 0.1092291069616925 0 -0.1033124890500281 0.090734685958334699 0 -0.1150983111450038 0.1092291069616925 0 -0.11351123651985059 0.11069110457563711 0 -0.11394718596150449 0.096960128728258529 0 -0.1150983111450038 0.1092291069616925 0 -0.1187657539566133 0.1030102265700619 0 -0.1150983111450038 0.1092291069616925 0 -0.1201834214685796 0.1073682124868087 0 -0.1227949117246859 0.111337436456521 0 -0.1150983111450038 0.1092291069616925 0 -0.1201834214685796 0.1073682124868087 0 -0.1187657539566133 0.1030102265700619 0 -0.1201834214685796 0.1073682124868087 0 -0.1187657539566133 0.1030102265700619 0 -0.1240747090480155 0.1058960799589593 0 -0.1201834214685796 0.1073682124868087 0 -0.1240747090480155 0.1058960799589593 0 -0.1227949117246859 0.111337436456521 0 -0.12547712541990549 0.1168704235612987 0 -0.12688413323997941 0.1277235279650504 0 -0.1150983111450038 0.1092291069616925 0 -0.12688413323997941 0.1277235279650504 0 -0.1150983111450038 0.1092291069616925 0 -0.12688413323997941 0.1277235279650504 0 -0.1150983111450038 0.1092291069616925 0 -0.11351123651985059 0.11069110457563711 0 -0.12547712541990549 0.1168704235612987 0 -0.1150983111450038 0.1092291069616925 0 -0.1227949117246859 0.111337436456521 0 -0.12688413323997941 0.1277235279650504 0 -0.1237099839896731 0.1306475231929396 0 -0.11351123651985059 0.11069110457563711 0 -0.1237099839896731 0.1306475231929396 0 -0.1166769103878514 0.12346009443389359 0 -0.11351123651985059 0.11069110457563711 0 -0.1237099839896731 0.1306475231929396 0 -0.11351123651985059 0.11069110457563711 0 -0.1166769103878514 0.12346009443389359 0 -0.11223456592370069 0.11874705176729231 0 -0.11351123651985059 0.11069110457563711 0 -0.11519728670512031 0.12739422686189769 0 -0.1166769103878514 0.12346009443389359 0 -0.11388243882729419 0.12392624376176251 0 -0.1166769103878514 0.12346009443389359 0 -0.11388243882729419 0.12392624376176251 0 -0.11223456592370069 0.11874705176729231 0 -0.11223456592370069 0.11874705176729231 0 -0.1096619424095597 0.1170521005455513 0 -0.1083303094454002 0.12283836377898701 0 -0.11388243882729419 0.12392624376176251 0 -0.11223456592370069 0.11874705176729231 0 -0.1083303094454002 0.12283836377898701 0 -0.1114798624555096 0.12746559923364431 0 -0.11388243882729419 0.12392624376176251 0 -0.1083303094454002 0.12283836377898701 0 -0.11223456592370069 0.11874705176729231 0 -0.11351123651985059 0.11069110457563711 0 -0.111344557952248 0.1145144035079227 0 -0.1096619424095597 0.1170521005455513 0 -0.111344557952248 0.1145144035079227 0 -0.10837342738926201 0.1118170601891887 0 -0.11223456592370069 0.11874705176729231 0 -0.1096619424095597 0.1170521005455513 0 -0.111344557952248 0.1145144035079227 0 -0.11351123651985059 0.11069110457563711 0 -0.111344557952248 0.1145144035079227 0 -0.10837342738926201 0.1118170601891887 0 -0.10837342738926201 0.1118170601891887 0 -0.1051716542356378 0.1148410880666942 0 -0.1043027773927488 0.1100935018152077 0 -0.1096619424095597 0.1170521005455513 0 -0.10837342738926201 0.1118170601891887 0 -0.1051716542356378 0.1148410880666942 0 -0.1096619424095597 0.1170521005455513 0 -0.1051716542356378 0.1148410880666942 0 -0.1027413435705844 0.11919867034403341 0 -0.1051716542356378 0.1148410880666942 0 -0.1027413435705844 0.11919867034403341 0 -0.097849768269263573 0.1130869027582596 0 -0.1051716542356378 0.1148410880666942 0 -0.1043027773927488 0.1100935018152077 0 -0.097849768269263573 0.1130869027582596 0 -0.099840978436991301 0.12566498740148779 0 -0.1083303094454002 0.12283836377898701 0 -0.1027413435705844 0.11919867034403341 0 -0.1096619424095597 0.1170521005455513 0 -0.1083303094454002 0.12283836377898701 0 -0.1027413435705844 0.11919867034403341 0 -0.099840978436991301 0.12566498740148779 0 -0.088973339360985587 0.12735164772417679 0 -0.094964632568524027 0.1207633551279803 0 -0.088932870564360722 0.117886917518154 0 -0.094964632568524027 0.1207633551279803 0 -0.097849768269263573 0.1130869027582596 0 -0.099840978436991301 0.12566498740148779 0 -0.1027413435705844 0.11919867034403341 0 -0.094964632568524027 0.1207633551279803 0 -0.1027413435705844 0.11919867034403341 0 -0.094964632568524027 0.1207633551279803 0 -0.097849768269263573 0.1130869027582596 0 -0.1043027773927488 0.1100935018152077 0 -0.097849768269263573 0.1130869027582596 0 -0.1006886555374302 0.1062692670946036 0 -0.1033124890500281 0.090734685958334699 0 -0.1150983111450038 0.1092291069616925 0 -0.1033124890500281 0.090734685958334699 0 -0.11351123651985059 0.11069110457563711 0 -0.1033124890500281 0.090734685958334699 0 -0.11351123651985059 0.11069110457563711 0 -0.1048998959926034 0.10354753027045829 0 -0.088083402990933271 0.1004013245441376 0 -0.095445822888057821 0.1060510468834588 0 -0.097777983277490682 0.099823202100299671 0 -0.097849768269263573 0.1130869027582596 0 -0.095445822888057821 0.1060510468834588 0 -0.1006886555374302 0.1062692670946036 0 -0.095445822888057821 0.1060510468834588 0 -0.1006886555374302 0.1062692670946036 0 -0.097777983277490682 0.099823202100299671 0 -0.1006886555374302 0.1062692670946036 0 -0.097777983277490682 0.099823202100299671 0 -0.1048998959926034 0.10354753027045829 0 -0.092654118272398278 0.092563282028138183 0 -0.1033124890500281 0.090734685958334699 0 -0.097777983277490682 0.099823202100299671 0 -0.1033124890500281 0.090734685958334699 0 -0.097777983277490682 0.099823202100299671 0 -0.1048998959926034 0.10354753027045829 0 -0.10837342738926201 0.1118170601891887 0 -0.1043027773927488 0.1100935018152077 0 -0.1048998959926034 0.10354753027045829 0 -0.11351123651985059 0.11069110457563711 0 -0.10837342738926201 0.1118170601891887 0 -0.1048998959926034 0.10354753027045829 0 -0.1043027773927488 0.1100935018152077 0 -0.1006886555374302 0.1062692670946036 0 -0.1048998959926034 0.10354753027045829 0 -0.097293161727567842 0.01131020831363817 0 -0.11441225685918641 0.029434972527870688 0 -0.086791806445713479 0.030596854354583768 0 -0.12705603436313739 0.011468810593014351 0 -0.097293161727567842 0.01131020831363817 0 -0.11487335580186619 -0.01739582132962459 0 -0.12705603436313739 0.011468810593014351 0 -0.097293161727567842 0.01131020831363817 0 -0.12705603436313739 0.011468810593014351 0 -0.097293161727567842 0.01131020831363817 0 -0.11441225685918641 0.029434972527870688 0 -0.1313644189270744 0.042240778430714887 0 -0.11441225685918641 0.029434972527870688 0 -0.11807988910961301 0.057388915499099732 0 -0.11441225685918641 0.029434972527870688 0 -0.11807988910961301 0.057388915499099732 0 -0.10118405261095891 0.045343470767195498 0 -0.11807988910961301 0.057388915499099732 0 -0.099735974292342822 0.056978017638138909 0 -0.10118405261095891 0.045343470767195498 0 -0.1066879075446879 0.065891723769493302 0 -0.11807988910961301 0.057388915499099732 0 -0.099735974292342822 0.056978017638138909 0 -0.099735974292342822 0.056978017638138909 0 -0.10118405261095891 0.045343470767195498 0 -0.090667201509784273 0.054100504879871142 0 -0.099735974292342822 0.056978017638138909 0 -0.093531159976153758 0.059199010657573541 0 -0.090667201509784273 0.054100504879871142 0 -0.097418716352107637 0.063249181466969048 0 -0.1066879075446879 0.065891723769493302 0 -0.099735974292342822 0.056978017638138909 0 -0.097418716352107637 0.063249181466969048 0 -0.099735974292342822 0.056978017638138909 0 -0.093531159976153758 0.059199010657573541 0 -0.11441225685918641 0.029434972527870688 0 -0.10118405261095891 0.045343470767195498 0 -0.086791806445713479 0.030596854354583768 0 -0.10118405261095891 0.045343470767195498 0 -0.086634129885570926 0.047224790650434077 0 -0.086791806445713479 0.030596854354583768 0 -0.086634129885570926 0.047224790650434077 0 -0.072567525863174193 0.042489405457043383 0 -0.086791806445713479 0.030596854354583768 0 -0.084866426143491672 0.061788953492769749 0 -0.072567525863174193 0.042489405457043383 0 -0.086634129885570926 0.047224790650434077 0 -0.084866426143491672 0.061788953492769749 0 -0.072567525863174193 0.042489405457043383 0 -0.097418716352107637 0.063249181466969048 0 -0.088512651209730508 0.061775074958739157 0 -0.093531159976153758 0.059199010657573541 0 -0.088512651209730508 0.061775074958739157 0 -0.090667201509784273 0.054100504879871142 0 -0.084866426143491672 0.061788953492769749 0 -0.088512651209730508 0.061775074958739157 0 -0.093531159976153758 0.059199010657573541 0 -0.090667201509784273 0.054100504879871142 0 -0.086634129885570926 0.047224790650434077 0 -0.090667201509784273 0.054100504879871142 0 -0.084866426143491672 0.061788953492769749 0 -0.10118405261095891 0.045343470767195498 0 -0.086634129885570926 0.047224790650434077 0 -0.090667201509784273 0.054100504879871142 0 -0.080973993472096856 0.063500447425704556 0 -0.084866426143491672 0.061788953492769749 0 -0.076355506708763551 0.060612851998245461 0 -0.084866426143491672 0.061788953492769749 0 -0.076355506708763551 0.060612851998245461 0 -0.072567525863174193 0.042489405457043383 0 -0.076355506708763551 0.060612851998245461 0 -0.063083401408893416 0.051823820470119727 0 -0.072567525863174193 0.042489405457043383 0 -0.068329508596145297 0.062660012020854514 0 -0.076355506708763551 0.060612851998245461 0 -0.063083401408893416 0.051823820470119727 0 -0.068329508596145297 0.062660012020854514 0 -0.063083401408893416 0.051823820470119727 0 -0.062181979903238163 0.060812796880851297 0 -0.063083401408893416 0.051823820470119727 0 -0.072567525863174193 0.042489405457043383 0 -0.05708655167968537 0.034545439332702307 0 -0.072567525863174193 0.042489405457043383 0 -0.067580013884195739 0.0276595351730149 0 -0.086791806445713479 0.030596854354583768 0 -0.072567525863174193 0.042489405457043383 0 -0.067580013884195739 0.0276595351730149 0 -0.05708655167968537 0.034545439332702307 0 -0.067580013884195739 0.0276595351730149 0 -0.086791806445713479 0.030596854354583768 0 -0.06753028909199818 0.01115160603426198 0 -0.067580013884195739 0.0276595351730149 0 -0.06753028909199818 0.01115160603426198 0 -0.053923896340407451 0.019514370686483061 0 -0.097293161727567842 0.01131020831363817 0 -0.086791806445713479 0.030596854354583768 0 -0.06753028909199818 0.01115160603426198 0 -0.091151956463994502 -0.009207837001269004 0 -0.097293161727567842 0.01131020831363817 0 -0.06753028909199818 0.01115160603426198 0 -0.097293161727567842 0.01131020831363817 0 -0.06753028909199818 0.01115160603426198 0 -0.06753028909199818 0.01115160603426198 0 -0.053923896340407451 0.019514370686483061 0 -0.037767416456428567 0.01099300375488579 0 -0.06753028909199818 0.01115160603426198 0 -0.037767416456428567 0.01099300375488579 0 -0.05961480921768518 -0.0056805072271022342 0 -0.04603068534762423 -3.0850515358807798e-05 0 -0.06753028909199818 0.01115160603426198 0 -0.04603068534762423 -3.0850515358807798e-05 0 -0.06753028909199818 0.01115160603426198 0 -0.037767416456428567 0.01099300375488579 0 -0.067580013884195739 0.0276595351730149 0 -0.053923896340407451 0.019514370686483061 0 -0.05708655167968537 0.034545439332702307 0 -0.053923896340407451 0.019514370686483061 0 -0.05708655167968537 0.034545439332702307 0 -0.047182748588737458 0.032321103951699189 0 -0.053923896340407451 0.019514370686483061 0 -0.039108926559622961 0.018940575858092491 0 -0.037767416456428567 0.01099300375488579 0 -0.053923896340407451 0.019514370686483061 0 -0.039108926559622961 0.018940575858092491 0 -0.047182748588737458 0.032321103951699189 0 -0.039108926559622961 0.018940575858092491 0 -0.032140655722258479 0.022278987088832879 0 -0.031542528520333991 0.031966416124127088 0 -0.039108926559622961 0.018940575858092491 0 -0.03329376588805498 0.017872015780778329 0 -0.037767416456428567 0.01099300375488579 0 -0.039108926559622961 0.018940575858092491 0 -0.032140655722258479 0.022278987088832879 0 -0.03329376588805498 0.017872015780778329 0 -0.03329376588805498 0.017872015780778329 0 -0.037767416456428567 0.01099300375488579 0 -0.023392502968723129 0.017506422802916401 0 -0.037767416456428567 0.01099300375488579 0 -0.035209522367389952 0.002657769990137076 0 -0.02552884126160343 0.0034602984309436138 0 -0.04603068534762423 -3.0850515358807798e-05 0 -0.037767416456428567 0.01099300375488579 0 -0.035209522367389952 0.002657769990137076 0 -0.048685917327770167 0.062976449455659819 0 -0.054962991487983427 0.061089652044746513 0 -0.048507619575292232 0.054219717233707512 0 -0.063083401408893416 0.051823820470119727 0 -0.054962991487983427 0.061089652044746513 0 -0.062181979903238163 0.060812796880851297 0 -0.063083401408893416 0.051823820470119727 0 -0.054962991487983427 0.061089652044746513 0 -0.048507619575292232 0.054219717233707512 0 -0.063083401408893416 0.051823820470119727 0 -0.048507619575292232 0.054219717233707512 0 -0.04926364452843586 0.042424612036976027 0 -0.063083401408893416 0.051823820470119727 0 -0.04926364452843586 0.042424612036976027 0 -0.05708655167968537 0.034545439332702307 0 -0.04926364452843586 0.042424612036976027 0 -0.05708655167968537 0.034545439332702307 0 -0.047182748588737458 0.032321103951699189 0 -0.039108926559622961 0.018940575858092491 0 -0.036530723835535628 0.046180521844242053 0 -0.039108926559622961 0.018940575858092491 0 -0.031542528520333991 0.031966416124127088 0 -0.036530723835535628 0.046180521844242053 0 -0.039108926559622961 0.018940575858092491 0 -0.047182748588737458 0.032321103951699189 0 -0.036530723835535628 0.046180521844242053 0 -0.04926364452843586 0.042424612036976027 0 -0.047182748588737458 0.032321103951699189 0 -0.036530723835535628 0.046180521844242053 0 -0.03791295026989655 0.064766833259344736 0 -0.036530723835535628 0.046180521844242053 0 -0.042150101728099743 0.06140274416018604 0 -0.033433994531230207 0.073413929101007136 0 -0.036530723835535628 0.046180521844242053 0 -0.033433994531230207 0.073413929101007136 0 -0.036530723835535628 0.046180521844242053 0 -0.024957510961105728 0.052554086559175192 0 -0.03791295026989655 0.064766833259344736 0 -0.033433994531230207 0.073413929101007136 0 -0.036530723835535628 0.046180521844242053 0 -0.048507619575292232 0.054219717233707512 0 -0.04926364452843586 0.042424612036976027 0 -0.036530723835535628 0.046180521844242053 0 -0.048507619575292232 0.054219717233707512 0 -0.036530723835535628 0.046180521844242053 0 -0.042150101728099743 0.06140274416018604 0 -0.048685917327770167 0.062976449455659819 0 -0.048507619575292232 0.054219717233707512 0 -0.042150101728099743 0.06140274416018604 0 -0.017111491781406619 0.059445348841143608 0 -0.024957510961105728 0.052554086559175192 0 -0.0087575758547522118 0.054061196402823801 0 -0.022126256647668052 0.066005960114057474 0 -0.017111491781406619 0.059445348841143608 0 -0.024957510961105728 0.052554086559175192 0 -0.031542528520333991 0.031966416124127088 0 -0.036530723835535628 0.046180521844242053 0 -0.024957510961105728 0.052554086559175192 0 -0.031542528520333991 0.031966416124127088 0 -0.024957510961105728 0.052554086559175192 0 -0.01648102739098127 0.031694244017343283 0 -0.024957510961105728 0.052554086559175192 0 -0.01648102739098127 0.031694244017343283 0 -0.0087575758547522118 0.054061196402823801 0 -0.024957510961105728 0.052554086559175192 0 -0.01648102739098127 0.031694244017343283 0 -0.01648102739098127 0.031694244017343283 0 -0.0035958029166766451 0.02847279380552431 0 0.0015668271987305719 0.040585630786372548 0 -0.01648102739098127 0.031694244017343283 0 -0.0087575758547522118 0.054061196402823801 0 0.0015668271987305719 0.040585630786372548 0 -0.011840771648368069 0.070036276409794568 0 -0.017111491781406619 0.059445348841143608 0 -0.0087575758547522118 0.054061196402823801 0 -0.016223407507011348 -0.0014783717257068789 0 -0.02552884126160343 0.0034602984309436138 0 -0.0080045438208588993 0.01083440147551047 0 -0.037767416456428567 0.01099300375488579 0 -0.023392502968723129 0.017506422802916401 0 -0.0080045438208588993 0.01083440147551047 0 -0.037767416456428567 0.01099300375488579 0 -0.02552884126160343 0.0034602984309436138 0 -0.0080045438208588993 0.01083440147551047 0 -0.037767416456428567 0.01099300375488579 0 -0.0080045438208588993 0.01083440147551047 0 -0.030439316156328361 -0.0057053113401083922 0 -0.035209522367389952 0.002657769990137076 0 -0.02552884126160343 0.0034602984309436138 0 -0.032140655722258479 0.022278987088832879 0 -0.03329376588805498 0.017872015780778329 0 -0.023392502968723129 0.017506422802916401 0 -0.01648102739098127 0.031694244017343283 0 -0.023392502968723129 0.017506422802916401 0 -0.0080045438208588993 0.01083440147551047 0 -0.031542528520333991 0.031966416124127088 0 -0.01648102739098127 0.031694244017343283 0 -0.023392502968723129 0.017506422802916401 0 -0.032140655722258479 0.022278987088832879 0 -0.031542528520333991 0.031966416124127088 0 -0.023392502968723129 0.017506422802916401 0 -0.01648102739098127 0.031694244017343283 0 -0.0035958029166766451 0.02847279380552431 0 -0.0080045438208588993 0.01083440147551047 0 -0.01648102739098127 0.031694244017343283 0 -0.0080045438208588993 0.01083440147551047 0 -0.0035958029166766451 0.02847279380552431 0 -0.0080045438208588993 0.01083440147551047 0 0.0046712416030229636 0.02153649570399865 0 -0.001512727700102235 -0.0051413579262706288 0 -0.0080045438208588993 0.01083440147551047 0 -0.001512727700102235 -0.0051413579262706288 0 -0.0080045438208588993 0.01083440147551047 0 0.0077282339362128027 0.0083883445724478138 0 -0.016223407507011348 -0.0014783717257068789 0 -0.001512727700102235 -0.0051413579262706288 0 -0.0080045438208588993 0.01083440147551047 0 -0.0080045438208588993 0.01083440147551047 0 0.018746447069914889 0.01069184910219249 0 -0.0080045438208588993 0.01083440147551047 0 0.01203044478382055 0.01566706854042043 0 0.018746447069914889 0.01069184910219249 0 -0.0080045438208588993 0.01083440147551047 0 0.0077282339362128027 0.0083883445724478138 0 0.018746447069914889 0.01069184910219249 0 -0.001512727700102235 -0.0051413579262706288 0 0.0077282339362128027 0.0083883445724478138 0 0.0079713312968560067 -0.00176500883185253 0 0.0077282339362128027 0.0083883445724478138 0 0.01961088504268934 0.0036363503081079051 0 0.01710407201838782 0.0069884730364961761 0 0.0077282339362128027 0.0083883445724478138 0 0.01961088504268934 0.0036363503081079051 0 0.0077282339362128027 0.0083883445724478138 0 0.013660132337261601 -0.00098361484742467715 0 0.0079713312968560067 -0.00176500883185253 0 0.0077282339362128027 0.0083883445724478138 0 0.01961088504268934 0.0036363503081079051 0 0.013660132337261601 -0.00098361484742467715 0 0.0077282339362128027 0.0083883445724478138 0 0.01710407201838782 0.0069884730364961761 0 0.018746447069914889 0.01069184910219249 0 -0.0080045438208588993 0.01083440147551047 0 0.0046712416030229636 0.02153649570399865 0 0.01203044478382055 0.01566706854042043 0 -0.0035958029166766451 0.02847279380552431 0 0.0046712416030229636 0.02153649570399865 0 0.010073145229865179 0.029736384760214469 0 0.0046712416030229636 0.02153649570399865 0 0.010073145229865179 0.029736384760214469 0 0.01215823420233866 0.02160396783473913 0 0.010073145229865179 0.029736384760214469 0 0.01215823420233866 0.02160396783473913 0 0.017886029824855831 0.023320379898905421 0 0.0046712416030229636 0.02153649570399865 0 0.01215823420233866 0.02160396783473913 0 0.01203044478382055 0.01566706854042043 0 0.01215823420233866 0.02160396783473913 0 0.01613030957012878 0.017759510270156671 0 0.017886029824855831 0.023320379898905421 0 0.01203044478382055 0.01566706854042043 0 0.01613030957012878 0.017759510270156671 0 0.01725735140157246 0.01475900717014096 0 0.01215823420233866 0.02160396783473913 0 0.01203044478382055 0.01566706854042043 0 0.01613030957012878 0.017759510270156671 0 0.020309417164811959 0.014216175677563709 0 0.030065237914130859 0.036214484182456069 0 0.032492882337866277 0.020570703666131 0 0.020309417164811959 0.014216175677563709 0 0.02148537105230398 0.032026933949258762 0 0.030065237914130859 0.036214484182456069 0 0.017886029824855831 0.023320379898905421 0 0.020309417164811959 0.014216175677563709 0 0.02148537105230398 0.032026933949258762 0 0.01613030957012878 0.017759510270156671 0 0.017886029824855831 0.023320379898905421 0 0.020309417164811959 0.014216175677563709 0 0.020309417164811959 0.014216175677563709 0 0.02148537105230398 0.032026933949258762 0 0.020309417164811959 0.014216175677563709 0 0.030065237914130859 0.036214484182456069 0 0.010073145229865179 0.029736384760214469 0 0.017886029824855831 0.023320379898905421 0 0.02148537105230398 0.032026933949258762 0 0.01961088504268934 0.0036363503081079051 0 0.018746447069914889 0.01069184910219249 0 0.042861558030298653 0.01056334297267768 0 0.018746447069914889 0.01069184910219249 0 0.020309417164811959 0.014216175677563709 0 0.032492882337866277 0.020570703666131 0 0.018746447069914889 0.01069184910219249 0 0.042861558030298653 0.01056334297267768 0 0.01961088504268934 0.0036363503081079051 0 0.01710407201838782 0.0069884730364961761 0 0.018746447069914889 0.01069184910219249 0 0.01961088504268934 0.0036363503081079051 0 0.018746447069914889 0.01069184910219249 0 0.01710407201838782 0.0069884730364961761 0 0.018746447069914889 0.01069184910219249 0 0.01613030957012878 0.017759510270156671 0 0.01725735140157246 0.01475900717014096 0 0.020309417164811959 0.014216175677563709 0 0.01203044478382055 0.01566706854042043 0 0.018746447069914889 0.01069184910219249 0 0.01725735140157246 0.01475900717014096 0 0.018746447069914889 0.01069184910219249 0 0.01725735140157246 0.01475900717014096 0 0.020309417164811959 0.014216175677563709 0 0.018746447069914889 0.01069184910219249 0 0.020309417164811959 0.014216175677563709 0 -0.0087575758547522118 0.054061196402823801 0 0.01167095775674408 0.051954974205026892 0 0.0067128332214790448 0.066304310358282131 0 -0.0087575758547522118 0.054061196402823801 0 0.01167095775674408 0.051954974205026892 0 0.0015668271987305719 0.040585630786372548 0 0.01167095775674408 0.051954974205026892 0 0.01970169280553543 0.062653079480411544 0 0.0067128332214790448 0.066304310358282131 0 0.01167095775674408 0.051954974205026892 0 0.01349152523548753 0.040828323184365328 0 0.0015668271987305719 0.040585630786372548 0 -0.0035958029166766451 0.02847279380552431 0 0.010073145229865179 0.029736384760214469 0 0.0015668271987305719 0.040585630786372548 0 0.010073145229865179 0.029736384760214469 0 0.01349152523548753 0.040828323184365328 0 0.02148537105230398 0.032026933949258762 0 0.010073145229865179 0.029736384760214469 0 0.01349152523548753 0.040828323184365328 0 0.0015668271987305719 0.040585630786372548 0 0.01349152523548753 0.040828323184365328 0 0.02148537105230398 0.032026933949258762 0 0.022661324939793861 0.049837692220953973 0 0.02148537105230398 0.032026933949258762 0 0.022661324939793861 0.049837692220953973 0 0.02148537105230398 0.032026933949258762 0 0.030065237914130859 0.036214484182456069 0 0.022661324939793861 0.049837692220953973 0 0.030065237914130859 0.036214484182456069 0 0.022661324939793861 0.049837692220953973 0 0.039821058663451578 0.058212792687347623 0 0.022661324939793861 0.049837692220953973 0 0.039821058663451578 0.058212792687347623 0 0.01970169280553543 0.062653079480411544 0 0.01167095775674408 0.051954974205026892 0 0.01349152523548753 0.040828323184365328 0 0.022661324939793861 0.049837692220953973 0 0.01167095775674408 0.051954974205026892 0 0.022661324939793861 0.049837692220953973 0 0.01970169280553543 0.062653079480411544 0 0.039821058663451578 0.058212792687347623 0 0.044450691965604097 0.044369381512905787 0 0.053756892572386937 0.062577256687666935 0 0.030065237914130859 0.036214484182456069 0 0.039821058663451578 0.058212792687347623 0 0.030065237914130859 0.036214484182456069 0 0.039821058663451578 0.058212792687347623 0 0.044450691965604097 0.044369381512905787 0 0.030065237914130859 0.036214484182456069 0 0.044450691965604097 0.044369381512905787 0 0.039001916054672292 0.030613612068665651 0 0.044450691965604097 0.044369381512905787 0 0.048549867380766248 0.031836067528231128 0 0.039001916054672292 0.030613612068665651 0 0.048549867380766248 0.031836067528231128 0 0.059382249778519462 0.038782129514267391 0 0.065505418799260237 0.027205066826468689 0 0.044450691965604097 0.044369381512905787 0 0.059382249778519462 0.038782129514267391 0 0.063365640338121504 0.052114159645117328 0 0.044450691965604097 0.044369381512905787 0 0.048549867380766248 0.031836067528231128 0 0.059382249778519462 0.038782129514267391 0 0.044450691965604097 0.044369381512905787 0 0.063365640338121504 0.052114159645117328 0 0.053756892572386937 0.062577256687666935 0 0.063365640338121504 0.052114159645117328 0 0.067603240007215515 0.071821317850237792 0 0.053756892572386937 0.062577256687666935 0 0.01961088504268934 0.0036363503081079051 0 0.042861558030298653 0.01056334297267768 0 0.044873334150910438 -0.0064663626462446496 0 0.018746447069914889 0.01069184910219249 0 0.042861558030298653 0.01056334297267768 0 0.032492882337866277 0.020570703666131 0 0.030065237914130859 0.036214484182456069 0 0.032492882337866277 0.020570703666131 0 0.039001916054672292 0.030613612068665651 0 0.032492882337866277 0.020570703666131 0 0.039001916054672292 0.030613612068665651 0 0.043223109380596668 0.022774974210716111 0 0.048549867380766248 0.031836067528231128 0 0.039001916054672292 0.030613612068665651 0 0.043223109380596668 0.022774974210716111 0 0.042861558030298653 0.01056334297267768 0 0.043223109380596668 0.022774974210716111 0 0.053209323099379882 0.02029114481787507 0 0.042861558030298653 0.01056334297267768 0 0.032492882337866277 0.020570703666131 0 0.043223109380596668 0.022774974210716111 0 0.053209323099379882 0.02029114481787507 0 0.065646860152450193 0.01044192321265998 0 0.065505418799260237 0.027205066826468689 0 0.048549867380766248 0.031836067528231128 0 0.053209323099379882 0.02029114481787507 0 0.065505418799260237 0.027205066826468689 0 0.048549867380766248 0.031836067528231128 0 0.043223109380596668 0.022774974210716111 0 0.053209323099379882 0.02029114481787507 0 0.042861558030298653 0.01056334297267768 0 0.057745946190224183 0.001898109140009354 0 0.065646860152450193 0.01044192321265998 0 0.042861558030298653 0.01056334297267768 0 0.057745946190224183 0.001898109140009354 0 0.044873334150910438 -0.0064663626462446496 0 0.042861558030298653 0.01056334297267768 0 0.053209323099379882 0.02029114481787507 0 0.065646860152450193 0.01044192321265998 0 0.042861558030298653 0.01056334297267768 0 0.065646860152450193 0.01044192321265998 0 0.065646860152450193 0.01044192321265998 0 0.088432162274601628 0.010320503452636409 0 0.057745946190224183 0.001898109140009354 0 0.06785690118007047 0.001541904395658605 0 0.065646860152450193 0.01044192321265998 0 0.065646860152450193 0.01044192321265998 0 0.077943423036168427 0.00064813052460827719 0 0.088432162274601628 0.010320503452636409 0 0.06785690118007047 0.001541904395658605 0 0.065646860152450193 0.01044192321265998 0 0.077943423036168427 0.00064813052460827719 0 0.077943423036168427 0.00064813052460827719 0 0.084129674216321226 0.0019910490799615529 0 0.084129674216321226 0.0019910490799615529 0 0.092423116342254114 0.01029923620402419 0 0.1001060251130647 0.0054739366344950186 0 0.084129674216321226 0.0019910490799615529 0 0.1001060251130647 0.0054739366344950186 0 0.065646860152450193 0.01044192321265998 0 0.088432162274601628 0.010320503452636409 0 0.089401451962503903 0.01219701167759228 0 0.077943423036168427 0.00064813052460827719 0 0.084129674216321226 0.0019910490799615529 0 0.088432162274601628 0.010320503452636409 0 0.084129674216321226 0.0019910490799615529 0 0.1001060251130647 0.0054739366344950186 0 0.089359132644354328 -0.001804303285622382 0 0.088432162274601628 0.010320503452636409 0 0.089401451962503903 0.01219701167759228 0 0.088432162274601628 0.010320503452636409 0 0.089401451962503903 0.01219701167759228 0 0.092423116342254114 0.01029923620402419 0 0.088432162274601628 0.010320503452636409 0 0.092423116342254114 0.01029923620402419 0 0.089401451962503903 0.01219701167759228 0 0.092423116342254114 0.01029923620402419 0 0.084129674216321226 0.0019910490799615529 0 0.088432162274601628 0.010320503452636409 0 0.092423116342254114 0.01029923620402419 0 0.084129674216321226 0.0019910490799615529 0 0.088432162274601628 0.010320503452636409 0 0.089401451962503903 0.01219701167759228 0 0.084402030383063625 0.030764688403300499 0 0.1024373520270894 0.037434021826958007 0 0.089401451962503903 0.01219701167759228 0 0.084402030383063625 0.030764688403300499 0 0.065505418799260237 0.027205066826468689 0 0.065646860152450193 0.01044192321265998 0 0.089401451962503903 0.01219701167759228 0 0.065505418799260237 0.027205066826468689 0 0.089401451962503903 0.01219701167759228 0 0.065505418799260237 0.027205066826468689 0 0.059382249778519462 0.038782129514267391 0 0.065505418799260237 0.027205066826468689 0 0.072441031033830566 0.040789650066275017 0 0.084402030383063625 0.030764688403300499 0 0.065505418799260237 0.027205066826468689 0 0.072441031033830566 0.040789650066275017 0 0.059382249778519462 0.038782129514267391 0 0.072441031033830566 0.040789650066275017 0 0.063365640338121504 0.052114159645117328 0 0.063365640338121504 0.052114159645117328 0 0.087567594433565529 0.058241273651199091 0 0.067603240007215515 0.071821317850237792 0 0.072441031033830566 0.040789650066275017 0 0.063365640338121504 0.052114159645117328 0 0.087567594433565529 0.058241273651199091 0 0.084402030383063625 0.030764688403300499 0 0.087567594433565529 0.058241273651199091 0 0.1024373520270894 0.037434021826958007 0 0.084402030383063625 0.030764688403300499 0 0.072441031033830566 0.040789650066275017 0 0.087567594433565529 0.058241273651199091 0 0.087567594433565529 0.058241273651199091 0 0.1024373520270894 0.037434021826958007 0 0.1154732520916749 0.062671031976323774 0 0.1024373520270894 0.037434021826958007 0 0.1154732520916749 0.062671031976323774 0 0.1024373520270894 0.037434021826958007 0 0.1196089951785259 0.044102697575023567 0 0.1154732520916749 0.062671031976323774 0 0.1196089951785259 0.044102697575023567 0 0.1154732520916749 0.062671031976323774 0 0.1315261100014129 0.05413030454013297 0 0.1196089951785259 0.044102697575023567 0 0.1187201190948507 0.0275828540440872 0 0.12988814267760149 0.038695275487615872 0 0.1024373520270894 0.037434021826958007 0 0.1196089951785259 0.044102697575023567 0 0.1187201190948507 0.0275828540440872 0 0.1187201190948507 0.0275828540440872 0 0.1247167304705508 0.010832806133241181 0 0.10370581916997711 0.010239112223116889 0 0.1247167304705508 0.010832806133241181 0 0.1001060251130647 0.0054739366344950186 0 0.12099230233569511 -0.0076438222115242128 0 0.1247167304705508 0.010832806133241181 0 0.10370581916997711 0.010239112223116889 0 0.1001060251130647 0.0054739366344950186 0 0.1247167304705508 0.010832806133241181 0 0.1001060251130647 0.0054739366344950186 0 0.092423116342254114 0.01029923620402419 0 0.10370581916997711 0.010239112223116889 0 0.092423116342254114 0.01029923620402419 0 0.10370581916997711 0.010239112223116889 0 0.1001060251130647 0.0054739366344950186 0 0.089401451962503903 0.01219701167759228 0 0.092423116342254114 0.01029923620402419 0 0.10370581916997711 0.010239112223116889 0 0.092423116342254114 0.01029923620402419 0 0.1001060251130647 0.0054739366344950186 0 0.089401451962503903 0.01219701167759228 0 0.1024373520270894 0.037434021826958007 0 0.089401451962503903 0.01219701167759228 0 0.1024373520270894 0.037434021826958007 0 0.10370581916997711 0.010239112223116889 0 0.1024373520270894 0.037434021826958007 0 0.1187201190948507 0.0275828540440872 0 0.10370581916997711 0.010239112223116889 0 0.1024262909877429 0.10215825850823371 0 0.1022702256108373 0.1093120705075899 0 0.1084190496342211 0.10573547313780809 0 0.1022702256108373 0.1093120705075899 0 0.1084190496342211 0.10573547313780809 0 0.1068694187972892 0.11103034538361641 0 0.1024262909877429 0.10215825850823371 0 0.1084190496342211 0.10573547313780809 0 0.1081447628216063 0.09917213681193067 0 0.1024262909877429 0.10215825850823371 0 0.1081447628216063 0.09917213681193067 0 0.1019129826551948 0.091946798273217181 0 0.1081447628216063 0.09917213681193067 0 0.1128686308833565 0.094063958505912676 0 0.1019129826551948 0.091946798273217181 0 0.095714831108542342 0.097840073808485362 0 0.1019129826551948 0.091946798273217181 0 0.088903522239811877 0.091903551894324989 0 0.1024262909877429 0.10215825850823371 0 0.095714831108542342 0.097840073808485362 0 0.094853126076581834 0.1043630167763776 0 0.1024262909877429 0.10215825850823371 0 0.095714831108542342 0.097840073808485362 0 0.1019129826551948 0.091946798273217181 0 0.1024262909877429 0.10215825850823371 0 0.094853126076581834 0.1043630167763776 0 0.09910994117511035 0.10647350563912331 0 0.1024262909877429 0.10215825850823371 0 0.1022702256108373 0.1093120705075899 0 0.09910994117511035 0.10647350563912331 0 0.1022702256108373 0.1093120705075899 0 0.09910994117511035 0.10647350563912331 0 0.096356440282670847 0.11015832077642761 0 0.094853126076581834 0.1043630167763776 0 0.09910994117511035 0.10647350563912331 0 0.096356440282670847 0.11015832077642761 0 0.096356440282670847 0.11015832077642761 0 0.098272354678557744 0.11523540636143401 0 0.092345613288074876 0.1151629980966497 0 0.098272354678557744 0.11523540636143401 0 0.1005697159863144 0.1199296783231345 0 0.1039546982042303 0.1149655569049547 0 0.1022702256108373 0.1093120705075899 0 0.096356440282670847 0.11015832077642761 0 0.098272354678557744 0.11523540636143401 0 0.1022702256108373 0.1093120705075899 0 0.098272354678557744 0.11523540636143401 0 0.1039546982042303 0.1149655569049547 0 0.098272354678557744 0.11523540636143401 0 0.094137434699218772 0.1218838135598474 0 0.092345613288074876 0.1151629980966497 0 0.098272354678557744 0.11523540636143401 0 0.094137434699218772 0.1218838135598474 0 0.1005697159863144 0.1199296783231345 0 0.094137434699218772 0.1218838135598474 0 0.1005697159863144 0.1199296783231345 0 0.1010724179257948 0.127406395960832 0 0.1005697159863144 0.1199296783231345 0 0.10578279026053949 0.1206298778022898 0 0.1010724179257948 0.127406395960832 0 0.10578279026053949 0.1206298778022898 0 0.1010724179257948 0.127406395960832 0 0.1083680107861353 0.1262331417866126 0 0.1005697159863144 0.1199296783231345 0 0.10578279026053949 0.1206298778022898 0 0.1039546982042303 0.1149655569049547 0 0.10578279026053949 0.1206298778022898 0 0.1093764086603695 0.114992428938696 0 0.1113554900003929 0.1202520648995092 0 0.10578279026053949 0.1206298778022898 0 0.1113554900003929 0.1202520648995092 0 0.1083680107861353 0.1262331417866126 0 0.1022702256108373 0.1093120705075899 0 0.1039546982042303 0.1149655569049547 0 0.1068694187972892 0.11103034538361641 0 0.10578279026053949 0.1206298778022898 0 0.1039546982042303 0.1149655569049547 0 0.1093764086603695 0.114992428938696 0 0.1039546982042303 0.1149655569049547 0 0.1068694187972892 0.11103034538361641 0 0.1093764086603695 0.114992428938696 0 0.1068694187972892 0.11103034538361641 0 0.1093764086603695 0.114992428938696 0 0.1135430381832282 0.1096419349029706 0 0.1093764086603695 0.114992428938696 0 0.11509062910994081 0.1152480720139986 0 0.1113554900003929 0.1202520648995092 0 0.1093764086603695 0.114992428938696 0 0.11509062910994081 0.1152480720139986 0 0.1135430381832282 0.1096419349029706 0 0.11509062910994081 0.1152480720139986 0 0.1135430381832282 0.1096419349029706 0 0.11971608826293489 0.11137169325810831 0 0.1113554900003929 0.1202520648995092 0 0.1083680107861353 0.1262331417866126 0 0.1152888301509653 0.1271164741720863 0 0.11509062910994081 0.1152480720139986 0 0.1113554900003929 0.1202520648995092 0 0.1170594398954853 0.12014840374026339 0 0.1113554900003929 0.1202520648995092 0 0.1170594398954853 0.12014840374026339 0 0.1152888301509653 0.1271164741720863 0 0.1170594398954853 0.12014840374026339 0 0.1220698967109084 0.1236756188201347 0 0.1152888301509653 0.1271164741720863 0 0.11509062910994081 0.1152480720139986 0 0.1170594398954853 0.12014840374026339 0 0.1209457257272817 0.11690873181984179 0 0.1170594398954853 0.12014840374026339 0 0.1220698967109084 0.1236756188201347 0 0.1209457257272817 0.11690873181984179 0 0.1220698967109084 0.1236756188201347 0 0.1209457257272817 0.11690873181984179 0 0.12763197277894081 0.11781167857102071 0 0.11509062910994081 0.1152480720139986 0 0.11971608826293489 0.11137169325810831 0 0.1209457257272817 0.11690873181984179 0 0.1209457257272817 0.11690873181984179 0 0.124140281621065 0.113039143236951 0 0.12763197277894081 0.11781167857102071 0 0.11971608826293489 0.11137169325810831 0 0.1209457257272817 0.11690873181984179 0 0.124140281621065 0.113039143236951 0 0.124140281621065 0.113039143236951 0 0.1231602269960374 0.1087310721569951 0 0.12652054665688381 0.10933001811694849 0 0.11971608826293489 0.11137169325810831 0 0.124140281621065 0.113039143236951 0 0.1231602269960374 0.1087310721569951 0 0.1231602269960374 0.1087310721569951 0 0.12443498868786131 0.10435092231849399 0 0.12652054665688381 0.10933001811694849 0 0.1231602269960374 0.1087310721569951 0 0.12443498868786131 0.10435092231849399 0 0.12004492787001041 0.10566452550734839 0 0.12443498868786131 0.10435092231849399 0 0.12004492787001041 0.10566452550734839 0 0.1203902098396646 0.1000284160169206 0 0.12004492787001041 0.10566452550734839 0 0.11509685994751601 0.1019561956344817 0 0.1203902098396646 0.1000284160169206 0 0.11971608826293489 0.11137169325810831 0 0.1231602269960374 0.1087310721569951 0 0.12004492787001041 0.10566452550734839 0 0.1135430381832282 0.1096419349029706 0 0.11971608826293489 0.11137169325810831 0 0.12004492787001041 0.10566452550734839 0 0.1135430381832282 0.1096419349029706 0 0.12004492787001041 0.10566452550734839 0 0.11509685994751601 0.1019561956344817 0 0.1084190496342211 0.10573547313780809 0 0.1081447628216063 0.09917213681193067 0 0.11509685994751601 0.1019561956344817 0 0.1084190496342211 0.10573547313780809 0 0.1135430381832282 0.1096419349029706 0 0.11509685994751601 0.1019561956344817 0 0.1084190496342211 0.10573547313780809 0 0.1068694187972892 0.11103034538361641 0 0.1135430381832282 0.1096419349029706 0 0.11509685994751601 0.1019561956344817 0 0.1128686308833565 0.094063958505912676 0 0.1203902098396646 0.1000284160169206 0 0.1081447628216063 0.09917213681193067 0 0.11509685994751601 0.1019561956344817 0 0.1128686308833565 0.094063958505912676 0 0.12443498868786131 0.10435092231849399 0 0.1235525662917519 0.094843792733770374 0 0.1203902098396646 0.1000284160169206 0 0.1128686308833565 0.094063958505912676 0 0.1235525662917519 0.094843792733770374 0 0.1203902098396646 0.1000284160169206 0 0.1128686308833565 0.094063958505912676 0 0.1235525662917519 0.094843792733770374 0 0.1055600803626587 0.076542533192484732 0 0.1235525662917519 0.094843792733770374 0 0.1055600803626587 0.076542533192484732 0 0.12850915215626041 0.087908042125689534 0 0.1235525662917519 0.094843792733770374 0 0.1055600803626587 0.076542533192484732 0 0.1154732520916749 0.062671031976323774 0 0.12850915215626041 0.087908042125689534 0 0.1154732520916749 0.062671031976323774 0 0.1055600803626587 0.076542533192484732 0 0.12850915215626041 0.087908042125689534 0 0.1154732520916749 0.062671031976323774 0 0.13036760658061899 0.070962797443137562 0 0.12850915215626041 0.087908042125689534 0 0.087567594433565529 0.058241273651199091 0 0.1154732520916749 0.062671031976323774 0 0.1055600803626587 0.076542533192484732 0 0.087567594433565529 0.058241273651199091 0 0.1055600803626587 0.076542533192484732 0 0.087567594433565529 0.058241273651199091 0 0.1055600803626587 0.076542533192484732 0 0.09283418636288375 0.080417502216354256 0 0.1128686308833565 0.094063958505912676 0 0.1055600803626587 0.076542533192484732 0 0.1019129826551948 0.091946798273217181 0 0.1055600803626587 0.076542533192484732 0 0.1019129826551948 0.091946798273217181 0 0.09283418636288375 0.080417502216354256 0 0.1019129826551948 0.091946798273217181 0 0.088903522239811877 0.091903551894324989 0 0.09283418636288375 0.080417502216354256 0 0.088903522239811877 0.091903551894324989 0 0.080226752123187736 0.083453354070545313 0 0.071820553030870302 0.093924520617785834 0 0.088903522239811877 0.091903551894324989 0 0.09283418636288375 0.080417502216354256 0 0.080226752123187736 0.083453354070545313 0 0.087567594433565529 0.058241273651199091 0 0.09283418636288375 0.080417502216354256 0 0.080226752123187736 0.083453354070545313 0 0.087567594433565529 0.058241273651199091 0 0.080226752123187736 0.083453354070545313 0 0.067603240007215515 0.071821317850237792 0 0.080226752123187736 0.083453354070545313 0 0.067603240007215515 0.071821317850237792 0 0.071820553030870302 0.093924520617785834 0 0.067603240007215515 0.071821317850237792 0 0.071820553030870302 0.093924520617785834 0 0.049576879412772307 0.080211101192239162 0 0.071820553030870302 0.093924520617785834 0 0.078352374751876078 0.10747996026455769 0 0.069724388657071257 0.1102743656096663 0 0.071820553030870302 0.093924520617785834 0 0.069724388657071257 0.1102743656096663 0 0.059332700162092973 0.1022094096971306 0 0.071820553030870302 0.093924520617785834 0 0.078352374751876078 0.10747996026455769 0 0.086181182836188266 0.1009231716643994 0 0.088903522239811877 0.091903551894324989 0 0.071820553030870302 0.093924520617785834 0 0.086181182836188266 0.1009231716643994 0 0.078352374751876078 0.10747996026455769 0 0.086181182836188266 0.1009231716643994 0 0.087835122857577039 0.10976907727383969 0 0.094853126076581834 0.1043630167763776 0 0.086181182836188266 0.1009231716643994 0 0.087835122857577039 0.10976907727383969 0 0.094853126076581834 0.1043630167763776 0 0.096356440282670847 0.11015832077642761 0 0.087835122857577039 0.10976907727383969 0 0.095714831108542342 0.097840073808485362 0 0.088903522239811877 0.091903551894324989 0 0.086181182836188266 0.1009231716643994 0 0.095714831108542342 0.097840073808485362 0 0.094853126076581834 0.1043630167763776 0 0.086181182836188266 0.1009231716643994 0 0.094137434699218772 0.1218838135598474 0 0.08594609811187337 0.1192823280413618 0 0.092345613288074876 0.1151629980966497 0 0.094137434699218772 0.1218838135598474 0 0.08594609811187337 0.1192823280413618 0 0.087533648770002262 0.1266419169017525 0 0.08594609811187337 0.1192823280413618 0 0.087835122857577039 0.10976907727383969 0 0.092345613288074876 0.1151629980966497 0 0.096356440282670847 0.11015832077642761 0 0.087835122857577039 0.10976907727383969 0 0.092345613288074876 0.1151629980966497 0 0.078352374751876078 0.10747996026455769 0 0.087835122857577039 0.10976907727383969 0 0.080875975963962565 0.1141574102995422 0 0.08594609811187337 0.1192823280413618 0 0.087835122857577039 0.10976907727383969 0 0.080875975963962565 0.1141574102995422 0 0.08594609811187337 0.1192823280413618 0 0.080875975963962565 0.1141574102995422 0 0.07826181861975362 0.1201811701572508 0 0.08594609811187337 0.1192823280413618 0 0.081976770408076452 0.12461715884680979 0 0.087533648770002262 0.1266419169017525 0 0.08594609811187337 0.1192823280413618 0 0.07826181861975362 0.1201811701572508 0 0.081976770408076452 0.12461715884680979 0 0.07826181861975362 0.1201811701572508 0 0.081976770408076452 0.12461715884680979 0 0.076073305937806049 0.12650505023221409 0 0.069724388657071257 0.1102743656096663 0 0.069088520911413626 0.124207718202022 0 0.059332700162092973 0.1022094096971306 0 0.07826181861975362 0.1201811701572508 0 0.073746111680012688 0.1217684279514032 0 0.076073305937806049 0.12650505023221409 0 0.069088520911413626 0.124207718202022 0 0.059332700162092973 0.1022094096971306 0 0.073746111680012688 0.1217684279514032 0 0.074030560149632801 0.1155572179893101 0 0.069088520911413626 0.124207718202022 0 0.07826181861975362 0.1201811701572508 0 0.073746111680012688 0.1217684279514032 0 0.074030560149632801 0.1155572179893101 0 0.073746111680012688 0.1217684279514032 0 0.069088520911413626 0.124207718202022 0 0.076073305937806049 0.12650505023221409 0 0.078352374751876078 0.10747996026455769 0 0.080875975963962565 0.1141574102995422 0 0.074030560149632801 0.1155572179893101 0 0.074030560149632801 0.1155572179893101 0 0.069724388657071257 0.1102743656096663 0 0.069088520911413626 0.124207718202022 0 0.078352374751876078 0.10747996026455769 0 0.074030560149632801 0.1155572179893101 0 0.069724388657071257 0.1102743656096663 0 0.080875975963962565 0.1141574102995422 0 0.07826181861975362 0.1201811701572508 0 0.074030560149632801 0.1155572179893101 0 0.069088520911413626 0.124207718202022 0 0.059332700162092973 0.1022094096971306 0 0.052535454369213357 0.1257661192308045 0 0.069088520911413626 0.124207718202022 0 0.052535454369213357 0.1257661192308045 0 0.059332700162092973 0.1022094096971306 0 0.042511846878514482 0.1126882127972354 0 0.052535454369213357 0.1257661192308045 0 0.059332700162092973 0.1022094096971306 0 0.037557698139118682 0.095941411260585363 0 0.042511846878514482 0.1126882127972354 0 0.037557698139118682 0.095941411260585363 0 0.042511846878514482 0.1126882127972354 0 0.027337510816360121 0.1107529378744334 0 0.042511846878514482 0.1126882127972354 0 0.052535454369213357 0.1257661192308045 0 0.035982387827013122 0.1273245202595874 0 0.027337510816360121 0.1107529378744334 0 0.035982387827013122 0.1273245202595874 0 0.042511846878514482 0.1126882127972354 0 0.027337510816360121 0.1107529378744334 0 0.035982387827013122 0.1273245202595874 0 0.039821058663451578 0.058212792687347623 0 0.053756892572386937 0.062577256687666935 0 0.049576879412772307 0.080211101192239162 0 0.067603240007215515 0.071821317850237792 0 0.053756892572386937 0.062577256687666935 0 0.049576879412772307 0.080211101192239162 0 0.059332700162092973 0.1022094096971306 0 0.049576879412772307 0.080211101192239162 0 0.071820553030870302 0.093924520617785834 0 0.059332700162092973 0.1022094096971306 0 0.049576879412772307 0.080211101192239162 0 0.059332700162092973 0.1022094096971306 0 0.037557698139118682 0.095941411260585363 0 0.049576879412772307 0.080211101192239162 0 0.037557698139118682 0.095941411260585363 0 0.049576879412772307 0.080211101192239162 0 0.02536784582574534 0.076689905936862757 0 0.039821058663451578 0.058212792687347623 0 0.049576879412772307 0.080211101192239162 0 0.039821058663451578 0.058212792687347623 0 0.049576879412772307 0.080211101192239162 0 0.02536784582574534 0.076689905936862757 0 0.02536784582574534 0.076689905936862757 0 0.01970169280553543 0.062653079480411544 0 0.0067128332214790448 0.066304310358282131 0 0.039821058663451578 0.058212792687347623 0 0.02536784582574534 0.076689905936862757 0 0.01970169280553543 0.062653079480411544 0 0.037557698139118682 0.095941411260585363 0 0.02536784582574534 0.076689905936862757 0 0.021219405739226881 0.093096900065610846 0 0.02536784582574534 0.076689905936862757 0 0.021219405739226881 0.093096900065610846 0 0.0046698397351421896 0.084356734639687847 0 0.02536784582574534 0.076689905936862757 0 0.0046698397351421896 0.084356734639687847 0 0.0067128332214790448 0.066304310358282131 0 0.027337510816360121 0.1107529378744334 0 0.0086662749107039236 0.10693835184074631 0 0.01266271008626558 0.12951996904180471 0 0.027337510816360121 0.1107529378744334 0 0.01266271008626558 0.12951996904180471 0 0.035982387827013122 0.1273245202595874 0 0.037557698139118682 0.095941411260585363 0 0.021219405739226881 0.093096900065610846 0 0.027337510816360121 0.1107529378744334 0 0.021219405739226881 0.093096900065610846 0 0.027337510816360121 0.1107529378744334 0 0.0086662749107039236 0.10693835184074631 0 -0.0076135289647085479 0.091821168524714253 0 0.0046698397351421896 0.084356734639687847 0 0.0086662749107039236 0.10693835184074631 0 0.0046698397351421896 0.084356734639687847 0 0.0086662749107039236 0.10693835184074631 0 0.021219405739226881 0.093096900065610846 0 0.0046698397351421896 0.084356734639687847 0 0.0086662749107039236 0.10693835184074631 0 -0.006272828410093783 0.1053412510084622 0 0.0086662749107039236 0.10693835184074631 0 0.00073919274506113004 0.11770919909287821 0 0.0086662749107039236 0.10693835184074631 0 0.01266271008626558 0.12951996904180471 0 0.0086662749107039236 0.10693835184074631 0 0.00073919274506113004 0.11770919909287821 0 0.01266271008626558 0.12951996904180471 0 0.00073919274506113004 0.11770919909287821 0 0.0030207331985755881 0.13042772028312261 0 0.01266271008626558 0.12951996904180471 0 -0.00048726366279250359 0.14167917974636529 0 0.0030207331985755881 0.13042772028312261 0 0.01411060506144233 0.13770121273536359 0 0.01411060506144233 0.13770121273536359 0 0.01266271008626558 0.12951996904180471 0 0.0030207331985755881 0.13042772028312261 0 0.01411060506144233 0.13770121273536359 0 0.0030207331985755881 0.13042772028312261 0 0.01266271008626558 0.12951996904180471 0 0.0030207331985755881 0.13042772028312261 0 0.01411060506144233 0.13770121273536359 0 0.01266271008626558 0.12951996904180471 0 0.01411060506144233 0.13770121273536359 0 0.01266271008626558 0.12951996904180471 0 0.028316269144991479 0.13875826002553079 0 0.01266271008626558 0.12951996904180471 0 0.035982387827013122 0.1273245202595874 0 0.01266271008626558 0.12951996904180471 0 0.028316269144991479 0.13875826002553079 0 0.035982387827013122 0.1273245202595874 0 0.01411060506144233 0.13770121273536359 0 0.028316269144991479 0.13875826002553079 0 0.034848469249748201 0.15130251494285701 0 0.01411060506144233 0.13770121273536359 0 0.034848469249748201 0.15130251494285701 0 0.01411060506144233 0.13770121273536359 0 0.016945361965308679 0.15371883655486279 0 0.034848469249748201 0.15130251494285701 0 0.01411060506144233 0.13770121273536359 0 0.016945361965308679 0.15371883655486279 0 0.005583746424612122 0.15123205850768889 0 0.01411060506144233 0.13770121273536359 0 0.016945361965308679 0.15371883655486279 0 0.016945361965308679 0.15371883655486279 0 0.005583746424612122 0.15123205850768889 0 0.0044519832673468162 0.1631943625901254 0 -0.00048726366279250359 0.14167917974636529 0 0.01411060506144233 0.13770121273536359 0 0.005583746424612122 0.15123205850768889 0 -0.007726169365710734 0.15277462447414769 0 0.005583746424612122 0.15123205850768889 0 0.0044519832673468162 0.1631943625901254 0 -0.0020124373959203661 0.17839985613399431 0 0.0044519832673468162 0.1631943625901254 0 0.01978011886917479 0.1697364603743621 0 0.016945361965308679 0.15371883655486279 0 0.0044519832673468162 0.1631943625901254 0 0.01978011886917479 0.1697364603743621 0 -0.0020124373959203661 0.17839985613399431 0 0.02108441136853402 0.18585883277676679 0 0.01978011886917479 0.1697364603743621 0 0.02108441136853402 0.18585883277676679 0 0.01978011886917479 0.1697364603743621 0 0.036279343251774232 0.1678477345014133 0 0.016945361965308679 0.15371883655486279 0 0.01978011886917479 0.1697364603743621 0 0.01978011886917479 0.1697364603743621 0 0.036279343251774232 0.1678477345014133 0 0.034848469249748201 0.15130251494285701 0 0.016945361965308679 0.15371883655486279 0 0.01978011886917479 0.1697364603743621 0 0.034848469249748201 0.15130251494285701 0 0.036279343251774232 0.1678477345014133 0 0.041200333864603457 0.1819420511032992 0 0.055586333438054233 0.16490381715034991 0 0.036279343251774232 0.1678477345014133 0 0.055586333438054233 0.16490381715034991 0 0.034848469249748201 0.15130251494285701 0 0.055586333438054233 0.16490381715034991 0 0.034848469249748201 0.15130251494285701 0 0.02108441136853402 0.18585883277676679 0 0.036279343251774232 0.1678477345014133 0 0.041200333864603457 0.1819420511032992 0 0.055586333438054233 0.16490381715034991 0 0.064591857396445171 0.18216673274927109 0 0.055586333438054233 0.16490381715034991 0 0.053055179051929448 0.18807061955945731 0 0.064591857396445171 0.18216673274927109 0 0.041200333864603457 0.1819420511032992 0 0.055586333438054233 0.16490381715034991 0 0.053055179051929448 0.18807061955945731 0 0.062004194513285961 0.13807505947128909 0 0.045784360632533591 0.14611416870496871 0 0.067418741826146558 0.15499383126278199 0 0.055586333438054233 0.16490381715034991 0 0.045784360632533591 0.14611416870496871 0 0.055586333438054233 0.16490381715034991 0 0.045784360632533591 0.14611416870496871 0 0.067418741826146558 0.15499383126278199 0 0.052535454369213357 0.1257661192308045 0 0.062004194513285961 0.13807505947128909 0 0.045784360632533591 0.14611416870496871 0 0.069088520911413626 0.124207718202022 0 0.052535454369213357 0.1257661192308045 0 0.062004194513285961 0.13807505947128909 0 0.052535454369213357 0.1257661192308045 0 0.035982387827013122 0.1273245202595874 0 0.028316269144991479 0.13875826002553079 0 0.035982387827013122 0.1273245202595874 0 0.045784360632533591 0.14611416870496871 0 0.035982387827013122 0.1273245202595874 0 0.045784360632533591 0.14611416870496871 0 0.052535454369213357 0.1257661192308045 0 0.035982387827013122 0.1273245202595874 0 0.045784360632533591 0.14611416870496871 0 0.055586333438054233 0.16490381715034991 0 0.045784360632533591 0.14611416870496871 0 0.034848469249748201 0.15130251494285701 0 0.028316269144991479 0.13875826002553079 0 0.045784360632533591 0.14611416870496871 0 0.034848469249748201 0.15130251494285701 0 0.016525624760070318 0.23904321543069551 0 0.033383659090949709 0.2448895276436911 0 0.021202503518625019 0.2561860795987454 0 0.016525624760070318 0.23904321543069551 0 0.03187138454662939 0.2313507310700027 0 0.033383659090949709 0.2448895276436911 0 -0.0046201757292567477 0.22506887247297819 0 -0.0043755340704045732 0.244462551133488 0 0.016525624760070318 0.23904321543069551 0 -0.0043755340704045732 0.244462551133488 0 0.016525624760070318 0.23904321543069551 0 0.0047846334504887383 0.25646387099740009 0 -0.0046201757292567477 0.22506887247297819 0 0.016525624760070318 0.23904321543069551 0 0.017898128353906161 0.22229828454753231 0 0.016525624760070318 0.23904321543069551 0 0.017898128353906161 0.22229828454753231 0 0.03187138454662939 0.2313507310700027 0 0.017898128353906161 0.22229828454753231 0 0.01672575879323868 0.20533755557108749 0 0.035622886695181537 0.20075851725969679 0 -0.0009645268562457458 0.19957329067002691 0 -0.0046201757292567477 0.22506887247297819 0 0.01672575879323868 0.20533755557108749 0 -0.0046201757292567477 0.22506887247297819 0 0.01672575879323868 0.20533755557108749 0 -0.0046201757292567477 0.22506887247297819 0 0.017898128353906161 0.22229828454753231 0 0.01672575879323868 0.20533755557108749 0 -0.0009645268562457458 0.19957329067002691 0 0.02108441136853402 0.18585883277676679 0 0.01672575879323868 0.20533755557108749 0 -0.0009645268562457458 0.19957329067002691 0 -0.0020124373959203661 0.17839985613399431 0 0.02108441136853402 0.18585883277676679 0 0.02108441136853402 0.18585883277676679 0 0.01672575879323868 0.20533755557108749 0 0.035622886695181537 0.20075851725969679 0 0.02108441136853402 0.18585883277676679 0 0.041200333864603457 0.1819420511032992 0 0.035622886695181537 0.20075851725969679 0 0.041200333864603457 0.1819420511032992 0 0.035622886695181537 0.20075851725969679 0 0.053055179051929448 0.18807061955945731 0 0.035622886695181537 0.20075851725969679 0 0.053055179051929448 0.18807061955945731 0 0.054001083264592457 0.2025883055672513 0 0.053055179051929448 0.18807061955945731 0 0.06832763562521886 0.19624742680943461 0 0.064591857396445171 0.18216673274927109 0 0.053055179051929448 0.18807061955945731 0 0.054001083264592457 0.2025883055672513 0 0.06832763562521886 0.19624742680943461 0 0.054001083264592457 0.2025883055672513 0 0.062912539825618577 0.21034470245719911 0 0.06832763562521886 0.19624742680943461 0 0.054001083264592457 0.2025883055672513 0 0.044824311151762462 0.21728447649197771 0 0.062912539825618577 0.21034470245719911 0 0.044824311151762462 0.21728447649197771 0 0.061661813949312173 0.22184798656547611 0 0.062912539825618577 0.21034470245719911 0 0.035622886695181537 0.20075851725969679 0 0.054001083264592457 0.2025883055672513 0 0.044824311151762462 0.21728447649197771 0 0.017898128353906161 0.22229828454753231 0 0.035622886695181537 0.20075851725969679 0 0.044824311151762462 0.21728447649197771 0 0.044824311151762462 0.21728447649197771 0 0.03187138454662939 0.2313507310700027 0 0.045497479145355242 0.23553395568595339 0 0.017898128353906161 0.22229828454753231 0 0.044824311151762462 0.21728447649197771 0 0.03187138454662939 0.2313507310700027 0 0.044824311151762462 0.21728447649197771 0 0.057466853328857669 0.23224558852773991 0 0.045497479145355242 0.23553395568595339 0 0.044824311151762462 0.21728447649197771 0 0.061661813949312173 0.22184798656547611 0 0.057466853328857669 0.23224558852773991 0 0.057466853328857669 0.23224558852773991 0 0.056475972365277273 0.2426881828991492 0 0.045497479145355242 0.23553395568595339 0 0.057466853328857669 0.23224558852773991 0 0.056475972365277273 0.2426881828991492 0 0.067007510192884479 0.2387405646943844 0 0.056475972365277273 0.2426881828991492 0 0.06445137664951725 0.2468719654481247 0 0.058491208820946473 0.25346375136892008 0 0.056475972365277273 0.2426881828991492 0 0.047355968946164992 0.24935670449388039 0 0.058491208820946473 0.25346375136892008 0 0.056475972365277273 0.2426881828991492 0 0.047355968946164992 0.24935670449388039 0 0.045497479145355242 0.23553395568595339 0 0.047355968946164992 0.24935670449388039 0 0.045497479145355242 0.23553395568595339 0 0.033383659090949709 0.2448895276436911 0 0.03187138454662939 0.2313507310700027 0 0.045497479145355242 0.23553395568595339 0 0.033383659090949709 0.2448895276436911 0 0.091477808116451093 0.24133346750622919 0 0.081470834279527754 0.25097810745609922 0 0.095906770860124141 0.25462474490522952 0 0.091477808116451093 0.24133346750622919 0 0.079205485348239138 0.23874370402801129 0 0.086354554130019967 0.2285405210767896 0 0.091477808116451093 0.24133346750622919 0 0.079205485348239138 0.23874370402801129 0 0.081470834279527754 0.25097810745609922 0 0.079205485348239138 0.23874370402801129 0 0.072538072969772924 0.24560548427405449 0 0.081470834279527754 0.25097810745609922 0 0.072538072969772924 0.24560548427405449 0 0.06445137664951725 0.2468719654481247 0 0.067007510192884479 0.2387405646943844 0 0.056475972365277273 0.2426881828991492 0 0.06445137664951725 0.2468719654481247 0 0.067007510192884479 0.2387405646943844 0 0.072538072969772924 0.24560548427405449 0 0.06445137664951725 0.2468719654481247 0 0.069887144546224828 0.25409848515668099 0 0.079205485348239138 0.23874370402801129 0 0.067007510192884479 0.2387405646943844 0 0.072378903274367953 0.2270529177183353 0 0.079205485348239138 0.23874370402801129 0 0.072538072969772924 0.24560548427405449 0 0.067007510192884479 0.2387405646943844 0 0.061661813949312173 0.22184798656547611 0 0.072378903274367953 0.2270529177183353 0 0.074478883743500812 0.21001372078599881 0 0.072378903274367953 0.2270529177183353 0 0.08103249360564091 0.21973052270155771 0 0.074478883743500812 0.21001372078599881 0 0.057466853328857669 0.23224558852773991 0 0.067007510192884479 0.2387405646943844 0 0.072378903274367953 0.2270529177183353 0 0.061661813949312173 0.22184798656547611 0 0.057466853328857669 0.23224558852773991 0 0.072378903274367953 0.2270529177183353 0 0.072378903274367953 0.2270529177183353 0 0.08103249360564091 0.21973052270155771 0 0.086354554130019967 0.2285405210767896 0 0.086354554130019967 0.2285405210767896 0 0.091806067479281883 0.21410242618768391 0 0.100434752024396 0.23047971775104761 0 0.079205485348239138 0.23874370402801129 0 0.072378903274367953 0.2270529177183353 0 0.086354554130019967 0.2285405210767896 0 0.091477808116451093 0.24133346750622919 0 0.086354554130019967 0.2285405210767896 0 0.100434752024396 0.23047971775104761 0 0.08103249360564091 0.21973052270155771 0 0.086354554130019967 0.2285405210767896 0 0.091806067479281883 0.21410242618768391 0 0.091806067479281883 0.21410242618768391 0 0.074478883743500812 0.21001372078599881 0 0.084268722871719076 0.19969351126432919 0 0.091806067479281883 0.21410242618768391 0 0.084268722871719076 0.19969351126432919 0 0.10470749199751481 0.1971208148258459 0 0.08103249360564091 0.21973052270155771 0 0.091806067479281883 0.21410242618768391 0 0.074478883743500812 0.21001372078599881 0 0.061661813949312173 0.22184798656547611 0 0.062912539825618577 0.21034470245719911 0 0.074478883743500812 0.21001372078599881 0 0.062912539825618577 0.21034470245719911 0 0.074478883743500812 0.21001372078599881 0 0.06832763562521886 0.19624742680943461 0 0.074478883743500812 0.21001372078599881 0 0.06832763562521886 0.19624742680943461 0 0.084268722871719076 0.19969351126432919 0 0.06832763562521886 0.19624742680943461 0 0.084268722871719076 0.19969351126432919 0 0.080146912717784471 0.18101231598809789 0 0.10470749199751481 0.1971208148258459 0 0.080146912717784471 0.18101231598809789 0 0.084268722871719076 0.19969351126432919 0 0.10470749199751481 0.1971208148258459 0 0.080146912717784471 0.18101231598809789 0 0.10470749199751481 0.1971208148258459 0 0.1184575417679171 0.1820144287228383 0 0.13347011402183551 0.20527255101928829 0 0.10470749199751481 0.1971208148258459 0 0.11229948489374809 0.2176677802337347 0 0.13347011402183551 0.20527255101928829 0 0.11229948489374809 0.2176677802337347 0 0.12833088196767689 0.22867142634747459 0 0.13347011402183551 0.20527255101928829 0 0.091806067479281883 0.21410242618768391 0 0.10470749199751481 0.1971208148258459 0 0.11229948489374809 0.2176677802337347 0 0.11229948489374809 0.2176677802337347 0 0.100434752024396 0.23047971775104761 0 0.11414634434653979 0.23376814119140371 0 0.091806067479281883 0.21410242618768391 0 0.11229948489374809 0.2176677802337347 0 0.100434752024396 0.23047971775104761 0 0.11229948489374809 0.2176677802337347 0 0.11414634434653979 0.23376814119140371 0 0.12833088196767689 0.22867142634747459 0 0.11414634434653979 0.23376814119140371 0 0.1234336310216875 0.24610106375436591 0 0.12833088196767689 0.22867142634747459 0 0.1234336310216875 0.24610106375436591 0 0.1062329718251907 0.24592071787039579 0 0.11127954231523141 0.257715348709744 0 0.11414634434653979 0.23376814119140371 0 0.1234336310216875 0.24610106375436591 0 0.1062329718251907 0.24592071787039579 0 0.100434752024396 0.23047971775104761 0 0.11414634434653979 0.23376814119140371 0 0.1062329718251907 0.24592071787039579 0 0.091477808116451093 0.24133346750622919 0 0.100434752024396 0.23047971775104761 0 0.1062329718251907 0.24592071787039579 0 0.091477808116451093 0.24133346750622919 0 0.1062329718251907 0.24592071787039579 0 0.095906770860124141 0.25462474490522952 0 0.088217004107324998 0.14852802920457811 0 0.088432397260080203 0.13549818412993811 0 0.1034449695139987 0.15875630642638819 0 0.088217004107324998 0.14852802920457811 0 0.076693056855544922 0.14135511482133609 0 0.084297592799676191 0.1585025114406502 0 0.076693056855544922 0.14135511482133609 0 0.084297592799676191 0.1585025114406502 0 0.088217004107324998 0.14852802920457811 0 0.084297592799676191 0.1585025114406502 0 0.1034449695139987 0.15875630642638819 0 0.088217004107324998 0.14852802920457811 0 0.088432397260080203 0.13549818412993811 0 0.076693056855544922 0.14135511482133609 0 0.088432397260080203 0.13549818412993811 0 0.087533648770002262 0.1266419169017525 0 0.094141251783466995 0.1294848743529671 0 0.088432397260080203 0.13549818412993811 0 0.087533648770002262 0.1266419169017525 0 0.082068980600946945 0.13047532890147001 0 0.094137434699218772 0.1218838135598474 0 0.087533648770002262 0.1266419169017525 0 0.094141251783466995 0.1294848743529671 0 0.082068980600946945 0.13047532890147001 0 0.076073305937806049 0.12650505023221409 0 0.076693056855544922 0.14135511482133609 0 0.081976770408076452 0.12461715884680979 0 0.087533648770002262 0.1266419169017525 0 0.082068980600946945 0.13047532890147001 0 0.081976770408076452 0.12461715884680979 0 0.082068980600946945 0.13047532890147001 0 0.076073305937806049 0.12650505023221409 0 0.088432397260080203 0.13549818412993811 0 0.082068980600946945 0.13047532890147001 0 0.076693056855544922 0.14135511482133609 0 0.069088520911413626 0.124207718202022 0 0.076073305937806049 0.12650505023221409 0 0.076693056855544922 0.14135511482133609 0 0.069088520911413626 0.124207718202022 0 0.062004194513285961 0.13807505947128909 0 0.076693056855544922 0.14135511482133609 0 0.069088520911413626 0.124207718202022 0 0.076693056855544922 0.14135511482133609 0 0.067418741826146558 0.15499383126278199 0 0.076693056855544922 0.14135511482133609 0 0.084297592799676191 0.1585025114406502 0 0.062004194513285961 0.13807505947128909 0 0.067418741826146558 0.15499383126278199 0 0.076693056855544922 0.14135511482133609 0 0.055586333438054233 0.16490381715034991 0 0.067418741826146558 0.15499383126278199 0 0.080146912717784471 0.18101231598809789 0 0.067418741826146558 0.15499383126278199 0 0.080146912717784471 0.18101231598809789 0 0.084297592799676191 0.1585025114406502 0 0.055586333438054233 0.16490381715034991 0 0.064591857396445171 0.18216673274927109 0 0.080146912717784471 0.18101231598809789 0 0.055586333438054233 0.16490381715034991 0 0.080146912717784471 0.18101231598809789 0 0.06832763562521886 0.19624742680943461 0 0.064591857396445171 0.18216673274927109 0 0.080146912717784471 0.18101231598809789 0 0.080146912717784471 0.18101231598809789 0 0.084297592799676191 0.1585025114406502 0 0.099398246652465813 0.17784256381682151 0 0.084297592799676191 0.1585025114406502 0 0.1034449695139987 0.15875630642638819 0 0.099398246652465813 0.17784256381682151 0 0.10470749199751481 0.1971208148258459 0 0.099398246652465813 0.17784256381682151 0 0.1184575417679171 0.1820144287228383 0 0.1034449695139987 0.15875630642638819 0 0.099398246652465813 0.17784256381682151 0 0.1184575417679171 0.1820144287228383 0 0.10470749199751481 0.1971208148258459 0 0.080146912717784471 0.18101231598809789 0 0.099398246652465813 0.17784256381682151 0 0.1034449695139987 0.15875630642638819 0 0.1184575417679171 0.1820144287228383 0 0.1034449695139987 0.15875630642638819 0 0.1232257367928056 0.16368964001201899 0 0.11568010710941309 0.14829727720815561 0 0.1034449695139987 0.15875630642638819 0 0.1184575417679171 0.1820144287228383 0 0.1232257367928056 0.16368964001201899 0 0.1232257367928056 0.16368964001201899 0 0.11568010710941309 0.14829727720815561 0 0.12676557509286829 0.1454626372996026 0 0.11568010710941309 0.14829727720815561 0 0.1207078786880028 0.1341295180069102 0 0.12676557509286829 0.1454626372996026 0 0.088432397260080203 0.13549818412993811 0 0.1034449695139987 0.15875630642638819 0 0.1034449695139987 0.15875630642638819 0 0.11568010710941309 0.14829727720815561 0 0.1086891389802646 0.1366240662150375 0 0.088432397260080203 0.13549818412993811 0 0.1034449695139987 0.15875630642638819 0 0.099530360262238965 0.1359940612124656 0 0.1034449695139987 0.15875630642638819 0 0.099530360262238965 0.1359940612124656 0 0.1086891389802646 0.1366240662150375 0 0.1010724179257948 0.127406395960832 0 0.094141251783466995 0.1294848743529671 0 0.099530360262238965 0.1359940612124656 0 0.094137434699218772 0.1218838135598474 0 0.1010724179257948 0.127406395960832 0 0.094141251783466995 0.1294848743529671 0 0.088432397260080203 0.13549818412993811 0 0.094141251783466995 0.1294848743529671 0 0.099530360262238965 0.1359940612124656 0 0.1010724179257948 0.127406395960832 0 0.099530360262238965 0.1359940612124656 0 0.1086891389802646 0.1366240662150375 0 0.1010724179257948 0.127406395960832 0 0.1086891389802646 0.1366240662150375 0 0.1083680107861353 0.1262331417866126 0 0.1086891389802646 0.1366240662150375 0 0.1083680107861353 0.1262331417866126 0 0.1152888301509653 0.1271164741720863 0 0.1086891389802646 0.1366240662150375 0 0.1152888301509653 0.1271164741720863 0 0.1207078786880028 0.1341295180069102 0 0.11568010710941309 0.14829727720815561 0 0.1086891389802646 0.1366240662150375 0 0.1207078786880028 0.1341295180069102 0 0.1220698967109084 0.1236756188201347 0 0.1152888301509653 0.1271164741720863 0 0.1207078786880028 0.1341295180069102 0 0.1220698967109084 0.1236756188201347 0 0.1207078786880028 0.1341295180069102 0 0.1307855330247745 0.1259389066106861 0 0.1207078786880028 0.1341295180069102 0 0.1307855330247745 0.1259389066106861 0 0.13055713026306021 0.1352035678998251 0 0.1207078786880028 0.1341295180069102 0 0.13055713026306021 0.1352035678998251 0 0.12676557509286829 0.1454626372996026 0 0.13055713026306021 0.1352035678998251 0 0.13846535559192041 0.12870578789646839 0 0.14112776091054829 0.13959575819808009 0 0.13055713026306021 0.1352035678998251 0 0.14112776091054829 0.13959575819808009 0 0.12676557509286829 0.1454626372996026 0 0.1307855330247745 0.1259389066106861 0 0.13055713026306021 0.1352035678998251 0 0.13846535559192041 0.12870578789646839 0 0.1307855330247745 0.1259389066106861 0 0.13846535559192041 0.12870578789646839 0 0.1366893450621581 0.12344344043333361 0 0.13846535559192041 0.12870578789646839 0 0.14773787989578299 0.12513413274601151 0 0.14112776091054829 0.13959575819808009 0 0.14773787989578299 0.12513413274601151 0 0.14112776091054829 0.13959575819808009 0 0.15615972118727281 0.13674626153771871 0 0.14773787989578299 0.12513413274601151 0 0.15615972118727281 0.13674626153771871 0 0.1582443246947543 0.1238645948038431 0 0.14112776091054829 0.13959575819808009 0 0.153512916127722 0.14981501955182699 0 0.14097798318852439 0.15754922350465611 0 0.14112776091054829 0.13959575819808009 0 0.15615972118727281 0.13674626153771871 0 0.153512916127722 0.14981501955182699 0 0.14112776091054829 0.13959575819808009 0 0.12676557509286829 0.1454626372996026 0 0.14097798318852439 0.15754922350465611 0 0.1232257367928056 0.16368964001201899 0 0.12676557509286829 0.1454626372996026 0 0.14097798318852439 0.15754922350465611 0 0.1232257367928056 0.16368964001201899 0 0.1416054171698341 0.1800995596240102 0 0.14097798318852439 0.15754922350465611 0 0.1184575417679171 0.1820144287228383 0 0.1232257367928056 0.16368964001201899 0 0.1416054171698341 0.1800995596240102 0 0.1416054171698341 0.1800995596240102 0 0.1599053163372966 0.16427322830400529 0 0.16403867614919801 0.18364434643882249 0 0.1416054171698341 0.1800995596240102 0 0.14097798318852439 0.15754922350465611 0 0.1599053163372966 0.16427322830400529 0 0.153512916127722 0.14981501955182699 0 0.14097798318852439 0.15754922350465611 0 0.1599053163372966 0.16427322830400529 0 0.1599053163372966 0.16427322830400529 0 0.16403867614919801 0.18364434643882249 0 0.1801992612362201 0.1632707349017227 0 0.1599053163372966 0.16427322830400529 0 0.1801992612362201 0.1632707349017227 0 0.16893008543900401 0.14680342696665991 0 0.18240017206001111 0.18550136146682111 0 0.1801992612362201 0.1632707349017227 0 0.19739970128467049 0.17474928446116289 0 0.16403867614919801 0.18364434643882249 0 0.18240017206001111 0.18550136146682111 0 0.1801992612362201 0.1632707349017227 0 0.1801992612362201 0.1632707349017227 0 0.18628665431016589 0.14327659845199381 0 0.16893008543900401 0.14680342696665991 0 0.18628665431016589 0.14327659845199381 0 0.18013480578677299 0.12967936467858621 0 0.16893008543900401 0.14680342696665991 0 0.18013480578677299 0.12967936467858621 0 0.166512383501948 0.13092693987361251 0 0.16909298040193599 0.1175410513812547 0 0.18013480578677299 0.12967936467858621 0 0.166512383501948 0.13092693987361251 0 0.16893008543900401 0.14680342696665991 0 0.15615972118727281 0.13674626153771871 0 0.166512383501948 0.13092693987361251 0 0.16893008543900401 0.14680342696665991 0 0.15615972118727281 0.13674626153771871 0 0.166512383501948 0.13092693987361251 0 0.1582443246947543 0.1238645948038431 0 0.15615972118727281 0.13674626153771871 0 0.153512916127722 0.14981501955182699 0 0.16893008543900401 0.14680342696665991 0 0.153512916127722 0.14981501955182699 0 0.1599053163372966 0.16427322830400529 0 0.16893008543900401 0.14680342696665991 0 0.1533826123531235 0.23813042117922001 0 0.13996902885439511 0.24243648692897191 0 0.15162992084977289 0.25377275111886888 0 0.1533826123531235 0.23813042117922001 0 0.13996902885439511 0.24243648692897191 0 0.1455383479528555 0.22446193433709191 0 0.1234336310216875 0.24610106375436591 0 0.13996902885439511 0.24243648692897191 0 0.13743083978796841 0.25666978508515631 0 0.1234336310216875 0.24610106375436591 0 0.13996902885439511 0.24243648692897191 0 0.12833088196767689 0.22867142634747459 0 0.12833088196767689 0.22867142634747459 0 0.1455383479528555 0.22446193433709191 0 0.13347011402183551 0.20527255101928829 0 0.13996902885439511 0.24243648692897191 0 0.12833088196767689 0.22867142634747459 0 0.1455383479528555 0.22446193433709191 0 0.1533826123531235 0.23813042117922001 0 0.1455383479528555 0.22446193433709191 0 0.16427643222526789 0.22576392093594591 0 0.1455383479528555 0.22446193433709191 0 0.15345760437656289 0.20279440492678399 0 0.16427643222526789 0.22576392093594591 0 0.1455383479528555 0.22446193433709191 0 0.13347011402183551 0.20527255101928829 0 0.15345760437656289 0.20279440492678399 0 0.1184575417679171 0.1820144287228383 0 0.1416054171698341 0.1800995596240102 0 0.13347011402183551 0.20527255101928829 0 0.1184575417679171 0.1820144287228383 0 0.13347011402183551 0.20527255101928829 0 0.1416054171698341 0.1800995596240102 0 0.16403867614919801 0.18364434643882249 0 0.15345760437656289 0.20279440492678399 0 0.1416054171698341 0.1800995596240102 0 0.13347011402183551 0.20527255101928829 0 0.15345760437656289 0.20279440492678399 0 0.16403867614919801 0.18364434643882249 0 0.15345760437656289 0.20279440492678399 0 0.1728157951847574 0.202988934447386 0 0.16403867614919801 0.18364434643882249 0 0.18240017206001111 0.18550136146682111 0 0.1728157951847574 0.202988934447386 0 0.18240017206001111 0.18550136146682111 0 0.1728157951847574 0.202988934447386 0 0.1949431291115066 0.19903898553093799 0 0.1728157951847574 0.202988934447386 0 0.1785504534503525 0.21854724686701599 0 0.1949431291115066 0.19903898553093799 0 0.1728157951847574 0.202988934447386 0 0.1785504534503525 0.21854724686701599 0 0.16427643222526789 0.22576392093594591 0 0.15345760437656289 0.20279440492678399 0 0.1728157951847574 0.202988934447386 0 0.16427643222526789 0.22576392093594591 0 0.1785504534503525 0.21854724686701599 0 0.16427643222526789 0.22576392093594591 0 0.17725511739191641 0.23322373319211009 0 0.17725511739191641 0.23322373319211009 0 0.18578941216523781 0.24505624012428251 0 0.19248655693834271 0.22332868660071331 0 0.1785504534503525 0.21854724686701599 0 0.17725511739191641 0.23322373319211009 0 0.19248655693834271 0.22332868660071331 0 0.17725511739191641 0.23322373319211009 0 0.17722554607520699 0.24670684421638411 0 0.165499331883326 0.2442170125752211 0 0.17725511739191641 0.23322373319211009 0 0.18578941216523781 0.24505624012428251 0 0.17722554607520699 0.24670684421638411 0 0.18578941216523781 0.24505624012428251 0 0.17722554607520699 0.24670684421638411 0 0.1884301885271753 0.24874302742368101 0 0.18578941216523781 0.24505624012428251 0 0.1884301885271753 0.24874302742368101 0 0.1533826123531235 0.23813042117922001 0 0.16427643222526789 0.22576392093594591 0 0.165499331883326 0.2442170125752211 0 0.16427643222526789 0.22576392093594591 0 0.17725511739191641 0.23322373319211009 0 0.165499331883326 0.2442170125752211 0 0.1533826123531235 0.23813042117922001 0 0.165499331883326 0.2442170125752211 0 0.15162992084977289 0.25377275111886888 0 0.21535830080797749 0.24093287941673089 0 0.19572378806554719 0.25892562013863091 0 0.21535830080797749 0.24093287941673089 0 0.19979143392529661 0.24856023388575951 0 0.21246532702218129 0.23184658049946369 0 0.21535830080797749 0.24093287941673089 0 0.19979143392529661 0.24856023388575951 0 0.19572378806554719 0.25892562013863091 0 0.18578941216523781 0.24505624012428251 0 0.19002998476517849 0.24761838767048841 0 0.19248655693834271 0.22332868660071331 0 0.19979143392529661 0.24856023388575951 0 0.19002998476517849 0.24761838767048841 0 0.21246532702218129 0.23184658049946369 0 0.19002998476517849 0.24761838767048841 0 0.21246532702218129 0.23184658049946369 0 0.19002998476517849 0.24761838767048841 0 0.19248655693834271 0.22332868660071331 0 0.19979143392529661 0.24856023388575951 0 0.19002998476517849 0.24761838767048841 0 0.1897323782073298 0.25056101415036502 0 0.18578941216523781 0.24505624012428251 0 0.1884301885271753 0.24874302742368101 0 0.19002998476517849 0.24761838767048841 0 0.1884301885271753 0.24874302742368101 0 0.19002998476517849 0.24761838767048841 0 0.1897323782073298 0.25056101415036502 0 0.1884301885271753 0.24874302742368101 0 0.1897323782073298 0.25056101415036502 0 0.1884301885271753 0.24874302742368101 0 0.19002998476517849 0.24761838767048841 0 0.19002998476517849 0.24761838767048841 0 0.1897323782073298 0.25056101415036502 0 0.19002998476517849 0.24761838767048841 0 0.19248655693834271 0.22332868660071331 0 0.21246532702218129 0.23184658049946369 0 0.19248655693834271 0.22332868660071331 0 0.21246532702218129 0.23184658049946369 0 0.21544395846263259 0.20927859546974689 0 0.1785504534503525 0.21854724686701599 0 0.19248655693834271 0.22332868660071331 0 0.1949431291115066 0.19903898553093799 0 0.19248655693834271 0.22332868660071331 0 0.1949431291115066 0.19903898553093799 0 0.19248655693834271 0.22332868660071331 0 0.21544395846263259 0.20927859546974689 0 0.1949431291115066 0.19903898553093799 0 0.1949431291115066 0.19903898553093799 0 0.22042403340045491 0.18829508007747861 0 0.20912467781481761 0.17999820005271891 0 0.21544395846263259 0.20927859546974689 0 0.1949431291115066 0.19903898553093799 0 0.22042403340045491 0.18829508007747861 0 0.21544395846263259 0.20927859546974689 0 0.22042403340045491 0.18829508007747861 0 0.2346141467756124 0.19500598301579161 0 0.2346141467756124 0.19500598301579161 0 0.24576080505334111 0.17983006675991989 0 0.25733601153618713 0.20030296615741469 0 0.2346141467756124 0.19500598301579161 0 0.23490066927918421 0.21607477332843919 0 0.25733601153618713 0.20030296615741469 0 0.23490066927918421 0.21607477332843919 0 0.24983742741469361 0.21995574559805861 0 0.25733601153618713 0.20030296615741469 0 0.23490066927918421 0.21607477332843919 0 0.25733601153618713 0.20030296615741469 0 0.21544395846263259 0.20927859546974689 0 0.2346141467756124 0.19500598301579161 0 0.23490066927918421 0.21607477332843919 0 0.21535830080797749 0.24093287941673089 0 0.21246532702218129 0.23184658049946369 0 0.23499281355040769 0.22294013869483101 0 0.21246532702218129 0.23184658049946369 0 0.23490066927918421 0.21607477332843919 0 0.21535830080797749 0.24093287941673089 0 0.23200827029147 0.23260813423530899 0 0.23499281355040769 0.22294013869483101 0 0.21246532702218129 0.23184658049946369 0 0.23490066927918421 0.21607477332843919 0 0.23499281355040769 0.22294013869483101 0 0.21535830080797749 0.24093287941673089 0 0.23499281355040769 0.22294013869483101 0 0.21246532702218129 0.23184658049946369 0 0.21544395846263259 0.20927859546974689 0 0.23490066927918421 0.21607477332843919 0 0.23490066927918421 0.21607477332843919 0 0.24168330768690791 0.22477346886400079 0 0.23499281355040769 0.22294013869483101 0 0.23490066927918421 0.21607477332843919 0 0.24168330768690791 0.22477346886400079 0 0.24983742741469361 0.21995574559805861 0 0.24168330768690791 0.22477346886400079 0 0.24983742741469361 0.21995574559805861 0 0.24860647170749631 0.23267263154699949 0 0.24168330768690791 0.22477346886400079 0 0.24860647170749631 0.23267263154699949 0 0.24007915648275771 0.23222405515167621 0 0.24168330768690791 0.22477346886400079 0 0.23499281355040769 0.22294013869483101 0 0.24007915648275771 0.23222405515167621 0 0.23200827029147 0.23260813423530899 0 0.23499281355040769 0.22294013869483101 0 0.24007915648275771 0.23222405515167621 0 0.23200827029147 0.23260813423530899 0 0.24007915648275771 0.23222405515167621 0 0.23742259821764591 0.23982424557162199 0 0.24007915648275771 0.23222405515167621 0 0.23742259821764591 0.23982424557162199 0 0.24503194863157721 0.24044642300288771 0 0.24860647170749631 0.23267263154699949 0 0.24007915648275771 0.23222405515167621 0 0.24503194863157721 0.24044642300288771 0 0.24860647170749631 0.23267263154699949 0 0.24503194863157721 0.24044642300288771 0 0.25330967369459462 0.24464425994429659 0 0.24503194863157721 0.24044642300288771 0 0.24047871785483721 0.2486360273742817 0 0.25330967369459462 0.24464425994429659 0 0.23742259821764591 0.23982424557162199 0 0.24047871785483721 0.2486360273742817 0 0.22861223412391279 0.25018045460690019 0 0.23742259821764591 0.23982424557162199 0 0.24503194863157721 0.24044642300288771 0 0.24047871785483721 0.2486360273742817 0 0.22899713646881881 0.23868435289855799 0 0.22291880817397419 0.24521899926633139 0 0.22861223412391279 0.25018045460690019 0 0.21535830080797749 0.24093287941673089 0 0.23200827029147 0.23260813423530899 0 0.22899713646881881 0.23868435289855799 0 0.23742259821764591 0.23982424557162199 0 0.22899713646881881 0.23868435289855799 0 0.22861223412391279 0.25018045460690019 0 0.23200827029147 0.23260813423530899 0 0.23742259821764591 0.23982424557162199 0 0.22899713646881881 0.23868435289855799 0 0.21535830080797749 0.24093287941673089 0 0.22899713646881881 0.23868435289855799 0 0.22291880817397419 0.24521899926633139 0 0.22291880817397419 0.24521899926633139 0 0.2187075612951879 0.25107831014313642 0 0.22861223412391279 0.25018045460690019 0 0.21535830080797749 0.24093287941673089 0 0.22291880817397419 0.24521899926633139 0 0.2187075612951879 0.25107831014313642 0 0.2173053546805801 0.14468630545148331 0 0.19985627345783441 0.15045958339138771 0 0.21131791809706749 0.16378968352197409 0 0.2173053546805801 0.14468630545148331 0 0.20231284563099819 0.1261698823216125 0 0.22997587592000049 0.1231172687524535 0 0.2173053546805801 0.14468630545148331 0 0.20231284563099819 0.1261698823216125 0 0.19985627345783441 0.15045958339138771 0 0.2173053546805801 0.14468630545148331 0 0.20231284563099819 0.1261698823216125 0 0.18628665431016589 0.14327659845199381 0 0.20231284563099819 0.1261698823216125 0 0.19985627345783441 0.15045958339138771 0 0.18628665431016589 0.14327659845199381 0 0.18013480578677299 0.12967936467858621 0 0.20231284563099819 0.1261698823216125 0 0.20231284563099819 0.1261698823216125 0 0.19985627345783441 0.15045958339138771 0 0.1801992612362201 0.1632707349017227 0 0.18628665431016589 0.14327659845199381 0 0.19985627345783441 0.15045958339138771 0 0.19985627345783441 0.15045958339138771 0 0.19739970128467049 0.17474928446116289 0 0.21131791809706749 0.16378968352197409 0 0.1801992612362201 0.1632707349017227 0 0.19985627345783441 0.15045958339138771 0 0.19739970128467049 0.17474928446116289 0 0.19985627345783441 0.15045958339138771 0 0.19739970128467049 0.17474928446116289 0 0.1949431291115066 0.19903898553093799 0 0.19739970128467049 0.17474928446116289 0 0.20912467781481761 0.17999820005271891 0 0.1949431291115066 0.19903898553093799 0 0.19739970128467049 0.17474928446116289 0 0.18240017206001111 0.18550136146682111 0 0.1949431291115066 0.19903898553093799 0 0.19739970128467049 0.17474928446116289 0 0.20912467781481761 0.17999820005271891 0 0.21131791809706749 0.16378968352197409 0 0.2215386071803884 0.17411796667204071 0 0.19739970128467049 0.17474928446116289 0 0.20912467781481761 0.17999820005271891 0 0.21131791809706749 0.16378968352197409 0 0.22042403340045491 0.18829508007747861 0 0.20912467781481761 0.17999820005271891 0 0.2215386071803884 0.17411796667204071 0 0.2173053546805801 0.14468630545148331 0 0.21131791809706749 0.16378968352197409 0 0.2235830131275702 0.16330257818838639 0 0.2173053546805801 0.14468630545148331 0 0.2235830131275702 0.16330257818838639 0 0.2322978637301624 0.16320272858135379 0 0.21131791809706749 0.16378968352197409 0 0.2235830131275702 0.16330257818838639 0 0.2215386071803884 0.17411796667204071 0 0.2235830131275702 0.16330257818838639 0 0.22750597094518471 0.17001801355487939 0 0.2215386071803884 0.17411796667204071 0 0.22750597094518471 0.17001801355487939 0 0.2322978637301624 0.16320272858135379 0 0.2338194029218747 0.17625441630175029 0 0.2235830131275702 0.16330257818838639 0 0.22750597094518471 0.17001801355487939 0 0.2322978637301624 0.16320272858135379 0 0.22042403340045491 0.18829508007747861 0 0.2346141467756124 0.19500598301579161 0 0.2338194029218747 0.17625441630175029 0 0.22042403340045491 0.18829508007747861 0 0.2215386071803884 0.17411796667204071 0 0.2338194029218747 0.17625441630175029 0 0.22750597094518471 0.17001801355487939 0 0.2215386071803884 0.17411796667204071 0 0.2338194029218747 0.17625441630175029 0 0.2322978637301624 0.16320272858135379 0 0.2338194029218747 0.17625441630175029 0 0.24576080505334111 0.17983006675991989 0 0.2346141467756124 0.19500598301579161 0 0.2338194029218747 0.17625441630175029 0 0.24576080505334111 0.17983006675991989 0 0.2322978637301624 0.16320272858135379 0 0.24576080505334111 0.17983006675991989 0 0.2322978637301624 0.16320272858135379 0 0.24576080505334111 0.17983006675991989 0 0.25141269034433628 0.16569928600416739 0 0.2322978637301624 0.16320272858135379 0 0.24587194258807171 0.14905158404663629 0 0.25141269034433628 0.16569928600416739 0 0.2322978637301624 0.16320272858135379 0 0.24587194258807171 0.14905158404663629 0 0.23353878359290969 0.1428468022709791 0 0.24587194258807171 0.14905158404663629 0 0.23353878359290969 0.1428468022709791 0 0.2448645016826331 0.1344993804399636 0 0.2322978637301624 0.16320272858135379 0 0.24587194258807171 0.14905158404663629 0 0.2173053546805801 0.14468630545148331 0 0.2322978637301624 0.16320272858135379 0 0.23353878359290969 0.1428468022709791 0 0.2173053546805801 0.14468630545148331 0 0.2322978637301624 0.16320272858135379 0 0.2173053546805801 0.14468630545148331 0 0.23353878359290969 0.1428468022709791 0 0.22997587592000049 0.1231172687524535 0 0.23353878359290969 0.1428468022709791 0 0.2448645016826331 0.1344993804399636 0 0.22997587592000049 0.1231172687524535 0 0.2448645016826331 0.1344993804399636 0 0.24384986109766579 0.12340425468974919 0 0.22997587592000049 0.1231172687524535 0 0.2448645016826331 0.1344993804399636 0 0.24384986109766579 0.12340425468974919 0 0.25497610093800638 0.12398571659301 0 0.24384986109766579 0.12340425468974919 0 0.24450628680137701 0.11228218580733181 0 0.25497610093800638 0.12398571659301 0 0.24384986109766579 0.12340425468974919 0 0.24450628680137701 0.11228218580733181 0 0.22997587592000049 0.1231172687524535 0 0.2365855257838935 0.09775344644770867 0 0.2491404277873363 0.088082738886410702 0 0.25691915416968902 0.1022140844603284 0 0.24450628680137701 0.11228218580733181 0 0.2365855257838935 0.09775344644770867 0 0.25691915416968902 0.1022140844603284 0 0.24450628680137701 0.11228218580733181 0 0.2365855257838935 0.09775344644770867 0 0.2208236635557605 0.10781105139094629 0 0.2365855257838935 0.09775344644770867 0 0.2208236635557605 0.10781105139094629 0 0.2199068732008255 0.09088455235002621 0 0.24450628680137701 0.11228218580733181 0 0.2208236635557605 0.10781105139094629 0 0.22997587592000049 0.1231172687524535 0 0.20231284563099819 0.1261698823216125 0 0.2208236635557605 0.10781105139094629 0 0.22997587592000049 0.1231172687524535 0 0.20231284563099819 0.1261698823216125 0 0.2208236635557605 0.10781105139094629 0 0.20500181799904471 0.099582291809011236 0 0.20231284563099819 0.1261698823216125 0 0.20500181799904471 0.099582291809011236 0 0.2208236635557605 0.10781105139094629 0 0.20500181799904471 0.099582291809011236 0 0.2199068732008255 0.09088455235002621 0 0.20500181799904471 0.099582291809011236 0 0.18920796000401879 0.08093069910273383 0 0.1849251928100332 0.10469534888604599 0 0.20231284563099819 0.1261698823216125 0 0.1849251928100332 0.10469534888604599 0 0.20231284563099819 0.1261698823216125 0 0.20500181799904471 0.099582291809011236 0 0.1849251928100332 0.10469534888604599 0 0.18013480578677299 0.12967936467858621 0 0.20231284563099819 0.1261698823216125 0 0.1849251928100332 0.10469534888604599 0 0.18920796000401879 0.08093069910273383 0 0.20769079036709109 0.072994701296410142 0 0.19263882345811989 0.058518199452870817 0 0.20500181799904471 0.099582291809011236 0 0.18920796000401879 0.08093069910273383 0 0.20769079036709109 0.072994701296410142 0 0.20500181799904471 0.099582291809011236 0 0.20769079036709109 0.072994701296410142 0 0.20500181799904471 0.099582291809011236 0 0.20769079036709109 0.072994701296410142 0 0.2199068732008255 0.09088455235002621 0 0.20769079036709109 0.072994701296410142 0 0.2105515451092814 0.056850031286236287 0 0.19263882345811989 0.058518199452870817 0 0.20769079036709109 0.072994701296410142 0 0.2294325682983375 0.076281270806054749 0 0.2105515451092814 0.056850031286236287 0 0.2294325682983375 0.076281270806054749 0 0.23136888024303409 0.055938518081384683 0 0.2105515451092814 0.056850031286236287 0 0.2365855257838935 0.09775344644770867 0 0.2294325682983375 0.076281270806054749 0 0.2199068732008255 0.09088455235002621 0 0.20769079036709109 0.072994701296410142 0 0.2294325682983375 0.076281270806054749 0 0.2199068732008255 0.09088455235002621 0 0.2294325682983375 0.076281270806054749 0 0.2491404277873363 0.088082738886410702 0 0.25115327748806898 0.071390602486790619 0 0.2365855257838935 0.09775344644770867 0 0.2294325682983375 0.076281270806054749 0 0.2491404277873363 0.088082738886410702 0 0.23136888024303409 0.055938518081384683 0 0.25115327748806898 0.071390602486790619 0 0.2294325682983375 0.076281270806054749 0 0.23136888024303409 0.055938518081384683 0 0.25115327748806898 0.071390602486790619 0 0.23136888024303409 0.055938518081384683 0 0.25920043295498391 0.051756052689076529 0 0.25115327748806898 0.071390602486790619 0 0.23136888024303409 0.055938518081384683 0 0.24624575751259009 0.030279239029664898 0 0.22629079762424939 0.029905207598820111 0 0.23136888024303409 0.055938518081384683 0 0.24624575751259009 0.030279239029664898 0 0.25920043295498391 0.051756052689076529 0 0.23136888024303409 0.055938518081384683 0 0.22629079762424939 0.029905207598820111 0 0.2115844829979992 0.04048643367597874 0 0.23136888024303409 0.055938518081384683 0 0.2115844829979992 0.04048643367597874 0 0.24651066935859009 0.0095266504650106734 0 0.23522116933004819 0.013523227379538229 0 0.23812321768071351 -0.0016894971423481739 0 0.24717639833345989 6.4481204013932397e-05 0 0.24651066935859009 0.0095266504650106734 0 0.25582356345651869 0.0037151648870848682 0 0.24717639833345989 6.4481204013932397e-05 0 0.24651066935859009 0.0095266504650106734 0 0.23812321768071351 -0.0016894971423481739 0 0.24651066935859009 0.0095266504650106734 0 0.23522116933004819 0.013523227379538229 0 0.24624575751259009 0.030279239029664898 0 0.23522116933004819 0.013523227379538229 0 0.24624575751259009 0.030279239029664898 0 0.22629079762424939 0.029905207598820111 0 0.24651066935859009 0.0095266504650106734 0 0.24624575751259009 0.030279239029664898 0 0.25586098751065722 0.018130948215961711 0 0.23522116933004819 0.013523227379538229 0 0.22629079762424939 0.029905207598820111 0 0.22094068594518759 0.01337949960948078 0 0.22629079762424939 0.029905207598820111 0 0.22094068594518759 0.01337949960948078 0 0.21102288790083151 0.022873264395221089 0 0.23522116933004819 0.013523227379538229 0 0.22094068594518759 0.01337949960948078 0 0.22731638315620431 0.0017916248146374911 0 0.22094068594518759 0.01337949960948078 0 0.22731638315620431 0.0017916248146374911 0 0.21641397312626279 0.0016274957474366101 0 0.23522116933004819 0.013523227379538229 0 0.22731638315620431 0.0017916248146374911 0 0.23812321768071351 -0.0016894971423481739 0 0.2093789045335295 0.01055617772123112 0 0.1976782857206405 0.0079763831757880127 0 0.20607483203477139 -3.5438949451973201e-05 0 0.21641397312626279 0.0016274957474366101 0 0.2093789045335295 0.01055617772123112 0 0.20607483203477139 -3.5438949451973201e-05 0 0.22094068594518759 0.01337949960948078 0 0.21641397312626279 0.0016274957474366101 0 0.2093789045335295 0.01055617772123112 0 0.22094068594518759 0.01337949960948078 0 0.2093789045335295 0.01055617772123112 0 0.21102288790083151 0.022873264395221089 0 0.21102288790083151 0.022873264395221089 0 0.19180008575296451 0.025034349270572499 0 0.2115844829979992 0.04048643367597874 0 0.22629079762424939 0.029905207598820111 0 0.21102288790083151 0.022873264395221089 0 0.2115844829979992 0.04048643367597874 0 0.2093789045335295 0.01055617772123112 0 0.21102288790083151 0.022873264395221089 0 0.20223669285084339 0.016663881847415001 0 0.21102288790083151 0.022873264395221089 0 0.19180008575296451 0.025034349270572499 0 0.20223669285084339 0.016663881847415001 0 0.19180008575296451 0.025034349270572499 0 0.20223669285084339 0.016663881847415001 0 0.1976782857206405 0.0079763831757880127 0 0.19180008575296451 0.025034349270572499 0 0.19445701356335421 0.033307410287202327 0 0.18721135563283331 0.031318198370768199 0 0.19180008575296451 0.025034349270572499 0 0.19445701356335421 0.033307410287202327 0 0.19180008575296451 0.025034349270572499 0 0.1976782857206405 0.0079763831757880127 0 0.18277397462901801 -0.003070881055707454 0 0.2093789045335295 0.01055617772123112 0 0.20223669285084339 0.016663881847415001 0 0.1976782857206405 0.0079763831757880127 0 0.1976782857206405 0.0079763831757880127 0 0.18277397462901801 -0.003070881055707454 0 0.1968784915338824 -0.0032127247611820108 0 0.1976782857206405 0.0079763831757880127 0 0.20607483203477139 -3.5438949451973201e-05 0 0.1968784915338824 -0.0032127247611820108 0 0.2105515451092814 0.056850031286236287 0 0.2115844829979992 0.04048643367597874 0 0.1994058071374086 0.046109608559044162 0 0.23136888024303409 0.055938518081384683 0 0.2105515451092814 0.056850031286236287 0 0.2115844829979992 0.04048643367597874 0 0.19180008575296451 0.025034349270572499 0 0.2115844829979992 0.04048643367597874 0 0.19180008575296451 0.025034349270572499 0 0.2115844829979992 0.04048643367597874 0 0.19445701356335421 0.033307410287202327 0 0.2115844829979992 0.04048643367597874 0 0.1994058071374086 0.046109608559044162 0 0.19445701356335421 0.033307410287202327 0 0.19445701356335421 0.033307410287202327 0 0.1877971705582884 0.041385968092932629 0 0.18721135563283331 0.031318198370768199 0 0.1994058071374086 0.046109608559044162 0 0.19445701356335421 0.033307410287202327 0 0.1877971705582884 0.041385968092932629 0 0.1994058071374086 0.046109608559044162 0 0.1877971705582884 0.041385968092932629 0 0.19263882345811989 0.058518199452870817 0 0.2105515451092814 0.056850031286236287 0 0.1994058071374086 0.046109608559044162 0 0.19263882345811989 0.058518199452870817 0 0.19263882345811989 0.058518199452870817 0 0.17250342420014469 0.04783840091462372 0 0.17745359540075581 0.066572837721585509 0 0.1877971705582884 0.041385968092932629 0 0.19263882345811989 0.058518199452870817 0 0.17250342420014469 0.04783840091462372 0 0.1877971705582884 0.041385968092932629 0 0.17250342420014469 0.04783840091462372 0 0.17956406531888969 0.033343996895854038 0 0.1877971705582884 0.041385968092932629 0 0.18721135563283331 0.031318198370768199 0 0.17956406531888969 0.033343996895854038 0 0.17250342420014469 0.04783840091462372 0 0.17956406531888969 0.033343996895854038 0 0.17033227899651171 0.032958868923906252 0 0.17250342420014469 0.04783840091462372 0 0.15808735592875969 0.032445545883588757 0 0.1466613540876627 0.044376904506821663 0 0.17250342420014469 0.04783840091462372 0 0.17033227899651171 0.032958868923906252 0 0.15808735592875969 0.032445545883588757 0 0.17250342420014469 0.04783840091462372 0 0.1501498871681031 0.061746282014912883 0 0.17745359540075581 0.066572837721585509 0 0.17250342420014469 0.04783840091462372 0 0.1501498871681031 0.061746282014912883 0 0.1466613540876627 0.044376904506821663 0 0.19180008575296451 0.025034349270572499 0 0.18277397462901801 -0.003070881055707454 0 0.19180008575296451 0.025034349270572499 0 0.17378020093490079 0.01096039100255999 0 0.18277397462901801 -0.003070881055707454 0 0.17378020093490079 0.01096039100255999 0 0.18277397462901801 -0.003070881055707454 0 0.1692383706313218 -0.0029367958741170052 0 0.19180008575296451 0.025034349270572499 0 0.17378020093490079 0.01096039100255999 0 0.18136601278371739 0.024357657149841821 0 0.19180008575296451 0.025034349270572499 0 0.17378020093490079 0.01096039100255999 0 0.17378020093490079 0.01096039100255999 0 0.17393814118552231 0.021550545130735559 0 0.18136601278371739 0.024357657149841821 0 0.19180008575296451 0.025034349270572499 0 0.18721135563283331 0.031318198370768199 0 0.18136601278371739 0.024357657149841821 0 0.18721135563283331 0.031318198370768199 0 0.17956406531888969 0.033343996895854038 0 0.18136601278371739 0.024357657149841821 0 0.17956406531888969 0.033343996895854038 0 0.17033227899651171 0.032958868923906252 0 0.17393814118552231 0.021550545130735559 0 0.17956406531888969 0.033343996895854038 0 0.17393814118552231 0.021550545130735559 0 0.18136601278371739 0.024357657149841821 0 0.17033227899651171 0.032958868923906252 0 0.15808735592875969 0.032445545883588757 0 0.17393814118552231 0.021550545130735559 0 0.17393814118552231 0.021550545130735559 0 0.1606244042689107 0.0092316424857115161 0 0.14932743582803651 0.01619167563198836 0 0.17393814118552231 0.021550545130735559 0 0.14932743582803651 0.01619167563198836 0 0.15808735592875969 0.032445545883588757 0 0.17393814118552231 0.021550545130735559 0 0.14932743582803651 0.01619167563198836 0 0.17378020093490079 0.01096039100255999 0 0.15576031611683741 -0.0031135672654528379 0 0.17378020093490079 0.01096039100255999 0 0.1606244042689107 0.0092316424857115161 0 0.15576031611683741 -0.0031135672654528379 0 0.17378020093490079 0.01096039100255999 0 0.15576031611683741 -0.0031135672654528379 0 0.1692383706313218 -0.0029367958741170052 0 0.17378020093490079 0.01096039100255999 0 0.17393814118552231 0.021550545130735559 0 0.1606244042689107 0.0092316424857115161 0 0.1606244042689107 0.0092316424857115161 0 0.14932743582803651 0.01619167563198836 0 0.15576031611683741 -0.0031135672654528379 0 0.14932743582803651 0.01619167563198836 0 0.15576031611683741 -0.0031135672654528379 0 0.1383395857447301 -0.0021895860680983272 0 0.15808735592875969 0.032445545883588757 0 0.14932743582803651 0.01619167563198836 0 0.13789454129609499 0.028552322483745389 0 0.1247167304705508 0.010832806133241181 0 0.14932743582803651 0.01619167563198836 0 0.13789454129609499 0.028552322483745389 0 0.1187201190948507 0.0275828540440872 0 0.1247167304705508 0.010832806133241181 0 0.13789454129609499 0.028552322483745389 0 0.1247167304705508 0.010832806133241181 0 0.12099230233569511 -0.0076438222115242128 0 0.1383395857447301 -0.0021895860680983272 0 0.1247167304705508 0.010832806133241181 0 0.14932743582803651 0.01619167563198836 0 0.1383395857447301 -0.0021895860680983272 0 0.1247167304705508 0.010832806133241181 0 0.14932743582803651 0.01619167563198836 0 0.1501498871681031 0.061746282014912883 0 0.1466613540876627 0.044376904506821663 0 0.1315261100014129 0.05413030454013297 0 0.15808735592875969 0.032445545883588757 0 0.13789454129609499 0.028552322483745389 0 0.1466613540876627 0.044376904506821663 0 0.1466613540876627 0.044376904506821663 0 0.12988814267760149 0.038695275487615872 0 0.1315261100014129 0.05413030454013297 0 0.1187201190948507 0.0275828540440872 0 0.13789454129609499 0.028552322483745389 0 0.12988814267760149 0.038695275487615872 0 0.13789454129609499 0.028552322483745389 0 0.1466613540876627 0.044376904506821663 0 0.12988814267760149 0.038695275487615872 0 0.1196089951785259 0.044102697575023567 0 0.12988814267760149 0.038695275487615872 0 0.1315261100014129 0.05413030454013297 0 0.1501498871681031 0.061746282014912883 0 0.1315261100014129 0.05413030454013297 0 0.13036760658061899 0.070962797443137562 0 0.1154732520916749 0.062671031976323774 0 0.1315261100014129 0.05413030454013297 0 0.13036760658061899 0.070962797443137562 0 0.13036760658061899 0.070962797443137562 0 0.14492722514615969 0.079006530696623542 0 0.13579713795649981 0.08122161625230967 0 0.1501498871681031 0.061746282014912883 0 0.13036760658061899 0.070962797443137562 0 0.14492722514615969 0.079006530696623542 0 0.1501498871681031 0.061746282014912883 0 0.14492722514615969 0.079006530696623542 0 0.16753753998906809 0.083220815450479407 0 0.14969613598196499 0.090667067458415296 0 0.14492722514615969 0.079006530696623542 0 0.16753753998906809 0.083220815450479407 0 0.14969613598196499 0.090667067458415296 0 0.14492722514615969 0.079006530696623542 0 0.13938456794295981 0.087009094743788054 0 0.14969613598196499 0.090667067458415296 0 0.13938456794295981 0.087009094743788054 0 0.14069688539782349 0.097597883033481492 0 0.13036760658061899 0.070962797443137562 0 0.13579713795649981 0.08122161625230967 0 0.12850915215626041 0.087908042125689534 0 0.13938456794295981 0.087009094743788054 0 0.12850915215626041 0.087908042125689534 0 0.14069688539782349 0.097597883033481492 0 0.14492722514615969 0.079006530696623542 0 0.13938456794295981 0.087009094743788054 0 0.13579713795649981 0.08122161625230967 0 0.13938456794295981 0.087009094743788054 0 0.13579713795649981 0.08122161625230967 0 0.12850915215626041 0.087908042125689534 0 0.12850915215626041 0.087908042125689534 0 0.14154505222084551 0.1131450522750556 0 0.14069688539782349 0.097597883033481492 0 0.1235525662917519 0.094843792733770374 0 0.13193622004765179 0.1073430053038969 0 0.14154505222084551 0.1131450522750556 0 0.1235525662917519 0.094843792733770374 0 0.12850915215626041 0.087908042125689534 0 0.14154505222084551 0.1131450522750556 0 0.1235525662917519 0.094843792733770374 0 0.14154505222084551 0.1131450522750556 0 0.12850915215626041 0.087908042125689534 0 0.14154505222084551 0.1131450522750556 0 0.12443498868786131 0.10435092231849399 0 0.1235525662917519 0.094843792733770374 0 0.12787800311279149 0.1055586581322166 0 0.1235525662917519 0.094843792733770374 0 0.12787800311279149 0.1055586581322166 0 0.13193622004765179 0.1073430053038969 0 0.12443498868786131 0.10435092231849399 0 0.12652054665688381 0.10933001811694849 0 0.12787800311279149 0.1055586581322166 0 0.12652054665688381 0.10933001811694849 0 0.12787800311279149 0.1055586581322166 0 0.1311632874966473 0.1110315949634785 0 0.12787800311279149 0.1055586581322166 0 0.13193622004765179 0.1073430053038969 0 0.1311632874966473 0.1110315949634785 0 0.1307855330247745 0.1259389066106861 0 0.12763197277894081 0.11781167857102071 0 0.13492317614367141 0.11835973132643821 0 0.1220698967109084 0.1236756188201347 0 0.1307855330247745 0.1259389066106861 0 0.12763197277894081 0.11781167857102071 0 0.12763197277894081 0.11781167857102071 0 0.13134254399124071 0.1148012774798695 0 0.13492317614367141 0.11835973132643821 0 0.12763197277894081 0.11781167857102071 0 0.13134254399124071 0.1148012774798695 0 0.12834649202690029 0.1132687178935559 0 0.13134254399124071 0.1148012774798695 0 0.1311632874966473 0.1110315949634785 0 0.1340829431517869 0.1142366747789149 0 0.124140281621065 0.113039143236951 0 0.12763197277894081 0.11781167857102071 0 0.12834649202690029 0.1132687178935559 0 0.12652054665688381 0.10933001811694849 0 0.12834649202690029 0.1132687178935559 0 0.1311632874966473 0.1110315949634785 0 0.124140281621065 0.113039143236951 0 0.12652054665688381 0.10933001811694849 0 0.12834649202690029 0.1132687178935559 0 0.13134254399124071 0.1148012774798695 0 0.12834649202690029 0.1132687178935559 0 0.1311632874966473 0.1110315949634785 0 0.13193622004765179 0.1073430053038969 0 0.1355421911162229 0.1121359284149635 0 0.14154505222084551 0.1131450522750556 0 0.1311632874966473 0.1110315949634785 0 0.1355421911162229 0.1121359284149635 0 0.1340829431517869 0.1142366747789149 0 0.13193622004765179 0.1073430053038969 0 0.1311632874966473 0.1110315949634785 0 0.1355421911162229 0.1121359284149635 0 0.13891409209252259 0.1167488875625763 0 0.13744351701115201 0.1148548417098247 0 0.13492317614367141 0.11835973132643821 0 0.1355421911162229 0.1121359284149635 0 0.13744351701115201 0.1148548417098247 0 0.14154505222084551 0.1131450522750556 0 0.13891409209252259 0.1167488875625763 0 0.13744351701115201 0.1148548417098247 0 0.14154505222084551 0.1131450522750556 0 0.13134254399124071 0.1148012774798695 0 0.1340829431517869 0.1142366747789149 0 0.13492317614367141 0.11835973132643821 0 0.13744351701115201 0.1148548417098247 0 0.1340829431517869 0.1142366747789149 0 0.13492317614367141 0.11835973132643821 0 0.1355421911162229 0.1121359284149635 0 0.13744351701115201 0.1148548417098247 0 0.1340829431517869 0.1142366747789149 0 0.13846535559192041 0.12870578789646839 0 0.1366893450621581 0.12344344043333361 0 0.14174462299442139 0.1206359249389867 0 0.13492317614367141 0.11835973132643821 0 0.1366893450621581 0.12344344043333361 0 0.14174462299442139 0.1206359249389867 0 0.13891409209252259 0.1167488875625763 0 0.13492317614367141 0.11835973132643821 0 0.14174462299442139 0.1206359249389867 0 0.1307855330247745 0.1259389066106861 0 0.13492317614367141 0.11835973132643821 0 0.1366893450621581 0.12344344043333361 0 0.14773787989578299 0.12513413274601151 0 0.14174462299442139 0.1206359249389867 0 0.14154505222084551 0.1131450522750556 0 0.13846535559192041 0.12870578789646839 0 0.14773787989578299 0.12513413274601151 0 0.14174462299442139 0.1206359249389867 0 0.14773787989578299 0.12513413274601151 0 0.14154505222084551 0.1131450522750556 0 0.14773787989578299 0.12513413274601151 0 0.14154505222084551 0.1131450522750556 0 0.15013252750136649 0.1170678415205629 0 0.14154505222084551 0.1131450522750556 0 0.14547202388252439 0.110062193991074 0 0.15013252750136649 0.1170678415205629 0 0.14154505222084551 0.1131450522750556 0 0.14547202388252439 0.110062193991074 0 0.14532691530757669 0.10496855068090059 0 0.13891409209252259 0.1167488875625763 0 0.14174462299442139 0.1206359249389867 0 0.14154505222084551 0.1131450522750556 0 0.1509023363852352 0.1111666383775296 0 0.15013252750136649 0.1170678415205629 0 0.15802197320198361 0.1110448726881772 0 0.14547202388252439 0.110062193991074 0 0.1509023363852352 0.1111666383775296 0 0.15013252750136649 0.1170678415205629 0 0.15013252750136649 0.1170678415205629 0 0.1582443246947543 0.1238645948038431 0 0.15802197320198361 0.1110448726881772 0 0.14773787989578299 0.12513413274601151 0 0.15013252750136649 0.1170678415205629 0 0.1582443246947543 0.1238645948038431 0 0.14969613598196499 0.090667067458415296 0 0.14069688539782349 0.097597883033481492 0 0.148561843625474 0.098979471336786307 0 0.14069688539782349 0.097597883033481492 0 0.14532691530757669 0.10496855068090059 0 0.148561843625474 0.098979471336786307 0 0.14154505222084551 0.1131450522750556 0 0.14069688539782349 0.097597883033481492 0 0.14532691530757669 0.10496855068090059 0 0.14547202388252439 0.110062193991074 0 0.14532691530757669 0.10496855068090059 0 0.1504795727546151 0.1056234766060712 0 0.14532691530757669 0.10496855068090059 0 0.1504795727546151 0.1056234766060712 0 0.148561843625474 0.098979471336786307 0 0.1504795727546151 0.1056234766060712 0 0.15718955513370389 0.098753933327298829 0 0.15802197320198361 0.1110448726881772 0 0.14547202388252439 0.110062193991074 0 0.1509023363852352 0.1111666383775296 0 0.1504795727546151 0.1056234766060712 0 0.1509023363852352 0.1111666383775296 0 0.1504795727546151 0.1056234766060712 0 0.15802197320198361 0.1110448726881772 0 0.1504795727546151 0.1056234766060712 0 0.148561843625474 0.098979471336786307 0 0.15718955513370389 0.098753933327298829 0 0.14969613598196499 0.090667067458415296 0 0.148561843625474 0.098979471336786307 0 0.15718955513370389 0.098753933327298829 0 0.15718955513370389 0.098753933327298829 0 0.16823045891010119 0.102966279493475 0 0.16753753998906809 0.083220815450479407 0 0.15718955513370389 0.098753933327298829 0 0.16823045891010119 0.102966279493475 0 0.15802197320198361 0.1110448726881772 0 0.1582443246947543 0.1238645948038431 0 0.15802197320198361 0.1110448726881772 0 0.16909298040193599 0.1175410513812547 0 0.16823045891010119 0.102966279493475 0 0.15802197320198361 0.1110448726881772 0 0.16909298040193599 0.1175410513812547 0 0.166512383501948 0.13092693987361251 0 0.1582443246947543 0.1238645948038431 0 0.16909298040193599 0.1175410513812547 0 0.18013480578677299 0.12967936467858621 0 0.16909298040193599 0.1175410513812547 0 0.1849251928100332 0.10469534888604599 0 0.1849251928100332 0.10469534888604599 0 0.16753753998906809 0.083220815450479407 0 0.16823045891010119 0.102966279493475 0 0.16909298040193599 0.1175410513812547 0 0.1849251928100332 0.10469534888604599 0 0.16823045891010119 0.102966279493475 0 0.1849251928100332 0.10469534888604599 0 0.16753753998906809 0.083220815450479407 0 0.18920796000401879 0.08093069910273383 0 0.1849251928100332 0.10469534888604599 0 0.16753753998906809 0.083220815450479407 0 0.18920796000401879 0.08093069910273383 0 0.17745359540075581 0.066572837721585509 0 0.16753753998906809 0.083220815450479407 0 0.18920796000401879 0.08093069910273383 0 0.19263882345811989 0.058518199452870817 0 0.17745359540075581 0.066572837721585509 0 0.1501498871681031 0.061746282014912883 0 0.16753753998906809 0.083220815450479407 0 0.1501498871681031 0.061746282014912883 0 0.17745359540075581 0.066572837721585509 0 0.16753753998906809 0.083220815450479407 0 0.14969613598196499 0.090667067458415296 0 0.15718955513370389 0.098753933327298829 0 0.16753753998906809 0.083220815450479407 0 0.1106263555985673 0.48027709636209709 0 0.121408580388725 0.47105972041901129 0 0.095351808149899964 0.46802874341333162 0 0.121408580388725 0.47105972041901129 0 0.095351808149899964 0.46802874341333162 0 0.098523745474359326 0.48206654397267112 0 0.1106263555985673 0.48027709636209709 0 0.095351808149899964 0.46802874341333162 0 0.098523745474359326 0.48206654397267112 0 0.095351808149899964 0.46802874341333162 0 0.088518693936962212 0.48246493721424122 0 0.104201395826134 0.49352886709883897 0 0.1230923811484 0.499999999999999 0 0.093533975098162969 0.5 0 0.098523745474359326 0.48206654397267112 0 0.094535020997787197 0.48877302449748578 0 0.088518693936962212 0.48246493721424122 0 0.098523745474359326 0.48206654397267112 0 0.094535020997787197 0.48877302449748578 0 0.10290852793567121 0.49115018624989121 0 0.104201395826134 0.49352886709883897 0 0.10290852793567121 0.49115018624989121 0 0.1188004819222136 0.48908362133956462 0 0.094535020997787197 0.48877302449748578 0 0.104201395826134 0.49352886709883897 0 0.10290852793567121 0.49115018624989121 0 0.098523745474359326 0.48206654397267112 0 0.10290852793567121 0.49115018624989121 0 0.1106263555985673 0.48027709636209709 0 0.104201395826134 0.49352886709883897 0 0.1188004819222136 0.48908362133956462 0 0.12988004983645901 0.49240314624589182 0 0.10290852793567121 0.49115018624989121 0 0.1188004819222136 0.48908362133956462 0 0.1106263555985673 0.48027709636209709 0 0.104201395826134 0.49352886709883897 0 0.1230923811484 0.499999999999999 0 0.12988004983645901 0.49240314624589182 0 0.104201395826134 0.49352886709883897 0 0.12988004983645901 0.49240314624589182 0 0.10290852793567121 0.49115018624989121 0 0.1188004819222136 0.48908362133956462 0 0.1188004819222136 0.48908362133956462 0 0.1106263555985673 0.48027709636209709 0 0.12534223969395061 0.480529939251091 0 0.1106263555985673 0.48027709636209709 0 0.121408580388725 0.47105972041901129 0 0.12534223969395061 0.480529939251091 0 0.121408580388725 0.47105972041901129 0 0.1174448072519568 0.45262005047452919 0 0.1286450609868573 0.45754986806268189 0 0.121408580388725 0.47105972041901129 0 0.1174448072519568 0.45262005047452919 0 0.1019192561361569 0.45310256589492581 0 0.1174448072519568 0.45262005047452919 0 0.12785470135571081 0.43950284955902769 0 0.1286450609868573 0.45754986806268189 0 0.1174448072519568 0.45262005047452919 0 0.1065277323740773 0.43893506330372489 0 0.12785470135571081 0.43950284955902769 0 0.1065277323740773 0.43893506330372489 0 0.12785470135571081 0.43950284955902769 0 0.1065277323740773 0.43893506330372489 0 0.1019192561361569 0.45310256589492581 0 0.089056278147924564 0.44631225863580393 0 0.1174448072519568 0.45262005047452919 0 0.1065277323740773 0.43893506330372489 0 0.1019192561361569 0.45310256589492581 0 0.121408580388725 0.47105972041901129 0 0.1019192561361569 0.45310256589492581 0 0.095351808149899964 0.46802874341333162 0 0.1019192561361569 0.45310256589492581 0 0.095351808149899964 0.46802874341333162 0 0.089056278147924564 0.44631225863580393 0 0.095351808149899964 0.46802874341333162 0 0.075298107559037111 0.45153425208744402 0 0.069295035911074818 0.46499776640765178 0 0.095351808149899964 0.46802874341333162 0 0.069295035911074818 0.46499776640765178 0 0.095351808149899964 0.46802874341333162 0 0.089056278147924564 0.44631225863580393 0 0.075298107559037111 0.45153425208744402 0 0.089056278147924564 0.44631225863580393 0 0.068178190026198238 0.44082736920399812 0 0.087062574642177995 0.42544555791139921 0 0.089056278147924564 0.44631225863580393 0 0.075298107559037111 0.45153425208744402 0 0.068178190026198238 0.44082736920399812 0 0.075298107559037111 0.45153425208744402 0 0.068178190026198238 0.44082736920399812 0 0.065516284726632165 0.45339214204892281 0 0.075298107559037111 0.45153425208744402 0 0.065516284726632165 0.45339214204892281 0 0.069295035911074818 0.46499776640765178 0 0.069295035911074818 0.46499776640765178 0 0.074033247621453926 0.47978748301136692 0 0.0536069163600928 0.48098339470097212 0 0.095351808149899964 0.46802874341333162 0 0.069295035911074818 0.46499776640765178 0 0.074033247621453926 0.47978748301136692 0 0.095351808149899964 0.46802874341333162 0 0.074033247621453926 0.47978748301136692 0 0.088518693936962212 0.48246493721424122 0 0.104201395826134 0.49352886709883897 0 0.093533975098162969 0.5 0 0.078522741815809149 0.49465458795178641 0 0.093533975098162969 0.5 0 0.078522741815809149 0.49465458795178641 0 0.063975569047925882 0.49999999999998052 0 0.094535020997787197 0.48877302449748578 0 0.104201395826134 0.49352886709883897 0 0.078522741815809149 0.49465458795178641 0 0.094535020997787197 0.48877302449748578 0 0.088518693936962212 0.48246493721424122 0 0.078522741815809149 0.49465458795178641 0 0.104201395826134 0.49352886709883897 0 0.078522741815809149 0.49465458795178641 0 0.074033247621453926 0.47978748301136692 0 0.088518693936962212 0.48246493721424122 0 0.078522741815809149 0.49465458795178641 0 0.074033247621453926 0.47978748301136692 0 0.078522741815809149 0.49465458795178641 0 0.063975569047925882 0.49999999999998052 0 0.074033247621453926 0.47978748301136692 0 0.063975569047925882 0.49999999999998052 0 0.0536069163600928 0.48098339470097212 0 0.063975569047925882 0.49999999999998052 0 0.0536069163600928 0.48098339470097212 0 0.044098344783773717 0.50000000000000189 0 0.063975569047925882 0.49999999999998052 0 0.0536069163600928 0.48098339470097212 0 0.069295035911074818 0.46499776640765178 0 0.0536069163600928 0.48098339470097212 0 0.043238263672249998 0.46196678940196911 0 0.0536069163600928 0.48098339470097212 0 0.043238263672249998 0.46196678940196911 0 0.0536069163600928 0.48098339470097212 0 0.035086589247885457 0.47290118506672901 0 0.043238263672249998 0.46196678940196911 0 0.0536069163600928 0.48098339470097212 0 0.035086589247885457 0.47290118506672901 0 0.03952746598726304 0.48446186161704208 0 0.035086589247885457 0.47290118506672901 0 0.03952746598726304 0.48446186161704208 0 0.025057459087337839 0.48348741038518223 0 0.0536069163600928 0.48098339470097212 0 0.044098344783773717 0.50000000000000189 0 0.03952746598726304 0.48446186161704208 0 0.044098344783773717 0.50000000000000189 0 0.03952746598726304 0.48446186161704208 0 0.025057459087337839 0.48348741038518223 0 0.044098344783773717 0.50000000000000189 0 0.025057459087337839 0.48348741038518223 0 0.01936784101939781 0.5 0 0.025057459087337839 0.48348741038518223 0 0.0067487602434605949 0.48597569081655001 0 0.044098344783773717 0.50000000000000189 0 0.01936784101939781 0.5 0 0.025057459087337839 0.48348741038518223 0 0.035086589247885457 0.47290118506672901 0 0.025057459087337839 0.48348741038518223 0 0.024889253931178471 0.45983239508434759 0 0.025057459087337839 0.48348741038518223 0 0.0060165733909027727 0.46697482077036129 0 0.024889253931178471 0.45983239508434759 0 -0.0093840284783354815 0.48249154585877091 0 0.0067487602434605949 0.48597569081655001 0 0.0060165733909027727 0.46697482077036129 0 0.025057459087337839 0.48348741038518223 0 0.0067487602434605949 0.48597569081655001 0 0.0060165733909027727 0.46697482077036129 0 0.025057459087337839 0.48348741038518223 0 0.0060165733909027727 0.46697482077036129 0 -0.0053626627449780973 0.5 0 0.01936784101939781 0.5 0 0.0067487602434605949 0.48597569081655001 0 0.0097611487264646687 0.44997406433166343 0 0.0060165733909027727 0.46697482077036129 0 0.024889253931178471 0.45983239508434759 0 -0.01301859844821714 0.44978255970770742 0 0.0097611487264646687 0.44997406433166343 0 0.0060165733909027727 0.46697482077036129 0 0.0097611487264646687 0.44997406433166343 0 0.024889253931178471 0.45983239508434759 0 0.036823371892781627 0.45020157084573492 0 0.0097611487264646687 0.44997406433166343 0 0.036823371892781627 0.45020157084573492 0 0.0097611487264646687 0.44997406433166343 0 0.036823371892781627 0.45020157084573492 0 0.02274075449034723 0.42437337650059198 0 0.036823371892781627 0.45020157084573492 0 0.053755326848026017 0.45034391428973358 0 0.036823371892781627 0.45020157084573492 0 0.045834774244473221 0.44195129507917202 0 0.053755326848026017 0.45034391428973358 0 0.036823371892781627 0.45020157084573492 0 0.049293805410218487 0.45620918049659698 0 0.053755326848026017 0.45034391428973358 0 0.036606974779265618 0.43759239662503768 0 0.036823371892781627 0.45020157084573492 0 0.045834774244473221 0.44195129507917202 0 0.024889253931178471 0.45983239508434759 0 0.036823371892781627 0.45020157084573492 0 0.043238263672249998 0.46196678940196911 0 0.035086589247885457 0.47290118506672901 0 0.024889253931178471 0.45983239508434759 0 0.043238263672249998 0.46196678940196911 0 0.024889253931178471 0.45983239508434759 0 0.043238263672249998 0.46196678940196911 0 0.036823371892781627 0.45020157084573492 0 0.043238263672249998 0.46196678940196911 0 0.049293805410218487 0.45620918049659698 0 0.036823371892781627 0.45020157084573492 0 0.043238263672249998 0.46196678940196911 0 0.069295035911074818 0.46499776640765178 0 0.043238263672249998 0.46196678940196911 0 0.065516284726632165 0.45339214204892281 0 0.069295035911074818 0.46499776640765178 0 0.049293805410218487 0.45620918049659698 0 0.069295035911074818 0.46499776640765178 0 0.043238263672249998 0.46196678940196911 0 0.049293805410218487 0.45620918049659698 0 0.068178190026198238 0.44082736920399812 0 0.049293805410218487 0.45620918049659698 0 0.068178190026198238 0.44082736920399812 0 0.049293805410218487 0.45620918049659698 0 0.053755326848026017 0.45034391428973358 0 0.068178190026198238 0.44082736920399812 0 0.065516284726632165 0.45339214204892281 0 0.049293805410218487 0.45620918049659698 0 0.045834774244473221 0.44195129507917202 0 0.053755326848026017 0.45034391428973358 0 0.055465242072494578 0.44153699345798142 0 0.045834774244473221 0.44195129507917202 0 0.055465242072494578 0.44153699345798142 0 0.054092677171280863 0.43302539525902201 0 0.068178190026198238 0.44082736920399812 0 0.055465242072494578 0.44153699345798142 0 0.054092677171280863 0.43302539525902201 0 0.068178190026198238 0.44082736920399812 0 0.053755326848026017 0.45034391428973358 0 0.055465242072494578 0.44153699345798142 0 0.054092677171280863 0.43302539525902201 0 0.053220162473008557 0.41819357125587131 0 0.066385186137223842 0.42514219597371489 0 0.054092677171280863 0.43302539525902201 0 0.053220162473008557 0.41819357125587131 0 0.044808541621617112 0.42818267912551439 0 0.045834774244473221 0.44195129507917202 0 0.054092677171280863 0.43302539525902201 0 0.044808541621617112 0.42818267912551439 0 0.053220162473008557 0.41819357125587131 0 0.051689953603909343 0.40265153965670047 0 0.0698920956144225 0.40990361895942468 0 0.053220162473008557 0.41819357125587131 0 0.034288119440057253 0.41015073740846869 0 0.051689953603909343 0.40265153965670047 0 0.053220162473008557 0.41819357125587131 0 0.034288119440057253 0.41015073740846869 0 0.044808541621617112 0.42818267912551439 0 0.036606974779265618 0.43759239662503768 0 0.036823371892781627 0.45020157084573492 0 0.02274075449034723 0.42437337650059198 0 0.036606974779265618 0.43759239662503768 0 0.034288119440057253 0.41015073740846869 0 0.044808541621617112 0.42818267912551439 0 0.036606974779265618 0.43759239662503768 0 0.034288119440057253 0.41015073740846869 0 0.036606974779265618 0.43759239662503768 0 0.045834774244473221 0.44195129507917202 0 0.044808541621617112 0.42818267912551439 0 0.036823371892781627 0.45020157084573492 0 0.02274075449034723 0.42437337650059198 0 0.036606974779265618 0.43759239662503768 0 0.034288119440057253 0.41015073740846869 0 0.02274075449034723 0.42437337650059198 0 0.034288119440057253 0.41015073740846869 0 0.02274075449034723 0.42437337650059198 0 0.024737438738249028 0.39713897942529341 0 0.02274075449034723 0.42437337650059198 0 0.0086581370879179401 0.39854518215544638 0 0.024737438738249028 0.39713897942529341 0 0.02274075449034723 0.42437337650059198 0 0.0086581370879179401 0.39854518215544638 0 -0.00074221871097843097 0.41583171984994571 0 0.02274075449034723 0.42437337650059198 0 0.0086581370879179401 0.39854518215544638 0 -0.0052094923632051964 0.43526164348507312 0 0.0097611487264646687 0.44997406433166343 0 0.02274075449034723 0.42437337650059198 0 -0.0052094923632051964 0.43526164348507312 0 -0.00074221871097843097 0.41583171984994571 0 0.02274075449034723 0.42437337650059198 0 -0.0054244803145113568 0.37271698781030083 0 0.0086581370879179401 0.39854518215544638 0 -0.0054244803145113568 0.37271698781030083 0 0.012023545338913691 0.38019721452175748 0 0.0086581370879179401 0.39854518215544638 0 0.012023545338913691 0.38019721452175748 0 0.0086581370879179401 0.39854518215544638 0 0.024737438738249028 0.39713897942529341 0 0.034288119440057253 0.41015073740846869 0 0.024737438738249028 0.39713897942529341 0 0.031969264100848903 0.38270907819189981 0 0.012023545338913691 0.38019721452175748 0 0.031969264100848903 0.38270907819189981 0 0.02198397614293052 0.36800230443547283 0 0.012023545338913691 0.38019721452175748 0 0.024737438738249028 0.39713897942529341 0 0.031969264100848903 0.38270907819189981 0 0.031969264100848903 0.38270907819189981 0 0.041750593661710841 0.39522047037648361 0 0.049055037502027901 0.38537052624886542 0 0.031969264100848903 0.38270907819189981 0 0.049055037502027901 0.38537052624886542 0 0.046226931726559457 0.36877712164041049 0 0.034288119440057253 0.41015073740846869 0 0.041750593661710841 0.39522047037648361 0 0.051689953603909343 0.40265153965670047 0 0.034288119440057253 0.41015073740846869 0 0.031969264100848903 0.38270907819189981 0 0.034288119440057253 0.41015073740846869 0 0.031969264100848903 0.38270907819189981 0 0.041750593661710841 0.39522047037648361 0 0.051689953603909343 0.40265153965670047 0 0.068211354738785951 0.38920909274699739 0 0.041750593661710841 0.39522047037648361 0 0.051689953603909343 0.40265153965670047 0 0.049055037502027901 0.38537052624886542 0 0.051689953603909343 0.40265153965670047 0 0.049055037502027901 0.38537052624886542 0 0.068211354738785951 0.38920909274699739 0 0.049055037502027901 0.38537052624886542 0 0.068211354738785951 0.38920909274699739 0 0.055961316346105967 0.37465514013013779 0 0.049055037502027901 0.38537052624886542 0 0.055961316346105967 0.37465514013013779 0 0.046226931726559457 0.36877712164041049 0 0.068211354738785951 0.38920909274699739 0 0.084732755873662524 0.37576664583729441 0 0.068211354738785951 0.38920909274699739 0 0.084732755873662524 0.37576664583729441 0 0.067336427426070239 0.37387815969201321 0 0.068211354738785951 0.38920909274699739 0 0.067336427426070239 0.37387815969201321 0 0.055961316346105967 0.37465514013013779 0 0.084732755873662524 0.37576664583729441 0 0.088118701797666843 0.3968021470314424 0 0.1049862825198123 0.38378517115871441 0 0.068211354738785951 0.38920909274699739 0 0.084732755873662524 0.37576664583729441 0 0.088118701797666843 0.3968021470314424 0 0.051689953603909343 0.40265153965670047 0 0.068211354738785951 0.38920909274699739 0 0.0698920956144225 0.40990361895942468 0 0.068211354738785951 0.38920909274699739 0 0.088118701797666843 0.3968021470314424 0 0.0698920956144225 0.40990361895942468 0 0.053220162473008557 0.41819357125587131 0 0.0698920956144225 0.40990361895942468 0 0.066385186137223842 0.42514219597371489 0 0.0698920956144225 0.40990361895942468 0 0.066385186137223842 0.42514219597371489 0 0.087062574642177995 0.42544555791139921 0 0.068178190026198238 0.44082736920399812 0 0.087062574642177995 0.42544555791139921 0 0.068178190026198238 0.44082736920399812 0 0.054092677171280863 0.43302539525902201 0 0.066385186137223842 0.42514219597371489 0 0.068178190026198238 0.44082736920399812 0 0.066385186137223842 0.42514219597371489 0 0.087062574642177995 0.42544555791139921 0 0.088118701797666843 0.3968021470314424 0 0.0698920956144225 0.40990361895942468 0 0.087062574642177995 0.42544555791139921 0 0.088118701797666843 0.3968021470314424 0 0.087062574642177995 0.42544555791139921 0 0.10594695925815779 0.41006374661880018 0 0.087062574642177995 0.42544555791139921 0 0.10594695925815779 0.41006374661880018 0 0.1065277323740773 0.43893506330372489 0 0.087062574642177995 0.42544555791139921 0 0.10594695925815779 0.41006374661880018 0 0.1065277323740773 0.43893506330372489 0 0.089056278147924564 0.44631225863580393 0 0.087062574642177995 0.42544555791139921 0 0.1065277323740773 0.43893506330372489 0 0.1198842365433561 0.42615372480141478 0 0.12785470135571081 0.43950284955902769 0 0.1065277323740773 0.43893506330372489 0 0.10594695925815779 0.41006374661880018 0 0.1198842365433561 0.42615372480141478 0 0.10594695925815779 0.41006374661880018 0 0.1198842365433561 0.42615372480141478 0 0.12566592962473269 0.41323834399045301 0 0.10594695925815779 0.41006374661880018 0 0.12483134387413761 0.39468193532620122 0 0.10594695925815779 0.41006374661880018 0 0.12483134387413761 0.39468193532620122 0 0.12566592962473269 0.41323834399045301 0 0.10594695925815779 0.41006374661880018 0 0.12483134387413761 0.39468193532620122 0 0.1049862825198123 0.38378517115871441 0 0.12483134387413761 0.39468193532620122 0 0.1049862825198123 0.38378517115871441 0 0.1224849427493289 0.37081216148059848 0 0.088118701797666843 0.3968021470314424 0 0.10594695925815779 0.41006374661880018 0 0.1049862825198123 0.38378517115871441 0 0.1005716041280957 0.34944191854620987 0 0.1130458794170939 0.35273000039945679 0 0.11053727192000209 0.33619479761962151 0 0.1005716041280957 0.34944191854620987 0 0.1012541570085435 0.36232419892759682 0 0.1130458794170939 0.35273000039945679 0 0.1012541570085435 0.36232419892759682 0 0.1130458794170939 0.35273000039945679 0 0.1005716041280957 0.34944191854620987 0 0.1012541570085435 0.36232419892759682 0 0.086089913084714517 0.35626160962254588 0 0.084732755873662524 0.37576664583729441 0 0.1049862825198123 0.38378517115871441 0 0.1012541570085435 0.36232419892759682 0 0.1049862825198123 0.38378517115871441 0 0.1012541570085435 0.36232419892759682 0 0.1224849427493289 0.37081216148059848 0 0.1224849427493289 0.37081216148059848 0 0.1130458794170939 0.35273000039945679 0 0.13267239446805329 0.357739981926182 0 0.1012541570085435 0.36232419892759682 0 0.1224849427493289 0.37081216148059848 0 0.1130458794170939 0.35273000039945679 0 0.1012541570085435 0.36232419892759682 0 0.1224849427493289 0.37081216148059848 0 0.1130458794170939 0.35273000039945679 0 0.12483760182564869 0.3431358018713222 0 0.11053727192000209 0.33619479761962151 0 0.1130458794170939 0.35273000039945679 0 0.12483760182564869 0.3431358018713222 0 0.13267239446805329 0.357739981926182 0 0.1130458794170939 0.35273000039945679 0 0.12483760182564869 0.3431358018713222 0 0.12483760182564869 0.3431358018713222 0 0.11053727192000209 0.33619479761962151 0 0.12594456387046801 0.32871601221006369 0 0.11053727192000209 0.33619479761962151 0 0.113377029288476 0.31966008769082088 0 0.12594456387046801 0.32871601221006369 0 0.113377029288476 0.31966008769082088 0 0.11429823728694689 0.30857996765705747 0 0.1283478099377989 0.31480697348830078 0 0.113377029288476 0.31966008769082088 0 0.1283478099377989 0.31480697348830078 0 0.12594456387046801 0.32871601221006369 0 0.113377029288476 0.31966008769082088 0 0.1033869034526123 0.31171834480114929 0 0.11429823728694689 0.30857996765705747 0 0.11053727192000209 0.33619479761962151 0 0.113377029288476 0.31966008769082088 0 0.098712360066495072 0.3227090407646287 0 0.113377029288476 0.31966008769082088 0 0.098712360066495072 0.3227090407646287 0 0.1033869034526123 0.31171834480114929 0 0.098712360066495072 0.3227090407646287 0 0.089771796771754814 0.31150471561856652 0 0.1033869034526123 0.31171834480114929 0 0.1005716041280957 0.34944191854620987 0 0.097271864843737565 0.33697072185484889 0 0.083873531347713082 0.34206157462953302 0 0.1005716041280957 0.34944191854620987 0 0.11053727192000209 0.33619479761962151 0 0.097271864843737565 0.33697072185484889 0 0.11053727192000209 0.33619479761962151 0 0.098712360066495072 0.3227090407646287 0 0.097271864843737565 0.33697072185484889 0 0.097271864843737565 0.33697072185484889 0 0.083873531347713082 0.34206157462953302 0 0.075030178486150498 0.32312052977334083 0 0.098712360066495072 0.3227090407646287 0 0.097271864843737565 0.33697072185484889 0 0.075030178486150498 0.32312052977334083 0 0.098712360066495072 0.3227090407646287 0 0.075030178486150498 0.32312052977334083 0 0.089771796771754814 0.31150471561856652 0 0.075030178486150498 0.32312052977334083 0 0.060307942838175081 0.329506238564375 0 0.061181446230676478 0.31270973072184077 0 0.075030178486150498 0.32312052977334083 0 0.061181446230676478 0.31270973072184077 0 0.068658214101036508 0.3067595436508086 0 0.075030178486150498 0.32312052977334083 0 0.070925669160887411 0.35019902031749051 0 0.083873531347713082 0.34206157462953302 0 0.075030178486150498 0.32312052977334083 0 0.070925669160887411 0.35019902031749051 0 0.075030178486150498 0.32312052977334083 0 0.070925669160887411 0.35019902031749051 0 0.060307942838175081 0.329506238564375 0 0.070925669160887411 0.35019902031749051 0 0.086089913084714517 0.35626160962254588 0 0.077271191386333524 0.36402635886733642 0 0.1005716041280957 0.34944191854620987 0 0.083873531347713082 0.34206157462953302 0 0.086089913084714517 0.35626160962254588 0 0.083873531347713082 0.34206157462953302 0 0.070925669160887411 0.35019902031749051 0 0.086089913084714517 0.35626160962254588 0 0.070925669160887411 0.35019902031749051 0 0.086089913084714517 0.35626160962254588 0 0.1012541570085435 0.36232419892759682 0 0.086089913084714517 0.35626160962254588 0 0.084732755873662524 0.37576664583729441 0 0.086089913084714517 0.35626160962254588 0 0.077271191386333524 0.36402635886733642 0 0.084732755873662524 0.37576664583729441 0 0.1012541570085435 0.36232419892759682 0 0.084732755873662524 0.37576664583729441 0 0.1012541570085435 0.36232419892759682 0 0.086089913084714517 0.35626160962254588 0 0.070925669160887411 0.35019902031749051 0 0.067336427426070239 0.37387815969201321 0 0.070925669160887411 0.35019902031749051 0 0.077271191386333524 0.36402635886733642 0 0.067336427426070239 0.37387815969201321 0 0.070925669160887411 0.35019902031749051 0 0.067336427426070239 0.37387815969201321 0 0.059001023716009932 0.36257748339256701 0 0.084732755873662524 0.37576664583729441 0 0.077271191386333524 0.36402635886733642 0 0.067336427426070239 0.37387815969201321 0 0.067336427426070239 0.37387815969201321 0 0.055961316346105967 0.37465514013013779 0 0.059001023716009932 0.36257748339256701 0 0.059001023716009932 0.36257748339256701 0 0.049366880890428518 0.35484887681394922 0 0.046226931726559457 0.36877712164041049 0 0.055961316346105967 0.37465514013013779 0 0.059001023716009932 0.36257748339256701 0 0.046226931726559457 0.36877712164041049 0 0.070925669160887411 0.35019902031749051 0 0.049366880890428518 0.35484887681394922 0 0.048259122247028378 0.34113704758790953 0 0.070925669160887411 0.35019902031749051 0 0.059001023716009932 0.36257748339256701 0 0.049366880890428518 0.35484887681394922 0 0.070925669160887411 0.35019902031749051 0 0.048259122247028378 0.34113704758790953 0 0.049366880890428518 0.35484887681394922 0 0.029650408761640532 0.35526741897533082 0 0.048259122247028378 0.34113704758790953 0 0.049366880890428518 0.35484887681394922 0 0.046226931726559457 0.36877712164041049 0 0.029650408761640532 0.35526741897533082 0 0.031969264100848903 0.38270907819189981 0 0.046226931726559457 0.36877712164041049 0 0.029650408761640532 0.35526741897533082 0 0.031969264100848903 0.38270907819189981 0 0.029650408761640532 0.35526741897533082 0 0.031969264100848903 0.38270907819189981 0 0.02198397614293052 0.36800230443547283 0 0.029650408761640532 0.35526741897533082 0 0.02198397614293052 0.36800230443547283 0 0.029650408761640532 0.35526741897533082 0 0.01687970255078915 0.3566641925632259 0 0.029650408761640532 0.35526741897533082 0 0.01464598608559054 0.34594149789178602 0 0.025592575333169911 0.3320750748583271 0 0.029650408761640532 0.35526741897533082 0 0.01687970255078915 0.3566641925632259 0 0.01464598608559054 0.34594149789178602 0 0.01687970255078915 0.3566641925632259 0 0.0012384392129950129 0.35744554895031388 0 0.01464598608559054 0.34594149789178602 0 -0.0029822272574283049 0.3407341138868607 0 0.0012384392129950129 0.35744554895031388 0 0.01464598608559054 0.34594149789178602 0 0.02198397614293052 0.36800230443547283 0 0.0012384392129950129 0.35744554895031388 0 -0.0054244803145113568 0.37271698781030083 0 0.012023545338913691 0.38019721452175748 0 0.0012384392129950129 0.35744554895031388 0 0.02198397614293052 0.36800230443547283 0 0.01687970255078915 0.3566641925632259 0 0.0012384392129950129 0.35744554895031388 0 0.012023545338913691 0.38019721452175748 0 0.02198397614293052 0.36800230443547283 0 0.0012384392129950129 0.35744554895031388 0 0.0029260284193114439 0.32301310212874462 0 0.025592575333169911 0.3320750748583271 0 0.01214286868407846 0.30662205769258599 0 0.0029260284193114439 0.32301310212874462 0 0.025592575333169911 0.3320750748583271 0 -0.0029822272574283049 0.3407341138868607 0 0.01464598608559054 0.34594149789178602 0 0.0029260284193114439 0.32301310212874462 0 0.01464598608559054 0.34594149789178602 0 0.0029260284193114439 0.32301310212874462 0 0.025592575333169911 0.3320750748583271 0 0.025592575333169911 0.3320750748583271 0 0.032421591075293792 0.30758544945139732 0 0.01214286868407846 0.30662205769258599 0 0.025592575333169911 0.3320750748583271 0 0.046143298066133237 0.32036486442129192 0 0.032421591075293792 0.30758544945139732 0 0.029650408761640532 0.35526741897533082 0 0.025592575333169911 0.3320750748583271 0 0.048259122247028378 0.34113704758790953 0 0.025592575333169911 0.3320750748583271 0 0.046143298066133237 0.32036486442129192 0 0.048259122247028378 0.34113704758790953 0 0.025592575333169911 0.3320750748583271 0 0.048259122247028378 0.34113704758790953 0 0.070925669160887411 0.35019902031749051 0 0.048259122247028378 0.34113704758790953 0 0.060307942838175081 0.329506238564375 0 0.046143298066133237 0.32036486442129192 0 0.048259122247028378 0.34113704758790953 0 0.060307942838175081 0.329506238564375 0 0.046143298066133237 0.32036486442129192 0 0.060307942838175081 0.329506238564375 0 0.061181446230676478 0.31270973072184077 0 0.046143298066133237 0.32036486442129192 0 0.061181446230676478 0.31270973072184077 0 0.050093943488512087 0.30501656486927597 0 0.061181446230676478 0.31270973072184077 0 0.061033705674560228 0.30206815130888581 0 0.050093943488512087 0.30501656486927597 0 0.050093943488512087 0.30501656486927597 0 0.058532429535521929 0.29526015882056661 0 0.042554786748106387 0.29275793535640943 0 0.061033705674560228 0.30206815130888581 0 0.050093943488512087 0.30501656486927597 0 0.058532429535521929 0.29526015882056661 0 0.061033705674560228 0.30206815130888581 0 0.058532429535521929 0.29526015882056661 0 0.062719597227730878 0.29456831018698731 0 0.058532429535521929 0.29526015882056661 0 0.042554786748106387 0.29275793535640943 0 0.062719597227730878 0.29456831018698731 0 0.042554786748106387 0.29275793535640943 0 0.062719597227730878 0.29456831018698731 0 0.050010894828764502 0.28514810749940722 0 0.042554786748106387 0.29275793535640943 0 0.062719597227730878 0.29456831018698731 0 0.059001547649727641 0.28536442376053212 0 0.050010894828764502 0.28514810749940722 0 0.062719597227730878 0.29456831018698731 0 0.059001547649727641 0.28536442376053212 0 0.064582137849161309 0.28515122837781298 0 0.062719597227730878 0.29456831018698731 0 0.059001547649727641 0.28536442376053212 0 0.061464282368668251 0.27901664021744638 0 0.064582137849161309 0.28515122837781298 0 0.058532429535521929 0.29526015882056661 0 0.062719597227730878 0.29456831018698731 0 0.059001547649727641 0.28536442376053212 0 0.050010894828764502 0.28514810749940722 0 0.054160252484990332 0.27669855512874042 0 0.050010894828764502 0.28514810749940722 0 0.042554786748106387 0.29275793535640943 0 0.036192946101549682 0.27593739907474518 0 0.042554786748106387 0.29275793535640943 0 0.02238997626848202 0.29094756052583132 0 0.042554786748106387 0.29275793535640943 0 0.02238997626848202 0.29094756052583132 0 0.036192946101549682 0.27593739907474518 0 0.046143298066133237 0.32036486442129192 0 0.050093943488512087 0.30501656486927597 0 0.032421591075293792 0.30758544945139732 0 0.050093943488512087 0.30501656486927597 0 0.042554786748106387 0.29275793535640943 0 0.032421591075293792 0.30758544945139732 0 0.042554786748106387 0.29275793535640943 0 0.032421591075293792 0.30758544945139732 0 0.02238997626848202 0.29094756052583132 0 0.032421591075293792 0.30758544945139732 0 0.02238997626848202 0.29094756052583132 0 0.01214286868407846 0.30662205769258599 0 0.02238997626848202 0.29094756052583132 0 0.0022251657888577091 0.2891371856952531 0 0.02238997626848202 0.29094756052583132 0 0.0022251657888577091 0.2891371856952531 0 0.013160311409066341 0.27340555258610938 0 0.02238997626848202 0.29094756052583132 0 0.0022251657888577091 0.2891371856952531 0 0.01214286868407846 0.30662205769258599 0 -0.009675874912022089 0.2986990909518954 0 0.0029260284193114439 0.32301310212874462 0 0.01214286868407846 0.30662205769258599 0 -0.009675874912022089 0.2986990909518954 0 0.0022251657888577091 0.2891371856952531 0 0.01214286868407846 0.30662205769258599 0 0.016525624760070318 0.23904321543069551 0 0.0047846334504887383 0.25646387099740009 0 0.021202503518625019 0.2561860795987454 0 0.0047846334504887383 0.25646387099740009 0 0.013160311409066341 0.27340555258610938 0 0.021202503518625019 0.2561860795987454 0 -0.0078333566736051106 0.27176121962468153 0 0.0047846334504887383 0.25646387099740009 0 0.013160311409066341 0.27340555258610938 0 -0.0078333566736051106 0.27176121962468153 0 0.0022251657888577091 0.2891371856952531 0 0.013160311409066341 0.27340555258610938 0 0.013160311409066341 0.27340555258610938 0 0.021202503518625019 0.2561860795987454 0 0.036192946101549682 0.27593739907474518 0 0.02238997626848202 0.29094756052583132 0 0.013160311409066341 0.27340555258610938 0 0.036192946101549682 0.27593739907474518 0 0.033383659090949709 0.2448895276436911 0 0.021202503518625019 0.2561860795987454 0 0.037848993628853328 0.25786647958286962 0 0.021202503518625019 0.2561860795987454 0 0.037848993628853328 0.25786647958286962 0 0.036192946101549682 0.27593739907474518 0 0.047355968946164992 0.24935670449388039 0 0.033383659090949709 0.2448895276436911 0 0.037848993628853328 0.25786647958286962 0 0.047355968946164992 0.24935670449388039 0 0.037848993628853328 0.25786647958286962 0 0.051210780394504912 0.26399413423253582 0 0.037848993628853328 0.25786647958286962 0 0.036192946101549682 0.27593739907474518 0 0.051210780394504912 0.26399413423253582 0 0.050010894828764502 0.28514810749940722 0 0.036192946101549682 0.27593739907474518 0 0.054160252484990332 0.27669855512874042 0 0.036192946101549682 0.27593739907474518 0 0.054160252484990332 0.27669855512874042 0 0.051210780394504912 0.26399413423253582 0 0.054160252484990332 0.27669855512874042 0 0.051210780394504912 0.26399413423253582 0 0.063157464888591364 0.2722700374536598 0 0.051210780394504912 0.26399413423253582 0 0.062683190782500786 0.26244944534904258 0 0.063157464888591364 0.2722700374536598 0 0.054160252484990332 0.27669855512874042 0 0.061464282368668251 0.27901664021744638 0 0.063157464888591364 0.2722700374536598 0 0.059001547649727641 0.28536442376053212 0 0.054160252484990332 0.27669855512874042 0 0.061464282368668251 0.27901664021744638 0 0.047355968946164992 0.24935670449388039 0 0.051210780394504912 0.26399413423253582 0 0.058491208820946473 0.25346375136892008 0 0.051210780394504912 0.26399413423253582 0 0.058491208820946473 0.25346375136892008 0 0.062683190782500786 0.26244944534904258 0 0.06445137664951725 0.2468719654481247 0 0.058491208820946473 0.25346375136892008 0 0.069887144546224828 0.25409848515668099 0 0.058491208820946473 0.25346375136892008 0 0.069887144546224828 0.25409848515668099 0 0.062683190782500786 0.26244944534904258 0 0.069887144546224828 0.25409848515668099 0 0.062683190782500786 0.26244944534904258 0 0.070700894021180155 0.26542695115396792 0 0.069887144546224828 0.25409848515668099 0 0.070700894021180155 0.26542695115396792 0 0.076395162341978878 0.25967313120861979 0 0.070700894021180155 0.26542695115396792 0 0.076395162341978878 0.25967313120861979 0 0.077792338090431332 0.26884719337919621 0 0.072538072969772924 0.24560548427405449 0 0.069887144546224828 0.25409848515668099 0 0.081470834279527754 0.25097810745609922 0 0.069887144546224828 0.25409848515668099 0 0.076395162341978878 0.25967313120861979 0 0.081470834279527754 0.25097810745609922 0 0.076395162341978878 0.25967313120861979 0 0.081470834279527754 0.25097810745609922 0 0.084211786739576439 0.26407744010763368 0 0.076395162341978878 0.25967313120861979 0 0.084211786739576439 0.26407744010763368 0 0.077792338090431332 0.26884719337919621 0 0.084211786739576439 0.26407744010763368 0 0.095906770860124141 0.25462474490522952 0 0.095612792620404993 0.26826557992121219 0 0.081470834279527754 0.25097810745609922 0 0.084211786739576439 0.26407744010763368 0 0.095906770860124141 0.25462474490522952 0 0.090448623767677996 0.27993753451422498 0 0.083098203230887749 0.27495241282650268 0 0.095612792620404993 0.26826557992121219 0 0.084211786739576439 0.26407744010763368 0 0.083098203230887749 0.27495241282650268 0 0.095612792620404993 0.26826557992121219 0 0.083098203230887749 0.27495241282650268 0 0.073534684176370158 0.27455780036322519 0 0.077792338090431332 0.26884719337919621 0 0.084211786739576439 0.26407744010763368 0 0.083098203230887749 0.27495241282650268 0 0.077792338090431332 0.26884719337919621 0 0.090448623767677996 0.27993753451422498 0 0.083098203230887749 0.27495241282650268 0 0.082970455023814393 0.28277887594404832 0 0.083098203230887749 0.27495241282650268 0 0.075900281132485883 0.28131281272487951 0 0.082970455023814393 0.28277887594404832 0 0.083098203230887749 0.27495241282650268 0 0.073534684176370158 0.27455780036322519 0 0.075900281132485883 0.28131281272487951 0 0.073534684176370158 0.27455780036322519 0 0.068200077870087916 0.28079380678112548 0 0.075900281132485883 0.28131281272487951 0 0.070700894021180155 0.26542695115396792 0 0.073534684176370158 0.27455780036322519 0 0.077792338090431332 0.26884719337919621 0 0.062683190782500786 0.26244944534904258 0 0.070700894021180155 0.26542695115396792 0 0.063157464888591364 0.2722700374536598 0 0.070700894021180155 0.26542695115396792 0 0.073534684176370158 0.27455780036322519 0 0.063157464888591364 0.2722700374536598 0 0.061464282368668251 0.27901664021744638 0 0.063157464888591364 0.2722700374536598 0 0.068200077870087916 0.28079380678112548 0 0.073534684176370158 0.27455780036322519 0 0.063157464888591364 0.2722700374536598 0 0.068200077870087916 0.28079380678112548 0 0.062719597227730878 0.29456831018698731 0 0.07913468781141321 0.29604203922919131 0 0.062719597227730878 0.29456831018698731 0 0.067886551203685197 0.29985951109396819 0 0.07913468781141321 0.29604203922919131 0 0.062719597227730878 0.29456831018698731 0 0.088588537313653765 0.29029396720237272 0 0.062719597227730878 0.29456831018698731 0 0.079520105116023393 0.29349934337655842 0 0.088588537313653765 0.29029396720237272 0 0.062719597227730878 0.29456831018698731 0 0.076816629674366588 0.28739765245226168 0 0.088588537313653765 0.29029396720237272 0 0.064582137849161309 0.28515122837781298 0 0.069664934755633109 0.28583746326135828 0 0.062719597227730878 0.29456831018698731 0 0.061464282368668251 0.27901664021744638 0 0.068200077870087916 0.28079380678112548 0 0.064582137849161309 0.28515122837781298 0 0.062719597227730878 0.29456831018698731 0 0.07913468781141321 0.29604203922919131 0 0.079520105116023393 0.29349934337655842 0 0.068200077870087916 0.28079380678112548 0 0.064582137849161309 0.28515122837781298 0 0.069664934755633109 0.28583746326135828 0 0.069664934755633109 0.28583746326135828 0 0.062719597227730878 0.29456831018698731 0 0.076816629674366588 0.28739765245226168 0 0.069664934755633109 0.28583746326135828 0 0.076816629674366588 0.28739765245226168 0 0.075900281132485883 0.28131281272487951 0 0.068200077870087916 0.28079380678112548 0 0.069664934755633109 0.28583746326135828 0 0.075900281132485883 0.28131281272487951 0 0.075030178486150498 0.32312052977334083 0 0.07913468781141321 0.29604203922919131 0 0.075030178486150498 0.32312052977334083 0 0.068658214101036508 0.3067595436508086 0 0.07913468781141321 0.29604203922919131 0 0.061181446230676478 0.31270973072184077 0 0.061033705674560228 0.30206815130888581 0 0.068658214101036508 0.3067595436508086 0 0.061033705674560228 0.30206815130888581 0 0.068658214101036508 0.3067595436508086 0 0.067886551203685197 0.29985951109396819 0 0.061033705674560228 0.30206815130888581 0 0.062719597227730878 0.29456831018698731 0 0.067886551203685197 0.29985951109396819 0 0.068658214101036508 0.3067595436508086 0 0.067886551203685197 0.29985951109396819 0 0.07913468781141321 0.29604203922919131 0 0.075030178486150498 0.32312052977334083 0 0.089771796771754814 0.31150471561856652 0 0.07913468781141321 0.29604203922919131 0 0.089771796771754814 0.31150471561856652 0 0.07913468781141321 0.29604203922919131 0 0.1029930459662854 0.29818401676704848 0 0.07913468781141321 0.29604203922919131 0 0.1029930459662854 0.29818401676704848 0 0.07913468781141321 0.29604203922919131 0 0.088588537313653765 0.29029396720237272 0 0.1029930459662854 0.29818401676704848 0 0.076816629674366588 0.28739765245226168 0 0.082970455023814393 0.28277887594404832 0 0.088588537313653765 0.29029396720237272 0 0.076816629674366588 0.28739765245226168 0 0.075900281132485883 0.28131281272487951 0 0.082970455023814393 0.28277887594404832 0 0.07913468781141321 0.29604203922919131 0 0.079520105116023393 0.29349934337655842 0 0.088588537313653765 0.29029396720237272 0 0.07913468781141321 0.29604203922919131 0 0.079520105116023393 0.29349934337655842 0 0.090448623767677996 0.27993753451422498 0 0.088588537313653765 0.29029396720237272 0 0.100065944397847 0.27972004258537508 0 0.090448623767677996 0.27993753451422498 0 0.082970455023814393 0.28277887594404832 0 0.088588537313653765 0.29029396720237272 0 0.088588537313653765 0.29029396720237272 0 0.11445747739957669 0.28601962421775817 0 0.100065944397847 0.27972004258537508 0 0.088588537313653765 0.29029396720237272 0 0.1029930459662854 0.29818401676704848 0 0.11445747739957669 0.28601962421775817 0 0.088588537313653765 0.29029396720237272 0 0.11445747739957669 0.28601962421775817 0 0.089771796771754814 0.31150471561856652 0 0.1029930459662854 0.29818401676704848 0 0.1033869034526123 0.31171834480114929 0 0.1029930459662854 0.29818401676704848 0 0.1033869034526123 0.31171834480114929 0 0.11429823728694689 0.30857996765705747 0 0.1029930459662854 0.29818401676704848 0 0.11429823728694689 0.30857996765705747 0 0.1268514041211577 0.30032599430490547 0 0.1029930459662854 0.29818401676704848 0 0.1268514041211577 0.30032599430490547 0 0.11429823728694689 0.30857996765705747 0 0.1268514041211577 0.30032599430490547 0 0.1283478099377989 0.31480697348830078 0 0.1029930459662854 0.29818401676704848 0 0.11445747739957669 0.28601962421775817 0 0.1268514041211577 0.30032599430490547 0 0.11445747739957669 0.28601962421775817 0 0.13047567598255999 0.29084609242470821 0 0.1268514041211577 0.30032599430490547 0 0.11445747739957669 0.28601962421775817 0 0.11258164398843271 0.27159387433354398 0 0.125845760244718 0.27413383887670612 0 0.11258164398843271 0.27159387433354398 0 0.1244615361834111 0.26186713739988859 0 0.125845760244718 0.27413383887670612 0 0.1234336310216875 0.24610106375436591 0 0.1244615361834111 0.26186713739988859 0 0.11127954231523141 0.257715348709744 0 0.11258164398843271 0.27159387433354398 0 0.1244615361834111 0.26186713739988859 0 0.11127954231523141 0.257715348709744 0 0.11127954231523141 0.257715348709744 0 0.095906770860124141 0.25462474490522952 0 0.095612792620404993 0.26826557992121219 0 0.1062329718251907 0.24592071787039579 0 0.11127954231523141 0.257715348709744 0 0.095906770860124141 0.25462474490522952 0 0.11258164398843271 0.27159387433354398 0 0.11127954231523141 0.257715348709744 0 0.095612792620404993 0.26826557992121219 0 0.11258164398843271 0.27159387433354398 0 0.095612792620404993 0.26826557992121219 0 0.100065944397847 0.27972004258537508 0 0.090448623767677996 0.27993753451422498 0 0.095612792620404993 0.26826557992121219 0 0.100065944397847 0.27972004258537508 0 0.11445747739957669 0.28601962421775817 0 0.11258164398843271 0.27159387433354398 0 0.100065944397847 0.27972004258537508 0 0.1498771722895843 0.2758453881095701 0 0.14909866790047499 0.26360508185588338 0 0.1691536804083798 0.2622942077666256 0 0.1403264174854997 0.2817452812331438 0 0.1661953575714227 0.27747093824852942 0 0.1498771722895843 0.2758453881095701 0 0.1403264174854997 0.2817452812331438 0 0.1661953575714227 0.27747093824852942 0 0.1498771722895843 0.2758453881095701 0 0.14909866790047499 0.26360508185588338 0 0.13740172616666979 0.26944327719919597 0 0.1498771722895843 0.2758453881095701 0 0.13740172616666979 0.26944327719919597 0 0.1403264174854997 0.2817452812331438 0 0.13996902885439511 0.24243648692897191 0 0.15162992084977289 0.25377275111886888 0 0.13743083978796841 0.25666978508515631 0 0.14909866790047499 0.26360508185588338 0 0.13743083978796841 0.25666978508515631 0 0.13740172616666979 0.26944327719919597 0 0.14909866790047499 0.26360508185588338 0 0.15162992084977289 0.25377275111886888 0 0.13743083978796841 0.25666978508515631 0 0.1244615361834111 0.26186713739988859 0 0.13743083978796841 0.25666978508515631 0 0.13740172616666979 0.26944327719919597 0 0.1234336310216875 0.24610106375436591 0 0.1244615361834111 0.26186713739988859 0 0.13743083978796841 0.25666978508515631 0 0.1244615361834111 0.26186713739988859 0 0.13740172616666979 0.26944327719919597 0 0.125845760244718 0.27413383887670612 0 0.11445747739957669 0.28601962421775817 0 0.125845760244718 0.27413383887670612 0 0.1403264174854997 0.2817452812331438 0 0.13740172616666979 0.26944327719919597 0 0.125845760244718 0.27413383887670612 0 0.1403264174854997 0.2817452812331438 0 0.11445747739957669 0.28601962421775817 0 0.13047567598255999 0.29084609242470821 0 0.1403264174854997 0.2817452812331438 0 0.11445747739957669 0.28601962421775817 0 0.1403264174854997 0.2817452812331438 0 0.13047567598255999 0.29084609242470821 0 0.140267404924006 0.29529346994302519 0 0.1268514041211577 0.30032599430490547 0 0.13047567598255999 0.29084609242470821 0 0.140267404924006 0.29529346994302519 0 0.1403264174854997 0.2817452812331438 0 0.140267404924006 0.29529346994302519 0 0.1268514041211577 0.30032599430490547 0 0.1437698935243982 0.30794708802386411 0 0.1268514041211577 0.30032599430490547 0 0.1437698935243982 0.30794708802386411 0 0.1283478099377989 0.31480697348830078 0 0.1437698935243982 0.30794708802386411 0 0.1551650288365333 0.29609299212197471 0 0.1603482149927741 0.31596057423968149 0 0.140267404924006 0.29529346994302519 0 0.1437698935243982 0.30794708802386411 0 0.1551650288365333 0.29609299212197471 0 0.1403264174854997 0.2817452812331438 0 0.1551650288365333 0.29609299212197471 0 0.1661953575714227 0.27747093824852942 0 0.140267404924006 0.29529346994302519 0 0.1403264174854997 0.2817452812331438 0 0.1551650288365333 0.29609299212197471 0 0.1551650288365333 0.29609299212197471 0 0.171676513239093 0.28096214259766 0 0.1551650288365333 0.29609299212197471 0 0.171676513239093 0.28096214259766 0 0.1661953575714227 0.27747093824852942 0 0.1551650288365333 0.29609299212197471 0 0.1710104267288648 0.30177157824904222 0 0.171676513239093 0.28096214259766 0 0.1551650288365333 0.29609299212197471 0 0.1710104267288648 0.30177157824904222 0 0.1603482149927741 0.31596057423968149 0 0.1710104267288648 0.30177157824904222 0 0.18535012473918819 0.29389115845307778 0 0.1825122518367355 0.32195102383281698 0 0.18535012473918819 0.29389115845307778 0 0.1900008577178576 0.2997472807464035 0 0.1825122518367355 0.32195102383281698 0 0.18535012473918819 0.29389115845307778 0 0.1825122518367355 0.32195102383281698 0 0.1710104267288648 0.30177157824904222 0 0.18535012473918819 0.29389115845307778 0 0.171676513239093 0.28096214259766 0 0.171676513239093 0.28096214259766 0 0.18818799764164709 0.2658312930733393 0 0.18535012473918819 0.29389115845307778 0 0.171676513239093 0.28096214259766 0 0.18818799764164709 0.2658312930733393 0 0.17408524104227011 0.27113218243244791 0 0.171676513239093 0.28096214259766 0 0.18818799764164709 0.2658312930733393 0 0.17408524104227011 0.27113218243244791 0 0.1691536804083798 0.2622942077666256 0 0.18818799764164709 0.2658312930733393 0 0.18535012473918819 0.29389115845307778 0 0.18818799764164709 0.2658312930733393 0 0.1498771722895843 0.2758453881095701 0 0.1661953575714227 0.27747093824852942 0 0.1691536804083798 0.2622942077666256 0 0.17408524104227011 0.27113218243244791 0 0.171676513239093 0.28096214259766 0 0.1661953575714227 0.27747093824852942 0 0.1498771722895843 0.2758453881095701 0 0.1691536804083798 0.2622942077666256 0 0.17408524104227011 0.27113218243244791 0 0.1661953575714227 0.27747093824852942 0 0.1691536804083798 0.2622942077666256 0 0.165499331883326 0.2442170125752211 0 0.15162992084977289 0.25377275111886888 0 0.1691536804083798 0.2622942077666256 0 0.14909866790047499 0.26360508185588338 0 0.15162992084977289 0.25377275111886888 0 0.1691536804083798 0.2622942077666256 0 0.17722554607520699 0.24670684421638411 0 0.165499331883326 0.2442170125752211 0 0.1691536804083798 0.2622942077666256 0 0.1691536804083798 0.2622942077666256 0 0.1897323782073298 0.25056101415036502 0 0.18818799764164709 0.2658312930733393 0 0.17722554607520699 0.24670684421638411 0 0.1884301885271753 0.24874302742368101 0 0.1691536804083798 0.2622942077666256 0 0.1884301885271753 0.24874302742368101 0 0.1691536804083798 0.2622942077666256 0 0.1884301885271753 0.24874302742368101 0 0.1691536804083798 0.2622942077666256 0 0.1897323782073298 0.25056101415036502 0 0.1897323782073298 0.25056101415036502 0 0.19572378806554719 0.25892562013863091 0 0.19979143392529661 0.24856023388575951 0 0.1897323782073298 0.25056101415036502 0 0.19572378806554719 0.25892562013863091 0 0.1897323782073298 0.25056101415036502 0 0.18818799764164709 0.2658312930733393 0 0.1897323782073298 0.25056101415036502 0 0.19572378806554719 0.25892562013863091 0 0.18818799764164709 0.2658312930733393 0 0.19572378806554719 0.25892562013863091 0 0.18818799764164709 0.2658312930733393 0 0.19572378806554719 0.25892562013863091 0 0.18818799764164709 0.2658312930733393 0 0.19716075873573011 0.27919501221080578 0 0.19572378806554719 0.25892562013863091 0 0.19716075873573011 0.27919501221080578 0 0.21322516926200449 0.28335929458636377 0 0.18535012473918819 0.29389115845307778 0 0.18818799764164709 0.2658312930733393 0 0.19716075873573011 0.27919501221080578 0 0.20958914780121959 0.25909503166047487 0 0.2193688095065176 0.26280095909255091 0 0.21322516926200449 0.28335929458636377 0 0.19572378806554719 0.25892562013863091 0 0.21322516926200449 0.28335929458636377 0 0.19572378806554719 0.25892562013863091 0 0.20958914780121959 0.25909503166047487 0 0.21322516926200449 0.28335929458636377 0 0.21535830080797749 0.24093287941673089 0 0.20958914780121959 0.25909503166047487 0 0.2187075612951879 0.25107831014313642 0 0.21535830080797749 0.24093287941673089 0 0.19572378806554719 0.25892562013863091 0 0.20958914780121959 0.25909503166047487 0 0.20958914780121959 0.25909503166047487 0 0.2187075612951879 0.25107831014313642 0 0.2193688095065176 0.26280095909255091 0 0.22861223412391279 0.25018045460690019 0 0.2193688095065176 0.26280095909255091 0 0.23557262393058459 0.26690398953837208 0 0.2187075612951879 0.25107831014313642 0 0.22861223412391279 0.25018045460690019 0 0.2193688095065176 0.26280095909255091 0 0.23557262393058459 0.26690398953837208 0 0.2417236004856452 0.28815133642157881 0 0.21322516926200449 0.28335929458636377 0 0.2193688095065176 0.26280095909255091 0 0.23557262393058459 0.26690398953837208 0 0.21322516926200449 0.28335929458636377 0 0.23557262393058459 0.26690398953837208 0 0.2417236004856452 0.28815133642157881 0 0.25700292827476068 0.26946639172479941 0 0.24047871785483721 0.2486360273742817 0 0.22861223412391279 0.25018045460690019 0 0.23557262393058459 0.26690398953837208 0 0.23557262393058459 0.26690398953837208 0 0.2498169077616185 0.2567610006248765 0 0.25700292827476068 0.26946639172479941 0 0.24047871785483721 0.2486360273742817 0 0.23557262393058459 0.26690398953837208 0 0.2498169077616185 0.2567610006248765 0 0.24047871785483721 0.2486360273742817 0 0.2498169077616185 0.2567610006248765 0 0.25330967369459462 0.24464425994429659 0 0.2417236004856452 0.28815133642157881 0 0.23072655045846049 0.30779296903409759 0 0.25208636049982069 0.30943209974716263 0 0.23072655045846049 0.30779296903409759 0 0.21322516926200449 0.28335929458636377 0 0.2417236004856452 0.28815133642157881 0 0.23072655045846049 0.30779296903409759 0 0.21322516926200449 0.28335929458636377 0 0.23072655045846049 0.30779296903409759 0 0.20972729061022499 0.30699152482914183 0 0.21501518793148139 0.31868925975841822 0 0.23072655045846049 0.30779296903409759 0 0.20972729061022499 0.30699152482914183 0 0.21322516926200449 0.28335929458636377 0 0.20972729061022499 0.30699152482914183 0 0.21322516926200449 0.28335929458636377 0 0.19919243887419771 0.29450441821248752 0 0.19716075873573011 0.27919501221080578 0 0.21322516926200449 0.28335929458636377 0 0.19919243887419771 0.29450441821248752 0 0.18535012473918819 0.29389115845307778 0 0.19716075873573011 0.27919501221080578 0 0.19919243887419771 0.29450441821248752 0 0.18535012473918819 0.29389115845307778 0 0.19919243887419771 0.29450441821248752 0 0.1900008577178576 0.2997472807464035 0 0.20972729061022499 0.30699152482914183 0 0.19969043218018079 0.30384223844913261 0 0.19945198728808469 0.3253226286863945 0 0.19969043218018079 0.30384223844913261 0 0.1900008577178576 0.2997472807464035 0 0.19945198728808469 0.3253226286863945 0 0.20972729061022499 0.30699152482914183 0 0.19919243887419771 0.29450441821248752 0 0.19969043218018079 0.30384223844913261 0 0.19919243887419771 0.29450441821248752 0 0.19969043218018079 0.30384223844913261 0 0.1900008577178576 0.2997472807464035 0 0.1900008577178576 0.2997472807464035 0 0.19945198728808469 0.3253226286863945 0 0.1825122518367355 0.32195102383281698 0 0.1900008577178576 0.2997472807464035 0 0.19945198728808469 0.3253226286863945 0 0.19945198728808469 0.3253226286863945 0 0.19326088895221541 0.3389443314469246 0 0.1825122518367355 0.32195102383281698 0 0.19945198728808469 0.3253226286863945 0 0.19326088895221541 0.3389443314469246 0 0.20890311685831181 0.35089797662638539 0 0.19945198728808469 0.3253226286863945 0 0.2232244372643494 0.3310717051650407 0 0.20890311685831181 0.35089797662638539 0 0.19945198728808469 0.3253226286863945 0 0.20890311685831181 0.35089797662638539 0 0.19945198728808469 0.3253226286863945 0 0.21501518793148139 0.31868925975841822 0 0.2232244372643494 0.3310717051650407 0 0.20972729061022499 0.30699152482914183 0 0.19945198728808469 0.3253226286863945 0 0.21501518793148139 0.31868925975841822 0 0.23072655045846049 0.30779296903409759 0 0.2232244372643494 0.3310717051650407 0 0.2426406438223194 0.32734299413788043 0 0.23072655045846049 0.30779296903409759 0 0.21501518793148139 0.31868925975841822 0 0.2232244372643494 0.3310717051650407 0 0.2232244372643494 0.3310717051650407 0 0.23593117578154471 0.34137156735201218 0 0.2426406438223194 0.32734299413788043 0 0.2232244372643494 0.3310717051650407 0 0.23593117578154471 0.34137156735201218 0 0.20890311685831181 0.35089797662638539 0 0.23593117578154471 0.34137156735201218 0 0.2426406438223194 0.32734299413788043 0 0.25064727239517642 0.34654954873073862 0 0.23072655045846049 0.30779296903409759 0 0.2426406438223194 0.32734299413788043 0 0.25208636049982069 0.30943209974716263 0 0.23635872528734991 0.37364806397779932 0 0.24760467270676731 0.36223298937037912 0 0.25156559034844328 0.37889076564355278 0 0.23635872528734991 0.37364806397779932 0 0.24760467270676731 0.36223298937037912 0 0.23282536623502631 0.35830517982533172 0 0.23593117578154471 0.34137156735201218 0 0.23282536623502631 0.35830517982533172 0 0.25064727239517642 0.34654954873073862 0 0.24760467270676731 0.36223298937037912 0 0.23282536623502631 0.35830517982533172 0 0.25064727239517642 0.34654954873073862 0 0.23593117578154471 0.34137156735201218 0 0.23282536623502631 0.35830517982533172 0 0.20890311685831181 0.35089797662638539 0 0.23282536623502631 0.35830517982533172 0 0.20890311685831181 0.35089797662638539 0 0.21835424642853879 0.37647332456637622 0 0.23635872528734991 0.37364806397779932 0 0.23282536623502631 0.35830517982533172 0 0.21835424642853879 0.37647332456637622 0 0.20890311685831181 0.35089797662638539 0 0.19391117682186629 0.36289506256903148 0 0.21835424642853879 0.37647332456637622 0 0.20890311685831181 0.35089797662638539 0 0.21835424642853879 0.37647332456637622 0 0.19326088895221541 0.3389443314469246 0 0.20890311685831181 0.35089797662638539 0 0.19391117682186629 0.36289506256903148 0 0.19326088895221541 0.3389443314469246 0 0.19391117682186629 0.36289506256903148 0 0.1796743789342771 0.35001088921255541 0 0.19391117682186629 0.36289506256903148 0 0.19452054584054401 0.38480076256466039 0 0.21835424642853879 0.37647332456637622 0 0.19391117682186629 0.36289506256903148 0 0.17738294403045629 0.37266777242682297 0 0.19452054584054401 0.38480076256466039 0 0.19391117682186629 0.36289506256903148 0 0.17738294403045629 0.37266777242682297 0 0.1796743789342771 0.35001088921255541 0 0.17738294403045629 0.37266777242682297 0 0.1603813124241936 0.36572558229619467 0 0.1796743789342771 0.35001088921255541 0 0.17738294403045629 0.37266777242682297 0 0.1796743789342771 0.35001088921255541 0 0.17738294403045629 0.37266777242682297 0 0.1603813124241936 0.36572558229619467 0 0.1644254281015971 0.37608140546815738 0 0.1603813124241936 0.36572558229619467 0 0.1647415984374648 0.33592299012684118 0 0.1488039969793907 0.34871891712317621 0 0.1603813124241936 0.36572558229619467 0 0.1796743789342771 0.35001088921255541 0 0.1603813124241936 0.36572558229619467 0 0.1796743789342771 0.35001088921255541 0 0.1647415984374648 0.33592299012684118 0 0.1603813124241936 0.36572558229619467 0 0.1647415984374648 0.33592299012684118 0 0.19326088895221541 0.3389443314469246 0 0.1796743789342771 0.35001088921255541 0 0.1796743789342771 0.35001088921255541 0 0.1825122518367355 0.32195102383281698 0 0.1796743789342771 0.35001088921255541 0 0.1825122518367355 0.32195102383281698 0 0.1647415984374648 0.33592299012684118 0 0.19326088895221541 0.3389443314469246 0 0.1796743789342771 0.35001088921255541 0 0.1825122518367355 0.32195102383281698 0 0.1710104267288648 0.30177157824904222 0 0.1825122518367355 0.32195102383281698 0 0.1603482149927741 0.31596057423968149 0 0.1825122518367355 0.32195102383281698 0 0.1603482149927741 0.31596057423968149 0 0.1647415984374648 0.33592299012684118 0 0.1603482149927741 0.31596057423968149 0 0.1647415984374648 0.33592299012684118 0 0.15096575735756149 0.33274299030789978 0 0.15096575735756149 0.33274299030789978 0 0.13750877014640819 0.33894166789980562 0 0.1488039969793907 0.34871891712317621 0 0.15096575735756149 0.33274299030789978 0 0.1417073266790802 0.32247709604151931 0 0.13750877014640819 0.33894166789980562 0 0.1647415984374648 0.33592299012684118 0 0.15096575735756149 0.33274299030789978 0 0.1488039969793907 0.34871891712317621 0 0.1603482149927741 0.31596057423968149 0 0.15096575735756149 0.33274299030789978 0 0.1417073266790802 0.32247709604151931 0 0.1437698935243982 0.30794708802386411 0 0.1603482149927741 0.31596057423968149 0 0.1417073266790802 0.32247709604151931 0 0.1417073266790802 0.32247709604151931 0 0.1283478099377989 0.31480697348830078 0 0.12594456387046801 0.32871601221006369 0 0.1437698935243982 0.30794708802386411 0 0.1417073266790802 0.32247709604151931 0 0.1283478099377989 0.31480697348830078 0 0.1417073266790802 0.32247709604151931 0 0.13750877014640819 0.33894166789980562 0 0.12594456387046801 0.32871601221006369 0 0.12483760182564869 0.3431358018713222 0 0.13750877014640819 0.33894166789980562 0 0.12594456387046801 0.32871601221006369 0 0.13750877014640819 0.33894166789980562 0 0.13267239446805329 0.357739981926182 0 0.1488039969793907 0.34871891712317621 0 0.12483760182564869 0.3431358018713222 0 0.13750877014640819 0.33894166789980562 0 0.13267239446805329 0.357739981926182 0 0.1224849427493289 0.37081216148059848 0 0.13267239446805329 0.357739981926182 0 0.14371572849011471 0.37930012403359897 0 0.13267239446805329 0.357739981926182 0 0.14639335809043791 0.36287115134478698 0 0.14371572849011471 0.37930012403359897 0 0.1603813124241936 0.36572558229619467 0 0.14639335809043791 0.36287115134478698 0 0.14371572849011471 0.37930012403359897 0 0.1603813124241936 0.36572558229619467 0 0.14371572849011471 0.37930012403359897 0 0.13267239446805329 0.357739981926182 0 0.14639335809043791 0.36287115134478698 0 0.1488039969793907 0.34871891712317621 0 0.1603813124241936 0.36572558229619467 0 0.14639335809043791 0.36287115134478698 0 0.1488039969793907 0.34871891712317621 0 0.144292628464921 0.39346389449857588 0 0.15499793333414591 0.40252102439001858 0 0.15758408937523449 0.38484462574453632 0 0.144292628464921 0.39346389449857588 0 0.15499793333414591 0.40252102439001858 0 0.1403173665407238 0.4087389636935439 0 0.144292628464921 0.39346389449857588 0 0.14371572849011471 0.37930012403359897 0 0.15758408937523449 0.38484462574453632 0 0.1603813124241936 0.36572558229619467 0 0.14371572849011471 0.37930012403359897 0 0.15758408937523449 0.38484462574453632 0 0.14371572849011471 0.37930012403359897 0 0.15758408937523449 0.38484462574453632 0 0.12483134387413761 0.39468193532620122 0 0.14371572849011471 0.37930012403359897 0 0.1224849427493289 0.37081216148059848 0 0.14371572849011471 0.37930012403359897 0 0.12483134387413761 0.39468193532620122 0 0.1224849427493289 0.37081216148059848 0 0.14371572849011471 0.37930012403359897 0 0.12483134387413761 0.39468193532620122 0 0.144292628464921 0.39346389449857588 0 0.14371572849011471 0.37930012403359897 0 0.12483134387413761 0.39468193532620122 0 0.144292628464921 0.39346389449857588 0 0.1403173665407238 0.4087389636935439 0 0.12483134387413761 0.39468193532620122 0 0.12566592962473269 0.41323834399045301 0 0.1403173665407238 0.4087389636935439 0 0.12566592962473269 0.41323834399045301 0 0.1403173665407238 0.4087389636935439 0 0.1381689110167186 0.4270498419614514 0 0.1198842365433561 0.42615372480141478 0 0.1381689110167186 0.4270498419614514 0 0.12785470135571081 0.43950284955902769 0 0.1198842365433561 0.42615372480141478 0 0.12566592962473269 0.41323834399045301 0 0.1381689110167186 0.4270498419614514 0 0.1381689110167186 0.4270498419614514 0 0.1491816703373442 0.44007063581433059 0 0.12785470135571081 0.43950284955902769 0 0.1524117772930573 0.42019742303550101 0 0.16122554029304551 0.42972200494370311 0 0.1491816703373442 0.44007063581433059 0 0.1381689110167186 0.4270498419614514 0 0.1524117772930573 0.42019742303550101 0 0.1491816703373442 0.44007063581433059 0 0.15499793333414591 0.40252102439001858 0 0.1524117772930573 0.42019742303550101 0 0.15499793333414591 0.40252102439001858 0 0.1403173665407238 0.4087389636935439 0 0.1524117772930573 0.42019742303550101 0 0.1403173665407238 0.4087389636935439 0 0.1381689110167186 0.4270498419614514 0 0.1524117772930573 0.42019742303550101 0 0.15499793333414591 0.40252102439001858 0 0.1524117772930573 0.42019742303550101 0 0.17280007422280361 0.41798153885535699 0 0.16122554029304551 0.42972200494370311 0 0.17050863931897781 0.440638422069624 0 0.1491816703373442 0.44007063581433059 0 0.16122554029304551 0.42972200494370311 0 0.17280007422280361 0.41798153885535699 0 0.17050863931897781 0.440638422069624 0 0.1524117772930573 0.42019742303550101 0 0.16122554029304551 0.42972200494370311 0 0.17280007422280361 0.41798153885535699 0 0.17280007422280361 0.41798153885535699 0 0.17050863931897781 0.440638422069624 0 0.18230108899373379 0.42945390847427939 0 0.1893913848893729 0.44114113595300369 0 0.17050863931897781 0.440638422069624 0 0.18230108899373379 0.42945390847427939 0 0.17280007422280361 0.41798153885535699 0 0.17050863931897781 0.440638422069624 0 0.18230108899373379 0.42945390847427939 0 0.17280007422280361 0.41798153885535699 0 0.18799489598193619 0.42028832155918561 0 0.17280007422280361 0.41798153885535699 0 0.17509150912662999 0.39532465564108998 0 0.1926042375235065 0.40722997452935639 0 0.17280007422280361 0.41798153885535699 0 0.17509150912662999 0.39532465564108998 0 0.17280007422280361 0.41798153885535699 0 0.18799489598193619 0.42028832155918561 0 0.1926042375235065 0.40722997452935639 0 0.17509150912662999 0.39532465564108998 0 0.19452054584054401 0.38480076256466039 0 0.1926042375235065 0.40722997452935639 0 0.15499793333414591 0.40252102439001858 0 0.17280007422280361 0.41798153885535699 0 0.16476268344140499 0.39756351586313721 0 0.15499793333414591 0.40252102439001858 0 0.15758408937523449 0.38484462574453632 0 0.15499793333414591 0.40252102439001858 0 0.16476268344140499 0.39756351586313721 0 0.15758408937523449 0.38484462574453632 0 0.17280007422280361 0.41798153885535699 0 0.17509150912662999 0.39532465564108998 0 0.16476268344140499 0.39756351586313721 0 0.17509150912662999 0.39532465564108998 0 0.16476268344140499 0.39756351586313721 0 0.16333981114821089 0.38714573468468422 0 0.1603813124241936 0.36572558229619467 0 0.15758408937523449 0.38484462574453632 0 0.1644254281015971 0.37608140546815738 0 0.1603813124241936 0.36572558229619467 0 0.15758408937523449 0.38484462574453632 0 0.15758408937523449 0.38484462574453632 0 0.16333981114821089 0.38714573468468422 0 0.1644254281015971 0.37608140546815738 0 0.16476268344140499 0.39756351586313721 0 0.15758408937523449 0.38484462574453632 0 0.16333981114821089 0.38714573468468422 0 0.15758408937523449 0.38484462574453632 0 0.16333981114821089 0.38714573468468422 0 0.17738294403045629 0.37266777242682297 0 0.16333981114821089 0.38714573468468422 0 0.1644254281015971 0.37608140546815738 0 0.17738294403045629 0.37266777242682297 0 0.17509150912662999 0.39532465564108998 0 0.17738294403045629 0.37266777242682297 0 0.17509150912662999 0.39532465564108998 0 0.16333981114821089 0.38714573468468422 0 0.17738294403045629 0.37266777242682297 0 0.17509150912662999 0.39532465564108998 0 0.19452054584054401 0.38480076256466039 0 0.19452054584054401 0.38480076256466039 0 0.2099421981406181 0.39431416778192552 0 0.1926042375235065 0.40722997452935639 0 0.2099421981406181 0.39431416778192552 0 0.2151046402913529 0.41215494602117569 0 0.1926042375235065 0.40722997452935639 0 0.19452054584054401 0.38480076256466039 0 0.2099421981406181 0.39431416778192552 0 0.21835424642853879 0.37647332456637622 0 0.23635872528734991 0.37364806397779932 0 0.21835424642853879 0.37647332456637622 0 0.23144375071797371 0.3923380604833564 0 0.2099421981406181 0.39431416778192552 0 0.21835424642853879 0.37647332456637622 0 0.23144375071797371 0.3923380604833564 0 0.23144375071797371 0.3923380604833564 0 0.23939564868543589 0.41283054435903138 0 0.2151046402913529 0.41215494602117569 0 0.2099421981406181 0.39431416778192552 0 0.23144375071797371 0.3923380604833564 0 0.2151046402913529 0.41215494602117569 0 0.23144375071797371 0.3923380604833564 0 0.23939564868543589 0.41283054435903138 0 0.25039525491995968 0.39949738483197411 0 0.23635872528734991 0.37364806397779932 0 0.23144375071797371 0.3923380604833564 0 0.25156559034844328 0.37889076564355278 0 0.23144375071797371 0.3923380604833564 0 0.25156559034844328 0.37889076564355278 0 0.25039525491995968 0.39949738483197411 0 0.24948432561859479 0.4321399477906937 0 0.23227077540446009 0.4348032676911478 0 0.24076038289528101 0.44045302106870587 0 0.2376427418663529 0.42580538506012761 0 0.24948432561859479 0.4321399477906937 0 0.23939564868543589 0.41283054435903138 0 0.24948432561859479 0.4321399477906937 0 0.23227077540446009 0.4348032676911478 0 0.24948432561859479 0.4321399477906937 0 0.23939564868543589 0.41283054435903138 0 0.2376427418663529 0.42580538506012761 0 0.24948432561859479 0.4321399477906937 0 0.23227077540446009 0.4348032676911478 0 0.24948432561859479 0.4321399477906937 0 0.24076038289528101 0.44045302106870587 0 0.25292049232757879 0.43871666044408197 0 0.23939564868543589 0.41283054435903138 0 0.25197626658944411 0.41745737260860238 0 0.25039525491995968 0.39949738483197411 0 0.24948432561859479 0.4321399477906937 0 0.23939564868543589 0.41283054435903138 0 0.25197626658944411 0.41745737260860238 0 0.2376427418663529 0.42580538506012761 0 0.23939564868543589 0.41283054435903138 0 0.2294202177569214 0.4234477803996371 0 0.23939564868543589 0.41283054435903138 0 0.2294202177569214 0.4234477803996371 0 0.2151046402913529 0.41215494602117569 0 0.22016743368724401 0.42859945924413367 0 0.2294202177569214 0.4234477803996371 0 0.2151046402913529 0.41215494602117569 0 0.22016743368724401 0.42859945924413367 0 0.2294202177569214 0.4234477803996371 0 0.23227077540446009 0.4348032676911478 0 0.2376427418663529 0.42580538506012761 0 0.2294202177569214 0.4234477803996371 0 0.23227077540446009 0.4348032676911478 0 0.22016743368724401 0.42859945924413367 0 0.23227077540446009 0.4348032676911478 0 0.22344313961596121 0.4405991771254873 0 0.22016743368724401 0.42859945924413367 0 0.21176808633267241 0.43561955896615723 0 0.20691649026199299 0.42506973477099952 0 0.22016743368724401 0.42859945924413367 0 0.21176808633267241 0.43561955896615723 0 0.22344313961596121 0.4405991771254873 0 0.22016743368724401 0.42859945924413367 0 0.20691649026199299 0.42506973477099952 0 0.2151046402913529 0.41215494602117569 0 0.21176808633267241 0.43561955896615723 0 0.20691649026199299 0.42506973477099952 0 0.20343638971804409 0.43348363265178602 0 0.21176808633267241 0.43561955896615723 0 0.20343638971804409 0.43348363265178602 0 0.2024162903917478 0.44136640132458071 0 0.20691649026199299 0.42506973477099952 0 0.2151046402913529 0.41215494602117569 0 0.19868614292287351 0.41839262016298878 0 0.2151046402913529 0.41215494602117569 0 0.19868614292287351 0.41839262016298878 0 0.1926042375235065 0.40722997452935639 0 0.19868614292287351 0.41839262016298878 0 0.18799489598193619 0.42028832155918561 0 0.1926042375235065 0.40722997452935639 0 0.20343638971804409 0.43348363265178602 0 0.19673519466073591 0.43632175308257592 0 0.2024162903917478 0.44136640132458071 0 0.20343638971804409 0.43348363265178602 0 0.19673519466073591 0.43632175308257592 0 0.19358293624676359 0.42838356577394632 0 0.20691649026199299 0.42506973477099952 0 0.19868614292287351 0.41839262016298878 0 0.19358293624676359 0.42838356577394632 0 0.20691649026199299 0.42506973477099952 0 0.20343638971804409 0.43348363265178602 0 0.19358293624676359 0.42838356577394632 0 0.19868614292287351 0.41839262016298878 0 0.18799489598193619 0.42028832155918561 0 0.19358293624676359 0.42838356577394632 0 0.18230108899373379 0.42945390847427939 0 0.18799489598193619 0.42028832155918561 0 0.19358293624676359 0.42838356577394632 0 0.19673519466073591 0.43632175308257592 0 0.19358293624676359 0.42838356577394632 0 0.1893913848893729 0.44114113595300369 0 0.18230108899373379 0.42945390847427939 0 0.19358293624676359 0.42838356577394632 0 0.1893913848893729 0.44114113595300369 0 0.19358293624676359 0.42838356577394632 0 0.1893913848893729 0.44114113595300369 0 0.1893913848893729 0.44114113595300369 0 0.19443223867241741 0.44844292415745057 0 0.18273931462377219 0.46138763802670463 0 0.1893913848893729 0.44114113595300369 0 0.19180695686342961 0.44120544553992741 0 0.19673519466073591 0.43632175308257592 0 0.1893913848893729 0.44114113595300369 0 0.19180695686342961 0.44120544553992741 0 0.19673519466073591 0.43632175308257592 0 0.19180695686342961 0.44120544553992741 0 0.19634767014708271 0.44183413102613361 0 0.1893913848893729 0.44114113595300369 0 0.19180695686342961 0.44120544553992741 0 0.19443223867241741 0.44844292415745057 0 0.19180695686342961 0.44120544553992741 0 0.19443223867241741 0.44844292415745057 0 0.19634767014708271 0.44183413102613361 0 0.19443223867241741 0.44844292415745057 0 0.20287054077927741 0.45246684191715192 0 0.2024162903917478 0.44136640132458071 0 0.19443223867241741 0.44844292415745057 0 0.2024162903917478 0.44136640132458071 0 0.19634767014708271 0.44183413102613361 0 0.19673519466073591 0.43632175308257592 0 0.2024162903917478 0.44136640132458071 0 0.19634767014708271 0.44183413102613361 0 0.19535604040943641 0.4596406599054218 0 0.20651847479057051 0.46675320203588871 0 0.1902196331811446 0.46915269338991311 0 0.19535604040943641 0.4596406599054218 0 0.1902196331811446 0.46915269338991311 0 0.18273931462377219 0.46138763802670463 0 0.19443223867241741 0.44844292415745057 0 0.19535604040943641 0.4596406599054218 0 0.18273931462377219 0.46138763802670463 0 0.20287054077927741 0.45246684191715192 0 0.19535604040943641 0.4596406599054218 0 0.20651847479057051 0.46675320203588871 0 0.19443223867241741 0.44844292415745057 0 0.20287054077927741 0.45246684191715192 0 0.19535604040943641 0.4596406599054218 0 0.20651847479057051 0.46675320203588871 0 0.2236394288429257 0.45360311155229732 0 0.20651847479057051 0.46675320203588871 0 0.2236394288429257 0.45360311155229732 0 0.21126039392615201 0.47856422712832042 0 0.20651847479057051 0.46675320203588871 0 0.21314934765597979 0.4479579508936703 0 0.2236394288429257 0.45360311155229732 0 0.20287054077927741 0.45246684191715192 0 0.20651847479057051 0.46675320203588871 0 0.21314934765597979 0.4479579508936703 0 0.21176808633267241 0.43561955896615723 0 0.2024162903917478 0.44136640132458071 0 0.21314934765597979 0.4479579508936703 0 0.20287054077927741 0.45246684191715192 0 0.2024162903917478 0.44136640132458071 0 0.21314934765597979 0.4479579508936703 0 0.21176808633267241 0.43561955896615723 0 0.21314934765597979 0.4479579508936703 0 0.22344313961596121 0.4405991771254873 0 0.2236394288429257 0.45360311155229732 0 0.24076038289528101 0.44045302106870587 0 0.2236394288429257 0.45360311155229732 0 0.2360514898594237 0.45473354405727162 0 0.24076038289528101 0.44045302106870587 0 0.23227077540446009 0.4348032676911478 0 0.22344313961596121 0.4405991771254873 0 0.24076038289528101 0.44045302106870587 0 0.22344313961596121 0.4405991771254873 0 0.2236394288429257 0.45360311155229732 0 0.24076038289528101 0.44045302106870587 0 0.21314934765597979 0.4479579508936703 0 0.22344313961596121 0.4405991771254873 0 0.2236394288429257 0.45360311155229732 0 0.2236394288429257 0.45360311155229732 0 0.23633178511494091 0.46719382378508312 0 0.21126039392615201 0.47856422712832042 0 0.2236394288429257 0.45360311155229732 0 0.2360514898594237 0.45473354405727162 0 0.23633178511494091 0.46719382378508312 0 0.23633178511494091 0.46719382378508312 0 0.26176073672697819 0.45563660412683099 0 0.2360514898594237 0.45473354405727162 0 0.23633178511494091 0.46719382378508312 0 0.247657921545612 0.45019175147730811 0 0.23633178511494091 0.46719382378508312 0 0.247657921545612 0.45019175147730811 0 0.26176073672697819 0.45563660412683099 0 0.247657921545612 0.45019175147730811 0 0.24076038289528101 0.44045302106870587 0 0.25292049232757879 0.43871666044408197 0 0.2360514898594237 0.45473354405727162 0 0.247657921545612 0.45019175147730811 0 0.24076038289528101 0.44045302106870587 0 0.23401917144045989 0.48783781424873518 0 0.2579342557920084 0.48678940613732452 0 0.22749628017716059 0.5 0 0.23401917144045989 0.48783781424873518 0 0.25621788691749497 0.5 0 0.23401917144045989 0.48783781424873518 0 0.25621788691749497 0.5 0 0.2579342557920084 0.48678940613732452 0 0.2426392417506788 0.47788479099749259 0 0.23401917144045989 0.48783781424873518 0 0.2579342557920084 0.48678940613732452 0 0.23633178511494091 0.46719382378508312 0 0.2426392417506788 0.47788479099749259 0 0.25405323707721028 0.47057077812456438 0 0.23633178511494091 0.46719382378508312 0 0.2426392417506788 0.47788479099749259 0 0.22801002828267039 0.47920444912904142 0 0.2426392417506788 0.47788479099749259 0 0.22801002828267039 0.47920444912904142 0 0.23401917144045989 0.48783781424873518 0 0.23633178511494091 0.46719382378508312 0 0.22801002828267039 0.47920444912904142 0 0.21126039392615201 0.47856422712832042 0 0.23633178511494091 0.46719382378508312 0 0.21126039392615201 0.47856422712832042 0 0.22749628017716059 0.5 0 0.23401917144045989 0.48783781424873518 0 0.21010408708891129 0.48888622236014589 0 0.23401917144045989 0.48783781424873518 0 0.21010408708891129 0.48888622236014589 0 0.22801002828267039 0.47920444912904142 0 0.23401917144045989 0.48783781424873518 0 0.21010408708891129 0.48888622236014589 0 0.22749628017716059 0.5 0 0.21010408708891129 0.48888622236014589 0 0.1987746734368262 0.5 0 0.22801002828267039 0.47920444912904142 0 0.21010408708891129 0.48888622236014589 0 0.21126039392615201 0.47856422712832042 0 0.20651847479057051 0.46675320203588871 0 0.21126039392615201 0.47856422712832042 0 0.20037718507754601 0.47607623316627901 0 0.20651847479057051 0.46675320203588871 0 0.18939752073821539 0.47990329251948022 0 0.1902196331811446 0.46915269338991311 0 0.20651847479057051 0.46675320203588871 0 0.18939752073821539 0.47990329251948022 0 0.21126039392615201 0.47856422712832042 0 0.20037718507754601 0.47607623316627901 0 0.18618900273736291 0.48993463047155722 0 0.21126039392615201 0.47856422712832042 0 0.18618900273736291 0.48993463047155722 0 0.20651847479057051 0.46675320203588871 0 0.20037718507754601 0.47607623316627901 0 0.18939752073821539 0.47990329251948022 0 0.20037718507754601 0.47607623316627901 0 0.18939752073821539 0.47990329251948022 0 0.18618900273736291 0.48993463047155722 0 0.21010408708891129 0.48888622236014589 0 0.1987746734368262 0.5 0 0.18618900273736291 0.48993463047155722 0 0.21010408708891129 0.48888622236014589 0 0.21126039392615201 0.47856422712832042 0 0.18618900273736291 0.48993463047155722 0 0.21010408708891129 0.48888622236014589 0 0.18618900273736291 0.48993463047155722 0 0.1987746734368262 0.5 0 0.18618900273736291 0.48993463047155722 0 0.17005306669649181 0.49999999999999861 0 0.18618900273736291 0.48993463047155722 0 0.17005306669649181 0.49999999999999861 0 0.17111378395405991 0.49677155933453782 0 0.18618900273736291 0.48993463047155722 0 0.17574072065223059 0.49039267040682549 0 0.18939752073821539 0.47990329251948022 0 0.18618900273736291 0.48993463047155722 0 0.17574072065223059 0.49039267040682549 0 0.18939752073821539 0.47990329251948022 0 0.17574072065223059 0.49039267040682549 0 0.17317260411742619 0.49050525350152002 0 0.17608724435817041 0.48163414010040517 0 0.17574072065223059 0.49039267040682549 0 0.17317260411742619 0.49050525350152002 0 0.17608724435817041 0.48163414010040517 0 0.17574072065223059 0.49039267040682549 0 0.1723552657549168 0.49299293661229859 0 0.17574072065223059 0.49039267040682549 0 0.17317260411742619 0.49050525350152002 0 0.17574072065223059 0.49039267040682549 0 0.17317260411742619 0.49050525350152002 0 0.1723552657549168 0.49299293661229859 0 0.17317260411742619 0.49050525350152002 0 0.1723552657549168 0.49299293661229859 0 0.18618900273736291 0.48993463047155722 0 0.17574072065223059 0.49039267040682549 0 0.17111378395405991 0.49677155933453782 0 0.18618900273736291 0.48993463047155722 0 0.17111378395405991 0.49677155933453782 0 0.17574072065223059 0.49039267040682549 0 0.1723552657549168 0.49299293661229859 0 0.17111378395405991 0.49677155933453782 0 0.17317260411742619 0.49050525350152002 0 0.1723552657549168 0.49299293661229859 0 0.17093193856210101 0.49408615147147228 0 0.17317260411742619 0.49050525350152002 0 0.17608724435817041 0.48163414010040517 0 0.15538984013346299 0.4843255982648208 0 0.17005306669649181 0.49999999999999861 0 0.17111378395405991 0.49677155933453782 0 0.17005306669649181 0.49999999999999861 0 0.17111378395405991 0.49677155933453782 0 0.16399517114761969 0.49999999999999928 0 0.17317260411742619 0.49050525350152002 0 0.1515263269769426 0.49145419987370548 0 0.15538984013346299 0.4843255982648208 0 0.17317260411742619 0.49050525350152002 0 0.1663567496667693 0.49574482635956479 0 0.1515263269769426 0.49145419987370548 0 0.17317260411742619 0.49050525350152002 0 0.1515263269769426 0.49145419987370548 0 0.17111378395405991 0.49677155933453782 0 0.16399517114761969 0.49999999999999928 0 0.17111378395405991 0.49677155933453782 0 0.1663567496667693 0.49574482635956479 0 0.16399517114761969 0.49999999999999928 0 0.17111378395405991 0.49677155933453782 0 0.1663567496667693 0.49574482635956479 0 0.17093193856210101 0.49408615147147228 0 0.17317260411742619 0.49050525350152002 0 0.1663567496667693 0.49574482635956479 0 0.17093193856210101 0.49408615147147228 0 0.1723552657549168 0.49299293661229859 0 0.17111378395405991 0.49677155933453782 0 0.1723552657549168 0.49299293661229859 0 0.17111378395405991 0.49677155933453782 0 0.17093193856210101 0.49408615147147228 0 0.1723552657549168 0.49299293661229859 0 0.17093193856210101 0.49408615147147228 0 0.1663567496667693 0.49574482635956479 0 0.16399517114761969 0.49999999999999928 0 0.1515263269769426 0.49145419987370548 0 0.16709495972131519 0.47109129573524677 0 0.17608724435817041 0.48163414010040517 0 0.15538984013346299 0.4843255982648208 0 0.17608724435817041 0.48163414010040517 0 0.15538984013346299 0.4843255982648208 0 0.16709495972131519 0.47109129573524677 0 0.15374559180276859 0.46569249780197453 0 0.15538984013346299 0.4843255982648208 0 0.17608724435817041 0.48163414010040517 0 0.18273931462377219 0.46138763802670463 0 0.1902196331811446 0.46915269338991311 0 0.17608724435817041 0.48163414010040517 0 0.18273931462377219 0.46138763802670463 0 0.16709495972131519 0.47109129573524677 0 0.17608724435817041 0.48163414010040517 0 0.18273931462377219 0.46138763802670463 0 0.18939752073821539 0.47990329251948022 0 0.17574072065223059 0.49039267040682549 0 0.17608724435817041 0.48163414010040517 0 0.18939752073821539 0.47990329251948022 0 0.1902196331811446 0.46915269338991311 0 0.17608724435817041 0.48163414010040517 0 0.18939752073821539 0.47990329251948022 0 0.17608724435817041 0.48163414010040517 0 0.16709495972131519 0.47109129573524677 0 0.18273931462377219 0.46138763802670463 0 0.1702426062407463 0.45955314052439028 0 0.18273931462377219 0.46138763802670463 0 0.176199316635269 0.45379459990434878 0 0.1702426062407463 0.45955314052439028 0 0.1893913848893729 0.44114113595300369 0 0.17279874769677911 0.44436793917470752 0 0.17050863931897781 0.440638422069624 0 0.1893913848893729 0.44114113595300369 0 0.18273931462377219 0.46138763802670463 0 0.176199316635269 0.45379459990434878 0 0.1893913848893729 0.44114113595300369 0 0.17050863931897781 0.440638422069624 0 0.1893913848893729 0.44114113595300369 0 0.18273931462377219 0.46138763802670463 0 0.1893913848893729 0.44114113595300369 0 0.176199316635269 0.45379459990434878 0 0.17279874769677911 0.44436793917470752 0 0.176199316635269 0.45379459990434878 0 0.17279874769677911 0.44436793917470752 0 0.1702426062407463 0.45955314052439028 0 0.17050863931897781 0.440638422069624 0 0.157682723121331 0.45177378441037241 0 0.1491816703373442 0.44007063581433059 0 0.17050863931897781 0.440638422069624 0 0.1491816703373442 0.44007063581433059 0 0.17050863931897781 0.440638422069624 0 0.17012802431844351 0.44440180614057823 0 0.17279874769677911 0.44436793917470752 0 0.17050863931897781 0.440638422069624 0 0.17012802431844351 0.44440180614057823 0 0.17050863931897781 0.440638422069624 0 0.17012802431844351 0.44440180614057823 0 0.157682723121331 0.45177378441037241 0 0.17279874769677911 0.44436793917470752 0 0.17012802431844351 0.44440180614057823 0 0.157682723121331 0.45177378441037241 0 0.17279874769677911 0.44436793917470752 0 0.157682723121331 0.45177378441037241 0 0.15374559180276859 0.46569249780197453 0 0.17279874769677911 0.44436793917470752 0 0.15374559180276859 0.46569249780197453 0 0.17279874769677911 0.44436793917470752 0 0.1702426062407463 0.45955314052439028 0 0.15374559180276859 0.46569249780197453 0 0.16709495972131519 0.47109129573524677 0 0.1702426062407463 0.45955314052439028 0 0.15374559180276859 0.46569249780197453 0 0.15374559180276859 0.46569249780197453 0 0.14207080979430889 0.45458664866321452 0 0.134446406143585 0.46998007119762641 0 0.157682723121331 0.45177378441037241 0 0.15374559180276859 0.46569249780197453 0 0.14207080979430889 0.45458664866321452 0 0.157682723121331 0.45177378441037241 0 0.14207080979430889 0.45458664866321452 0 0.1491816703373442 0.44007063581433059 0 0.1491816703373442 0.44007063581433059 0 0.12785470135571081 0.43950284955902769 0 0.14207080979430889 0.45458664866321452 0 0.1491816703373442 0.44007063581433059 0 0.12785470135571081 0.43950284955902769 0 0.14207080979430889 0.45458664866321452 0 0.12785470135571081 0.43950284955902769 0 0.1286450609868573 0.45754986806268189 0 0.14207080979430889 0.45458664866321452 0 0.1286450609868573 0.45754986806268189 0 0.134446406143585 0.46998007119762641 0 0.121408580388725 0.47105972041901129 0 0.1286450609868573 0.45754986806268189 0 0.134446406143585 0.46998007119762641 0 0.121408580388725 0.47105972041901129 0 0.134446406143585 0.46998007119762641 0 0.12534223969395061 0.480529939251091 0 0.134446406143585 0.46998007119762641 0 0.12534223969395061 0.480529939251091 0 0.13469243590875621 0.48701705642923993 0 0.1230923811484 0.499999999999999 0 0.12988004983645901 0.49240314624589182 0 0.14354377614800981 0.5 0 0.1188004819222136 0.48908362133956462 0 0.13469243590875621 0.48701705642923993 0 0.1188004819222136 0.48908362133956462 0 0.12534223969395061 0.480529939251091 0 0.13469243590875621 0.48701705642923993 0 0.12988004983645901 0.49240314624589182 0 0.13469243590875621 0.48701705642923993 0 0.1515263269769426 0.49145419987370548 0 0.1188004819222136 0.48908362133956462 0 0.12988004983645901 0.49240314624589182 0 0.13469243590875621 0.48701705642923993 0 0.12988004983645901 0.49240314624589182 0 0.13469243590875621 0.48701705642923993 0 0.1230923811484 0.499999999999999 0 0.12988004983645901 0.49240314624589182 0 0.12988004983645901 0.49240314624589182 0 0.1515263269769426 0.49145419987370548 0 0.13469243590875621 0.48701705642923993 0 0.15538984013346299 0.4843255982648208 0 0.13469243590875621 0.48701705642923993 0 0.1515263269769426 0.49145419987370548 0 0.15538984013346299 0.4843255982648208 0 0.16399517114761969 0.49999999999999928 0 0.14354377614800981 0.5 0 0.1515263269769426 0.49145419987370548 0 0.12988004983645901 0.49240314624589182 0 0.14354377614800981 0.5 0 0.1515263269769426 0.49145419987370548 0 0.15374559180276859 0.46569249780197453 0 0.134446406143585 0.46998007119762641 0 0.13469243590875621 0.48701705642923993 0 0.15374559180276859 0.46569249780197453 0 0.13469243590875621 0.48701705642923993 0 0.15374559180276859 0.46569249780197453 0 0.13469243590875621 0.48701705642923993 0 0.15538984013346299 0.4843255982648208 0 0.34935550477757588 0.47062277059001317 0 0.34428803819210407 0.5 0 0.36855302384870531 0.47568942338680931 0 0.34428803819210407 0.5 0 0.37396231045924128 0.499999999999997 0 0.36855302384870531 0.47568942338680931 0 0.36855302384870531 0.47568942338680931 0 0.35652303172677458 0.45242587724443267 0 0.37731054342266529 0.45523599042389329 0 0.35652303172677458 0.45242587724443267 0 0.37502514857406283 0.4397897122098714 0 0.37731054342266529 0.45523599042389329 0 0.35652303172677458 0.45242587724443267 0 0.35993648973407061 0.43547358975796618 0 0.37502514857406283 0.4397897122098714 0 0.35652303172677458 0.45242587724443267 0 0.33513547984576159 0.45400007804266562 0 0.34126384280917582 0.43326244675215742 0 0.35652303172677458 0.45242587724443267 0 0.34126384280917582 0.43326244675215742 0 0.35993648973407061 0.43547358975796618 0 0.34935550477757588 0.47062277059001317 0 0.35652303172677458 0.45242587724443267 0 0.33513547984576159 0.45400007804266562 0 0.34935550477757588 0.47062277059001317 0 0.36855302384870531 0.47568942338680931 0 0.35652303172677458 0.45242587724443267 0 0.34935550477757588 0.47062277059001317 0 0.33513547984576159 0.45400007804266562 0 0.33277392716014059 0.47393124538307391 0 0.33513547984576159 0.45400007804266562 0 0.31828576151462762 0.44049288289104549 0 0.34126384280917582 0.43326244675215742 0 0.33513547984576159 0.45400007804266562 0 0.31828576151462762 0.44049288289104549 0 0.31059146437458579 0.46227164554514211 0 0.33513547984576159 0.45400007804266562 0 0.33277392716014059 0.47393124538307391 0 0.31059146437458579 0.46227164554514211 0 0.31388513677108332 0.47938383150278879 0 0.33277392716014059 0.47393124538307391 0 0.31059146437458579 0.46227164554514211 0 0.34935550477757588 0.47062277059001317 0 0.34428803819210407 0.5 0 0.33277392716014059 0.47393124538307391 0 0.34428803819210407 0.5 0 0.33277392716014059 0.47393124538307391 0 0.31461376592496682 0.5 0 0.31388513677108332 0.47938383150278879 0 0.33277392716014059 0.47393124538307391 0 0.31461376592496682 0.5 0 0.31388513677108332 0.47938383150278879 0 0.31461376592496682 0.5 0 0.29756138962464002 0.48133243508293938 0 0.31461376592496682 0.5 0 0.29756138962464002 0.48133243508293938 0 0.28493949365782961 0.50000000000000233 0 0.31388513677108332 0.47938383150278879 0 0.29756138962464002 0.48133243508293938 0 0.31059146437458579 0.46227164554514211 0 0.29756138962464002 0.48133243508293938 0 0.2861558367139026 0.46799755528583781 0 0.31059146437458579 0.46227164554514211 0 0.29756138962464002 0.48133243508293938 0 0.27426649321441221 0.47957222014802903 0 0.2861558367139026 0.46799755528583781 0 0.29756138962464002 0.48133243508293938 0 0.28493949365782961 0.50000000000000233 0 0.27426649321441221 0.47957222014802903 0 0.28493949365782961 0.50000000000000233 0 0.27426649321441221 0.47957222014802903 0 0.28493949365782961 0.50000000000000233 0 0.25621788691749497 0.5 0 0.2579342557920084 0.48678940613732452 0 0.28493949365782961 0.50000000000000233 0 0.27426649321441221 0.47957222014802903 0 0.2579342557920084 0.48678940613732452 0 0.27426649321441221 0.47957222014802903 0 0.26359349277099581 0.45914444029605539 0 0.27426649321441221 0.47957222014802903 0 0.26359349277099581 0.45914444029605539 0 0.2861558367139026 0.46799755528583781 0 0.27426649321441221 0.47957222014802903 0 0.26246186971365659 0.47401921117649332 0 0.26359349277099581 0.45914444029605539 0 0.27426649321441221 0.47957222014802903 0 0.26246186971365659 0.47401921117649332 0 0.2579342557920084 0.48678940613732452 0 0.2426392417506788 0.47788479099749259 0 0.25405323707721028 0.47057077812456438 0 0.2579342557920084 0.48678940613732452 0 0.26246186971365659 0.47401921117649332 0 0.25405323707721028 0.47057077812456438 0 0.2579342557920084 0.48678940613732452 0 0.26359349277099581 0.45914444029605539 0 0.26176073672697819 0.45563660412683099 0 0.26851180791150431 0.43914123261514609 0 0.247657921545612 0.45019175147730811 0 0.25292049232757879 0.43871666044408197 0 0.26176073672697819 0.45563660412683099 0 0.25292049232757879 0.43871666044408197 0 0.26176073672697819 0.45563660412683099 0 0.25292049232757879 0.43871666044408197 0 0.26176073672697819 0.45563660412683099 0 0.26851180791150431 0.43914123261514609 0 0.247657921545612 0.45019175147730811 0 0.25292049232757879 0.43871666044408197 0 0.23633178511494091 0.46719382378508312 0 0.25405323707721028 0.47057077812456438 0 0.26176073672697819 0.45563660412683099 0 0.26246186971365659 0.47401921117649332 0 0.25405323707721028 0.47057077812456438 0 0.26359349277099581 0.45914444029605539 0 0.25405323707721028 0.47057077812456438 0 0.26359349277099581 0.45914444029605539 0 0.26176073672697819 0.45563660412683099 0 0.26359349277099581 0.45914444029605539 0 0.26176073672697819 0.45563660412683099 0 0.26359349277099581 0.45914444029605539 0 0.28072814750923603 0.45227863284880537 0 0.2861558367139026 0.46799755528583781 0 0.28072814750923603 0.45227863284880537 0 0.27609359854813742 0.44479658879008288 0 0.28502647422856092 0.44232485302237939 0 0.26359349277099581 0.45914444029605539 0 0.28072814750923603 0.45227863284880537 0 0.27609359854813742 0.44479658879008288 0 0.26359349277099581 0.45914444029605539 0 0.26851180791150431 0.43914123261514609 0 0.27609359854813742 0.44479658879008288 0 0.26851180791150431 0.43914123261514609 0 0.27609359854813742 0.44479658879008288 0 0.28025388563795522 0.43501799701347599 0 0.27609359854813742 0.44479658879008288 0 0.28502647422856092 0.44232485302237939 0 0.28025388563795522 0.43501799701347599 0 0.28072814750923603 0.45227863284880537 0 0.28502647422856092 0.44232485302237939 0 0.29721393931886519 0.44541276723023798 0 0.28502647422856092 0.44232485302237939 0 0.29721393931886519 0.44541276723023798 0 0.29084280012861058 0.43411827922929458 0 0.28072814750923603 0.45227863284880537 0 0.2861558367139026 0.46799755528583781 0 0.29721393931886519 0.44541276723023798 0 0.2861558367139026 0.46799755528583781 0 0.31059146437458579 0.46227164554514211 0 0.29721393931886519 0.44541276723023798 0 0.31828576151462762 0.44049288289104549 0 0.31059146437458579 0.46227164554514211 0 0.29721393931886519 0.44541276723023798 0 0.31828576151462762 0.44049288289104549 0 0.29721393931886519 0.44541276723023798 0 0.301021691047478 0.42416596861403572 0 0.301021691047478 0.42416596861403572 0 0.32035561237766691 0.42117458003980268 0 0.301021691047478 0.42416596861403572 0 0.30796425128865468 0.40653982824131868 0 0.32035561237766691 0.42117458003980268 0 0.301021691047478 0.42416596861403572 0 0.30796425128865468 0.40653982824131868 0 0.28666771435401828 0.39985699748491182 0 0.28168776971728932 0.42715735718826919 0 0.28666771435401828 0.39985699748491182 0 0.301021691047478 0.42416596861403572 0 0.28168776971728932 0.42715735718826919 0 0.28666771435401828 0.39985699748491182 0 0.301021691047478 0.42416596861403572 0 0.28168776971728932 0.42715735718826919 0 0.29721393931886519 0.44541276723023798 0 0.301021691047478 0.42416596861403572 0 0.29084280012861058 0.43411827922929458 0 0.301021691047478 0.42416596861403572 0 0.29084280012861058 0.43411827922929458 0 0.28168776971728932 0.42715735718826919 0 0.28502647422856092 0.44232485302237939 0 0.29084280012861058 0.43411827922929458 0 0.28025388563795522 0.43501799701347599 0 0.29084280012861058 0.43411827922929458 0 0.28168776971728932 0.42715735718826919 0 0.28025388563795522 0.43501799701347599 0 0.26851180791150431 0.43914123261514609 0 0.28168776971728932 0.42715735718826919 0 0.25642942977380528 0.43106538537461703 0 0.28168776971728932 0.42715735718826919 0 0.25642942977380528 0.43106538537461703 0 0.28168776971728932 0.42715735718826919 0 0.28025388563795522 0.43501799701347599 0 0.26851180791150431 0.43914123261514609 0 0.28168776971728932 0.42715735718826919 0 0.28025388563795522 0.43501799701347599 0 0.28168776971728932 0.42715735718826919 0 0.26879210652995639 0.40410843846240813 0 0.28666771435401828 0.39985699748491182 0 0.28168776971728932 0.42715735718826919 0 0.25642942977380528 0.43106538537461703 0 0.26879210652995639 0.40410843846240813 0 0.25642942977380528 0.43106538537461703 0 0.26879210652995639 0.40410843846240813 0 0.25197626658944411 0.41745737260860238 0 0.25642942977380528 0.43106538537461703 0 0.26879210652995639 0.40410843846240813 0 0.25197626658944411 0.41745737260860238 0 0.25039525491995968 0.39949738483197411 0 0.26879210652995639 0.40410843846240813 0 0.24948432561859479 0.4321399477906937 0 0.25197626658944411 0.41745737260860238 0 0.25642942977380528 0.43106538537461703 0 0.24948432561859479 0.4321399477906937 0 0.25642942977380528 0.43106538537461703 0 0.24948432561859479 0.4321399477906937 0 0.25292049232757879 0.43871666044408197 0 0.24948432561859479 0.4321399477906937 0 0.25292049232757879 0.43871666044408197 0 0.25642942977380528 0.43106538537461703 0 0.25292049232757879 0.43871666044408197 0 0.25642942977380528 0.43106538537461703 0 0.25292049232757879 0.43871666044408197 0 0.26851180791150431 0.43914123261514609 0 0.25642942977380528 0.43106538537461703 0 0.2643164579933277 0.3865335059999998 0 0.25156559034844328 0.37889076564355278 0 0.26855685770354909 0.3741682996939919 0 0.2643164579933277 0.3865335059999998 0 0.25156559034844328 0.37889076564355278 0 0.25039525491995968 0.39949738483197411 0 0.2643164579933277 0.3865335059999998 0 0.25039525491995968 0.39949738483197411 0 0.26879210652995639 0.40410843846240813 0 0.26879210652995639 0.40410843846240813 0 0.28115478328610821 0.3771514915501995 0 0.28666771435401828 0.39985699748491182 0 0.26879210652995639 0.40410843846240813 0 0.28115478328610821 0.3771514915501995 0 0.2643164579933277 0.3865335059999998 0 0.26879210652995639 0.40410843846240813 0 0.28115478328610821 0.3771514915501995 0 0.2643164579933277 0.3865335059999998 0 0.28115478328610821 0.3771514915501995 0 0.26855685770354909 0.3741682996939919 0 0.28115478328610821 0.3771514915501995 0 0.28666771435401828 0.39985699748491182 0 0.29164765899074568 0.37255663778155401 0 0.28666771435401828 0.39985699748491182 0 0.30445079766162281 0.38982948478026042 0 0.29164765899074568 0.37255663778155401 0 0.28666771435401828 0.39985699748491182 0 0.29164765899074568 0.37255663778155401 0 0.30796425128865468 0.40653982824131868 0 0.28666771435401828 0.39985699748491182 0 0.30445079766162281 0.38982948478026042 0 0.30796425128865468 0.40653982824131868 0 0.30445079766162281 0.38982948478026042 0 0.32342263878487898 0.39623643552248228 0 0.30445079766162281 0.38982948478026042 0 0.31255172488981631 0.37395752487103517 0 0.29164765899074568 0.37255663778155401 0 0.33842019921257599 0.37643213739866949 0 0.32342263878487898 0.39623643552248228 0 0.31255172488981631 0.37395752487103517 0 0.33842019921257599 0.37643213739866949 0 0.31255172488981631 0.37395752487103517 0 0.30445079766162281 0.38982948478026042 0 0.32342263878487898 0.39623643552248228 0 0.31255172488981631 0.37395752487103517 0 0.33842019921257599 0.37643213739866949 0 0.3401123653711467 0.39421042832760222 0 0.32342263878487898 0.39623643552248228 0 0.3401123653711467 0.39421042832760222 0 0.32342263878487898 0.39623643552248228 0 0.33609712110277379 0.41144089476721041 0 0.30796425128865468 0.40653982824131868 0 0.32342263878487898 0.39623643552248228 0 0.32035561237766691 0.42117458003980268 0 0.32342263878487898 0.39623643552248228 0 0.32035561237766691 0.42117458003980268 0 0.33609712110277379 0.41144089476721041 0 0.31828576151462762 0.44049288289104549 0 0.32035561237766691 0.42117458003980268 0 0.34126384280917582 0.43326244675215742 0 0.31828576151462762 0.44049288289104549 0 0.301021691047478 0.42416596861403572 0 0.32035561237766691 0.42117458003980268 0 0.32035561237766691 0.42117458003980268 0 0.34126384280917582 0.43326244675215742 0 0.33609712110277379 0.41144089476721041 0 0.3401123653711467 0.39421042832760222 0 0.33609712110277379 0.41144089476721041 0 0.35449789816016342 0.41396104791469152 0 0.34126384280917582 0.43326244675215742 0 0.33609712110277379 0.41144089476721041 0 0.35449789816016342 0.41396104791469152 0 0.34126384280917582 0.43326244675215742 0 0.35449789816016342 0.41396104791469152 0 0.35993648973407061 0.43547358975796618 0 0.35993648973407061 0.43547358975796618 0 0.3761068813621975 0.42207822940548428 0 0.37502514857406283 0.4397897122098714 0 0.35449789816016342 0.41396104791469152 0 0.35993648973407061 0.43547358975796618 0 0.3761068813621975 0.42207822940548428 0 0.35449789816016342 0.41396104791469152 0 0.37026059137101719 0.40424103822755808 0 0.3761068813621975 0.42207822940548428 0 0.35449789816016342 0.41396104791469152 0 0.37026059137101719 0.40424103822755808 0 0.35679076164928869 0.39489463181457768 0 0.37026059137101719 0.40424103822755808 0 0.37141634134416712 0.39198704342809532 0 0.35679076164928869 0.39489463181457768 0 0.37026059137101719 0.40424103822755808 0 0.37141634134416712 0.39198704342809532 0 0.37758746502571572 0.39709640299692173 0 0.37141634134416712 0.39198704342809532 0 0.36428867353533573 0.3789067499263038 0 0.35679076164928869 0.39489463181457768 0 0.37141634134416712 0.39198704342809532 0 0.36428867353533573 0.3789067499263038 0 0.3849560004162208 0.3861100408530761 0 0.36428867353533573 0.3789067499263038 0 0.37007180766908038 0.37005079458721563 0 0.39015714785809519 0.38138136245393928 0 0.33842019921257599 0.37643213739866949 0 0.3401123653711467 0.39421042832760222 0 0.35679076164928869 0.39489463181457768 0 0.33842019921257599 0.37643213739866949 0 0.36428867353533573 0.3789067499263038 0 0.33842019921257599 0.37643213739866949 0 0.36428867353533573 0.3789067499263038 0 0.35679076164928869 0.39489463181457768 0 0.3401123653711467 0.39421042832760222 0 0.35449789816016342 0.41396104791469152 0 0.35679076164928869 0.39489463181457768 0 0.35527494708807938 0.35009082086139681 0 0.34459536571489607 0.35057979472299539 0 0.3583704141452046 0.36103381410175922 0 0.35527494708807938 0.35009082086139681 0 0.36664567010696042 0.34957578258582261 0 0.3514883383852565 0.33917389203501069 0 0.36664567010696042 0.34957578258582261 0 0.3514883383852565 0.33917389203501069 0 0.35527494708807938 0.35009082086139681 0 0.34459536571489607 0.35057979472299539 0 0.3514883383852565 0.33917389203501069 0 0.34459536571489607 0.35057979472299539 0 0.34622082159567108 0.36459641121726538 0 0.3583704141452046 0.36103381410175922 0 0.34459536571489607 0.35057979472299539 0 0.3583704141452046 0.36103381410175922 0 0.36428867353533573 0.3789067499263038 0 0.34622082159567108 0.36459641121726538 0 0.3583704141452046 0.36103381410175922 0 0.33842019921257599 0.37643213739866949 0 0.36428867353533573 0.3789067499263038 0 0.34622082159567108 0.36459641121726538 0 0.3583704141452046 0.36103381410175922 0 0.37007180766908038 0.37005079458721563 0 0.36821270889931251 0.36156791865280452 0 0.36428867353533573 0.3789067499263038 0 0.3583704141452046 0.36103381410175922 0 0.37007180766908038 0.37005079458721563 0 0.37007180766908038 0.37005079458721563 0 0.36821270889931251 0.36156791865280452 0 0.37840140898252689 0.36547857251988158 0 0.36664567010696042 0.34957578258582261 0 0.37840140898252689 0.36547857251988158 0 0.37911528252024168 0.36215060550131117 0 0.36821270889931251 0.36156791865280452 0 0.36664567010696042 0.34957578258582261 0 0.37840140898252689 0.36547857251988158 0 0.36664567010696042 0.34957578258582261 0 0.37840140898252689 0.36547857251988158 0 0.3583704141452046 0.36103381410175922 0 0.36821270889931251 0.36156791865280452 0 0.36664567010696042 0.34957578258582261 0 0.35527494708807938 0.35009082086139681 0 0.3583704141452046 0.36103381410175922 0 0.36664567010696042 0.34957578258582261 0 0.36664567010696042 0.34957578258582261 0 0.36816863689598978 0.3345045726215875 0 0.38523408214048699 0.33291454303906481 0 0.36664567010696042 0.34957578258582261 0 0.36816863689598978 0.3345045726215875 0 0.35444825932224538 0.33307551293013199 0 0.36816863689598978 0.3345045726215875 0 0.36545813465675081 0.32121006836212762 0 0.38523408214048699 0.33291454303906481 0 0.36664567010696042 0.34957578258582261 0 0.35444825932224538 0.33307551293013199 0 0.36816863689598978 0.3345045726215875 0 0.36545813465675081 0.32121006836212762 0 0.35444825932224538 0.33307551293013199 0 0.36545813465675081 0.32121006836212762 0 0.37037531897166531 0.31069891070043321 0 0.38162766334343901 0.31154091328445122 0 0.36545813465675081 0.32121006836212762 0 0.36305718467691528 0.30666110055069562 0 0.37037531897166531 0.31069891070043321 0 0.36545813465675081 0.32121006836212762 0 0.35733458493141962 0.30984126580807309 0 0.36305718467691528 0.30666110055069562 0 0.35444825932224538 0.33307551293013199 0 0.34225084853753102 0.31657524327444098 0 0.36545813465675081 0.32121006836212762 0 0.34568218717301558 0.30950559368518898 0 0.3526740015490844 0.32057509411200602 0 0.35444825932224538 0.33307551293013199 0 0.34225084853753102 0.31657524327444098 0 0.36545813465675081 0.32121006836212762 0 0.3526740015490844 0.32057509411200602 0 0.34568218717301558 0.30950559368518898 0 0.36545813465675081 0.32121006836212762 0 0.34568218717301558 0.30950559368518898 0 0.35733458493141962 0.30984126580807309 0 0.35444825932224538 0.33307551293013199 0 0.33633100666355259 0.32877200148419861 0 0.34225084853753102 0.31657524327444098 0 0.36545813465675081 0.32121006836212762 0 0.3526740015490844 0.32057509411200602 0 0.35444825932224538 0.33307551293013199 0 0.3526740015490844 0.32057509411200602 0 0.34225084853753102 0.31657524327444098 0 0.34568218717301558 0.30950559368518898 0 0.34225084853753102 0.31657524327444098 0 0.34568218717301558 0.30950559368518898 0 0.36664567010696042 0.34957578258582261 0 0.35444825932224538 0.33307551293013199 0 0.3514883383852565 0.33917389203501069 0 0.35444825932224538 0.33307551293013199 0 0.3514883383852565 0.33917389203501069 0 0.33633100666355259 0.32877200148419861 0 0.3514883383852565 0.33917389203501069 0 0.33633100666355259 0.32877200148419861 0 0.34459536571489607 0.35057979472299539 0 0.3514883383852565 0.33917389203501069 0 0.34120476482720652 0.340744960382863 0 0.34120476482720652 0.340744960382863 0 0.33633100666355259 0.32877200148419861 0 0.33082031728458899 0.34012577534422977 0 0.3514883383852565 0.33917389203501069 0 0.34120476482720652 0.340744960382863 0 0.33633100666355259 0.32877200148419861 0 0.33633100666355259 0.32877200148419861 0 0.33082031728458899 0.34012577534422977 0 0.33633100666355259 0.32877200148419861 0 0.33060552978222379 0.31841359404764352 0 0.31901208891036997 0.31688669803932279 0 0.33909857960402162 0.31430861314578479 0 0.33696087055371698 0.31700999751504672 0 0.33683462619180371 0.31239263961056868 0 0.33909857960402162 0.31430861314578479 0 0.34225084853753102 0.31657524327444098 0 0.33696087055371698 0.31700999751504672 0 0.33909857960402162 0.31430861314578479 0 0.34017347423440392 0.31190268403712951 0 0.33683462619180371 0.31239263961056868 0 0.34225084853753102 0.31657524327444098 0 0.34017347423440392 0.31190268403712951 0 0.34568218717301558 0.30950559368518898 0 0.33909857960402162 0.31430861314578479 0 0.34225084853753102 0.31657524327444098 0 0.34017347423440392 0.31190268403712951 0 0.33633100666355259 0.32877200148419861 0 0.34225084853753102 0.31657524327444098 0 0.33633100666355259 0.32877200148419861 0 0.34225084853753102 0.31657524327444098 0 0.33696087055371698 0.31700999751504672 0 0.33633100666355259 0.32877200148419861 0 0.33696087055371698 0.31700999751504672 0 0.33060552978222379 0.31841359404764352 0 0.33696087055371698 0.31700999751504672 0 0.33060552978222379 0.31841359404764352 0 0.33081419997152089 0.3125663133332845 0 0.33696087055371698 0.31700999751504672 0 0.33081419997152089 0.3125663133332845 0 0.33683462619180371 0.31239263961056868 0 0.33633100666355259 0.32877200148419861 0 0.31901208891036997 0.31688669803932279 0 0.31621393277439591 0.32904084685953372 0 0.33633100666355259 0.32877200148419861 0 0.31901208891036997 0.31688669803932279 0 0.33060552978222379 0.31841359404764352 0 0.33081419997152089 0.3125663133332845 0 0.31901208891036997 0.31688669803932279 0 0.33081419997152089 0.3125663133332845 0 0.31901208891036997 0.31688669803932279 0 0.32560324832700088 0.30928723785036633 0 0.31901208891036997 0.31688669803932279 0 0.31621393277439591 0.32904084685953372 0 0.3088184588804489 0.31623795607664212 0 0.33633100666355259 0.32877200148419861 0 0.33082031728458899 0.34012577534422977 0 0.31621393277439591 0.32904084685953372 0 0.33082031728458899 0.34012577534422977 0 0.31621393277439591 0.32904084685953372 0 0.31396210154674398 0.34673139593193281 0 0.33082031728458899 0.34012577534422977 0 0.31621393277439591 0.32904084685953372 0 0.33082031728458899 0.34012577534422977 0 0.31396210154674398 0.34673139593193281 0 0.32127993168054891 0.3597820058513021 0 0.33082031728458899 0.34012577534422977 0 0.32127993168054891 0.3597820058513021 0 0.31396210154674398 0.34673139593193281 0 0.32127993168054891 0.3597820058513021 0 0.30721380414706562 0.35965676850280409 0 0.34459536571489607 0.35057979472299539 0 0.33082031728458899 0.34012577534422977 0 0.33602432548942063 0.35825224587168408 0 0.33082031728458899 0.34012577534422977 0 0.33602432548942063 0.35825224587168408 0 0.32127993168054891 0.3597820058513021 0 0.34459536571489607 0.35057979472299539 0 0.34622082159567108 0.36459641121726538 0 0.33602432548942063 0.35825224587168408 0 0.34459536571489607 0.35057979472299539 0 0.34120476482720652 0.340744960382863 0 0.33082031728458899 0.34012577534422977 0 0.34459536571489607 0.35057979472299539 0 0.33082031728458899 0.34012577534422977 0 0.33842019921257599 0.37643213739866949 0 0.34622082159567108 0.36459641121726538 0 0.33602432548942063 0.35825224587168408 0 0.33842019921257599 0.37643213739866949 0 0.33602432548942063 0.35825224587168408 0 0.32127993168054891 0.3597820058513021 0 0.33842019921257599 0.37643213739866949 0 0.32127993168054891 0.3597820058513021 0 0.31255172488981631 0.37395752487103517 0 0.32127993168054891 0.3597820058513021 0 0.31255172488981631 0.37395752487103517 0 0.30721380414706562 0.35965676850280409 0 0.31255172488981631 0.37395752487103517 0 0.30721380414706562 0.35965676850280409 0 0.29164765899074568 0.37255663778155401 0 0.31396210154674398 0.34673139593193281 0 0.30721380414706562 0.35965676850280409 0 0.29662760362747309 0.34525627807819631 0 0.30721380414706562 0.35965676850280409 0 0.29662760362747309 0.34525627807819631 0 0.29164765899074568 0.37255663778155401 0 0.29662760362747309 0.34525627807819631 0 0.27856833600623998 0.3628125607906616 0 0.27042473508260229 0.34539937640461987 0 0.29662760362747309 0.34525627807819631 0 0.29164765899074568 0.37255663778155401 0 0.29662760362747309 0.34525627807819631 0 0.29164765899074568 0.37255663778155401 0 0.27856833600623998 0.3628125607906616 0 0.28115478328610821 0.3771514915501995 0 0.29164765899074568 0.37255663778155401 0 0.27856833600623998 0.3628125607906616 0 0.28115478328610821 0.3771514915501995 0 0.26855685770354909 0.3741682996939919 0 0.27856833600623998 0.3628125607906616 0 0.26855685770354909 0.3741682996939919 0 0.27856833600623998 0.3628125607906616 0 0.26245683025672029 0.36194044532217751 0 0.27856833600623998 0.3628125607906616 0 0.27042473508260229 0.34539937640461987 0 0.26245683025672029 0.36194044532217751 0 0.27042473508260229 0.34539937640461987 0 0.25064727239517642 0.34654954873073862 0 0.26245683025672029 0.36194044532217751 0 0.24760467270676731 0.36223298937037912 0 0.25064727239517642 0.34654954873073862 0 0.26245683025672029 0.36194044532217751 0 0.24760467270676731 0.36223298937037912 0 0.25156559034844328 0.37889076564355278 0 0.26245683025672029 0.36194044532217751 0 0.25156559034844328 0.37889076564355278 0 0.26855685770354909 0.3741682996939919 0 0.26245683025672029 0.36194044532217751 0 0.2426406438223194 0.32734299413788043 0 0.26132218697085702 0.32885214107208532 0 0.25208636049982069 0.30943209974716263 0 0.26132218697085702 0.32885214107208532 0 0.27109694513823202 0.31262013557690649 0 0.25208636049982069 0.30943209974716263 0 0.27042473508260229 0.34539937640461987 0 0.25064727239517642 0.34654954873073862 0 0.26132218697085702 0.32885214107208532 0 0.2426406438223194 0.32734299413788043 0 0.25064727239517642 0.34654954873073862 0 0.26132218697085702 0.32885214107208532 0 0.27042473508260229 0.34539937640461987 0 0.26132218697085702 0.32885214107208532 0 0.28172891695550778 0.32826774690462329 0 0.26132218697085702 0.32885214107208532 0 0.27109694513823202 0.31262013557690649 0 0.28172891695550778 0.32826774690462329 0 0.27109694513823202 0.31262013557690649 0 0.28732274696696802 0.31642626220001169 0 0.28172891695550778 0.32826774690462329 0 0.28732274696696802 0.31642626220001169 0 0.28172891695550778 0.32826774690462329 0 0.30160754826420211 0.31795591837483872 0 0.29662760362747309 0.34525627807819631 0 0.27042473508260229 0.34539937640461987 0 0.28172891695550778 0.32826774690462329 0 0.29662760362747309 0.34525627807819631 0 0.28172891695550778 0.32826774690462329 0 0.30160754826420211 0.31795591837483872 0 0.31621393277439591 0.32904084685953372 0 0.31396210154674398 0.34673139593193281 0 0.29662760362747309 0.34525627807819631 0 0.29662760362747309 0.34525627807819631 0 0.30160754826420211 0.31795591837483872 0 0.31621393277439591 0.32904084685953372 0 0.29662760362747309 0.34525627807819631 0 0.30160754826420211 0.31795591837483872 0 0.31901208891036997 0.31688669803932279 0 0.3088184588804489 0.31623795607664212 0 0.3016931711571878 0.30500139459444631 0 0.30160754826420211 0.31795591837483872 0 0.3088184588804489 0.31623795607664212 0 0.30270558864714842 0.31193639414113322 0 0.30160754826420211 0.31795591837483872 0 0.30270558864714842 0.31193639414113322 0 0.31621393277439591 0.32904084685953372 0 0.30160754826420211 0.31795591837483872 0 0.31621393277439591 0.32904084685953372 0 0.30160754826420211 0.31795591837483872 0 0.3088184588804489 0.31623795607664212 0 0.31901208891036997 0.31688669803932279 0 0.3016931711571878 0.30500139459444631 0 0.31901208891036997 0.31688669803932279 0 0.3016931711571878 0.30500139459444631 0 0.31301830810002212 0.30491822586835299 0 0.30698082218778699 0.2983079323345636 0 0.3016931711571878 0.30500139459444631 0 0.31301830810002212 0.30491822586835299 0 0.30698082218778699 0.2983079323345636 0 0.31301830810002212 0.30491822586835299 0 0.31406041336605323 0.29886567628377692 0 0.30698082218778699 0.2983079323345636 0 0.3016931711571878 0.30500139459444631 0 0.29716398917646691 0.29386220611013369 0 0.3088184588804489 0.31623795607664212 0 0.3016931711571878 0.30500139459444631 0 0.30270558864714842 0.31193639414113322 0 0.30698082218778699 0.2983079323345636 0 0.3073942969167856 0.28771566729309678 0 0.31406041336605323 0.29886567628377692 0 0.3073942969167856 0.28771566729309678 0 0.29716398917646691 0.29386220611013369 0 0.29191393389411407 0.28614345739746883 0 0.30698082218778699 0.2983079323345636 0 0.3073942969167856 0.28771566729309678 0 0.29716398917646691 0.29386220611013369 0 0.3073942969167856 0.28771566729309678 0 0.29191393389411407 0.28614345739746883 0 0.29474532487731392 0.27658974380899082 0 0.29191393389411407 0.28614345739746883 0 0.28437425340400552 0.29311609114956982 0 0.27802500032839988 0.27725325221147279 0 0.29716398917646691 0.29386220611013369 0 0.29191393389411407 0.28614345739746883 0 0.28437425340400552 0.29311609114956982 0 0.3016931711571878 0.30500139459444631 0 0.28437425340400552 0.29311609114956982 0 0.28200574590966387 0.30307991828599451 0 0.3016931711571878 0.30500139459444631 0 0.28437425340400552 0.29311609114956982 0 0.30160754826420211 0.31795591837483872 0 0.30270558864714842 0.31193639414113322 0 0.28200574590966387 0.30307991828599451 0 0.3016931711571878 0.30500139459444631 0 0.30270558864714842 0.31193639414113322 0 0.28200574590966387 0.30307991828599451 0 0.28732274696696802 0.31642626220001169 0 0.30160754826420211 0.31795591837483872 0 0.28200574590966387 0.30307991828599451 0 0.3016931711571878 0.30500139459444631 0 0.29716398917646691 0.29386220611013369 0 0.28437425340400552 0.29311609114956982 0 0.30160754826420211 0.31795591837483872 0 0.28200574590966387 0.30307991828599451 0 0.27109694513823202 0.31262013557690649 0 0.28732274696696802 0.31642626220001169 0 0.28200574590966387 0.30307991828599451 0 0.27109694513823202 0.31262013557690649 0 0.28200574590966387 0.30307991828599451 0 0.26240394355512342 0.28820391819715308 0 0.28437425340400552 0.29311609114956982 0 0.26240394355512342 0.28820391819715308 0 0.27802500032839988 0.27725325221147279 0 0.28437425340400552 0.29311609114956982 0 0.28200574590966387 0.30307991828599451 0 0.26240394355512342 0.28820391819715308 0 0.28200574590966387 0.30307991828599451 0 0.26240394355512342 0.28820391819715308 0 0.2417236004856452 0.28815133642157881 0 0.26240394355512342 0.28820391819715308 0 0.25208636049982069 0.30943209974716263 0 0.2417236004856452 0.28815133642157881 0 0.26240394355512342 0.28820391819715308 0 0.25700292827476068 0.26946639172479941 0 0.27109694513823202 0.31262013557690649 0 0.26240394355512342 0.28820391819715308 0 0.25208636049982069 0.30943209974716263 0 0.26272059505331552 0.25415433454263281 0 0.25700292827476068 0.26946639172479941 0 0.27193607706702699 0.26241741391323758 0 0.2498169077616185 0.2567610006248765 0 0.26272059505331552 0.25415433454263281 0 0.25330967369459462 0.24464425994429659 0 0.2498169077616185 0.2567610006248765 0 0.26272059505331552 0.25415433454263281 0 0.25700292827476068 0.26946639172479941 0 0.26240394355512342 0.28820391819715308 0 0.25700292827476068 0.26946639172479941 0 0.27802500032839988 0.27725325221147279 0 0.25700292827476068 0.26946639172479941 0 0.27802500032839988 0.27725325221147279 0 0.27193607706702699 0.26241741391323758 0 0.27802500032839988 0.27725325221147279 0 0.27193607706702699 0.26241741391323758 0 0.28556821896690709 0.26452230970922269 0 0.27193607706702699 0.26241741391323758 0 0.28556821896690709 0.26452230970922269 0 0.27889214637354459 0.24811480575974629 0 0.26272059505331552 0.25415433454263281 0 0.27193607706702699 0.26241741391323758 0 0.27889214637354459 0.24811480575974629 0 0.28556821896690709 0.26452230970922269 0 0.29230539062393113 0.25211069622483201 0 0.27889214637354459 0.24811480575974629 0 0.28556821896690709 0.26452230970922269 0 0.29230539062393113 0.25211069622483201 0 0.29827750353641852 0.26261388119880408 0 0.27802500032839988 0.27725325221147279 0 0.28556821896690709 0.26452230970922269 0 0.29474532487731392 0.27658974380899082 0 0.29191393389411407 0.28614345739746883 0 0.27802500032839988 0.27725325221147279 0 0.29474532487731392 0.27658974380899082 0 0.28556821896690709 0.26452230970922269 0 0.29474532487731392 0.27658974380899082 0 0.29827750353641852 0.26261388119880408 0 0.3073942969167856 0.28771566729309678 0 0.29474532487731392 0.27658974380899082 0 0.31287738932824932 0.2703595473099118 0 0.29474532487731392 0.27658974380899082 0 0.29827750353641852 0.26261388119880408 0 0.31287738932824932 0.2703595473099118 0 0.31287738932824932 0.2703595473099118 0 0.30359849104984371 0.24235528973672671 0 0.31841864486346638 0.24792162156080891 0 0.29230539062393113 0.25211069622483201 0 0.29827750353641852 0.26261388119880408 0 0.30359849104984371 0.24235528973672671 0 0.29827750353641852 0.26261388119880408 0 0.31287738932824932 0.2703595473099118 0 0.30359849104984371 0.24235528973672671 0 0.31287738932824932 0.2703595473099118 0 0.30359849104984371 0.24235528973672671 0 0.33338070527004737 0.26646184033987502 0 0.31287738932824932 0.2703595473099118 0 0.31841864486346638 0.24792162156080891 0 0.34382687823700492 0.25366359617077439 0 0.31841864486346638 0.24792162156080891 0 0.33338070527004737 0.26646184033987502 0 0.34382687823700492 0.25366359617077439 0 0.31841864486346638 0.24792162156080891 0 0.33338070527004737 0.26646184033987502 0 0.34382687823700492 0.25366359617077439 0 0.34863723543240033 0.26915327591184118 0 0.34332197672421472 0.27801246655867667 0 0.33338070527004737 0.26646184033987502 0 0.33350778201950609 0.28083208387246239 0 0.34332197672421472 0.27801246655867667 0 0.33338070527004737 0.26646184033987502 0 0.34863723543240033 0.26915327591184118 0 0.33350778201950609 0.28083208387246239 0 0.31287738932824932 0.2703595473099118 0 0.32856748906528571 0.28968934725970907 0 0.33338070527004737 0.26646184033987502 0 0.33350778201950609 0.28083208387246239 0 0.31287738932824932 0.2703595473099118 0 0.3073942969167856 0.28771566729309678 0 0.31287738932824932 0.2703595473099118 0 0.32215628760665488 0.29836380488309688 0 0.31287738932824932 0.2703595473099118 0 0.32215628760665488 0.29836380488309688 0 0.31287738932824932 0.2703595473099118 0 0.32215628760665488 0.29836380488309688 0 0.32856748906528571 0.28968934725970907 0 0.3073942969167856 0.28771566729309678 0 0.31406041336605323 0.29886567628377692 0 0.32215628760665488 0.29836380488309688 0 0.32215628760665488 0.29836380488309688 0 0.33016202930519323 0.30031992534260538 0 0.32856748906528571 0.28968934725970907 0 0.31901208891036997 0.31688669803932279 0 0.31301830810002212 0.30491822586835299 0 0.32075235201901647 0.30502275103977378 0 0.31406041336605323 0.29886567628377692 0 0.32215628760665488 0.29836380488309688 0 0.32075235201901647 0.30502275103977378 0 0.31301830810002212 0.30491822586835299 0 0.31406041336605323 0.29886567628377692 0 0.32075235201901647 0.30502275103977378 0 0.32215628760665488 0.29836380488309688 0 0.32075235201901647 0.30502275103977378 0 0.33016202930519323 0.30031992534260538 0 0.32075235201901647 0.30502275103977378 0 0.33047197770824338 0.30611994353629751 0 0.33016202930519323 0.30031992534260538 0 0.31901208891036997 0.31688669803932279 0 0.32075235201901647 0.30502275103977378 0 0.32560324832700088 0.30928723785036633 0 0.32075235201901647 0.30502275103977378 0 0.32560324832700088 0.30928723785036633 0 0.33047197770824338 0.30611994353629751 0 0.33579181368901168 0.30860514466836131 0 0.33047197770824338 0.30611994353629751 0 0.33016202930519323 0.30031992534260538 0 0.33081419997152089 0.3125663133332845 0 0.33579181368901168 0.30860514466836131 0 0.33047197770824338 0.30611994353629751 0 0.33081419997152089 0.3125663133332845 0 0.33579181368901168 0.30860514466836131 0 0.33683462619180371 0.31239263961056868 0 0.33081419997152089 0.3125663133332845 0 0.32560324832700088 0.30928723785036633 0 0.33047197770824338 0.30611994353629751 0 0.33016202930519323 0.30031992534260538 0 0.33696978968083219 0.29725524985876589 0 0.34568218717301558 0.30950559368518898 0 0.33696978968083219 0.29725524985876589 0 0.34343713935598719 0.29603825528447519 0 0.34568218717301558 0.30950559368518898 0 0.33579181368901168 0.30860514466836131 0 0.34017347423440392 0.31190268403712951 0 0.34568218717301558 0.30950559368518898 0 0.33579181368901168 0.30860514466836131 0 0.33016202930519323 0.30031992534260538 0 0.34568218717301558 0.30950559368518898 0 0.33016202930519323 0.30031992534260538 0 0.34568218717301558 0.30950559368518898 0 0.33579181368901168 0.30860514466836131 0 0.34017347423440392 0.31190268403712951 0 0.33683462619180371 0.31239263961056868 0 0.33350778201950609 0.28083208387246239 0 0.32856748906528571 0.28968934725970907 0 0.33700010350467929 0.29072312772185049 0 0.33696978968083219 0.29725524985876589 0 0.32856748906528571 0.28968934725970907 0 0.33700010350467929 0.29072312772185049 0 0.33016202930519323 0.30031992534260538 0 0.33696978968083219 0.29725524985876589 0 0.32856748906528571 0.28968934725970907 0 0.33700010350467929 0.29072312772185049 0 0.34343713935598719 0.29603825528447519 0 0.34430552381965612 0.28744014176740468 0 0.33696978968083219 0.29725524985876589 0 0.33700010350467929 0.29072312772185049 0 0.34343713935598719 0.29603825528447519 0 0.34332197672421472 0.27801246655867667 0 0.33350778201950609 0.28083208387246239 0 0.34430552381965612 0.28744014176740468 0 0.33350778201950609 0.28083208387246239 0 0.33700010350467929 0.29072312772185049 0 0.34430552381965612 0.28744014176740468 0 0.35352022326879029 0.29335674492628327 0 0.36135825936456473 0.27720789616737751 0 0.35352022326879029 0.29335674492628327 0 0.35344759262779352 0.28464295565290881 0 0.36135825936456473 0.27720789616737751 0 0.34430552381965612 0.28744014176740468 0 0.35352022326879029 0.29335674492628327 0 0.35344759262779352 0.28464295565290881 0 0.34332197672421472 0.27801246655867667 0 0.34430552381965612 0.28744014176740468 0 0.35344759262779352 0.28464295565290881 0 0.34343713935598719 0.29603825528447519 0 0.34430552381965612 0.28744014176740468 0 0.35352022326879029 0.29335674492628327 0 0.35352022326879029 0.29335674492628327 0 0.34568218717301558 0.30950559368518898 0 0.35352022326879029 0.29335674492628327 0 0.34568218717301558 0.30950559368518898 0 0.35514083321899681 0.30198830063428012 0 0.34343713935598719 0.29603825528447519 0 0.35352022326879029 0.29335674492628327 0 0.34568218717301558 0.30950559368518898 0 0.35352022326879029 0.29335674492628327 0 0.35514083321899681 0.30198830063428012 0 0.36195317253204018 0.29780163432255141 0 0.34568218717301558 0.30950559368518898 0 0.35514083321899681 0.30198830063428012 0 0.35733458493141962 0.30984126580807309 0 0.35514083321899681 0.30198830063428012 0 0.35733458493141962 0.30984126580807309 0 0.36305718467691528 0.30666110055069562 0 0.36305718467691528 0.30666110055069562 0 0.36195317253204018 0.29780163432255141 0 0.37371371942476278 0.30118678036688318 0 0.35514083321899681 0.30198830063428012 0 0.36305718467691528 0.30666110055069562 0 0.36195317253204018 0.29780163432255141 0 0.36305718467691528 0.30666110055069562 0 0.37371371942476278 0.30118678036688318 0 0.37037531897166531 0.31069891070043321 0 0.35352022326879029 0.29335674492628327 0 0.36678832337421391 0.2896910772473662 0 0.36135825936456473 0.27720789616737751 0 0.35352022326879029 0.29335674492628327 0 0.36195317253204018 0.29780163432255141 0 0.36678832337421391 0.2896910772473662 0 0.36195317253204018 0.29780163432255141 0 0.37371371942476278 0.30118678036688318 0 0.36678832337421391 0.2896910772473662 0 0.37371371942476278 0.30118678036688318 0 0.36678832337421391 0.2896910772473662 0 0.37823952315864767 0.28991388237668109 0 0.36678832337421391 0.2896910772473662 0 0.36135825936456473 0.27720789616737751 0 0.37593253452791597 0.27847926729816458 0 0.36678832337421391 0.2896910772473662 0 0.37593253452791597 0.27847926729816458 0 0.37823952315864767 0.28991388237668109 0 0.36135825936456473 0.27720789616737751 0 0.37116635397794578 0.26917948567102928 0 0.37593253452791597 0.27847926729816458 0 0.36135825936456473 0.27720789616737751 0 0.37116635397794578 0.26917948567102928 0 0.36466296129523779 0.25837231629832791 0 0.37116635397794578 0.26917948567102928 0 0.36466296129523779 0.25837231629832791 0 0.38549904435347071 0.26308103642588132 0 0.36466296129523779 0.25837231629832791 0 0.34382687823700492 0.25366359617077439 0 0.36466296129523779 0.25837231629832791 0 0.34382687823700492 0.25366359617077439 0 0.35805444133798131 0.23916082611570549 0 0.36466296129523779 0.25837231629832791 0 0.34382687823700492 0.25366359617077439 0 0.34863723543240033 0.26915327591184118 0 0.34382687823700492 0.25366359617077439 0 0.34863723543240033 0.26915327591184118 0 0.36135825936456473 0.27720789616737751 0 0.36466296129523779 0.25837231629832791 0 0.34863723543240033 0.26915327591184118 0 0.35344759262779352 0.28464295565290881 0 0.34863723543240033 0.26915327591184118 0 0.34332197672421472 0.27801246655867667 0 0.35344759262779352 0.28464295565290881 0 0.34863723543240033 0.26915327591184118 0 0.35344759262779352 0.28464295565290881 0 0.36135825936456473 0.27720789616737751 0 0.34863723543240033 0.26915327591184118 0 0.39826526426375142 0.27531139250368131 0 0.40519193428938372 0.26753140778175122 0 0.38549904435347071 0.26308103642588132 0 0.39826526426375142 0.27531139250368131 0 0.38549904435347071 0.26308103642588132 0 0.39036319390396118 0.28088383608733108 0 0.39826526426375142 0.27531139250368131 0 0.39036319390396118 0.28088383608733108 0 0.40147097097432438 0.28569848077632432 0 0.39826526426375142 0.27531139250368131 0 0.40519193428938372 0.26753140778175122 0 0.40880117779761688 0.27936220144711837 0 0.39826526426375142 0.27531139250368131 0 0.40147097097432438 0.28569848077632432 0 0.40880117779761688 0.27936220144711837 0 0.39961422368721461 0.25504884523086307 0 0.38549904435347071 0.26308103642588132 0 0.39116481085226162 0.24486815483127761 0 0.40519193428938372 0.26753140778175122 0 0.38549904435347071 0.26308103642588132 0 0.40519193428938372 0.26753140778175122 0 0.39961422368721461 0.25504884523086307 0 0.38549904435347071 0.26308103642588132 0 0.39961422368721461 0.25504884523086307 0 0.41397834584231102 0.25681423376881951 0 0.40307186745932611 0.24164668840001571 0 0.36466296129523779 0.25837231629832791 0 0.38549904435347071 0.26308103642588132 0 0.36466296129523779 0.25837231629832791 0 0.38549904435347071 0.26308103642588132 0 0.37815314678861961 0.2361950327528887 0 0.38549904435347071 0.26308103642588132 0 0.39036319390396118 0.28088383608733108 0 0.37116635397794578 0.26917948567102928 0 0.38549904435347071 0.26308103642588132 0 0.37593253452791597 0.27847926729816458 0 0.38549904435347071 0.26308103642588132 0 0.39036319390396118 0.28088383608733108 0 0.37593253452791597 0.27847926729816458 0 0.39036319390396118 0.28088383608733108 0 0.37823952315864767 0.28991388237668109 0 0.38425262571988889 0.29857719065072758 0 0.39036319390396118 0.28088383608733108 0 0.37593253452791597 0.27847926729816458 0 0.37823952315864767 0.28991388237668109 0 0.39036319390396118 0.28088383608733108 0 0.38425262571988889 0.29857719065072758 0 0.39522734345445382 0.29868663574878029 0 0.37371371942476278 0.30118678036688318 0 0.37823952315864767 0.28991388237668109 0 0.38425262571988889 0.29857719065072758 0 0.37371371942476278 0.30118678036688318 0 0.37037531897166531 0.31069891070043321 0 0.38162766334343901 0.31154091328445122 0 0.37371371942476278 0.30118678036688318 0 0.38162766334343901 0.31154091328445122 0 0.38425262571988889 0.29857719065072758 0 0.38162766334343901 0.31154091328445122 0 0.38425262571988889 0.29857719065072758 0 0.39522734345445382 0.29868663574878029 0 0.38162766334343901 0.31154091328445122 0 0.39522734345445382 0.29868663574878029 0 0.39512059533734428 0.31549681214274089 0 0.39522734345445382 0.29868663574878029 0 0.40435819158071779 0.30684858181294988 0 0.39512059533734428 0.31549681214274089 0 0.39522734345445382 0.29868663574878029 0 0.40575382751835581 0.29315731625591912 0 0.4069376581743549 0.29961231736441057 0 0.39522734345445382 0.29868663574878029 0 0.40435819158071779 0.30684858181294988 0 0.4069376581743549 0.29961231736441057 0 0.39036319390396118 0.28088383608733108 0 0.39522734345445382 0.29868663574878029 0 0.40147097097432438 0.28569848077632432 0 0.39036319390396118 0.28088383608733108 0 0.39522734345445382 0.29868663574878029 0 0.39522734345445382 0.29868663574878029 0 0.40575382751835581 0.29315731625591912 0 0.40147097097432438 0.28569848077632432 0 0.40575382751835581 0.29315731625591912 0 0.40147097097432438 0.28569848077632432 0 0.41022674122736741 0.28714255580328468 0 0.41022674122736741 0.28714255580328468 0 0.41846517594878002 0.28758139729751608 0 0.40880117779761688 0.27936220144711837 0 0.40147097097432438 0.28569848077632432 0 0.41022674122736741 0.28714255580328468 0 0.40880117779761688 0.27936220144711837 0 0.40575382751835581 0.29315731625591912 0 0.41022674122736741 0.28714255580328468 0 0.41214123447383899 0.29304788372113361 0 0.40575382751835581 0.29315731625591912 0 0.41214123447383899 0.29304788372113361 0 0.4069376581743549 0.29961231736441057 0 0.41022674122736741 0.28714255580328468 0 0.41214123447383899 0.29304788372113361 0 0.41452285689095653 0.28918343420339282 0 0.41214123447383899 0.29304788372113361 0 0.41846517594878002 0.28758139729751608 0 0.41387163546797517 0.29915131761412828 0 0.41214123447383899 0.29304788372113361 0 0.41452285689095653 0.28918343420339282 0 0.41846517594878002 0.28758139729751608 0 0.41022674122736741 0.28714255580328468 0 0.41452285689095653 0.28918343420339282 0 0.41846517594878002 0.28758139729751608 0 0.40435819158071779 0.30684858181294988 0 0.42066466591091017 0.30755569824776863 0 0.41387163546797517 0.29915131761412828 0 0.41846517594878002 0.28758139729751608 0 0.42066466591091017 0.30755569824776863 0 0.41387163546797517 0.29915131761412828 0 0.41846517594878002 0.28758139729751608 0 0.42066466591091017 0.30755569824776863 0 0.40435819158071779 0.30684858181294988 0 0.4069376581743549 0.29961231736441057 0 0.41387163546797517 0.29915131761412828 0 0.41214123447383899 0.29304788372113361 0 0.4069376581743549 0.29961231736441057 0 0.41387163546797517 0.29915131761412828 0 0.41846517594878002 0.28758139729751608 0 0.42066466591091017 0.30755569824776863 0 0.42959106245679052 0.29878591055785397 0 0.42066466591091017 0.30755569824776863 0 0.42959106245679052 0.29878591055785397 0 0.43684692280088178 0.31432230815606849 0 0.42959106245679052 0.29878591055785397 0 0.44355740545584932 0.2979495767182736 0 0.43684692280088178 0.31432230815606849 0 0.42993902303643139 0.29020725334454472 0 0.42814244828430559 0.27651212880453457 0 0.44355740545584932 0.2979495767182736 0 0.42814244828430559 0.27651212880453457 0 0.44355740545584932 0.2979495767182736 0 0.41846517594878002 0.28758139729751608 0 0.42814244828430559 0.27651212880453457 0 0.41846517594878002 0.28758139729751608 0 0.42993902303643139 0.29020725334454472 0 0.42814244828430559 0.27651212880453457 0 0.41846517594878002 0.28758139729751608 0 0.42959106245679052 0.29878591055785397 0 0.42993902303643139 0.29020725334454472 0 0.42959106245679052 0.29878591055785397 0 0.42993902303643139 0.29020725334454472 0 0.44355740545584932 0.2979495767182736 0 0.4309122531914491 0.27334391020664139 0 0.42814244828430559 0.27651212880453457 0 0.44237588972945951 0.28309317948643842 0 0.4309122531914491 0.27334391020664139 0 0.42488482422529639 0.27198177913762278 0 0.4308863835490086 0.25944163347710658 0 0.4309122531914491 0.27334391020664139 0 0.42488482422529639 0.27198177913762278 0 0.42488482422529639 0.27198177913762278 0 0.42814244828430559 0.27651212880453457 0 0.41677054875167269 0.27219192327567121 0 0.42488482422529639 0.27198177913762278 0 0.42814244828430559 0.27651212880453457 0 0.4309122531914491 0.27334391020664139 0 0.42488482422529639 0.27198177913762278 0 0.42814244828430559 0.27651212880453457 0 0.4309122531914491 0.27334391020664139 0 0.42814244828430559 0.27651212880453457 0 0.41846517594878002 0.28758139729751608 0 0.41677054875167269 0.27219192327567121 0 0.40880117779761688 0.27936220144711837 0 0.40519193428938372 0.26753140778175122 0 0.42488482422529639 0.27198177913762278 0 0.41846517594878002 0.28758139729751608 0 0.41677054875167269 0.27219192327567121 0 0.40519193428938372 0.26753140778175122 0 0.42488482422529639 0.27198177913762278 0 0.41677054875167269 0.27219192327567121 0 0.41846517594878002 0.28758139729751608 0 0.42814244828430559 0.27651212880453457 0 0.41677054875167269 0.27219192327567121 0 0.40519193428938372 0.26753140778175122 0 0.41677054875167269 0.27219192327567121 0 0.40880117779761688 0.27936220144711837 0 0.40519193428938372 0.26753140778175122 0 0.42488482422529639 0.27198177913762278 0 0.41397834584231102 0.25681423376881951 0 0.40519193428938372 0.26753140778175122 0 0.39961422368721461 0.25504884523086307 0 0.41397834584231102 0.25681423376881951 0 0.42488482422529639 0.27198177913762278 0 0.41397834584231102 0.25681423376881951 0 0.4309122531914491 0.27334391020664139 0 0.4308863835490086 0.25944163347710658 0 0.44495931258128413 0.25727629667548702 0 0.41397834584231102 0.25681423376881951 0 0.4308863835490086 0.25944163347710658 0 0.42496870083025928 0.24686168917106019 0 0.42488482422529639 0.27198177913762278 0 0.41397834584231102 0.25681423376881951 0 0.4308863835490086 0.25944163347710658 0 0.4308863835490086 0.25944163347710658 0 0.42496870083025928 0.24686168917106019 0 0.43837580178273289 0.24680007367012541 0 0.4309122531914491 0.27334391020664139 0 0.44495931258128413 0.25727629667548702 0 0.4308863835490086 0.25944163347710658 0 0.44495931258128413 0.25727629667548702 0 0.43837580178273289 0.24680007367012541 0 0.44495931258128413 0.25727629667548702 0 0.44737338517546887 0.26898295358922358 0 0.45686443189494502 0.26612695281798732 0 0.4309122531914491 0.27334391020664139 0 0.45675754303419958 0.27918465465678072 0 0.4309122531914491 0.27334391020664139 0 0.44495931258128413 0.25727629667548702 0 0.44737338517546887 0.26898295358922358 0 0.4309122531914491 0.27334391020664139 0 0.44737338517546887 0.26898295358922358 0 0.45675754303419958 0.27918465465678072 0 0.4309122531914491 0.27334391020664139 0 0.45675754303419958 0.27918465465678072 0 0.44237588972945951 0.28309317948643842 0 0.45686443189494502 0.26612695281798732 0 0.46819191412942962 0.25963055775866262 0 0.4741215185531451 0.28177671001353882 0 0.45675754303419958 0.27918465465678072 0 0.45686443189494502 0.26612695281798732 0 0.4741215185531451 0.28177671001353882 0 0.44737338517546887 0.26898295358922358 0 0.45675754303419958 0.27918465465678072 0 0.45686443189494502 0.26612695281798732 0 0.44495931258128413 0.25727629667548702 0 0.45852910184224138 0.25462015848999148 0 0.4590063719711216 0.24120868314433469 0 0.44495931258128413 0.25727629667548702 0 0.45686443189494502 0.26612695281798732 0 0.45852910184224138 0.25462015848999148 0 0.45686443189494502 0.26612695281798732 0 0.45852910184224138 0.25462015848999148 0 0.46819191412942962 0.25963055775866262 0 0.45852910184224138 0.25462015848999148 0 0.46819191412942962 0.25963055775866262 0 0.4636234786344271 0.248858302053486 0 0.46819191412942962 0.25963055775866262 0 0.48480915465651769 0.26160644518178522 0 0.48173234060001391 0.24202447164634611 0 0.46819191412942962 0.25963055775866262 0 0.48480915465651769 0.26160644518178522 0 0.4741215185531451 0.28177671001353882 0 0.46819191412942962 0.25963055775866262 0 0.4741215185531451 0.28177671001353882 0 0.50000000000000044 0.27445278127299061 0 0.48480915465651769 0.26160644518178522 0 0.4741215185531451 0.28177671001353882 0 0.50000000000000044 0.27445278127299061 0 0.4741215185531451 0.28177671001353882 0 0.50000000000000044 0.27445278127299061 0 0.5 0.25014770521738799 0 0.48480915465651769 0.26160644518178522 0 0.5 0.25014770521738799 0 0.48480915465651769 0.26160644518178522 0 0.48173234060001391 0.24202447164634611 0 0.5 0.30044679143159381 0 0.48839006755769132 0.28957800830580088 0 0.47943875167761951 0.30163575050508018 0 0.5 0.30044679143159381 0 0.47943875167761951 0.30163575050508018 0 0.48475598480209642 0.32149479099662093 0 0.50000000000000044 0.27445278127299061 0 0.5 0.30044679143159381 0 0.48839006755769132 0.28957800830580088 0 0.50000000000000044 0.27445278127299061 0 0.48839006755769132 0.28957800830580088 0 0.4741215185531451 0.28177671001353882 0 0.4741215185531451 0.28177671001353882 0 0.47943875167761951 0.30163575050508018 0 0.46743458931244858 0.29268242657516769 0 0.4741215185531451 0.28177671001353882 0 0.47943875167761951 0.30163575050508018 0 0.48839006755769132 0.28957800830580088 0 0.4741215185531451 0.28177671001353882 0 0.47943875167761951 0.30163575050508018 0 0.47943875167761951 0.30163575050508018 0 0.48475598480209642 0.32149479099662093 0 0.47943875167761951 0.30163575050508018 0 0.4593335680805401 0.30065093224644912 0 0.46743458931244858 0.29268242657516769 0 0.4593335680805401 0.30065093224644912 0 0.44355740545584932 0.2979495767182736 0 0.45897236262739333 0.31938702463201241 0 0.47943875167761951 0.30163575050508018 0 0.4593335680805401 0.30065093224644912 0 0.45897236262739333 0.31938702463201241 0 0.4741215185531451 0.28177671001353882 0 0.45684451893849209 0.28666631353560218 0 0.45675754303419958 0.27918465465678072 0 0.4741215185531451 0.28177671001353882 0 0.45684451893849209 0.28666631353560218 0 0.4741215185531451 0.28177671001353882 0 0.46743458931244858 0.29268242657516769 0 0.45684451893849209 0.28666631353560218 0 0.4593335680805401 0.30065093224644912 0 0.46743458931244858 0.29268242657516769 0 0.45684451893849209 0.28666631353560218 0 0.4593335680805401 0.30065093224644912 0 0.45684451893849209 0.28666631353560218 0 0.44997838065772189 0.29147373628050538 0 0.45675754303419958 0.27918465465678072 0 0.45684451893849209 0.28666631353560218 0 0.45142495662009519 0.28517198047291947 0 0.4593335680805401 0.30065093224644912 0 0.44997838065772189 0.29147373628050538 0 0.44355740545584932 0.2979495767182736 0 0.42814244828430559 0.27651212880453457 0 0.44237588972945951 0.28309317948643842 0 0.44355740545584932 0.2979495767182736 0 0.45142495662009519 0.28517198047291947 0 0.44997838065772189 0.29147373628050538 0 0.44237588972945951 0.28309317948643842 0 0.45675754303419958 0.27918465465678072 0 0.45142495662009519 0.28517198047291947 0 0.44237588972945951 0.28309317948643842 0 0.45684451893849209 0.28666631353560218 0 0.45142495662009519 0.28517198047291947 0 0.44997838065772189 0.29147373628050538 0 0.44997838065772189 0.29147373628050538 0 0.44237588972945951 0.28309317948643842 0 0.44355740545584932 0.2979495767182736 0 0.44355740545584932 0.2979495767182736 0 0.45897236262739333 0.31938702463201241 0 0.43684692280088178 0.31432230815606849 0 0.44355740545584932 0.2979495767182736 0 0.45897236262739333 0.31938702463201241 0 0.441287273824293 0.32851947151086691 0 0.45897236262739333 0.31938702463201241 0 0.43684692280088178 0.31432230815606849 0 0.441287273824293 0.32851947151086691 0 0.45270995462532421 0.33640894693137302 0 0.45897236262739333 0.31938702463201241 0 0.45270995462532421 0.33640894693137302 0 0.44311022260466421 0.35015607530347381 0 0.43298718923885232 0.33884303725074721 0 0.441287273824293 0.32851947151086691 0 0.45270995462532421 0.33640894693137302 0 0.43298718923885232 0.33884303725074721 0 0.45897236262739333 0.31938702463201241 0 0.474387319798937 0.34082447254575121 0 0.45270995462532421 0.33640894693137302 0 0.45897236262739333 0.31938702463201241 0 0.474387319798937 0.34082447254575121 0 0.45270995462532421 0.33640894693137302 0 0.474387319798937 0.34082447254575121 0 0.46659172026561968 0.34575495339581802 0 0.45897236262739333 0.31938702463201241 0 0.474387319798937 0.34082447254575121 0 0.48475598480209642 0.32149479099662093 0 0.47943875167761951 0.30163575050508018 0 0.45897236262739333 0.31938702463201241 0 0.48475598480209642 0.32149479099662093 0 0.474387319798937 0.34082447254575121 0 0.49007321792657499 0.34135383148816112 0 0.46659172026561968 0.34575495339581802 0 0.49007321792657499 0.34135383148816112 0 0.46659172026561968 0.34575495339581802 0 0.474387319798937 0.34082447254575121 0 0.49007321792657499 0.34135383148816112 0 0.48475598480209642 0.32149479099662093 0 0.49007321792657499 0.34135383148816112 0 0.48475598480209642 0.32149479099662093 0 0.49579975121510639 0.34028051106052098 0 0.5 0.32644080159019689 0 0.5 0.3524348117488002 0 0.49007321792657499 0.34135383148816112 0 0.48475598480209642 0.32149479099662093 0 0.5 0.32644080159019689 0 0.49007321792657499 0.34135383148816112 0 0.49579975121510639 0.34028051106052098 0 0.5 0.32644080159019689 0 0.49007321792657499 0.34135383148816112 0 0.49579975121510639 0.34028051106052098 0 0.5 0.30044679143159381 0 0.48475598480209642 0.32149479099662093 0 0.5 0.32644080159019689 0 0.49774736403160069 0.37001557617191011 0 0.5 0.3524348117488002 0 0.49999999999999922 0.37842882190740351 0 0.49007321792657499 0.34135383148816112 0 0.49774736403160069 0.37001557617191011 0 0.4790754544806643 0.370213071766955 0 0.49774736403160069 0.37001557617191011 0 0.49999999999999922 0.37842882190740351 0 0.49007321792657499 0.34135383148816112 0 0.49774736403160069 0.37001557617191011 0 0.5 0.3524348117488002 0 0.49007321792657499 0.34135383148816112 0 0.49774736403160069 0.37001557617191011 0 0.49007321792657499 0.34135383148816112 0 0.49579975121510639 0.34028051106052098 0 0.5 0.3524348117488002 0 0.49007321792657499 0.34135383148816112 0 0.4790754544806643 0.370213071766955 0 0.46659172026561968 0.34575495339581802 0 0.4790754544806643 0.370213071766955 0 0.46041625459185392 0.36949650334887602 0 0.46659172026561968 0.34575495339581802 0 0.46041625459185392 0.36949650334887602 0 0.46659172026561968 0.34575495339581802 0 0.44311022260466421 0.35015607530347381 0 0.46659172026561968 0.34575495339581802 0 0.44311022260466421 0.35015607530347381 0 0.45270995462532421 0.33640894693137302 0 0.46659172026561968 0.34575495339581802 0 0.44311022260466421 0.35015607530347381 0 0.44311022260466421 0.35015607530347381 0 0.44553079787280547 0.36660560671099041 0 0.43539985895938049 0.36089406365331539 0 0.44311022260466421 0.35015607530347381 0 0.43298718923885232 0.33884303725074721 0 0.46041625459185392 0.36949650334887602 0 0.44311022260466421 0.35015607530347381 0 0.46041625459185392 0.36949650334887602 0 0.44311022260466421 0.35015607530347381 0 0.44553079787280547 0.36660560671099041 0 0.46041625459185392 0.36949650334887602 0 0.44553079787280547 0.36660560671099041 0 0.45320419620829677 0.38206702179637309 0 0.44553079787280547 0.36660560671099041 0 0.43806043229102692 0.37086454850370121 0 0.45320419620829677 0.38206702179637309 0 0.44553079787280547 0.36660560671099041 0 0.43806043229102692 0.37086454850370121 0 0.43539985895938049 0.36089406365331539 0 0.42748120257709848 0.36945893815936259 0 0.41815281613889721 0.36481048072180122 0 0.42571467485899278 0.35341651155778048 0 0.43806043229102692 0.37086454850370121 0 0.42748120257709848 0.36945893815936259 0 0.42868610583755329 0.37529711219846418 0 0.42748120257709848 0.36945893815936259 0 0.42571467485899278 0.35341651155778048 0 0.43539985895938049 0.36089406365331539 0 0.42748120257709848 0.36945893815936259 0 0.42571467485899278 0.35341651155778048 0 0.43806043229102692 0.37086454850370121 0 0.43539985895938049 0.36089406365331539 0 0.42748120257709848 0.36945893815936259 0 0.42748120257709848 0.36945893815936259 0 0.41815281613889721 0.36481048072180122 0 0.42868610583755329 0.37529711219846418 0 0.40416801546680992 0.36852720260055533 0 0.41240990735164801 0.37779841218934618 0 0.42868610583755329 0.37529711219846418 0 0.40416801546680992 0.36852720260055533 0 0.42868610583755329 0.37529711219846418 0 0.41815281613889721 0.36481048072180122 0 0.40416801546680992 0.36852720260055533 0 0.42868610583755329 0.37529711219846418 0 0.41815281613889721 0.36481048072180122 0 0.40416801546680992 0.36852720260055533 0 0.40471408195403158 0.3573526390928437 0 0.42571467485899278 0.35341651155778048 0 0.40471408195403158 0.3573526390928437 0 0.41815281613889721 0.36481048072180122 0 0.42571467485899278 0.35341651155778048 0 0.40471408195403158 0.3573526390928437 0 0.42571467485899278 0.35341651155778048 0 0.40471408195403158 0.3573526390928437 0 0.40501002962422322 0.34461901771600179 0 0.42571467485899278 0.35341651155778048 0 0.414447140581086 0.33791867204476561 0 0.40501002962422322 0.34461901771600179 0 0.44311022260466421 0.35015607530347381 0 0.42571467485899278 0.35341651155778048 0 0.44311022260466421 0.35015607530347381 0 0.43539985895938049 0.36089406365331539 0 0.42571467485899278 0.35341651155778048 0 0.44311022260466421 0.35015607530347381 0 0.42571467485899278 0.35341651155778048 0 0.43298718923885232 0.33884303725074721 0 0.441287273824293 0.32851947151086691 0 0.43298718923885232 0.33884303725074721 0 0.42286415587303933 0.32752999919802139 0 0.42571467485899278 0.35341651155778048 0 0.42286415587303933 0.32752999919802139 0 0.42571467485899278 0.35341651155778048 0 0.43298718923885232 0.33884303725074721 0 0.42286415587303933 0.32752999919802139 0 0.43298718923885232 0.33884303725074721 0 0.42286415587303933 0.32752999919802139 0 0.42066466591091017 0.30755569824776863 0 0.43684692280088178 0.31432230815606849 0 0.42286415587303933 0.32752999919802139 0 0.441287273824293 0.32851947151086691 0 0.43684692280088178 0.31432230815606849 0 0.42286415587303933 0.32752999919802139 0 0.40435819158071779 0.30684858181294988 0 0.42286415587303933 0.32752999919802139 0 0.42066466591091017 0.30755569824776863 0 0.42286415587303933 0.32752999919802139 0 0.40435819158071779 0.30684858181294988 0 0.42286415587303933 0.32752999919802139 0 0.40419970196808802 0.32610915970725868 0 0.40435819158071779 0.30684858181294988 0 0.42066466591091017 0.30755569824776863 0 0.42286415587303933 0.32752999919802139 0 0.42571467485899278 0.35341651155778048 0 0.42286415587303933 0.32752999919802139 0 0.414447140581086 0.33791867204476561 0 0.42286415587303933 0.32752999919802139 0 0.414447140581086 0.33791867204476561 0 0.40419970196808802 0.32610915970725868 0 0.414447140581086 0.33791867204476561 0 0.40419970196808802 0.32610915970725868 0 0.40501002962422322 0.34461901771600179 0 0.38523408214048699 0.33291454303906481 0 0.40501002962422322 0.34461901771600179 0 0.40419970196808802 0.32610915970725868 0 0.38523408214048699 0.33291454303906481 0 0.40501002962422322 0.34461901771600179 0 0.38523408214048699 0.33291454303906481 0 0.3890634705749545 0.34915014981232811 0 0.40501002962422322 0.34461901771600179 0 0.39512059533734428 0.31549681214274089 0 0.40419970196808802 0.32610915970725868 0 0.38523408214048699 0.33291454303906481 0 0.40435819158071779 0.30684858181294988 0 0.39512059533734428 0.31549681214274089 0 0.40419970196808802 0.32610915970725868 0 0.36545813465675081 0.32121006836212762 0 0.38523408214048699 0.33291454303906481 0 0.36545813465675081 0.32121006836212762 0 0.38162766334343901 0.31154091328445122 0 0.38523408214048699 0.33291454303906481 0 0.38162766334343901 0.31154091328445122 0 0.39512059533734428 0.31549681214274089 0 0.38523408214048699 0.33291454303906481 0 0.36664567010696042 0.34957578258582261 0 0.38523408214048699 0.33291454303906481 0 0.3890634705749545 0.34915014981232811 0 0.36664567010696042 0.34957578258582261 0 0.38371348904907038 0.36128876662790671 0 0.36664567010696042 0.34957578258582261 0 0.3890634705749545 0.34915014981232811 0 0.38371348904907038 0.36128876662790671 0 0.36664567010696042 0.34957578258582261 0 0.37911528252024168 0.36215060550131117 0 0.38371348904907038 0.36128876662790671 0 0.37840140898252689 0.36547857251988158 0 0.39003310728468438 0.37475821417965111 0 0.39015714785809519 0.38138136245393928 0 0.37007180766908038 0.37005079458721563 0 0.37840140898252689 0.36547857251988158 0 0.39015714785809519 0.38138136245393928 0 0.37840140898252689 0.36547857251988158 0 0.39015714785809519 0.38138136245393928 0 0.37840140898252689 0.36547857251988158 0 0.37911528252024168 0.36215060550131117 0 0.38336191074995052 0.36560548116012132 0 0.37911528252024168 0.36215060550131117 0 0.38371348904907038 0.36128876662790671 0 0.38336191074995052 0.36560548116012132 0 0.37911528252024168 0.36215060550131117 0 0.38371348904907038 0.36128876662790671 0 0.37840140898252689 0.36547857251988158 0 0.38799703420668191 0.37003987891237661 0 0.39003310728468438 0.37475821417965111 0 0.38799703420668191 0.37003987891237661 0 0.38336191074995052 0.36560548116012132 0 0.38733341658915132 0.36660056967367982 0 0.38799703420668191 0.37003987891237661 0 0.38733341658915132 0.36660056967367982 0 0.39226030995708999 0.36634519367486051 0 0.38371348904907038 0.36128876662790671 0 0.38726403688860572 0.36372537029274371 0 0.39590810786524661 0.36398314563970402 0 0.37840140898252689 0.36547857251988158 0 0.38799703420668191 0.37003987891237661 0 0.38336191074995052 0.36560548116012132 0 0.38371348904907038 0.36128876662790671 0 0.38726403688860572 0.36372537029274371 0 0.38336191074995052 0.36560548116012132 0 0.38733341658915132 0.36660056967367982 0 0.38726403688860572 0.36372537029274371 0 0.38371348904907038 0.36128876662790671 0 0.38336191074995052 0.36560548116012132 0 0.38726403688860572 0.36372537029274371 0 0.38733341658915132 0.36660056967367982 0 0.38726403688860572 0.36372537029274371 0 0.39226030995708999 0.36634519367486051 0 0.38371348904907038 0.36128876662790671 0 0.39590810786524661 0.36398314563970402 0 0.40471408195403158 0.3573526390928437 0 0.38726403688860572 0.36372537029274371 0 0.39226030995708999 0.36634519367486051 0 0.39590810786524661 0.36398314563970402 0 0.39226030995708999 0.36634519367486051 0 0.39590810786524661 0.36398314563970402 0 0.39570170604809651 0.36979148114570598 0 0.39003310728468438 0.37475821417965111 0 0.39570170604809651 0.36979148114570598 0 0.39941887690296413 0.37582773502336758 0 0.38799703420668191 0.37003987891237661 0 0.39003310728468438 0.37475821417965111 0 0.39570170604809651 0.36979148114570598 0 0.38799703420668191 0.37003987891237661 0 0.39226030995708999 0.36634519367486051 0 0.39570170604809651 0.36979148114570598 0 0.40416801546680992 0.36852720260055533 0 0.39941887690296413 0.37582773502336758 0 0.41240990735164801 0.37779841218934618 0 0.39590810786524661 0.36398314563970402 0 0.39570170604809651 0.36979148114570598 0 0.40416801546680992 0.36852720260055533 0 0.39570170604809651 0.36979148114570598 0 0.40416801546680992 0.36852720260055533 0 0.39941887690296413 0.37582773502336758 0 0.39590810786524661 0.36398314563970402 0 0.40416801546680992 0.36852720260055533 0 0.40471408195403158 0.3573526390928437 0 0.3890634705749545 0.34915014981232811 0 0.40471408195403158 0.3573526390928437 0 0.40501002962422322 0.34461901771600179 0 0.3890634705749545 0.34915014981232811 0 0.38371348904907038 0.36128876662790671 0 0.40471408195403158 0.3573526390928437 0 0.38371348904907038 0.36128876662790671 0 0.40471408195403158 0.3573526390928437 0 0.40549684373375211 0.40213241551364692 0 0.3849560004162208 0.3861100408530761 0 0.39150998324612812 0.41334305189902443 0 0.40549684373375211 0.40213241551364692 0 0.39015714785809519 0.38138136245393928 0 0.40549684373375211 0.40213241551364692 0 0.3849560004162208 0.3861100408530761 0 0.39015714785809519 0.38138136245393928 0 0.40549684373375211 0.40213241551364692 0 0.40404337740845048 0.38270973757100801 0 0.39015714785809519 0.38138136245393928 0 0.39941887690296413 0.37582773502336758 0 0.40404337740845048 0.38270973757100801 0 0.41240990735164801 0.37779841218934618 0 0.40404337740845048 0.38270973757100801 0 0.39015714785809519 0.38138136245393928 0 0.39003310728468438 0.37475821417965111 0 0.39941887690296413 0.37582773502336758 0 0.39015714785809519 0.38138136245393928 0 0.39941887690296413 0.37582773502336758 0 0.40404337740845048 0.38270973757100801 0 0.39015714785809519 0.38138136245393928 0 0.36428867353533573 0.3789067499263038 0 0.39015714785809519 0.38138136245393928 0 0.36428867353533573 0.3789067499263038 0 0.3849560004162208 0.3861100408530761 0 0.39015714785809519 0.38138136245393928 0 0.3849560004162208 0.3861100408530761 0 0.39150998324612812 0.41334305189902443 0 0.3849560004162208 0.3861100408530761 0 0.37758746502571572 0.39709640299692173 0 0.38186348682492621 0.40529558294704687 0 0.37141634134416712 0.39198704342809532 0 0.3849560004162208 0.3861100408530761 0 0.37758746502571572 0.39709640299692173 0 0.3849560004162208 0.3861100408530761 0 0.38186348682492621 0.40529558294704687 0 0.39150998324612812 0.41334305189902443 0 0.37026059137101719 0.40424103822755808 0 0.37758746502571572 0.39709640299692173 0 0.38186348682492621 0.40529558294704687 0 0.38186348682492621 0.40529558294704687 0 0.3761068813621975 0.42207822940548428 0 0.39150998324612812 0.41334305189902443 0 0.37026059137101719 0.40424103822755808 0 0.38186348682492621 0.40529558294704687 0 0.3761068813621975 0.42207822940548428 0 0.3761068813621975 0.42207822940548428 0 0.39150998324612812 0.41334305189902443 0 0.39806396607603522 0.44057606294497281 0 0.3761068813621975 0.42207822940548428 0 0.39806396607603522 0.44057606294497281 0 0.37502514857406283 0.4397897122098714 0 0.4042499862879696 0.42468215902425299 0 0.39150998324612812 0.41334305189902443 0 0.39806396607603522 0.44057606294497281 0 0.39150998324612812 0.41334305189902443 0 0.39806396607603522 0.44057606294497281 0 0.40549684373375211 0.40213241551364692 0 0.4042499862879696 0.42468215902425299 0 0.39150998324612812 0.41334305189902443 0 0.40549684373375211 0.40213241551364692 0 0.4042499862879696 0.42468215902425299 0 0.42138166899839508 0.41886529542634271 0 0.40549684373375211 0.40213241551364692 0 0.42138166899839508 0.41886529542634271 0 0.42075693346329951 0.40441954813454051 0 0.4042499862879696 0.42468215902425299 0 0.42138166899839508 0.41886529542634271 0 0.42314852865461627 0.44835045065702089 0 0.42138166899839508 0.41886529542634271 0 0.44167910840328728 0.4288918273231197 0 0.42314852865461627 0.44835045065702089 0 0.42138166899839508 0.41886529542634271 0 0.43482890338886743 0.40197544179538558 0 0.44167910840328728 0.4288918273231197 0 0.42138166899839508 0.41886529542634271 0 0.43482890338886743 0.40197544179538558 0 0.42075693346329951 0.40441954813454051 0 0.43482890338886743 0.40197544179538558 0 0.42108313100484218 0.39326743937941139 0 0.42873511672552889 0.38612524608429732 0 0.43482890338886743 0.40197544179538558 0 0.42873511672552889 0.38612524608429732 0 0.43909135895359341 0.38845575164566643 0 0.43482890338886743 0.40197544179538558 0 0.42075693346329951 0.40441954813454051 0 0.42108313100484218 0.39326743937941139 0 0.40549684373375211 0.40213241551364692 0 0.40404337740845048 0.38270973757100801 0 0.41282336743059161 0.38785426190633682 0 0.40549684373375211 0.40213241551364692 0 0.42075693346329951 0.40441954813454051 0 0.42108313100484218 0.39326743937941139 0 0.40549684373375211 0.40213241551364692 0 0.42108313100484218 0.39326743937941139 0 0.41282336743059161 0.38785426190633682 0 0.41240990735164801 0.37779841218934618 0 0.42108357765426502 0.38336330487827153 0 0.42868610583755329 0.37529711219846418 0 0.40404337740845048 0.38270973757100801 0 0.41240990735164801 0.37779841218934618 0 0.41282336743059161 0.38785426190633682 0 0.42108313100484218 0.39326743937941139 0 0.41282336743059161 0.38785426190633682 0 0.42108357765426502 0.38336330487827153 0 0.41240990735164801 0.37779841218934618 0 0.41282336743059161 0.38785426190633682 0 0.42108357765426502 0.38336330487827153 0 0.42108357765426502 0.38336330487827153 0 0.42868610583755329 0.37529711219846418 0 0.42873511672552889 0.38612524608429732 0 0.42108313100484218 0.39326743937941139 0 0.42108357765426502 0.38336330487827153 0 0.42873511672552889 0.38612524608429732 0 0.42868610583755329 0.37529711219846418 0 0.42873511672552889 0.38612524608429732 0 0.43909135895359341 0.38845575164566643 0 0.42868610583755329 0.37529711219846418 0 0.43909135895359341 0.38845575164566643 0 0.45320419620829677 0.38206702179637309 0 0.43806043229102692 0.37086454850370121 0 0.42868610583755329 0.37529711219846418 0 0.45320419620829677 0.38206702179637309 0 0.42868610583755329 0.37529711219846418 0 0.45320419620829677 0.38206702179637309 0 0.43909135895359341 0.38845575164566643 0 0.45019146287492251 0.39480949146112548 0 0.45320419620829677 0.38206702179637309 0 0.43482890338886743 0.40197544179538558 0 0.45019146287492251 0.39480949146112548 0 0.46020968815195828 0.40943320398921851 0 0.43482890338886743 0.40197544179538558 0 0.43909135895359341 0.38845575164566643 0 0.45019146287492251 0.39480949146112548 0 0.46401358034296941 0.39302424585926238 0 0.47772228657904059 0.38883693139428049 0 0.46020968815195828 0.40943320398921851 0 0.45019146287492251 0.39480949146112548 0 0.46401358034296941 0.39302424585926238 0 0.46020968815195828 0.40943320398921851 0 0.46401358034296941 0.39302424585926238 0 0.45320419620829677 0.38206702179637309 0 0.47772228657904059 0.38883693139428049 0 0.46041625459185392 0.36949650334887602 0 0.45320419620829677 0.38206702179637309 0 0.47772228657904059 0.38883693139428049 0 0.45320419620829677 0.38206702179637309 0 0.47772228657904059 0.38883693139428049 0 0.45019146287492251 0.39480949146112548 0 0.46401358034296941 0.39302424585926238 0 0.45320419620829677 0.38206702179637309 0 0.46041625459185392 0.36949650334887602 0 0.47772228657904059 0.38883693139428049 0 0.4790754544806643 0.370213071766955 0 0.47938614700590199 0.38929635480381758 0 0.47772228657904059 0.38883693139428049 0 0.4790754544806643 0.370213071766955 0 0.46041625459185392 0.36949650334887602 0 0.47772228657904059 0.38883693139428049 0 0.47938614700590199 0.38929635480381758 0 0.47772228657904059 0.38883693139428049 0 0.47772228657904059 0.38883693139428049 0 0.48944263050108461 0.40193505050439471 0 0.46020968815195828 0.40943320398921851 0 0.47772228657904059 0.38883693139428049 0 0.46020968815195828 0.40943320398921851 0 0.47938614700590199 0.38929635480381758 0 0.47772228657904059 0.38883693139428049 0 0.48944263050108461 0.40193505050439471 0 0.47772228657904059 0.38883693139428049 0 0.48944263050108461 0.40193505050439471 0 0.47938614700590199 0.38929635480381758 0 0.49999999999999689 0.39498823044030962 0 0.47938614700590199 0.38929635480381758 0 0.49999999999999689 0.39498823044030962 0 0.48944263050108461 0.40193505050439471 0 0.49999999999999689 0.39498823044030962 0 0.48944263050108461 0.40193505050439471 0 0.5 0.42030425797957027 0 0.49774736403160069 0.37001557617191011 0 0.4790754544806643 0.370213071766955 0 0.47938614700590199 0.38929635480381758 0 0.49774736403160069 0.37001557617191011 0 0.47938614700590199 0.38929635480381758 0 0.47938614700590199 0.38929635480381758 0 0.49999999999999689 0.39498823044030962 0 0.49999999999999922 0.37842882190740351 0 0.49774736403160069 0.37001557617191011 0 0.47938614700590199 0.38929635480381758 0 0.49999999999999922 0.37842882190740351 0 0.5 0.42030425797957027 0 0.48349057447993038 0.41757431921444399 0 0.47691603164775198 0.43296227174920082 0 0.5 0.42030425797957027 0 0.47691603164775198 0.43296227174920082 0 0.5 0.44562028551883098 0 0.48944263050108461 0.40193505050439471 0 0.5 0.42030425797957027 0 0.48349057447993038 0.41757431921444399 0 0.48349057447993038 0.41757431921444399 0 0.47691603164775198 0.43296227174920082 0 0.46020968815195828 0.40943320398921851 0 0.48944263050108461 0.40193505050439471 0 0.48349057447993038 0.41757431921444399 0 0.46020968815195828 0.40943320398921851 0 0.47691603164775198 0.43296227174920082 0 0.4589061880905807 0.43431515504924278 0 0.46020968815195828 0.40943320398921851 0 0.4589061880905807 0.43431515504924278 0 0.46020968815195828 0.40943320398921851 0 0.44167910840328728 0.4288918273231197 0 0.43482890338886743 0.40197544179538558 0 0.46020968815195828 0.40943320398921851 0 0.44167910840328728 0.4288918273231197 0 0.46020968815195828 0.40943320398921851 0 0.44167910840328728 0.4288918273231197 0 0.4589061880905807 0.43431515504924278 0 0.44167910840328728 0.4288918273231197 0 0.44373419841132128 0.44895715371248318 0 0.5 0.5 0 0.46051083360050798 0.48522864915524377 0 0.43515245002438629 0.5 0 0.44373419841132128 0.44895715371248318 0 0.45477013172054148 0.46768010560473311 0 0.45913213436977762 0.4523743274127881 0 0.44373419841132128 0.44895715371248318 0 0.45477013172054148 0.46768010560473311 0 0.43771255056824743 0.4718971020965288 0 0.45477013172054148 0.46768010560473311 0 0.45913213436977762 0.4523743274127881 0 0.47045023482758319 0.46495461854267262 0 0.45913213436977762 0.4523743274127881 0 0.475231741207921 0.44927142576453311 0 0.47045023482758319 0.46495461854267262 0 0.45913213436977762 0.4523743274127881 0 0.47045023482758319 0.46495461854267262 0 0.4589061880905807 0.43431515504924278 0 0.45913213436977762 0.4523743274127881 0 0.475231741207921 0.44927142576453311 0 0.4589061880905807 0.43431515504924278 0 0.44373419841132128 0.44895715371248318 0 0.45913213436977762 0.4523743274127881 0 0.47691603164775198 0.43296227174920082 0 0.4589061880905807 0.43431515504924278 0 0.475231741207921 0.44927142576453311 0 0.47691603164775198 0.43296227174920082 0 0.475231741207921 0.44927142576453311 0 0.5 0.44562028551883098 0 0.475231741207921 0.44927142576453311 0 0.47045023482758319 0.46495461854267262 0 0.48595453395866772 0.46180481870428869 0 0.47045023482758319 0.46495461854267262 0 0.48595453395866772 0.46180481870428869 0 0.48176833528538798 0.47753490967255813 0 0.48595453395866772 0.46180481870428869 0 0.5 0.44562028551883098 0 0.49999999999999889 0.47093631305809169 0 0.475231741207921 0.44927142576453311 0 0.48595453395866772 0.46180481870428869 0 0.5 0.44562028551883098 0 0.5 0.5 0 0.48176833528538798 0.47753490967255813 0 0.46051083360050798 0.48522864915524377 0 0.49999999999999872 0.49779976336839421 0 0.5 0.5 0 0.48176833528538798 0.47753490967255813 0 0.49999999999999872 0.49779976336839421 0 0.48176833528538798 0.47753490967255813 0 0.48595453395866772 0.46180481870428869 0 0.49999999999999889 0.47093631305809169 0 0.48176833528538798 0.47753490967255813 0 0.49999999999999872 0.49779976336839421 0 0.49999999999999889 0.47093631305809169 0 0.48176833528538798 0.47753490967255813 0 0.49999999999999889 0.47093631305809169 0 0.48176833528538798 0.47753490967255813 0 0.47045023482758319 0.46495461854267262 0 0.48176833528538798 0.47753490967255813 0 0.46051083360050798 0.48522864915524377 0 0.48176833528538798 0.47753490967255813 0 0.46051083360050798 0.48522864915524377 0 0.47045023482758319 0.46495461854267262 0 0.48176833528538798 0.47753490967255813 0 0.45477013172054148 0.46768010560473311 0 0.47045023482758319 0.46495461854267262 0 0.46051083360050798 0.48522864915524377 0 0.45477013172054148 0.46768010560473311 0 0.46051083360050798 0.48522864915524377 0 0.43771255056824743 0.4718971020965288 0 0.46051083360050798 0.48522864915524377 0 0.43771255056824743 0.4718971020965288 0 0.43515245002438629 0.5 0 0.43515245002438629 0.5 0 0.42285566454142792 0.4855976103875887 0 0.41236511927892872 0.50000000000000466 0 0.43771255056824743 0.4718971020965288 0 0.43515245002438629 0.5 0 0.42285566454142792 0.4855976103875887 0 0.42285566454142792 0.4855976103875887 0 0.41236511927892872 0.50000000000000466 0 0.40849153409243499 0.48390453699546288 0 0.41236511927892872 0.50000000000000466 0 0.40849153409243499 0.48390453699546288 0 0.40849153409243499 0.48390453699546288 0 0.42055666874314318 0.47218641284594692 0 0.4046179489059436 0.4678090739909207 0 0.40849153409243499 0.48390453699546288 0 0.4046179489059436 0.4678090739909207 0 0.42285566454142792 0.4855976103875887 0 0.40849153409243499 0.48390453699546288 0 0.42055666874314318 0.47218641284594692 0 0.43771255056824743 0.4718971020965288 0 0.42285566454142792 0.4855976103875887 0 0.42055666874314318 0.47218641284594692 0 0.44373419841132128 0.44895715371248318 0 0.43771255056824743 0.4718971020965288 0 0.42314852865461627 0.44835045065702089 0 0.43771255056824743 0.4718971020965288 0 0.42055666874314318 0.47218641284594692 0 0.42314852865461627 0.44835045065702089 0 0.44167910840328728 0.4288918273231197 0 0.42314852865461627 0.44835045065702089 0 0.44167910840328728 0.4288918273231197 0 0.44373419841132128 0.44895715371248318 0 0.42314852865461627 0.44835045065702089 0 0.4042499862879696 0.42468215902425299 0 0.42314852865461627 0.44835045065702089 0 0.39806396607603522 0.44057606294497281 0 0.42314852865461627 0.44835045065702089 0 0.4046179489059436 0.4678090739909207 0 0.39806396607603522 0.44057606294497281 0 0.42055666874314318 0.47218641284594692 0 0.42314852865461627 0.44835045065702089 0 0.4046179489059436 0.4678090739909207 0 0.42314852865461627 0.44835045065702089 0 0.4046179489059436 0.4678090739909207 0 0.4046179489059436 0.4678090739909207 0 0.39806396607603522 0.44057606294497281 0 0.4046179489059436 0.4678090739909207 0 0.39806396607603522 0.44057606294497281 0 0.38817398365873967 0.46690341121859252 0 0.39806396607603522 0.44057606294497281 0 0.37502514857406283 0.4397897122098714 0 0.37731054342266529 0.45523599042389329 0 0.39806396607603522 0.44057606294497281 0 0.38817398365873967 0.46690341121859252 0 0.37731054342266529 0.45523599042389329 0 0.36855302384870531 0.47568942338680931 0 0.38817398365873967 0.46690341121859252 0 0.37731054342266529 0.45523599042389329 0 0.36855302384870531 0.47568942338680931 0 0.38817398365873967 0.46690341121859252 0 0.38929012968259252 0.48390453699545888 0 0.37396231045924128 0.499999999999997 0 0.38929012968259252 0.48390453699545888 0 0.39316371486908502 0.5 0 0.37396231045924128 0.499999999999997 0 0.38929012968259252 0.48390453699545888 0 0.37396231045924128 0.499999999999997 0 0.36855302384870531 0.47568942338680931 0 0.38929012968259252 0.48390453699545888 0 0.40849153409243499 0.48390453699546288 0 0.38929012968259252 0.48390453699545888 0 0.39316371486908502 0.5 0 0.41236511927892872 0.50000000000000466 0 0.40849153409243499 0.48390453699546288 0 0.39316371486908502 0.5 0 0.4046179489059436 0.4678090739909207 0 0.38929012968259252 0.48390453699545888 0 0.4046179489059436 0.4678090739909207 0 0.38817398365873967 0.46690341121859252 0 0.38929012968259252 0.48390453699545888 0 0.40849153409243499 0.48390453699546288 0 0.4046179489059436 0.4678090739909207 0 0.38929012968259252 0.48390453699545888 0 0.33401165112948961 0.093367888309391356 0 0.34191981156566348 0.086779043078710982 0 0.35092545771995309 0.089746968670446292 0 0.33529465201713998 0.084967545477799125 0 0.33368873041722291 0.077202786653604541 0 0.32506462836507521 0.081417120421281727 0 0.33529465201713998 0.084967545477799125 0 0.33401165112948961 0.093367888309391356 0 0.32506462836507521 0.081417120421281727 0 0.33529465201713998 0.084967545477799125 0 0.33401165112948961 0.093367888309391356 0 0.34191981156566348 0.086779043078710982 0 0.33529465201713998 0.084967545477799125 0 0.34170270233512828 0.079213809505227439 0 0.33368873041722291 0.077202786653604541 0 0.33529465201713998 0.084967545477799125 0 0.34191981156566348 0.086779043078710982 0 0.34170270233512828 0.079213809505227439 0 0.34170270233512828 0.079213809505227439 0 0.33906457334706319 0.071559287266811364 0 0.33368873041722291 0.077202786653604541 0 0.33368873041722291 0.077202786653604541 0 0.32506462836507521 0.081417120421281727 0 0.32902272999342158 0.062365863190997309 0 0.34170270233512828 0.079213809505227439 0 0.33906457334706319 0.071559287266811364 0 0.34780886437748998 0.070542181269428517 0 0.33906457334706319 0.071559287266811364 0 0.34318601514489211 0.063191314890470848 0 0.34780886437748998 0.070542181269428517 0 0.33906457334706319 0.071559287266811364 0 0.34318601514489211 0.063191314890470848 0 0.32902272999342158 0.062365863190997309 0 0.33906457334706319 0.071559287266811364 0 0.33368873041722291 0.077202786653604541 0 0.32902272999342158 0.062365863190997309 0 0.32902272999342158 0.062365863190997309 0 0.30672275083008133 0.051100117944346463 0 0.30987240098578039 0.082330317244298595 0 0.32506462836507521 0.081417120421281727 0 0.32902272999342158 0.062365863190997309 0 0.30987240098578039 0.082330317244298595 0 0.32902272999342158 0.062365863190997309 0 0.30987240098578039 0.082330317244298595 0 0.32506462836507521 0.081417120421281727 0 0.32902272999342158 0.062365863190997309 0 0.33401165112948961 0.093367888309391356 0 0.32506462836507521 0.081417120421281727 0 0.3211065267367279 0.10046837765156599 0 0.32506462836507521 0.081417120421281727 0 0.3211065267367279 0.10046837765156599 0 0.32506462836507521 0.081417120421281727 0 0.3211065267367279 0.10046837765156599 0 0.30987240098578039 0.082330317244298595 0 0.3211065267367279 0.10046837765156599 0 0.30987240098578039 0.082330317244298595 0 0.30678264835944907 0.099718790373715005 0 0.3211065267367279 0.10046837765156599 0 0.32055113064452129 0.11175662156149239 0 0.30542959373714818 0.1137816953013949 0 0.3211065267367279 0.10046837765156599 0 0.32055113064452129 0.11175662156149239 0 0.3355312866080542 0.1075077939878183 0 0.32055113064452129 0.11175662156149239 0 0.3355312866080542 0.1075077939878183 0 0.32013711549615509 0.1252686193051904 0 0.3355312866080542 0.1075077939878183 0 0.32180757670786819 0.12657328920842581 0 0.32013711549615509 0.1252686193051904 0 0.3355312866080542 0.1075077939878183 0 0.32013711549615509 0.1252686193051904 0 0.30542959373714818 0.1137816953013949 0 0.32013711549615509 0.1252686193051904 0 0.32055113064452129 0.11175662156149239 0 0.30542959373714818 0.1137816953013949 0 0.32013711549615509 0.1252686193051904 0 0.33186283254246501 0.1235880783662746 0 0.3355312866080542 0.1075077939878183 0 0.32180757670786819 0.12657328920842581 0 0.33947101841536509 0.12468772685482531 0 0.3355312866080542 0.1075077939878183 0 0.34764442744574531 0.1165291392662538 0 0.33186283254246501 0.1235880783662746 0 0.33947101841536509 0.12468772685482531 0 0.3355312866080542 0.1075077939878183 0 0.33401165112948961 0.093367888309391356 0 0.3355312866080542 0.1075077939878183 0 0.35092545771995309 0.089746968670446292 0 0.3355312866080542 0.1075077939878183 0 0.35092545771995309 0.089746968670446292 0 0.33401165112948961 0.093367888309391356 0 0.3211065267367279 0.10046837765156599 0 0.3355312866080542 0.1075077939878183 0 0.3355312866080542 0.1075077939878183 0 0.34996484239406789 0.1044662077101558 0 0.35092545771995309 0.089746968670446292 0 0.34996484239406789 0.1044662077101558 0 0.36062254697328849 0.1126733800461734 0 0.36185517123188049 0.1012634730091696 0 0.34996484239406789 0.1044662077101558 0 0.35589040803910582 0.097007731718385809 0 0.35092545771995309 0.089746968670446292 0 0.34996484239406789 0.1044662077101558 0 0.35589040803910582 0.097007731718385809 0 0.36185517123188049 0.1012634730091696 0 0.34764442744574531 0.1165291392662538 0 0.36062254697328849 0.1126733800461734 0 0.3526324428379507 0.13331058773229601 0 0.33947101841536509 0.12468772685482531 0 0.34764442744574531 0.1165291392662538 0 0.3526324428379507 0.13331058773229601 0 0.3355312866080542 0.1075077939878183 0 0.34996484239406789 0.1044662077101558 0 0.34764442744574531 0.1165291392662538 0 0.34996484239406789 0.1044662077101558 0 0.34764442744574531 0.1165291392662538 0 0.36062254697328849 0.1126733800461734 0 0.3526324428379507 0.13331058773229601 0 0.37691947251953761 0.1162370639809312 0 0.36062254697328849 0.1126733800461734 0 0.37338409779400328 0.103700367915959 0 0.37691947251953761 0.1162370639809312 0 0.36062254697328849 0.1126733800461734 0 0.3526324428379507 0.13331058773229601 0 0.37691947251953761 0.1162370639809312 0 0.35589040803910582 0.097007731718385809 0 0.36185517123188049 0.1012634730091696 0 0.36081616081052148 0.092554277483771541 0 0.36185517123188049 0.1012634730091696 0 0.3694502742522805 0.094282320055936147 0 0.36081616081052148 0.092554277483771541 0 0.36062254697328849 0.1126733800461734 0 0.36185517123188049 0.1012634730091696 0 0.37338409779400328 0.103700367915959 0 0.36185517123188049 0.1012634730091696 0 0.37338409779400328 0.103700367915959 0 0.3694502742522805 0.094282320055936147 0 0.37338409779400328 0.103700367915959 0 0.3694502742522805 0.094282320055936147 0 0.37881355117099191 0.093078102586847011 0 0.3694502742522805 0.094282320055936147 0 0.37357245318636773 0.086506788959028413 0 0.37881355117099191 0.093078102586847011 0 0.36245560582468289 0.084395319442330155 0 0.35092545771995309 0.089746968670446292 0 0.36631962883185198 0.071986143353074253 0 0.3694502742522805 0.094282320055936147 0 0.37357245318636773 0.086506788959028413 0 0.36687487454232293 0.087924247686443829 0 0.37357245318636773 0.086506788959028413 0 0.36886841753438798 0.079927062313415037 0 0.36687487454232293 0.087924247686443829 0 0.37357245318636773 0.086506788959028413 0 0.36886841753438798 0.079927062313415037 0 0.37660116703828589 0.074451192733297311 0 0.36886841753438798 0.079927062313415037 0 0.36245560582468289 0.084395319442330155 0 0.36687487454232293 0.087924247686443829 0 0.36886841753438798 0.079927062313415037 0 0.36245560582468289 0.084395319442330155 0 0.36631962883185198 0.071986143353074253 0 0.36245560582468289 0.084395319442330155 0 0.36081616081052148 0.092554277483771541 0 0.36687487454232293 0.087924247686443829 0 0.3694502742522805 0.094282320055936147 0 0.36081616081052148 0.092554277483771541 0 0.36687487454232293 0.087924247686443829 0 0.36245560582468289 0.084395319442330155 0 0.36081616081052148 0.092554277483771541 0 0.35092545771995309 0.089746968670446292 0 0.35092545771995309 0.089746968670446292 0 0.36631962883185198 0.071986143353074253 0 0.35589040803910582 0.097007731718385809 0 0.36081616081052148 0.092554277483771541 0 0.35092545771995309 0.089746968670446292 0 0.3500697847248051 0.08271546986038833 0 0.35092545771995309 0.089746968670446292 0 0.36631962883185198 0.071986143353074253 0 0.34191981156566348 0.086779043078710982 0 0.34170270233512828 0.079213809505227439 0 0.3500697847248051 0.08271546986038833 0 0.34191981156566348 0.086779043078710982 0 0.3500697847248051 0.08271546986038833 0 0.35092545771995309 0.089746968670446292 0 0.3500697847248051 0.08271546986038833 0 0.35533567462178528 0.065965246497398572 0 0.36894782535792581 0.059710437286252693 0 0.3500697847248051 0.08271546986038833 0 0.34780886437748998 0.070542181269428517 0 0.35533567462178528 0.065965246497398572 0 0.34318601514489211 0.063191314890470848 0 0.34780886437748998 0.070542181269428517 0 0.3518836508816155 0.062183413392942123 0 0.34170270233512828 0.079213809505227439 0 0.3500697847248051 0.08271546986038833 0 0.34780886437748998 0.070542181269428517 0 0.34780886437748998 0.070542181269428517 0 0.35533567462178528 0.065965246497398572 0 0.3518836508816155 0.062183413392942123 0 0.3500697847248051 0.08271546986038833 0 0.36631962883185198 0.071986143353074253 0 0.36894782535792581 0.059710437286252693 0 0.36631962883185198 0.071986143353074253 0 0.37660116703828589 0.074451192733297311 0 0.38171379994375088 0.0542253180357022 0 0.36631962883185198 0.071986143353074253 0 0.38171379994375088 0.0542253180357022 0 0.3500697847248051 0.08271546986038833 0 0.36894782535792581 0.059710437286252693 0 0.36886841753438798 0.079927062313415037 0 0.36631962883185198 0.071986143353074253 0 0.37660116703828589 0.074451192733297311 0 0.36894782535792581 0.059710437286252693 0 0.36324215169811641 0.043807559820573841 0 0.3579682477670898 0.05467473067798119 0 0.36631962883185198 0.071986143353074253 0 0.36894782535792581 0.059710437286252693 0 0.38171379994375088 0.0542253180357022 0 0.35533567462178528 0.065965246497398572 0 0.36894782535792581 0.059710437286252693 0 0.3579682477670898 0.05467473067798119 0 0.36324215169811641 0.043807559820573841 0 0.36557274311667359 0.024262023964228479 0 0.38547184363024573 0.035389095235473858 0 0.36324215169811641 0.043807559820573841 0 0.38547184363024573 0.035389095235473858 0 0.36894782535792581 0.059710437286252693 0 0.36324215169811641 0.043807559820573841 0 0.38547184363024573 0.035389095235473858 0 0.34729773655504831 0.043313943577613513 0 0.36557274311667359 0.024262023964228479 0 0.3475259516361654 0.027955138246005089 0 0.36324215169811641 0.043807559820573841 0 0.34729773655504831 0.043313943577613513 0 0.36557274311667359 0.024262023964228479 0 0.34729773655504831 0.043313943577613513 0 0.36557274311667359 0.024262023964228479 0 0.36324215169811641 0.043807559820573841 0 0.34729773655504831 0.043313943577613513 0 0.34101245976598749 0.052226024405674622 0 0.36324215169811641 0.043807559820573841 0 0.34101245976598749 0.052226024405674622 0 0.34851259338989621 0.058068870841767192 0 0.3579682477670898 0.05467473067798119 0 0.34101245976598749 0.052226024405674622 0 0.36324215169811641 0.043807559820573841 0 0.3579682477670898 0.05467473067798119 0 0.34101245976598749 0.052226024405674622 0 0.34318601514489211 0.063191314890470848 0 0.34851259338989621 0.058068870841767192 0 0.3518836508816155 0.062183413392942123 0 0.34318601514489211 0.063191314890470848 0 0.34851259338989621 0.058068870841767192 0 0.34101245976598749 0.052226024405674622 0 0.34851259338989621 0.058068870841767192 0 0.3518836508816155 0.062183413392942123 0 0.3579682477670898 0.05467473067798119 0 0.35533567462178528 0.065965246497398572 0 0.3518836508816155 0.062183413392942123 0 0.3579682477670898 0.05467473067798119 0 0.36847154090155498 0.0023943355442805408 0 0.35399377624232842 0.0082926061036159293 0 0.37756287430724528 0.011762164397755331 0 0.3551246996721002 0.018419743607205469 0 0.35399377624232842 0.0082926061036159293 0 0.37756287430724528 0.011762164397755331 0 0.35399377624232842 0.0082926061036159293 0 0.37756287430724528 0.011762164397755331 0 0.36847154090155498 0.0023943355442805408 0 0.35399377624232842 0.0082926061036159293 0 0.36443153286036872 -0.0091360889960328002 0 0.36847154090155498 0.0023943355442805408 0 0.37576332961284681 0.004108183588312002 0 0.37521916583220177 -0.0055812383054568079 0 0.36847154090155498 0.0023943355442805408 0 0.37576332961284681 0.004108183588312002 0 0.37756287430724528 0.011762164397755331 0 0.36557274311667359 0.024262023964228479 0 0.3551246996721002 0.018419743607205469 0 0.37756287430724528 0.011762164397755331 0 0.36557274311667359 0.024262023964228479 0 0.3551246996721002 0.018419743607205469 0 0.36557274311667359 0.024262023964228479 0 0.37756287430724528 0.011762164397755331 0 0.36557274311667359 0.024262023964228479 0 0.3475259516361654 0.027955138246005089 0 0.3551246996721002 0.018419743607205469 0 0.3475259516361654 0.027955138246005089 0 0.3459648195205477 0.020377452998864509 0 0.3551246996721002 0.018419743607205469 0 0.3459648195205477 0.020377452998864509 0 0.3551246996721002 0.018419743607205469 0 0.35399377624232842 0.0082926061036159293 0 0.35399377624232842 0.0082926061036159293 0 0.33042467817741022 0.0048230478094846404 0 0.34951691367491772 -0.012283998130001609 0 0.3459648195205477 0.020377452998864509 0 0.35399377624232842 0.0082926061036159293 0 0.33839508470570467 0.01370758537919226 0 0.35399377624232842 0.0082926061036159293 0 0.33042467817741022 0.0048230478094846404 0 0.35399377624232842 0.0082926061036159293 0 0.33042467817741022 0.0048230478094846404 0 0.33839508470570467 0.01370758537919226 0 0.33042467817741022 0.0048230478094846404 0 0.33839508470570467 0.01370758537919226 0 0.32487427624406379 0.0097963250807044273 0 0.33686424584551239 0.024622836457270491 0 0.32487427624406379 0.0097963250807044273 0 0.3344778376084509 0.03610917042482744 0 0.32487427624406379 0.0097963250807044273 0 0.3344778376084509 0.03610917042482744 0 0.33839508470570467 0.01370758537919226 0 0.33686424584551239 0.024622836457270491 0 0.32487427624406379 0.0097963250807044273 0 0.3459648195205477 0.020377452998864509 0 0.33839508470570467 0.01370758537919226 0 0.33686424584551239 0.024622836457270491 0 0.3475259516361654 0.027955138246005089 0 0.3459648195205477 0.020377452998864509 0 0.33686424584551239 0.024622836457270491 0 0.3475259516361654 0.027955138246005089 0 0.33686424584551239 0.024622836457270491 0 0.3344778376084509 0.03610917042482744 0 0.33686424584551239 0.024622836457270491 0 0.3344778376084509 0.03610917042482744 0 0.32487427624406379 0.0097963250807044273 0 0.3344778376084509 0.03610917042482744 0 0.31028778442489041 0.022866129592551989 0 0.32487427624406379 0.0097963250807044273 0 0.31028778442489041 0.022866129592551989 0 0.32487427624406379 0.0097963250807044273 0 0.3100426025732328 0.01001692516859572 0 0.31028778442489041 0.022866129592551989 0 0.32487427624406379 0.0097963250807044273 0 0.32264094915195268 0.0036772211204291199 0 0.3100426025732328 0.01001692516859572 0 0.33042467817741022 0.0048230478094846404 0 0.32264094915195268 0.0036772211204291199 0 0.32839324399456887 -0.0083879771245694099 0 0.32487427624406379 0.0097963250807044273 0 0.32264094915195268 0.0036772211204291199 0 0.33042467817741022 0.0048230478094846404 0 0.32487427624406379 0.0097963250807044273 0 0.33042467817741022 0.0048230478094846404 0 0.32487427624406379 0.0097963250807044273 0 0.32264094915195268 0.0036772211204291199 0 0.33042467817741022 0.0048230478094846404 0 0.32264094915195268 0.0036772211204291199 0 0.32902272999342158 0.062365863190997309 0 0.3344778376084509 0.03610917042482744 0 0.32902272999342158 0.062365863190997309 0 0.34014514344544999 0.05077061006316462 0 0.3344778376084509 0.03610917042482744 0 0.32902272999342158 0.062365863190997309 0 0.34014514344544999 0.05077061006316462 0 0.32902272999342158 0.062365863190997309 0 0.34101245976598749 0.052226024405674622 0 0.34014514344544999 0.05077061006316462 0 0.34318601514489211 0.063191314890470848 0 0.32902272999342158 0.062365863190997309 0 0.34101245976598749 0.052226024405674622 0 0.34729773655504831 0.043313943577613513 0 0.34101245976598749 0.052226024405674622 0 0.34014514344544999 0.05077061006316462 0 0.34729773655504831 0.043313943577613513 0 0.34014514344544999 0.05077061006316462 0 0.34729773655504831 0.043313943577613513 0 0.34014514344544999 0.05077061006316462 0 0.3344778376084509 0.03610917042482744 0 0.34014514344544999 0.05077061006316462 0 0.3344778376084509 0.03610917042482744 0 0.34729773655504831 0.043313943577613513 0 0.3475259516361654 0.027955138246005089 0 0.3344778376084509 0.03610917042482744 0 0.3344778376084509 0.03610917042482744 0 0.30672275083008133 0.051100117944346463 0 0.31028778442489041 0.022866129592551989 0 0.32902272999342158 0.062365863190997309 0 0.3344778376084509 0.03610917042482744 0 0.30672275083008133 0.051100117944346463 0 0.30672275083008133 0.051100117944346463 0 0.31028778442489041 0.022866129592551989 0 0.29125241123315521 0.031123554245150158 0 0.30672275083008133 0.051100117944346463 0 0.28344035813711072 0.050442892291827142 0 0.29125241123315521 0.031123554245150158 0 0.28344035813711072 0.050442892291827142 0 0.29125241123315521 0.031123554245150158 0 0.26926736556656761 0.033174068777862373 0 0.30672275083008133 0.051100117944346463 0 0.28344035813711072 0.050442892291827142 0 0.28866862811492028 0.073096973632769568 0 0.32264094915195268 0.0036772211204291199 0 0.3100426025732328 0.01001692516859572 0 0.29447724234708123 -0.00046870004589340611 0 0.32264094915195268 0.0036772211204291199 0 0.29447724234708123 -0.00046870004589340611 0 0.3100426025732328 0.01001692516859572 0 0.29715551605657681 0.01581720405412073 0 0.29447724234708123 -0.00046870004589340611 0 0.29715551605657681 0.01581720405412073 0 0.31028778442489041 0.022866129592551989 0 0.29125241123315521 0.031123554245150158 0 0.3100426025732328 0.01001692516859572 0 0.29715551605657681 0.01581720405412073 0 0.31028778442489041 0.022866129592551989 0 0.29715551605657681 0.01581720405412073 0 0.29125241123315521 0.031123554245150158 0 0.27971753970452429 0.01554811131019921 0 0.29715551605657681 0.01581720405412073 0 0.27971753970452429 0.01554811131019921 0 0.29447724234708123 -0.00046870004589340611 0 0.27971753970452429 0.01554811131019921 0 0.26631353554220982 -0.0046146212122176247 0 0.29447724234708123 -0.00046870004589340611 0 0.27971753970452429 0.01554811131019921 0 0.25586098751065722 0.018130948215961711 0 0.26631353554220982 -0.0046146212122176247 0 0.29125241123315521 0.031123554245150158 0 0.27971753970452429 0.01554811131019921 0 0.26926736556656761 0.033174068777862373 0 0.27971753970452429 0.01554811131019921 0 0.25586098751065722 0.018130948215961711 0 0.26926736556656761 0.033174068777862373 0 0.24624575751259009 0.030279239029664898 0 0.25586098751065722 0.018130948215961711 0 0.26926736556656761 0.033174068777862373 0 0.25586098751065722 0.018130948215961711 0 0.25582356345651869 0.0037151648870848682 0 0.26631353554220982 -0.0046146212122176247 0 0.25586098751065722 0.018130948215961711 0 0.26631353554220982 -0.0046146212122176247 0 0.24651066935859009 0.0095266504650106734 0 0.25586098751065722 0.018130948215961711 0 0.25582356345651869 0.0037151648870848682 0 0.28344035813711072 0.050442892291827142 0 0.25920043295498391 0.051756052689076529 0 0.27068007428563762 0.066705841598532087 0 0.28344035813711072 0.050442892291827142 0 0.26926736556656761 0.033174068777862373 0 0.25920043295498391 0.051756052689076529 0 0.24624575751259009 0.030279239029664898 0 0.26926736556656761 0.033174068777862373 0 0.25920043295498391 0.051756052689076529 0 0.25115327748806898 0.071390602486790619 0 0.27093767473310387 0.086842686892196555 0 0.27068007428563762 0.066705841598532087 0 0.25920043295498391 0.051756052689076529 0 0.25115327748806898 0.071390602486790619 0 0.27068007428563762 0.066705841598532087 0 0.25115327748806898 0.071390602486790619 0 0.27093767473310387 0.086842686892196555 0 0.2491404277873363 0.088082738886410702 0 0.25115327748806898 0.071390602486790619 0 0.27093767473310387 0.086842686892196555 0 0.2491404277873363 0.088082738886410702 0 0.27093767473310387 0.086842686892196555 0 0.25691915416968902 0.1022140844603284 0 0.27093767473310387 0.086842686892196555 0 0.27068007428563762 0.066705841598532087 0 0.28866862811492028 0.073096973632769568 0 0.28344035813711072 0.050442892291827142 0 0.27068007428563762 0.066705841598532087 0 0.28866862811492028 0.073096973632769568 0 0.28866862811492028 0.073096973632769568 0 0.30987240098578039 0.082330317244298595 0 0.29072207197814021 0.1022947712976007 0 0.27093767473310387 0.086842686892196555 0 0.28866862811492028 0.073096973632769568 0 0.29072207197814021 0.1022947712976007 0 0.30987240098578039 0.082330317244298595 0 0.29072207197814021 0.1022947712976007 0 0.30672275083008133 0.051100117944346463 0 0.28866862811492028 0.073096973632769568 0 0.30987240098578039 0.082330317244298595 0 0.30542959373714818 0.1137816953013949 0 0.29105492043805969 0.12121856223854779 0 0.30239692978150728 0.1294678850340519 0 0.30542959373714818 0.1137816953013949 0 0.30239692978150728 0.1294678850340519 0 0.32013711549615509 0.1252686193051904 0 0.30987240098578039 0.082330317244298595 0 0.30678264835944907 0.099718790373715005 0 0.29072207197814021 0.1022947712976007 0 0.30542959373714818 0.1137816953013949 0 0.30678264835944907 0.099718790373715005 0 0.29072207197814021 0.1022947712976007 0 0.3211065267367279 0.10046837765156599 0 0.30542959373714818 0.1137816953013949 0 0.30678264835944907 0.099718790373715005 0 0.30542959373714818 0.1137816953013949 0 0.29072207197814021 0.1022947712976007 0 0.30542959373714818 0.1137816953013949 0 0.29072207197814021 0.1022947712976007 0 0.29105492043805969 0.12121856223854779 0 0.29072207197814021 0.1022947712976007 0 0.27508404671205899 0.11859760540475831 0 0.29072207197814021 0.1022947712976007 0 0.29105492043805969 0.12121856223854779 0 0.27508404671205899 0.11859760540475831 0 0.27508404671205899 0.11859760540475831 0 0.27262100001208639 0.1035513935461199 0 0.26170739164003698 0.1125634065289082 0 0.27093767473310387 0.086842686892196555 0 0.29072207197814021 0.1022947712976007 0 0.27093767473310387 0.086842686892196555 0 0.27262100001208639 0.1035513935461199 0 0.25691915416968902 0.1022140844603284 0 0.29072207197814021 0.1022947712976007 0 0.27508404671205899 0.11859760540475831 0 0.27262100001208639 0.1035513935461199 0 0.27093767473310387 0.086842686892196555 0 0.29072207197814021 0.1022947712976007 0 0.27262100001208639 0.1035513935461199 0 0.27262100001208639 0.1035513935461199 0 0.25691915416968902 0.1022140844603284 0 0.26170739164003698 0.1125634065289082 0 0.24450628680137701 0.11228218580733181 0 0.25691915416968902 0.1022140844603284 0 0.26170739164003698 0.1125634065289082 0 0.24450628680137701 0.11228218580733181 0 0.26170739164003698 0.1125634065289082 0 0.25497610093800638 0.12398571659301 0 0.27508404671205899 0.11859760540475831 0 0.26170739164003698 0.1125634065289082 0 0.25497610093800638 0.12398571659301 0 0.2448645016826331 0.1344993804399636 0 0.25497610093800638 0.12398571659301 0 0.25944602144597939 0.13490043951191741 0 0.27508404671205899 0.11859760540475831 0 0.25497610093800638 0.12398571659301 0 0.25944602144597939 0.13490043951191741 0 0.25497610093800638 0.12398571659301 0 0.25944602144597939 0.13490043951191741 0 0.24587194258807171 0.14905158404663629 0 0.2448645016826331 0.1344993804399636 0 0.25944602144597939 0.13490043951191741 0 0.27508404671205899 0.11859760540475831 0 0.25944602144597939 0.13490043951191741 0 0.2828623791190048 0.1396533902756045 0 0.27508404671205899 0.11859760540475831 0 0.25944602144597939 0.13490043951191741 0 0.2696086876195829 0.15971579924915399 0 0.28516017924370668 0.1656228059905929 0 0.2828623791190048 0.1396533902756045 0 0.25944602144597939 0.13490043951191741 0 0.2696086876195829 0.15971579924915399 0 0.2828623791190048 0.1396533902756045 0 0.25944602144597939 0.13490043951191741 0 0.2696086876195829 0.15971579924915399 0 0.24587194258807171 0.14905158404663629 0 0.25944602144597939 0.13490043951191741 0 0.2696086876195829 0.15971579924915399 0 0.24587194258807171 0.14905158404663629 0 0.25944602144597939 0.13490043951191741 0 0.25141269034433628 0.16569928600416739 0 0.26252333528839689 0.17717715664894629 0 0.2696086876195829 0.15971579924915399 0 0.24587194258807171 0.14905158404663629 0 0.25141269034433628 0.16569928600416739 0 0.2696086876195829 0.15971579924915399 0 0.24576080505334111 0.17983006675991989 0 0.26252333528839689 0.17717715664894629 0 0.25733601153618713 0.20030296615741469 0 0.24576080505334111 0.17983006675991989 0 0.25141269034433628 0.16569928600416739 0 0.26252333528839689 0.17717715664894629 0 0.26252333528839689 0.17717715664894629 0 0.2797713537931894 0.18453115898638961 0 0.25733601153618713 0.20030296615741469 0 0.2797713537931894 0.18453115898638961 0 0.2696086876195829 0.15971579924915399 0 0.26252333528839689 0.17717715664894629 0 0.2797713537931894 0.18453115898638961 0 0.2696086876195829 0.15971579924915399 0 0.2797713537931894 0.18453115898638961 0 0.2696086876195829 0.15971579924915399 0 0.28516017924370668 0.1656228059905929 0 0.2797713537931894 0.18453115898638961 0 0.30405838347477693 0.16745763523502549 0 0.2797713537931894 0.18453115898638961 0 0.28516017924370668 0.1656228059905929 0 0.30405838347477693 0.16745763523502549 0 0.2797713537931894 0.18453115898638961 0 0.30405838347477693 0.16745763523502549 0 0.29705377969152857 0.18863320976953771 0 0.30405838347477693 0.16745763523502549 0 0.29705377969152857 0.18863320976953771 0 0.31113041517341988 0.1885354991146535 0 0.30405838347477693 0.16745763523502549 0 0.31113041517341988 0.1885354991146535 0 0.32110028293434412 0.17997243123379089 0 0.28516017924370668 0.1656228059905929 0 0.30405838347477693 0.16745763523502549 0 0.30264864736993102 0.14544571264789169 0 0.30405838347477693 0.16745763523502549 0 0.30264864736993102 0.14544571264789169 0 0.3168778569062739 0.14072983446874529 0 0.30264864736993102 0.14544571264789169 0 0.30239692978150728 0.1294678850340519 0 0.32013711549615509 0.1252686193051904 0 0.30264864736993102 0.14544571264789169 0 0.32013711549615509 0.1252686193051904 0 0.30264864736993102 0.14544571264789169 0 0.30239692978150728 0.1294678850340519 0 0.2828623791190048 0.1396533902756045 0 0.29105492043805969 0.12121856223854779 0 0.30239692978150728 0.1294678850340519 0 0.2828623791190048 0.1396533902756045 0 0.29105492043805969 0.12121856223854779 0 0.27508404671205899 0.11859760540475831 0 0.2828623791190048 0.1396533902756045 0 0.28516017924370668 0.1656228059905929 0 0.30264864736993102 0.14544571264789169 0 0.28516017924370668 0.1656228059905929 0 0.30264864736993102 0.14544571264789169 0 0.2828623791190048 0.1396533902756045 0 0.26272059505331552 0.25415433454263281 0 0.27889214637354459 0.24811480575974629 0 0.26623756895108408 0.24345380475599721 0 0.27889214637354459 0.24811480575974629 0 0.27340771433914501 0.2346456806443602 0 0.28539452101391322 0.23466556281000631 0 0.27889214637354459 0.24811480575974629 0 0.27340771433914501 0.2346456806443602 0 0.26623756895108408 0.24345380475599721 0 0.27340771433914501 0.2346456806443602 0 0.26623756895108408 0.24345380475599721 0 0.26105836170541208 0.2325828975714847 0 0.26272059505331552 0.25415433454263281 0 0.26623756895108408 0.24345380475599721 0 0.25330967369459462 0.24464425994429659 0 0.24860647170749631 0.23267263154699949 0 0.25330967369459462 0.24464425994429659 0 0.26105836170541208 0.2325828975714847 0 0.26623756895108408 0.24345380475599721 0 0.25330967369459462 0.24464425994429659 0 0.26105836170541208 0.2325828975714847 0 0.24983742741469361 0.21995574559805861 0 0.26105836170541208 0.2325828975714847 0 0.26826311679650289 0.21949858027164229 0 0.24983742741469361 0.21995574559805861 0 0.24860647170749631 0.23267263154699949 0 0.26105836170541208 0.2325828975714847 0 0.27340771433914501 0.2346456806443602 0 0.26105836170541208 0.2325828975714847 0 0.26826311679650289 0.21949858027164229 0 0.27340771433914501 0.2346456806443602 0 0.28162976399265849 0.22411567455681949 0 0.28539452101391322 0.23466556281000631 0 0.27340771433914501 0.2346456806443602 0 0.26826311679650289 0.21949858027164229 0 0.28162976399265849 0.22411567455681949 0 0.26826311679650289 0.21949858027164229 0 0.27953531030885442 0.21294767646700791 0 0.28162976399265849 0.22411567455681949 0 0.26826311679650289 0.21949858027164229 0 0.27953531030885442 0.21294767646700791 0 0.27429599645532038 0.20368456280454661 0 0.26826311679650289 0.21949858027164229 0 0.27429599645532038 0.20368456280454661 0 0.25733601153618713 0.20030296615741469 0 0.27953531030885442 0.21294767646700791 0 0.27429599645532038 0.20368456280454661 0 0.28657418984186739 0.20114243214027791 0 0.24983742741469361 0.21995574559805861 0 0.26826311679650289 0.21949858027164229 0 0.25733601153618713 0.20030296615741469 0 0.2797713537931894 0.18453115898638961 0 0.27429599645532038 0.20368456280454661 0 0.28657418984186739 0.20114243214027791 0 0.2797713537931894 0.18453115898638961 0 0.25733601153618713 0.20030296615741469 0 0.2797713537931894 0.18453115898638961 0 0.27429599645532038 0.20368456280454661 0 0.25733601153618713 0.20030296615741469 0 0.28657418984186739 0.20114243214027791 0 0.29705377969152857 0.18863320976953771 0 0.3023259608227078 0.19926395100539571 0 0.2797713537931894 0.18453115898638961 0 0.28657418984186739 0.20114243214027791 0 0.2797713537931894 0.18453115898638961 0 0.28657418984186739 0.20114243214027791 0 0.29705377969152857 0.18863320976953771 0 0.29705377969152857 0.18863320976953771 0 0.31113041517341988 0.1885354991146535 0 0.3023259608227078 0.19926395100539571 0 0.31113041517341988 0.1885354991146535 0 0.3023259608227078 0.19926395100539571 0 0.31774528260143969 0.20299108077116379 0 0.29488724807269839 0.2132751084532945 0 0.31774528260143969 0.20299108077116379 0 0.29923601887228601 0.21625722043154849 0 0.29488724807269839 0.2132751084532945 0 0.31299248231872789 0.2127648402730884 0 0.29488724807269839 0.2132751084532945 0 0.31299248231872789 0.2127648402730884 0 0.31774528260143969 0.20299108077116379 0 0.3023259608227078 0.19926395100539571 0 0.29488724807269839 0.2132751084532945 0 0.31774528260143969 0.20299108077116379 0 0.29923601887228601 0.21625722043154849 0 0.307626824269081 0.2211989756033953 0 0.31299248231872789 0.2127648402730884 0 0.28657418984186739 0.20114243214027791 0 0.29488724807269839 0.2132751084532945 0 0.29337702589054909 0.2177537052941648 0 0.28657418984186739 0.20114243214027791 0 0.29337702589054909 0.2177537052941648 0 0.28602698755932737 0.21611319805730089 0 0.28657418984186739 0.20114243214027791 0 0.3023259608227078 0.19926395100539571 0 0.29488724807269839 0.2132751084532945 0 0.28657418984186739 0.20114243214027791 0 0.29337702589054909 0.2177537052941648 0 0.27953531030885442 0.21294767646700791 0 0.28657418984186739 0.20114243214027791 0 0.28602698755932737 0.21611319805730089 0 0.27953531030885442 0.21294767646700791 0 0.28602698755932737 0.21611319805730089 0 0.28162976399265849 0.22411567455681949 0 0.29488724807269839 0.2132751084532945 0 0.29337702589054909 0.2177537052941648 0 0.29448694918304691 0.22938466604744559 0 0.28602698755932737 0.21611319805730089 0 0.28901864776270753 0.22460650182823441 0 0.28162976399265849 0.22411567455681949 0 0.28901864776270753 0.22460650182823441 0 0.28162976399265849 0.22411567455681949 0 0.28539452101391322 0.23466556281000631 0 0.28901864776270753 0.22460650182823441 0 0.29448694918304691 0.22938466604744559 0 0.28539452101391322 0.23466556281000631 0 0.29337702589054909 0.2177537052941648 0 0.28901864776270753 0.22460650182823441 0 0.29448694918304691 0.22938466604744559 0 0.29337702589054909 0.2177537052941648 0 0.28602698755932737 0.21611319805730089 0 0.28901864776270753 0.22460650182823441 0 0.29488724807269839 0.2132751084532945 0 0.29448694918304691 0.22938466604744559 0 0.30359849104984371 0.24235528973672671 0 0.29923601887228601 0.21625722043154849 0 0.307626824269081 0.2211989756033953 0 0.3041126029054404 0.2307892726056702 0 0.29488724807269839 0.2132751084532945 0 0.3041126029054404 0.2307892726056702 0 0.30359849104984371 0.24235528973672671 0 0.29923601887228601 0.21625722043154849 0 0.29488724807269839 0.2132751084532945 0 0.3041126029054404 0.2307892726056702 0 0.29488724807269839 0.2132751084532945 0 0.30359849104984371 0.24235528973672671 0 0.307626824269081 0.2211989756033953 0 0.31416619297986959 0.22498456910327419 0 0.31299248231872789 0.2127648402730884 0 0.307626824269081 0.2211989756033953 0 0.3041126029054404 0.2307892726056702 0 0.31416619297986959 0.22498456910327419 0 0.3041126029054404 0.2307892726056702 0 0.31460202602286857 0.23567295235726859 0 0.31416619297986959 0.22498456910327419 0 0.30359849104984371 0.24235528973672671 0 0.31841864486346638 0.24792162156080891 0 0.31460202602286857 0.23567295235726859 0 0.3041126029054404 0.2307892726056702 0 0.30359849104984371 0.24235528973672671 0 0.31460202602286857 0.23567295235726859 0 0.29230539062393113 0.25211069622483201 0 0.30359849104984371 0.24235528973672671 0 0.29093549964885579 0.2413262041157514 0 0.29448694918304691 0.22938466604744559 0 0.30359849104984371 0.24235528973672671 0 0.29093549964885579 0.2413262041157514 0 0.29448694918304691 0.22938466604744559 0 0.29093549964885579 0.2413262041157514 0 0.28539452101391322 0.23466556281000631 0 0.27889214637354459 0.24811480575974629 0 0.29093549964885579 0.2413262041157514 0 0.28539452101391322 0.23466556281000631 0 0.29230539062393113 0.25211069622483201 0 0.27889214637354459 0.24811480575974629 0 0.29093549964885579 0.2413262041157514 0 0.34382687823700492 0.25366359617077439 0 0.33541413474965698 0.22657398575938889 0 0.34382687823700492 0.25366359617077439 0 0.31841864486346638 0.24792162156080891 0 0.33541413474965698 0.22657398575938889 0 0.31841864486346638 0.24792162156080891 0 0.31460202602286857 0.23567295235726859 0 0.33541413474965698 0.22657398575938889 0 0.31416619297986959 0.22498456910327419 0 0.33541413474965698 0.22657398575938889 0 0.31299248231872789 0.2127648402730884 0 0.31460202602286857 0.23567295235726859 0 0.31416619297986959 0.22498456910327419 0 0.33541413474965698 0.22657398575938889 0 0.33541413474965698 0.22657398575938889 0 0.32675530039915929 0.19893739573837019 0 0.33541413474965698 0.22657398575938889 0 0.34268335646806919 0.20849120579468239 0 0.32675530039915929 0.19893739573837019 0 0.33541413474965698 0.22657398575938889 0 0.31299248231872789 0.2127648402730884 0 0.32675530039915929 0.19893739573837019 0 0.31299248231872789 0.2127648402730884 0 0.32675530039915929 0.19893739573837019 0 0.31774528260143969 0.20299108077116379 0 0.32675530039915929 0.19893739573837019 0 0.31774528260143969 0.20299108077116379 0 0.32494698652051318 0.18896270289450071 0 0.32675530039915929 0.19893739573837019 0 0.31774528260143969 0.20299108077116379 0 0.31113041517341988 0.1885354991146535 0 0.31774528260143969 0.20299108077116379 0 0.32494698652051318 0.18896270289450071 0 0.32675530039915929 0.19893739573837019 0 0.32494698652051318 0.18896270289450071 0 0.34060331713018099 0.19270705308903319 0 0.34268335646806919 0.20849120579468239 0 0.32675530039915929 0.19893739573837019 0 0.34060331713018099 0.19270705308903319 0 0.32675530039915929 0.19893739573837019 0 0.34060331713018099 0.19270705308903319 0 0.34060331713018099 0.19270705308903319 0 0.36346135165892218 0.1824230254069025 0 0.34268335646806919 0.20849120579468239 0 0.34060331713018099 0.19270705308903319 0 0.35433853716687752 0.20303200144128 0 0.34060331713018099 0.19270705308903319 0 0.35433853716687752 0.20303200144128 0 0.36346135165892218 0.1824230254069025 0 0.37080724922377067 0.20930902907989571 0 0.36346135165892218 0.1824230254069025 0 0.37080724922377067 0.20930902907989571 0 0.36346135165892218 0.1824230254069025 0 0.37819345577481889 0.19284440219188459 0 0.35433853716687752 0.20303200144128 0 0.37080724922377067 0.20930902907989571 0 0.36346135165892218 0.1824230254069025 0 0.35433853716687752 0.20303200144128 0 0.37080724922377067 0.20930902907989571 0 0.35605940203132341 0.22065861333570561 0 0.33541413474965698 0.22657398575938889 0 0.34268335646806919 0.20849120579468239 0 0.35605940203132341 0.22065861333570561 0 0.34268335646806919 0.20849120579468239 0 0.35433853716687752 0.20303200144128 0 0.35605940203132341 0.22065861333570561 0 0.33541413474965698 0.22657398575938889 0 0.35605940203132341 0.22065861333570561 0 0.35805444133798131 0.23916082611570549 0 0.35605940203132341 0.22065861333570561 0 0.35805444133798131 0.23916082611570549 0 0.37815314678861961 0.2361950327528887 0 0.37080724922377067 0.20930902907989571 0 0.35605940203132341 0.22065861333570561 0 0.37815314678861961 0.2361950327528887 0 0.37080724922377067 0.20930902907989571 0 0.37815314678861961 0.2361950327528887 0 0.36466296129523779 0.25837231629832791 0 0.35805444133798131 0.23916082611570549 0 0.37815314678861961 0.2361950327528887 0 0.34382687823700492 0.25366359617077439 0 0.33541413474965698 0.22657398575938889 0 0.35805444133798131 0.23916082611570549 0 0.32834541315636379 0.15038411148366079 0 0.3526324428379507 0.13331058773229601 0 0.32834541315636379 0.15038411148366079 0 0.34836281040420453 0.15520077986892611 0 0.3526324428379507 0.13331058773229601 0 0.33947101841536509 0.12468772685482531 0 0.33064144843857252 0.13558350341402911 0 0.3526324428379507 0.13331058773229601 0 0.32834541315636379 0.15038411148366079 0 0.33064144843857252 0.13558350341402911 0 0.3526324428379507 0.13331058773229601 0 0.33186283254246501 0.1235880783662746 0 0.33947101841536509 0.12468772685482531 0 0.33064144843857252 0.13558350341402911 0 0.30264864736993102 0.14544571264789169 0 0.32013711549615509 0.1252686193051904 0 0.3168778569062739 0.14072983446874529 0 0.33064144843857252 0.13558350341402911 0 0.32180757670786819 0.12657328920842581 0 0.3168778569062739 0.14072983446874529 0 0.33186283254246501 0.1235880783662746 0 0.33064144843857252 0.13558350341402911 0 0.32180757670786819 0.12657328920842581 0 0.32180757670786819 0.12657328920842581 0 0.32013711549615509 0.1252686193051904 0 0.32180757670786819 0.12657328920842581 0 0.32013711549615509 0.1252686193051904 0 0.3168778569062739 0.14072983446874529 0 0.30405838347477693 0.16745763523502549 0 0.32834541315636379 0.15038411148366079 0 0.3168778569062739 0.14072983446874529 0 0.32834541315636379 0.15038411148366079 0 0.33064144843857252 0.13558350341402911 0 0.3168778569062739 0.14072983446874529 0 0.30405838347477693 0.16745763523502549 0 0.32834541315636379 0.15038411148366079 0 0.30405838347477693 0.16745763523502549 0 0.32834541315636379 0.15038411148366079 0 0.32830549572802142 0.1683003480280095 0 0.30405838347477693 0.16745763523502549 0 0.32110028293434412 0.17997243123379089 0 0.32830549572802142 0.1683003480280095 0 0.31113041517341988 0.1885354991146535 0 0.32494698652051318 0.18896270289450071 0 0.32110028293434412 0.17997243123379089 0 0.32110028293434412 0.17997243123379089 0 0.33415563476318128 0.1806074502638621 0 0.32830549572802142 0.1683003480280095 0 0.32494698652051318 0.18896270289450071 0 0.32110028293434412 0.17997243123379089 0 0.33415563476318128 0.1806074502638621 0 0.32494698652051318 0.18896270289450071 0 0.34060331713018099 0.19270705308903319 0 0.33415563476318128 0.1806074502638621 0 0.33415563476318128 0.1806074502638621 0 0.32830549572802142 0.1683003480280095 0 0.34130901204252168 0.16816964283436689 0 0.33415563476318128 0.1806074502638621 0 0.34130901204252168 0.16816964283436689 0 0.3491168992282972 0.1816005397249647 0 0.34060331713018099 0.19270705308903319 0 0.33415563476318128 0.1806074502638621 0 0.3491168992282972 0.1816005397249647 0 0.32834541315636379 0.15038411148366079 0 0.32830549572802142 0.1683003480280095 0 0.34130901204252168 0.16816964283436689 0 0.32834541315636379 0.15038411148366079 0 0.34130901204252168 0.16816964283436689 0 0.34836281040420453 0.15520077986892611 0 0.35575528797885941 0.16999373575518939 0 0.36377189600532689 0.15414582153911741 0 0.34836281040420453 0.15520077986892611 0 0.34130901204252168 0.16816964283436689 0 0.35575528797885941 0.16999373575518939 0 0.34836281040420453 0.15520077986892611 0 0.34060331713018099 0.19270705308903319 0 0.3491168992282972 0.1816005397249647 0 0.36346135165892218 0.1824230254069025 0 0.34130901204252168 0.16816964283436689 0 0.35575528797885941 0.16999373575518939 0 0.3491168992282972 0.1816005397249647 0 0.35575528797885941 0.16999373575518939 0 0.35791144589171831 0.1778876261118115 0 0.36195665194967819 0.17397545630340069 0 0.35575528797885941 0.16999373575518939 0 0.3491168992282972 0.1816005397249647 0 0.35791144589171831 0.1778876261118115 0 0.3491168992282972 0.1816005397249647 0 0.35791144589171831 0.1778876261118115 0 0.36346135165892218 0.1824230254069025 0 0.36346135165892218 0.1824230254069025 0 0.36853323772669339 0.1694753076273619 0 0.38016675378110992 0.17490712032548869 0 0.36346135165892218 0.1824230254069025 0 0.38016675378110992 0.17490712032548869 0 0.36346135165892218 0.1824230254069025 0 0.37389689462615772 0.18329455011772131 0 0.38016675378110992 0.17490712032548869 0 0.36346135165892218 0.1824230254069025 0 0.36195665194967819 0.17397545630340069 0 0.36853323772669339 0.1694753076273619 0 0.35791144589171831 0.1778876261118115 0 0.36346135165892218 0.1824230254069025 0 0.36195665194967819 0.17397545630340069 0 0.36346135165892218 0.1824230254069025 0 0.37389689462615772 0.18329455011772131 0 0.37819345577481889 0.19284440219188459 0 0.35575528797885941 0.16999373575518939 0 0.36853323772669339 0.1694753076273619 0 0.36377189600532689 0.15414582153911741 0 0.36853323772669339 0.1694753076273619 0 0.36377189600532689 0.15414582153911741 0 0.38048155521774712 0.1577703516237087 0 0.35575528797885941 0.16999373575518939 0 0.36195665194967819 0.17397545630340069 0 0.36853323772669339 0.1694753076273619 0 0.36377189600532689 0.15414582153911741 0 0.3526324428379507 0.13331058773229601 0 0.37756298340506378 0.13780562740498051 0 0.36377189600532689 0.15414582153911741 0 0.37756298340506378 0.13780562740498051 0 0.38048155521774712 0.1577703516237087 0 0.36377189600532689 0.15414582153911741 0 0.34836281040420453 0.15520077986892611 0 0.3526324428379507 0.13331058773229601 0 0.3526324428379507 0.13331058773229601 0 0.37756298340506378 0.13780562740498051 0 0.37691947251953761 0.1162370639809312 0 0.37756298340506378 0.13780562740498051 0 0.37691947251953761 0.1162370639809312 0 0.40128318485565218 0.1233558183267775 0 0.37756298340506378 0.13780562740498051 0 0.40004870126415087 0.1435276578684985 0 0.40128318485565218 0.1233558183267775 0 0.40004870126415087 0.1435276578684985 0 0.41391247776593992 0.1373442411299958 0 0.40128318485565218 0.1233558183267775 0 0.40004870126415087 0.1435276578684985 0 0.38048155521774712 0.1577703516237087 0 0.39687215590329739 0.1673912152440748 0 0.37756298340506378 0.13780562740498051 0 0.40004870126415087 0.1435276578684985 0 0.38048155521774712 0.1577703516237087 0 0.38048155521774712 0.1577703516237087 0 0.38016675378110992 0.17490712032548869 0 0.39687215590329739 0.1673912152440748 0 0.36853323772669339 0.1694753076273619 0 0.38048155521774712 0.1577703516237087 0 0.38016675378110992 0.17490712032548869 0 0.38016675378110992 0.17490712032548869 0 0.39687215590329739 0.1673912152440748 0 0.38016675378110992 0.17490712032548869 0 0.39179017975897029 0.1837701635688106 0 0.39687215590329739 0.1673912152440748 0 0.37389689462615772 0.18329455011772131 0 0.38016675378110992 0.17490712032548869 0 0.39179017975897029 0.1837701635688106 0 0.37389689462615772 0.18329455011772131 0 0.39179017975897029 0.1837701635688106 0 0.37819345577481889 0.19284440219188459 0 0.39179017975897029 0.1837701635688106 0 0.41499104526480102 0.16828412237100751 0 0.40599763051941118 0.1911619260409177 0 0.39179017975897029 0.1837701635688106 0 0.39687215590329739 0.1673912152440748 0 0.41499104526480102 0.16828412237100751 0 0.40004870126415087 0.1435276578684985 0 0.39687215590329739 0.1673912152440748 0 0.41499104526480102 0.16828412237100751 0 0.41499104526480102 0.16828412237100751 0 0.42990314799042889 0.15689934957605831 0 0.41731117198332418 0.14904383321146741 0 0.41499104526480102 0.16828412237100751 0 0.40599763051941118 0.1911619260409177 0 0.42993338926545049 0.19304058687351641 0 0.42993338926545049 0.19304058687351641 0 0.44156550802905331 0.16986994519669321 0 0.41499104526480102 0.16828412237100751 0 0.42993338926545049 0.19304058687351641 0 0.44156550802905331 0.16986994519669321 0 0.41499104526480102 0.16828412237100751 0 0.42993338926545049 0.19304058687351641 0 0.41499104526480102 0.16828412237100751 0 0.42990314799042889 0.15689934957605831 0 0.44156550802905331 0.16986994519669321 0 0.42990314799042889 0.15689934957605831 0 0.4404559221865878 0.14453231946416251 0 0.44156550802905331 0.16986994519669321 0 0.42990314799042889 0.15689934957605831 0 0.42770048763130047 0.13916379511177679 0 0.41731117198332418 0.14904383321146741 0 0.42990314799042889 0.15689934957605831 0 0.42770048763130047 0.13916379511177679 0 0.4404559221865878 0.14453231946416251 0 0.42770048763130047 0.13916379511177679 0 0.4382500518442225 0.13212319946095291 0 0.4404559221865878 0.14453231946416251 0 0.43071063789456399 0.12502849078214531 0 0.42770048763130047 0.13916379511177679 0 0.4382500518442225 0.13212319946095291 0 0.43071063789456399 0.12502849078214531 0 0.42770048763130047 0.13916379511177679 0 0.42055308092332638 0.12629155744970219 0 0.42770048763130047 0.13916379511177679 0 0.42055308092332638 0.12629155744970219 0 0.41391247776593992 0.1373442411299958 0 0.42055308092332638 0.12629155744970219 0 0.41391247776593992 0.1373442411299958 0 0.40128318485565218 0.1233558183267775 0 0.40004870126415087 0.1435276578684985 0 0.41499104526480102 0.16828412237100751 0 0.40004870126415087 0.1435276578684985 0 0.41391247776593992 0.1373442411299958 0 0.41731117198332418 0.14904383321146741 0 0.40004870126415087 0.1435276578684985 0 0.41499104526480102 0.16828412237100751 0 0.41731117198332418 0.14904383321146741 0 0.42770048763130047 0.13916379511177679 0 0.41391247776593992 0.1373442411299958 0 0.41731117198332418 0.14904383321146741 0 0.40307186745932611 0.24164668840001571 0 0.39116481085226162 0.24486815483127761 0 0.38948577197267659 0.2283691713467394 0 0.40307186745932611 0.24164668840001571 0 0.4055205603405086 0.2416698110787677 0 0.40213911942956593 0.2283856093792089 0 0.39961422368721461 0.25504884523086307 0 0.40307186745932611 0.24164668840001571 0 0.39116481085226162 0.24486815483127761 0 0.39116481085226162 0.24486815483127761 0 0.37815314678861961 0.2361950327528887 0 0.38948577197267659 0.2283691713467394 0 0.38549904435347071 0.26308103642588132 0 0.39116481085226162 0.24486815483127761 0 0.37815314678861961 0.2361950327528887 0 0.38549904435347071 0.26308103642588132 0 0.37815314678861961 0.2361950327528887 0 0.37080724922377067 0.20930902907989571 0 0.37815314678861961 0.2361950327528887 0 0.38948577197267659 0.2283691713467394 0 0.38948577197267659 0.2283691713467394 0 0.40213911942956593 0.2283856093792089 0 0.39241332244319638 0.20850780869057989 0 0.40307186745932611 0.24164668840001571 0 0.38948577197267659 0.2283691713467394 0 0.40213911942956593 0.2283856093792089 0 0.40213911942956593 0.2283856093792089 0 0.39241332244319638 0.20850780869057989 0 0.41772697480297921 0.21735519897614189 0 0.37080724922377067 0.20930902907989571 0 0.38948577197267659 0.2283691713467394 0 0.39241332244319638 0.20850780869057989 0 0.37080724922377067 0.20930902907989571 0 0.39241332244319638 0.20850780869057989 0 0.37819345577481889 0.19284440219188459 0 0.39179017975897029 0.1837701635688106 0 0.39241332244319638 0.20850780869057989 0 0.37819345577481889 0.19284440219188459 0 0.39179017975897029 0.1837701635688106 0 0.39241332244319638 0.20850780869057989 0 0.40599763051941118 0.1911619260409177 0 0.39241332244319638 0.20850780869057989 0 0.40599763051941118 0.1911619260409177 0 0.41406346515225328 0.20208028355110369 0 0.40599763051941118 0.1911619260409177 0 0.41406346515225328 0.20208028355110369 0 0.42993338926545049 0.19304058687351641 0 0.42993338926545049 0.19304058687351641 0 0.43811661208239677 0.20659854439176301 0 0.41772697480297921 0.21735519897614189 0 0.43170612979828688 0.22229396871989479 0 0.43811661208239677 0.20659854439176301 0 0.42993338926545049 0.19304058687351641 0 0.41772697480297921 0.21735519897614189 0 0.43811661208239677 0.20659854439176301 0 0.42993338926545049 0.19304058687351641 0 0.41772697480297921 0.21735519897614189 0 0.39241332244319638 0.20850780869057989 0 0.41406346515225328 0.20208028355110369 0 0.41772697480297921 0.21735519897614189 0 0.41406346515225328 0.20208028355110369 0 0.42993338926545049 0.19304058687351641 0 0.41772697480297921 0.21735519897614189 0 0.4055205603405086 0.2416698110787677 0 0.41772697480297921 0.21735519897614189 0 0.4055205603405086 0.2416698110787677 0 0.41772697480297921 0.21735519897614189 0 0.4207529593419152 0.23385050278102459 0 0.4055205603405086 0.2416698110787677 0 0.40213911942956593 0.2283856093792089 0 0.41772697480297921 0.21735519897614189 0 0.41772697480297921 0.21735519897614189 0 0.4207529593419152 0.23385050278102459 0 0.43170612979828688 0.22229396871989479 0 0.4207529593419152 0.23385050278102459 0 0.43170612979828688 0.22229396871989479 0 0.43563426786480108 0.23350909554053501 0 0.4207529593419152 0.23385050278102459 0 0.43563426786480108 0.23350909554053501 0 0.42496870083025928 0.24686168917106019 0 0.43563426786480108 0.23350909554053501 0 0.42496870083025928 0.24686168917106019 0 0.43563426786480108 0.23350909554053501 0 0.42496870083025928 0.24686168917106019 0 0.43837580178273289 0.24680007367012541 0 0.41397834584231102 0.25681423376881951 0 0.42496870083025928 0.24686168917106019 0 0.41583116612429061 0.2452871265857296 0 0.4207529593419152 0.23385050278102459 0 0.42496870083025928 0.24686168917106019 0 0.41583116612429061 0.2452871265857296 0 0.4055205603405086 0.2416698110787677 0 0.4207529593419152 0.23385050278102459 0 0.41583116612429061 0.2452871265857296 0 0.41397834584231102 0.25681423376881951 0 0.40307186745932611 0.24164668840001571 0 0.4055205603405086 0.2416698110787677 0 0.41397834584231102 0.25681423376881951 0 0.4055205603405086 0.2416698110787677 0 0.41583116612429061 0.2452871265857296 0 0.41397834584231102 0.25681423376881951 0 0.40307186745932611 0.24164668840001571 0 0.46819191412942962 0.25963055775866262 0 0.4622623097057188 0.23748440550378511 0 0.46819191412942962 0.25963055775866262 0 0.4636234786344271 0.248858302053486 0 0.4622623097057188 0.23748440550378511 0 0.4636234786344271 0.248858302053486 0 0.4622623097057188 0.23748440550378511 0 0.4590063719711216 0.24120868314433469 0 0.4636234786344271 0.248858302053486 0 0.4590063719711216 0.24120868314433469 0 0.4622623097057188 0.23748440550378511 0 0.46091091418264069 0.23243715296010739 0 0.4622623097057188 0.23748440550378511 0 0.4590063719711216 0.24120868314433469 0 0.46091091418264069 0.23243715296010739 0 0.4622623097057188 0.23748440550378511 0 0.4590063719711216 0.24120868314433469 0 0.45852910184224138 0.25462015848999148 0 0.4636234786344271 0.248858302053486 0 0.4590063719711216 0.24120868314433469 0 0.44495931258128413 0.25727629667548702 0 0.4590063719711216 0.24120868314433469 0 0.44495931258128413 0.25727629667548702 0 0.4590063719711216 0.24120868314433469 0 0.43837580178273289 0.24680007367012541 0 0.43563426786480108 0.23350909554053501 0 0.4590063719711216 0.24120868314433469 0 0.43837580178273289 0.24680007367012541 0 0.4590063719711216 0.24120868314433469 0 0.44629983489934277 0.22015650191000971 0 0.43563426786480108 0.23350909554053501 0 0.4590063719711216 0.24120868314433469 0 0.44629983489934277 0.22015650191000971 0 0.43563426786480108 0.23350909554053501 0 0.44629983489934277 0.22015650191000971 0 0.43170612979828688 0.22229396871989479 0 0.43563426786480108 0.23350909554053501 0 0.44629983489934277 0.22015650191000971 0 0.4590063719711216 0.24120868314433469 0 0.44629983489934277 0.22015650191000971 0 0.46091091418264069 0.23243715296010739 0 0.44629983489934277 0.22015650191000971 0 0.46091091418264069 0.23243715296010739 0 0.46128259443552078 0.2181041728270926 0 0.4622623097057188 0.23748440550378511 0 0.46091091418264069 0.23243715296010739 0 0.47463198055998562 0.22333545907463531 0 0.4622623097057188 0.23748440550378511 0 0.47463198055998562 0.22333545907463531 0 0.46091091418264069 0.23243715296010739 0 0.46128259443552078 0.2181041728270926 0 0.47463198055998562 0.22333545907463531 0 0.44629983489934277 0.22015650191000971 0 0.46128259443552078 0.2181041728270926 0 0.4592793391558625 0.20390700994191391 0 0.46128259443552078 0.2181041728270926 0 0.4592793391558625 0.20390700994191391 0 0.47359118118805632 0.20418024004446081 0 0.44629983489934277 0.22015650191000971 0 0.4592793391558625 0.20390700994191391 0 0.43170612979828688 0.22229396871989479 0 0.44629983489934277 0.22015650191000971 0 0.43811661208239677 0.20659854439176301 0 0.44629983489934277 0.22015650191000971 0 0.4592793391558625 0.20390700994191391 0 0.43811661208239677 0.20659854439176301 0 0.44629983489934277 0.22015650191000971 0 0.43811661208239677 0.20659854439176301 0 0.4592793391558625 0.20390700994191391 0 0.43811661208239677 0.20659854439176301 0 0.44942550822311328 0.1896669097585659 0 0.42993338926545049 0.19304058687351641 0 0.43811661208239677 0.20659854439176301 0 0.44942550822311328 0.1896669097585659 0 0.4592793391558625 0.20390700994191391 0 0.44942550822311328 0.1896669097585659 0 0.47225884341238189 0.18765751797381791 0 0.4592793391558625 0.20390700994191391 0 0.47225884341238189 0.18765751797381791 0 0.47359118118805632 0.20418024004446081 0 0.4592793391558625 0.20390700994191391 0 0.47225884341238189 0.18765751797381791 0 0.47225884341238189 0.18765751797381791 0 0.48536979440758199 0.19629478183707319 0 0.47359118118805632 0.20418024004446081 0 0.47225884341238189 0.18765751797381791 0 0.48536979440758199 0.19629478183707319 0 0.48517469933923979 0.18427302123577041 0 0.49199466307053941 0.18788459319946341 0 0.48536979440758199 0.19629478183707319 0 0.48517469933923979 0.18427302123577041 0 0.49199466307053941 0.18788459319946341 0 0.5 0.20153755310618299 0 0.5 0.17723247705058071 0 0.49199466307053941 0.18788459319946341 0 0.5 0.20153755310618299 0 0.48536979440758199 0.19629478183707319 0 0.5 0.20153755310618299 0 0.48536979440758199 0.19629478183707319 0 0.48700165141425128 0.2091865126454846 0 0.5 0.20153755310618299 0 0.48700165141425128 0.2091865126454846 0 0.5 0.22584262916178541 0 0.48700165141425128 0.2091865126454846 0 0.47359118118805632 0.20418024004446081 0 0.47463198055998562 0.22333545907463531 0 0.46128259443552078 0.2181041728270926 0 0.47359118118805632 0.20418024004446081 0 0.47463198055998562 0.22333545907463531 0 0.48700165141425128 0.2091865126454846 0 0.47463198055998562 0.22333545907463531 0 0.48536979440758199 0.19629478183707319 0 0.48700165141425128 0.2091865126454846 0 0.47359118118805632 0.20418024004446081 0 0.47422603099963478 0.23358508441598261 0 0.48539228077000662 0.22462198847147991 0 0.48173234060001391 0.24202447164634611 0 0.4622623097057188 0.23748440550378511 0 0.47463198055998562 0.22333545907463531 0 0.47422603099963478 0.23358508441598261 0 0.47463198055998562 0.22333545907463531 0 0.47422603099963478 0.23358508441598261 0 0.48539228077000662 0.22462198847147991 0 0.48700165141425128 0.2091865126454846 0 0.47463198055998562 0.22333545907463531 0 0.48539228077000662 0.22462198847147991 0 0.48700165141425128 0.2091865126454846 0 0.48539228077000662 0.22462198847147991 0 0.5 0.22584262916178541 0 0.48539228077000662 0.22462198847147991 0 0.5 0.22584262916178541 0 0.48173234060001391 0.24202447164634611 0 0.5 0.25014770521738799 0 0.5 0.22584262916178541 0 0.48173234060001391 0.24202447164634611 0 0.46819191412942962 0.25963055775866262 0 0.4622623097057188 0.23748440550378511 0 0.48173234060001391 0.24202447164634611 0 0.4622623097057188 0.23748440550378511 0 0.47422603099963478 0.23358508441598261 0 0.48173234060001391 0.24202447164634611 0 0.45319762679265668 0.1466993035198704 0 0.45659537402215211 0.16043337933642521 0 0.46911416086001162 0.1533458663554253 0 0.45298997405112068 0.13528370670512799 0 0.46911416086001162 0.1533458663554253 0 0.45319762679265668 0.1466993035198704 0 0.45298997405112068 0.13528370670512799 0 0.46911416086001162 0.1533458663554253 0 0.46791488031267608 0.12971683876964091 0 0.45298997405112068 0.13528370670512799 0 0.46911416086001162 0.1533458663554253 0 0.46791488031267608 0.12971683876964091 0 0.45298997405112068 0.13528370670512799 0 0.44567875427549231 0.1195324059229495 0 0.45298997405112068 0.13528370670512799 0 0.4382500518442225 0.13212319946095291 0 0.43686578724223002 0.1172215470548308 0 0.45298997405112068 0.13528370670512799 0 0.43686578724223002 0.1172215470548308 0 0.45298997405112068 0.13528370670512799 0 0.4382500518442225 0.13212319946095291 0 0.4404559221865878 0.14453231946416251 0 0.45319762679265668 0.1466993035198704 0 0.4404559221865878 0.14453231946416251 0 0.44156550802905331 0.16986994519669321 0 0.45319762679265668 0.1466993035198704 0 0.45298997405112068 0.13528370670512799 0 0.4404559221865878 0.14453231946416251 0 0.45319762679265668 0.1466993035198704 0 0.44156550802905331 0.16986994519669321 0 0.45319762679265668 0.1466993035198704 0 0.44156550802905331 0.16986994519669321 0 0.45659537402215211 0.16043337933642521 0 0.44942550822311328 0.1896669097585659 0 0.44156550802905331 0.16986994519669321 0 0.46250420040688711 0.17181840227371201 0 0.42993338926545049 0.19304058687351641 0 0.44942550822311328 0.1896669097585659 0 0.44156550802905331 0.16986994519669321 0 0.44942550822311328 0.1896669097585659 0 0.47225884341238189 0.18765751797381791 0 0.46250420040688711 0.17181840227371201 0 0.44156550802905331 0.16986994519669321 0 0.46250420040688711 0.17181840227371201 0 0.45659537402215211 0.16043337933642521 0 0.46250420040688711 0.17181840227371201 0 0.45659537402215211 0.16043337933642521 0 0.46911416086001162 0.1533458663554253 0 0.48523834766890228 0.17140802600572269 0 0.48468535884038022 0.15460173691254589 0 0.46911416086001162 0.1533458663554253 0 0.48523834766890228 0.17140802600572269 0 0.46911416086001162 0.1533458663554253 0 0.46250420040688711 0.17181840227371201 0 0.48523834766890228 0.17140802600572269 0 0.46911416086001162 0.1533458663554253 0 0.47225884341238189 0.18765751797381791 0 0.46250420040688711 0.17181840227371201 0 0.48523834766890228 0.17140802600572269 0 0.47225884341238189 0.18765751797381791 0 0.48523834766890228 0.17140802600572269 0 0.47225884341238189 0.18765751797381791 0 0.48517469933923979 0.18427302123577041 0 0.48523834766890228 0.17140802600572269 0 0.49199466307053941 0.18788459319946341 0 0.48517469933923979 0.18427302123577041 0 0.49009612812803471 0.17684966515558401 0 0.49009612812803471 0.17684966515558401 0 0.5 0.17723247705058071 0 0.48523834766890228 0.17140802600572269 0 0.48517469933923979 0.18427302123577041 0 0.49009612812803471 0.17684966515558401 0 0.48523834766890228 0.17140802600572269 0 0.49009612812803471 0.17684966515558401 0 0.48523834766890228 0.17140802600572269 0 0.49199466307053941 0.18788459319946341 0 0.49009612812803471 0.17684966515558401 0 0.5 0.17723247705058071 0 0.48523834766890228 0.17140802600572269 0 0.50000000000000244 0.15292740099497809 0 0.48523834766890228 0.17140802600572269 0 0.50000000000000244 0.15292740099497809 0 0.48468535884038022 0.15460173691254589 0 0.5 0.17723247705058071 0 0.48523834766890228 0.17140802600572269 0 0.50000000000000244 0.15292740099497809 0 0.50000000000000244 0.15292740099497809 0 0.48438892683260409 0.14072565429405709 0 0.48468535884038022 0.15460173691254589 0 0.48438892683260409 0.14072565429405709 0 0.48468535884038022 0.15460173691254589 0 0.46911416086001162 0.1533458663554253 0 0.46791488031267608 0.12971683876964091 0 0.48438892683260409 0.14072565429405709 0 0.46911416086001162 0.1533458663554253 0 0.46791488031267608 0.12971683876964091 0 0.48438892683260409 0.14072565429405709 0 0.48176905321619518 0.12737724680991891 0 0.50000000000000244 0.15292740099497809 0 0.48438892683260409 0.14072565429405709 0 0.5 0.1246669565937749 0 0.48438892683260409 0.14072565429405709 0 0.48176905321619518 0.12737724680991891 0 0.5 0.1246669565937749 0 0.5 0.1246669565937749 0 0.5 0.096406512192571903 0 0.47477240571950069 0.1143995375822025 0 0.48176905321619518 0.12737724680991891 0 0.5 0.1246669565937749 0 0.47477240571950069 0.1143995375822025 0 0.5 0.096406512192571903 0 0.47477240571950069 0.1143995375822025 0 0.48269709084383772 0.09038327126138801 0 0.47477240571950069 0.1143995375822025 0 0.48269709084383772 0.09038327126138801 0 0.46863390301693869 0.098780185644859575 0 0.47477240571950069 0.1143995375822025 0 0.46455537595218022 0.1093850591155995 0 0.46863390301693869 0.098780185644859575 0 0.46791488031267608 0.12971683876964091 0 0.48176905321619518 0.12737724680991891 0 0.47477240571950069 0.1143995375822025 0 0.50000000000000111 0.068146067791368781 0 0.4762503674825751 0.074604692661907543 0 0.47934360680792132 0.059827195240447162 0 0.50000000000000111 0.068146067791368781 0 0.48269709084383772 0.09038327126138801 0 0.4762503674825751 0.074604692661907543 0 0.5 0.096406512192571903 0 0.50000000000000111 0.068146067791368781 0 0.48269709084383772 0.09038327126138801 0 0.48269709084383772 0.09038327126138801 0 0.46991561208366062 0.086314581268473856 0 0.4762503674825751 0.074604692661907543 0 0.48269709084383772 0.09038327126138801 0 0.46991561208366062 0.086314581268473856 0 0.46863390301693869 0.098780185644859575 0 0.46991561208366062 0.086314581268473856 0 0.4762503674825751 0.074604692661907543 0 0.4613984731203663 0.078144277460282546 0 0.4762503674825751 0.074604692661907543 0 0.46120063341575729 0.066486121345630755 0 0.47934360680792132 0.059827195240447162 0 0.46120063341575729 0.066486121345630755 0 0.44476346126311889 0.068543460918422422 0 0.46346883004162021 0.055393785461823067 0 0.4762503674825751 0.074604692661907543 0 0.46120063341575729 0.066486121345630755 0 0.4613984731203663 0.078144277460282546 0 0.46120063341575729 0.066486121345630755 0 0.4613984731203663 0.078144277460282546 0 0.452080408855496 0.072634912051734751 0 0.4613984731203663 0.078144277460282546 0 0.45122683378063239 0.082088122213960529 0 0.452080408855496 0.072634912051734751 0 0.4613984731203663 0.078144277460282546 0 0.45836713409231278 0.087708285717100154 0 0.45122683378063239 0.082088122213960529 0 0.46991561208366062 0.086314581268473856 0 0.4613984731203663 0.078144277460282546 0 0.45836713409231278 0.087708285717100154 0 0.46991561208366062 0.086314581268473856 0 0.45836713409231278 0.087708285717100154 0 0.46863390301693869 0.098780185644859575 0 0.45836713409231278 0.087708285717100154 0 0.45582672410397201 0.09706220810488693 0 0.44628432154230019 0.095992743929607327 0 0.44105447916535151 0.083182941203517824 0 0.44628432154230019 0.095992743929607327 0 0.42920158121037549 0.096493251374348249 0 0.45836713409231278 0.087708285717100154 0 0.45122683378063239 0.082088122213960529 0 0.44628432154230019 0.095992743929607327 0 0.44105447916535151 0.083182941203517824 0 0.45122683378063239 0.082088122213960529 0 0.44628432154230019 0.095992743929607327 0 0.44105447916535151 0.083182941203517824 0 0.45122683378063239 0.082088122213960529 0 0.452080408855496 0.072634912051734751 0 0.44476346126311889 0.068543460918422422 0 0.4399612537531109 0.065858188526994738 0 0.46346883004162021 0.055393785461823067 0 0.46120063341575729 0.066486121345630755 0 0.452080408855496 0.072634912051734751 0 0.44476346126311889 0.068543460918422422 0 0.44105447916535151 0.083182941203517824 0 0.452080408855496 0.072634912051734751 0 0.44476346126311889 0.068543460918422422 0 0.452080408855496 0.072634912051734751 0 0.44476346126311889 0.068543460918422422 0 0.44476346126311889 0.068543460918422422 0 0.4399612537531109 0.065858188526994738 0 0.46791488031267608 0.12971683876964091 0 0.4590964120630075 0.11760423308985681 0 0.44567875427549231 0.1195324059229495 0 0.47477240571950069 0.1143995375822025 0 0.4590964120630075 0.11760423308985681 0 0.46455537595218022 0.1093850591155995 0 0.46791488031267608 0.12971683876964091 0 0.44567875427549231 0.1195324059229495 0 0.46791488031267608 0.12971683876964091 0 0.47477240571950069 0.1143995375822025 0 0.4590964120630075 0.11760423308985681 0 0.4590964120630075 0.11760423308985681 0 0.45571878300927338 0.1067562801454793 0 0.44721251189938138 0.1099981154846609 0 0.4590964120630075 0.11760423308985681 0 0.46455537595218022 0.1093850591155995 0 0.45571878300927338 0.1067562801454793 0 0.46455537595218022 0.1093850591155995 0 0.46863390301693869 0.098780185644859575 0 0.45571878300927338 0.1067562801454793 0 0.45836713409231278 0.087708285717100154 0 0.46863390301693869 0.098780185644859575 0 0.45582672410397201 0.09706220810488693 0 0.46863390301693869 0.098780185644859575 0 0.45582672410397201 0.09706220810488693 0 0.45571878300927338 0.1067562801454793 0 0.44628432154230019 0.095992743929607327 0 0.43823792291420521 0.106326090855647 0 0.42920158121037549 0.096493251374348249 0 0.45571878300927338 0.1067562801454793 0 0.44628432154230019 0.095992743929607327 0 0.44721251189938138 0.1099981154846609 0 0.45582672410397201 0.09706220810488693 0 0.45571878300927338 0.1067562801454793 0 0.44628432154230019 0.095992743929607327 0 0.44628432154230019 0.095992743929607327 0 0.43823792291420521 0.106326090855647 0 0.44721251189938138 0.1099981154846609 0 0.43823792291420521 0.106326090855647 0 0.44721251189938138 0.1099981154846609 0 0.44567875427549231 0.1195324059229495 0 0.45298997405112068 0.13528370670512799 0 0.44567875427549231 0.1195324059229495 0 0.43686578724223002 0.1172215470548308 0 0.4590964120630075 0.11760423308985681 0 0.44721251189938138 0.1099981154846609 0 0.44567875427549231 0.1195324059229495 0 0.44567875427549231 0.1195324059229495 0 0.42344262823830842 0.1093479730762579 0 0.43071063789456399 0.12502849078214531 0 0.4382500518442225 0.13212319946095291 0 0.43686578724223002 0.1172215470548308 0 0.43071063789456399 0.12502849078214531 0 0.42055308092332638 0.12629155744970219 0 0.42344262823830842 0.1093479730762579 0 0.44567875427549231 0.1195324059229495 0 0.43686578724223002 0.1172215470548308 0 0.42344262823830842 0.1093479730762579 0 0.43823792291420521 0.106326090855647 0 0.44567875427549231 0.1195324059229495 0 0.42344262823830842 0.1093479730762579 0 0.43071063789456399 0.12502849078214531 0 0.43686578724223002 0.1172215470548308 0 0.42344262823830842 0.1093479730762579 0 0.42055308092332638 0.12629155744970219 0 0.42344262823830842 0.1093479730762579 0 0.40128318485565218 0.1233558183267775 0 0.42344262823830842 0.1093479730762579 0 0.40128318485565218 0.1233558183267775 0 0.40120650220112442 0.099163540229566471 0 0.42344262823830842 0.1093479730762579 0 0.40120650220112442 0.099163540229566471 0 0.42920158121037549 0.096493251374348249 0 0.42344262823830842 0.1093479730762579 0 0.40120650220112442 0.099163540229566471 0 0.43823792291420521 0.106326090855647 0 0.42920158121037549 0.096493251374348249 0 0.42344262823830842 0.1093479730762579 0 0.44105447916535151 0.083182941203517824 0 0.42920158121037549 0.096493251374348249 0 0.42298498173212279 0.083853500573996056 0 0.44105447916535151 0.083182941203517824 0 0.44476346126311889 0.068543460918422422 0 0.42298498173212279 0.083853500573996056 0 0.44476346126311889 0.068543460918422422 0 0.42298498173212279 0.083853500573996056 0 0.4399612537531109 0.065858188526994738 0 0.42111802534233322 0.074246256046993045 0 0.4399612537531109 0.065858188526994738 0 0.42298498173212279 0.083853500573996056 0 0.42111802534233322 0.074246256046993045 0 0.4399612537531109 0.065858188526994738 0 0.42111802534233322 0.074246256046993045 0 0.41389355987207871 0.051281796619556307 0 0.44476346126311889 0.068543460918422422 0 0.4399612537531109 0.065858188526994738 0 0.42298498173212279 0.083853500573996056 0 0.42111802534233322 0.074246256046993045 0 0.4022747969315551 0.082634323566990284 0 0.39902164583352667 0.061290855230049859 0 0.42298498173212279 0.083853500573996056 0 0.4022747969315551 0.082634323566990284 0 0.40120650220112442 0.099163540229566471 0 0.42111802534233322 0.074246256046993045 0 0.4022747969315551 0.082634323566990284 0 0.42298498173212279 0.083853500573996056 0 0.40120650220112442 0.099163540229566471 0 0.42298498173212279 0.083853500573996056 0 0.42111802534233322 0.074246256046993045 0 0.4022747969315551 0.082634323566990284 0 0.42920158121037549 0.096493251374348249 0 0.42298498173212279 0.083853500573996056 0 0.40120650220112442 0.099163540229566471 0 0.4022747969315551 0.082634323566990284 0 0.38343156852077698 0.091022391086987564 0 0.4022747969315551 0.082634323566990284 0 0.38793808127173901 0.07117615043477922 0 0.38476361338974502 0.081158169356216558 0 0.4022747969315551 0.082634323566990284 0 0.38343156852077698 0.091022391086987564 0 0.40120650220112442 0.099163540229566471 0 0.4022747969315551 0.082634323566990284 0 0.38793808127173901 0.07117615043477922 0 0.39902164583352667 0.061290855230049859 0 0.38793808127173901 0.07117615043477922 0 0.37660116703828589 0.074451192733297311 0 0.38171379994375088 0.0542253180357022 0 0.38793808127173901 0.07117615043477922 0 0.37660116703828589 0.074451192733297311 0 0.38476361338974502 0.081158169356216558 0 0.4022747969315551 0.082634323566990284 0 0.38343156852077698 0.091022391086987564 0 0.38476361338974502 0.081158169356216558 0 0.37357245318636773 0.086506788959028413 0 0.37660116703828589 0.074451192733297311 0 0.38476361338974502 0.081158169356216558 0 0.37357245318636773 0.086506788959028413 0 0.38343156852077698 0.091022391086987564 0 0.37357245318636773 0.086506788959028413 0 0.38343156852077698 0.091022391086987564 0 0.38476361338974502 0.081158169356216558 0 0.37357245318636773 0.086506788959028413 0 0.38343156852077698 0.091022391086987564 0 0.37881355117099191 0.093078102586847011 0 0.38343156852077698 0.091022391086987564 0 0.37881355117099191 0.093078102586847011 0 0.38275103844128677 0.10064029316005831 0 0.37691947251953761 0.1162370639809312 0 0.40120650220112442 0.099163540229566471 0 0.38343156852077698 0.091022391086987564 0 0.38275103844128677 0.10064029316005831 0 0.40120650220112442 0.099163540229566471 0 0.38343156852077698 0.091022391086987564 0 0.37881355117099191 0.093078102586847011 0 0.38275103844128677 0.10064029316005831 0 0.37691947251953761 0.1162370639809312 0 0.40120650220112442 0.099163540229566471 0 0.37338409779400328 0.103700367915959 0 0.37881355117099191 0.093078102586847011 0 0.38275103844128677 0.10064029316005831 0 0.37338409779400328 0.103700367915959 0 0.38275103844128677 0.10064029316005831 0 0.37691947251953761 0.1162370639809312 0 0.37691947251953761 0.1162370639809312 0 0.40128318485565218 0.1233558183267775 0 0.40120650220112442 0.099163540229566471 0 0.38343156852077698 0.091022391086987564 0 0.40120650220112442 0.099163540229566471 0 0.40498217077221782 0.015798502453937598 0 0.39045446535697881 0.03350215840002202 0 0.4143617697724199 0.024448375911218252 0 0.40498217077221782 0.015798502453937598 0 0.39045446535697881 0.03350215840002202 0 0.40498217077221782 0.015798502453937598 0 0.38480881943667211 0.024142788890282742 0 0.39045446535697881 0.03350215840002202 0 0.39045446535697881 0.03350215840002202 0 0.4143617697724199 0.024448375911218252 0 0.40498217077221782 0.015798502453937598 0 0.40745588828659562 0.016162653305013871 0 0.40498217077221782 0.015798502453937598 0 0.39026598149007408 0.0050009458897899723 0 0.37756287430724528 0.011762164397755331 0 0.40498217077221782 0.015798502453937598 0 0.40220063449233717 0.0033575902942124228 0 0.39026598149007408 0.0050009458897899723 0 0.40498217077221782 0.015798502453937598 0 0.37756287430724528 0.011762164397755331 0 0.40220063449233717 0.0033575902942124228 0 0.39026598149007408 0.0050009458897899723 0 0.39512660610726902 -0.0037635568173960809 0 0.39026598149007408 0.0050009458897899723 0 0.38172434371131853 0.0045516513347433072 0 0.37756287430724528 0.011762164397755331 0 0.39026598149007408 0.0050009458897899723 0 0.38172434371131853 0.0045516513347433072 0 0.38383006574189632 -0.001074199461184717 0 0.39026598149007408 0.0050009458897899723 0 0.39512660610726902 -0.0037635568173960809 0 0.38383006574189632 -0.001074199461184717 0 0.38172434371131853 0.0045516513347433072 0 0.37576332961284681 0.004108183588312002 0 0.38383006574189632 -0.001074199461184717 0 0.38172434371131853 0.0045516513347433072 0 0.37576332961284681 0.004108183588312002 0 0.37756287430724528 0.011762164397755331 0 0.36557274311667359 0.024262023964228479 0 0.38480881943667211 0.024142788890282742 0 0.38547184363024573 0.035389095235473858 0 0.36557274311667359 0.024262023964228479 0 0.38547184363024573 0.035389095235473858 0 0.40498217077221782 0.015798502453937598 0 0.37756287430724528 0.011762164397755331 0 0.38480881943667211 0.024142788890282742 0 0.36557274311667359 0.024262023964228479 0 0.37756287430724528 0.011762164397755331 0 0.38480881943667211 0.024142788890282742 0 0.38480881943667211 0.024142788890282742 0 0.39045446535697881 0.03350215840002202 0 0.38547184363024573 0.035389095235473858 0 0.36894782535792581 0.059710437286252693 0 0.3878258659910469 0.036705404712117251 0 0.38547184363024573 0.035389095235473858 0 0.3878258659910469 0.036705404712117251 0 0.39045446535697881 0.03350215840002202 0 0.38547184363024573 0.035389095235473858 0 0.3878258659910469 0.036705404712117251 0 0.39045446535697881 0.03350215840002202 0 0.39045446535697881 0.03350215840002202 0 0.38547184363024573 0.035389095235473858 0 0.3878258659910469 0.036705404712117251 0 0.38547184363024573 0.035389095235473858 0 0.3878258659910469 0.036705404712117251 0 0.38171379994375088 0.0542253180357022 0 0.39561371791010042 0.050875843649357003 0 0.36894782535792581 0.059710437286252693 0 0.3878258659910469 0.036705404712117251 0 0.38171379994375088 0.0542253180357022 0 0.36894782535792581 0.059710437286252693 0 0.3878258659910469 0.036705404712117251 0 0.38793808127173901 0.07117615043477922 0 0.38171379994375088 0.0542253180357022 0 0.39902164583352667 0.061290855230049859 0 0.38171379994375088 0.0542253180357022 0 0.39561371791010042 0.050875843649357003 0 0.39902164583352667 0.061290855230049859 0 0.39561371791010042 0.050875843649357003 0 0.39902164583352667 0.061290855230049859 0 0.41389355987207871 0.051281796619556307 0 0.39045446535697881 0.03350215840002202 0 0.40468661915171988 0.036297396104894353 0 0.4143617697724199 0.024448375911218252 0 0.3878258659910469 0.036705404712117251 0 0.41389355987207871 0.051281796619556307 0 0.3878258659910469 0.036705404712117251 0 0.39561371791010042 0.050875843649357003 0 0.41389355987207871 0.051281796619556307 0 0.3878258659910469 0.036705404712117251 0 0.39045446535697881 0.03350215840002202 0 0.40468661915171988 0.036297396104894353 0 0.3878258659910469 0.036705404712117251 0 0.40468661915171988 0.036297396104894353 0 0.41389355987207871 0.051281796619556307 0 0.40468661915171988 0.036297396104894353 0 0.41673574938893831 0.035475668586974547 0 0.4143617697724199 0.024448375911218252 0 0.40468661915171988 0.036297396104894353 0 0.41673574938893831 0.035475668586974547 0 0.41389355987207871 0.051281796619556307 0 0.41673574938893831 0.035475668586974547 0 0.41389355987207871 0.051281796619556307 0 0.42715285796769459 0.037168896995520027 0 0.42111802534233322 0.074246256046993045 0 0.39902164583352667 0.061290855230049859 0 0.41389355987207871 0.051281796619556307 0 0.4399612537531109 0.065858188526994738 0 0.41389355987207871 0.051281796619556307 0 0.4399612537531109 0.065858188526994738 0 0.41389355987207871 0.051281796619556307 0 0.44061206725762292 0.044946437138064767 0 0.41389355987207871 0.051281796619556307 0 0.42715285796769459 0.037168896995520027 0 0.44061206725762292 0.044946437138064767 0 0.42715285796769459 0.037168896995520027 0 0.43704740407154308 0.025683143898134551 0 0.44061206725762292 0.044946437138064767 0 0.41673574938893831 0.035475668586974547 0 0.42715285796769459 0.037168896995520027 0 0.42358394018077861 0.028181877303683819 0 0.43704740407154308 0.025683143898134551 0 0.42699545384233489 0.018835806780444501 0 0.43490284539554103 0.012230972893665081 0 0.43704740407154308 0.025683143898134551 0 0.42699545384233489 0.018835806780444501 0 0.42358394018077861 0.028181877303683819 0 0.42715285796769459 0.037168896995520027 0 0.43704740407154308 0.025683143898134551 0 0.42358394018077861 0.028181877303683819 0 0.41673574938893831 0.035475668586974547 0 0.42358394018077861 0.028181877303683819 0 0.4143617697724199 0.024448375911218252 0 0.42699545384233489 0.018835806780444501 0 0.4143617697724199 0.024448375911218252 0 0.40745588828659562 0.016162653305013871 0 0.42699545384233489 0.018835806780444501 0 0.42358394018077861 0.028181877303683819 0 0.4143617697724199 0.024448375911218252 0 0.40498217077221782 0.015798502453937598 0 0.4143617697724199 0.024448375911218252 0 0.40745588828659562 0.016162653305013871 0 0.42699545384233489 0.018835806780444501 0 0.40745588828659562 0.016162653305013871 0 0.41462129863557812 0.0040521324363909823 0 0.40220063449233717 0.0033575902942124228 0 0.41462129863557812 0.0040521324363909823 0 0.40816500409161949 -0.0042299970316301222 0 0.40498217077221782 0.015798502453937598 0 0.40220063449233717 0.0033575902942124228 0 0.41462129863557812 0.0040521324363909823 0 0.40498217077221782 0.015798502453937598 0 0.40745588828659562 0.016162653305013871 0 0.41462129863557812 0.0040521324363909823 0 0.40498217077221782 0.015798502453937598 0 0.41462129863557812 0.0040521324363909823 0 0.42699545384233489 0.018835806780444501 0 0.41462129863557812 0.0040521324363909823 0 0.42426042649894041 -0.007694237581154225 0 0.42699545384233489 0.018835806780444501 0 0.4317922620945811 0.003670571562150996 0 0.42426042649894041 -0.007694237581154225 0 0.42699545384233489 0.018835806780444501 0 0.42426042649894041 -0.007694237581154225 0 0.42699545384233489 0.018835806780444501 0 0.43490284539554103 0.012230972893665081 0 0.4317922620945811 0.003670571562150996 0 0.4317922620945811 0.003670571562150996 0 0.44213654324867241 0.0055164087951831038 0 0.43414703366845081 -0.0044506786977244481 0 0.43490284539554103 0.012230972893665081 0 0.4317922620945811 0.003670571562150996 0 0.44213654324867241 0.0055164087951831038 0 0.44213654324867241 0.0055164087951831038 0 0.45846650074554252 0.0086952507341566451 0 0.44302015506799619 -0.0055733252883869207 0 0.44213654324867241 0.0055164087951831038 0 0.45045216425624029 0.012147347249051201 0 0.45846650074554252 0.0086952507341566451 0 0.45846650074554252 0.0086952507341566451 0 0.44302015506799619 -0.0055733252883869207 0 0.45045216425624029 0.012147347249051201 0 0.44217484151235431 0.011894723113369169 0 0.45098388991290889 0.02038789680450194 0 0.44213654324867241 0.0055164087951831038 0 0.45045216425624029 0.012147347249051201 0 0.44217484151235431 0.011894723113369169 0 0.43490284539554103 0.012230972893665081 0 0.44213654324867241 0.0055164087951831038 0 0.44217484151235431 0.011894723113369169 0 0.43704740407154308 0.025683143898134551 0 0.44217484151235431 0.011894723113369169 0 0.45098388991290889 0.02038789680450194 0 0.43704740407154308 0.025683143898134551 0 0.43490284539554103 0.012230972893665081 0 0.44217484151235431 0.011894723113369169 0 0.43704740407154308 0.025683143898134551 0 0.45098388991290889 0.02038789680450194 0 0.45227971183432158 0.032631568930346369 0 0.45098388991290889 0.02038789680450194 0 0.45882758774568361 0.018017367993873469 0 0.46032253739063739 0.025892518424957389 0 0.45045216425624029 0.012147347249051201 0 0.45098388991290889 0.02038789680450194 0 0.45882758774568361 0.018017367993873469 0 0.45098388991290889 0.02038789680450194 0 0.46032253739063739 0.025892518424957389 0 0.45227971183432158 0.032631568930346369 0 0.46032253739063739 0.025892518424957389 0 0.46491766579178828 0.036417110703275031 0 0.47391284642308867 0.022963826756700199 0 0.45882758774568361 0.018017367993873469 0 0.46032253739063739 0.025892518424957389 0 0.47391284642308867 0.022963826756700199 0 0.45882758774568361 0.018017367993873469 0 0.45846650074554252 0.0086952507341566451 0 0.47391284642308867 0.022963826756700199 0 0.45846650074554252 0.0086952507341566451 0 0.47391284642308867 0.022963826756700199 0 0.46419489186374679 0.006132593561035871 0 0.45846650074554252 0.0086952507341566451 0 0.47391284642308867 0.022963826756700199 0 0.46419489186374679 0.006132593561035871 0 0.45846650074554252 0.0086952507341566451 0 0.45447693730440492 -0.010698639634628479 0 0.46419489186374679 0.006132593561035871 0 0.47217365332082067 0.0084446617167224739 0 0.46854010341728197 -0.0019972372401138539 0 0.45045216425624029 0.012147347249051201 0 0.45882758774568361 0.018017367993873469 0 0.45846650074554252 0.0086952507341566451 0 0.4399612537531109 0.065858188526994738 0 0.45302363416802138 0.046521221956485913 0 0.44061206725762292 0.044946437138064767 0 0.4399612537531109 0.065858188526994738 0 0.46346883004162021 0.055393785461823067 0 0.4399612537531109 0.065858188526994738 0 0.45302363416802138 0.046521221956485913 0 0.46346883004162021 0.055393785461823067 0 0.43704740407154308 0.025683143898134551 0 0.44061206725762292 0.044946437138064767 0 0.45227971183432158 0.032631568930346369 0 0.45302363416802138 0.046521221956485913 0 0.44061206725762292 0.044946437138064767 0 0.45227971183432158 0.032631568930346369 0 0.45302363416802138 0.046521221956485913 0 0.46491766579178828 0.036417110703275031 0 0.46346883004162021 0.055393785461823067 0 0.46032253739063739 0.025892518424957389 0 0.45227971183432158 0.032631568930346369 0 0.46491766579178828 0.036417110703275031 0 0.45302363416802138 0.046521221956485913 0 0.45227971183432158 0.032631568930346369 0 0.46491766579178828 0.036417110703275031 0 0.44476346126311889 0.068543460918422422 0 0.46346883004162021 0.055393785461823067 0 0.46120063341575729 0.066486121345630755 0 0.46346883004162021 0.055393785461823067 0 0.47934360680792132 0.059827195240447162 0 0.46346883004162021 0.055393785461823067 0 0.47934360680792132 0.059827195240447162 0 0.48667317354145972 0.045064366543218951 0 0.46346883004162021 0.055393785461823067 0 0.47891945453100548 0.044532160650085313 0 0.48667317354145972 0.045064366543218951 0 0.46346883004162021 0.055393785461823067 0 0.48667317354145972 0.045064366543218951 0 0.46346883004162021 0.055393785461823067 0 0.47891945453100548 0.044532160650085313 0 0.49420708193067808 0.041710645467373492 0 0.47391284642308867 0.022963826756700199 0 0.48667317354145972 0.045064366543218951 0 0.47391284642308867 0.022963826756700199 0 0.46491766579178828 0.036417110703275031 0 0.46346883004162021 0.055393785461823067 0 0.47891945453100548 0.044532160650085313 0 0.46491766579178828 0.036417110703275031 0 0.47891945453100548 0.044532160650085313 0 0.47391284642308867 0.022963826756700199 0 0.47891945453100548 0.044532160650085313 0 0.48667317354145972 0.045064366543218951 0 0.47391284642308867 0.022963826756700199 0 0.49420708193067808 0.041710645467373492 0 0.48667317354145972 0.045064366543218951 0 0.47391284642308867 0.022963826756700199 0 0.49420708193067808 0.041710645467373492 0 0.50000000000000089 0.039131926638303879 0 0.49035259134053949 0.02671883102782445 0 0.49420708193067808 0.041710645467373492 0 0.50000000000000089 0.039131926638303879 0 0.49999999999999972 0.047061858860501293 0 0.49420708193067808 0.041710645467373492 0 0.48667317354145972 0.045064366543218951 0 0.49999999999999972 0.047061858860501293 0 0.49420708193067808 0.041710645467373492 0 0.50000000000000089 0.039131926638303879 0 0.49420708193067808 0.041710645467373492 0 0.49999999999999972 0.047061858860501293 0 0.49420708193067808 0.041710645467373492 0 0.48667317354145972 0.045064366543218951 0 0.50000000000000111 0.068146067791368781 0 0.47934360680792132 0.059827195240447162 0 0.48667317354145972 0.045064366543218951 0 0.50000000000000111 0.068146067791368781 0 0.48667317354145972 0.045064366543218951 0 0.50000000000000111 0.068146067791368781 0 0.48667317354145972 0.045064366543218951 0 0.49999999999999972 0.047061858860501293 0 0.46419489186374679 0.006132593561035871 0 0.47391284642308867 0.022963826756700199 0 0.46419489186374679 0.006132593561035871 0 0.47217365332082067 0.0084446617167224739 0 0.47391284642308867 0.022963826756700199 0 0.47851413004807403 0.012780371842806681 0 0.4836430283489303 0.018810196461766921 0 0.48653167558577842 0.0095841885288508802 0 0.47851413004807403 0.012780371842806681 0 0.47630944656175161 0.0040989857499929786 0 0.48653167558577842 0.0095841885288508802 0 0.47630944656175161 0.0040989857499929786 0 0.48653167558577842 0.0095841885288508802 0 0.47663619921769412 -0.0050641130378412131 0 0.47630944656175161 0.0040989857499929786 0 0.47217365332082067 0.0084446617167224739 0 0.46854010341728197 -0.0019972372401138539 0 0.47851413004807403 0.012780371842806681 0 0.47217365332082067 0.0084446617167224739 0 0.47391284642308867 0.022963826756700199 0 0.47851413004807403 0.012780371842806681 0 0.47630944656175161 0.0040989857499929786 0 0.47217365332082067 0.0084446617167224739 0 0.47391284642308867 0.022963826756700199 0 0.4836430283489303 0.018810196461766921 0 0.49035259134053949 0.02671883102782445 0 0.47851413004807403 0.012780371842806681 0 0.47391284642308867 0.022963826756700199 0 0.4836430283489303 0.018810196461766921 0 0.50000000000000089 0.039131926638303879 0 0.49035259134053949 0.02671883102782445 0 0.5 0.010977559814979051 0 0.49420708193067808 0.041710645467373492 0 0.47391284642308867 0.022963826756700199 0 0.49035259134053949 0.02671883102782445 0 0.4836430283489303 0.018810196461766921 0 0.49035259134053949 0.02671883102782445 0 0.5 0.010977559814979051 0 0.4836430283489303 0.018810196461766921 0 0.5 0.010977559814979051 0 0.48653167558577842 0.0095841885288508802 0 0.5 0.010977559814979051 0 0.48653167558577842 0.0095841885288508802 0 0.49463798796151293 -0.002982326957628656 0 0.48653167558577842 0.0095841885288508802 0 0.48397655925664801 -0.01152475212589903 0 0.49326583779288891 -0.017873492651410059 0 0.5 0.010977559814979051 0 0.49463798796151293 -0.002982326957628656 0 0.5 -0.017176807008345899 0 0.48653167558577842 0.0095841885288508802 0 0.49463798796151293 -0.002982326957628656 0 0.49326583779288891 -0.017873492651410059 0 0.48653167558577842 0.0095841885288508802 0 0.49326583779288891 -0.017873492651410059 0 0.49463798796151293 -0.002982326957628656 0 0.5 -0.017176807008345899 0 0.49326583779288891 -0.017873492651410059 0 0.48653167558577842 0.0095841885288508802 0 0.47663619921769412 -0.0050641130378412131 0 0.48397655925664801 -0.01152475212589903 0 0.47663619921769412 -0.0050641130378412131 0 0.48397655925664801 -0.01152475212589903 0 0.47427980369143291 -0.016822449284934059 0 0.47663619921769412 -0.0050641130378412131 0 0.47427980369143291 -0.016822449284934059 0 0.46797113455392692 -0.01161271913767754 0 0.47630944656175161 0.0040989857499929786 0 0.47663619921769412 -0.0050641130378412131 0 0.46854010341728197 -0.0019972372401138539 0 0.47663619921769412 -0.0050641130378412131 0 0.46854010341728197 -0.0019972372401138539 0 0.46797113455392692 -0.01161271913767754 0 0.47427980369143291 -0.016822449284934059 0 0.4769523790512305 -0.032629900579446688 0 0.46494254961127168 -0.02240130541161137 0 0.48397655925664801 -0.01152475212589903 0 0.47427980369143291 -0.016822449284934059 0 0.4769523790512305 -0.032629900579446688 0 0.48397655925664801 -0.01152475212589903 0 0.4769523790512305 -0.032629900579446688 0 0.47427980369143291 -0.016822449284934059 0 0.46797113455392692 -0.01161271913767754 0 0.46494254961127168 -0.02240130541161137 0 0.48397655925664801 -0.01152475212589903 0 0.49326583779288891 -0.017873492651410059 0 0.4769523790512305 -0.032629900579446688 0 0.5 -0.017176807008345899 0 0.49326583779288891 -0.017873492651410059 0 0.49999999999999978 -0.045331173831670832 0 0.49326583779288891 -0.017873492651410059 0 0.49010956222633578 -0.034643413792424783 0 0.4769523790512305 -0.032629900579446688 0 0.49326583779288891 -0.017873492651410059 0 0.49999999999999978 -0.045331173831670832 0 0.49326583779288891 -0.017873492651410059 0 0.49999999999999978 -0.045331173831670832 0 0.49010956222633578 -0.034643413792424783 0 0.49999999999999978 -0.045331173831670832 0 0.49040520814009397 -0.042604542952009349 0 0.49010956222633578 -0.034643413792424783 0 0.49999999999999978 -0.045331173831670832 0 0.49040520814009397 -0.042604542952009349 0 0.49999999999999828 -0.049033801360005513 0 0.49040520814009397 -0.042604542952009349 0 0.49010956222633578 -0.034643413792424783 0 0.4769523790512305 -0.032629900579446688 0 0.49999999999999828 -0.049033801360005513 0 0.48496409942290503 -0.051384425196499203 0 0.5 -0.074799239426681208 0 0.49999999999999828 -0.049033801360005513 0 0.48496409942290503 -0.051384425196499203 0 0.49040520814009397 -0.042604542952009349 0 0.49999999999999828 -0.049033801360005513 0 0.48496409942290503 -0.051384425196499203 0 0.48496409942290503 -0.051384425196499203 0 0.46992819884581172 -0.053735049032993809 0 0.47825477151573481 -0.0714582064787911 0 0.48496409942290503 -0.051384425196499203 0 0.46992819884581172 -0.053735049032993809 0 0.49040520814009397 -0.042604542952009349 0 0.48496409942290503 -0.051384425196499203 0 0.4769523790512305 -0.032629900579446688 0 0.46992819884581172 -0.053735049032993809 0 0.4769523790512305 -0.032629900579446688 0 0.46992819884581172 -0.053735049032993809 0 0.4769523790512305 -0.032629900579446688 0 0.46119915370152792 -0.03869717269231604 0 0.48496409942290503 -0.051384425196499203 0 0.46992819884581172 -0.053735049032993809 0 0.4769523790512305 -0.032629900579446688 0 0.46119915370152792 -0.03869717269231604 0 0.44554152465628871 -0.03545595548450825 0 0.45366276164205033 -0.025476663178954279 0 0.46992819884581172 -0.053735049032993809 0 0.46119915370152792 -0.03869717269231604 0 0.44430818871838978 -0.057740330006218137 0 0.46992819884581172 -0.053735049032993809 0 0.44430818871838978 -0.057740330006218137 0 0.44430818871838978 -0.057740330006218137 0 0.44554152465628871 -0.03545595548450825 0 0.43229115957190961 -0.046825351091351948 0 0.46119915370152792 -0.03869717269231604 0 0.44430818871838978 -0.057740330006218137 0 0.44554152465628871 -0.03545595548450825 0 0.44554152465628871 -0.03545595548450825 0 0.44215364293675768 -0.020130242671707231 0 0.43380688782007232 -0.031394674967759377 0 0.44554152465628871 -0.03545595548450825 0 0.44215364293675768 -0.020130242671707231 0 0.45366276164205033 -0.025476663178954279 0 0.44215364293675768 -0.020130242671707231 0 0.45447693730440492 -0.010698639634628479 0 0.45366276164205033 -0.025476663178954279 0 0.45846650074554252 0.0086952507341566451 0 0.44302015506799619 -0.0055733252883869207 0 0.45447693730440492 -0.010698639634628479 0 0.44215364293675768 -0.020130242671707231 0 0.44302015506799619 -0.0055733252883869207 0 0.42757380939044998 -0.019841901310930509 0 0.44213654324867241 0.0055164087951831038 0 0.44302015506799619 -0.0055733252883869207 0 0.43414703366845081 -0.0044506786977244481 0 0.44215364293675768 -0.020130242671707231 0 0.44302015506799619 -0.0055733252883869207 0 0.45447693730440492 -0.010698639634628479 0 0.46419489186374679 0.006132593561035871 0 0.45447693730440492 -0.010698639634628479 0 0.46419489186374679 0.006132593561035871 0 0.45447693730440492 -0.010698639634628479 0 0.46854010341728197 -0.0019972372401138539 0 0.45447693730440492 -0.010698639634628479 0 0.46854010341728197 -0.0019972372401138539 0 0.46797113455392692 -0.01161271913767754 0 0.45447693730440492 -0.010698639634628479 0 0.46797113455392692 -0.01161271913767754 0 0.46494254961127168 -0.02240130541161137 0 0.4769523790512305 -0.032629900579446688 0 0.46119915370152792 -0.03869717269231604 0 0.46494254961127168 -0.02240130541161137 0 0.46119915370152792 -0.03869717269231604 0 0.46494254961127168 -0.02240130541161137 0 0.45366276164205033 -0.025476663178954279 0 0.45447693730440492 -0.010698639634628479 0 0.46494254961127168 -0.02240130541161137 0 0.45366276164205033 -0.025476663178954279 0 0.4705600542762402 -0.1207412066741483 0 0.48721517183547203 -0.11411714512046101 0 0.48822491055721401 -0.13656929071137819 0 0.4705600542762402 -0.1207412066741483 0 0.48721517183547203 -0.11411714512046101 0 0.4775747475638451 -0.095896223183618248 0 0.48721517183547203 -0.11411714512046101 0 0.5 -0.100564677493357 0 0.5 -0.12633011556003279 0 0.48721517183547203 -0.11411714512046101 0 0.5 -0.100564677493357 0 0.4775747475638451 -0.095896223183618248 0 0.4775747475638451 -0.095896223183618248 0 0.47825477151573481 -0.0714582064787911 0 0.46141169842054242 -0.079324085834956384 0 0.4775747475638451 -0.095896223183618248 0 0.5 -0.074799239426681208 0 0.47825477151573481 -0.0714582064787911 0 0.5 -0.100564677493357 0 0.4775747475638451 -0.095896223183618248 0 0.5 -0.074799239426681208 0 0.48496409942290503 -0.051384425196499203 0 0.5 -0.074799239426681208 0 0.47825477151573481 -0.0714582064787911 0 0.46992819884581172 -0.053735049032993809 0 0.47825477151573481 -0.0714582064787911 0 0.46141169842054242 -0.079324085834956384 0 0.46992819884581172 -0.053735049032993809 0 0.46141169842054242 -0.079324085834956384 0 0.46992819884581172 -0.053735049032993809 0 0.44430818871838978 -0.057740330006218137 0 0.46141169842054242 -0.079324085834956384 0 0.44430818871838978 -0.057740330006218137 0 0.43892454743563569 -0.074546512420234357 0 0.46141169842054242 -0.079324085834956384 0 0.43892454743563569 -0.074546512420234357 0 0.43752800538598852 -0.091143793740768642 0 0.46141169842054242 -0.079324085834956384 0 0.43752800538598852 -0.091143793740768642 0 0.46141169842054242 -0.079324085834956384 0 0.45289519799526751 -0.1049131226369171 0 0.46141169842054242 -0.079324085834956384 0 0.45289519799526751 -0.1049131226369171 0 0.4775747475638451 -0.095896223183618248 0 0.46141169842054242 -0.079324085834956384 0 0.45289519799526751 -0.1049131226369171 0 0.4705600542762402 -0.1207412066741483 0 0.4775747475638451 -0.095896223183618248 0 0.45289519799526751 -0.1049131226369171 0 0.43752800538598852 -0.091143793740768642 0 0.45289519799526751 -0.1049131226369171 0 0.43548215288475772 -0.1091424888550412 0 0.43752800538598852 -0.091143793740768642 0 0.45289519799526751 -0.1049131226369171 0 0.45289519799526751 -0.1049131226369171 0 0.44743723931885598 -0.12131233574797121 0 0.43548215288475772 -0.1091424888550412 0 0.45289519799526751 -0.1049131226369171 0 0.44743723931885598 -0.12131233574797121 0 0.44743723931885598 -0.12131233574797121 0 0.43479326036583821 -0.1243194629350251 0 0.43548215288475772 -0.1091424888550412 0 0.4705600542762402 -0.1207412066741483 0 0.45289519799526751 -0.1049131226369171 0 0.4705600542762402 -0.1207412066741483 0 0.45289519799526751 -0.1049131226369171 0 0.44743723931885598 -0.12131233574797121 0 0.42159608029648549 -0.1196655463708958 0 0.41458433545905993 -0.098414458638250268 0 0.39592118067352727 -0.1163074301991535 0 0.42159608029648549 -0.1196655463708958 0 0.39592118067352727 -0.1163074301991535 0 0.41255287296548809 -0.1290505203717412 0 0.42159608029648549 -0.1196655463708958 0 0.43479326036583821 -0.1243194629350251 0 0.43548215288475772 -0.1091424888550412 0 0.43752800538598852 -0.091143793740768642 0 0.43548215288475772 -0.1091424888550412 0 0.41458433545905993 -0.098414458638250268 0 0.42159608029648549 -0.1196655463708958 0 0.43548215288475772 -0.1091424888550412 0 0.41458433545905993 -0.098414458638250268 0 0.41458433545905993 -0.098414458638250268 0 0.42216081277671069 -0.077374464844618865 0 0.40299152614099132 -0.083668111011716326 0 0.43892454743563569 -0.074546512420234357 0 0.43752800538598852 -0.091143793740768642 0 0.42216081277671069 -0.077374464844618865 0 0.43752800538598852 -0.091143793740768642 0 0.41458433545905993 -0.098414458638250268 0 0.42216081277671069 -0.077374464844618865 0 0.43752800538598852 -0.091143793740768642 0 0.42216081277671069 -0.077374464844618865 0 0.44430818871838978 -0.057740330006218137 0 0.43892454743563569 -0.074546512420234357 0 0.42851723901495348 -0.06698690900935575 0 0.43892454743563569 -0.074546512420234357 0 0.42216081277671069 -0.077374464844618865 0 0.42851723901495348 -0.06698690900935575 0 0.42851723901495348 -0.06698690900935575 0 0.41850446755306348 -0.063527626796264225 0 0.41868817859096807 -0.061745610979443519 0 0.42216081277671069 -0.077374464844618865 0 0.42851723901495348 -0.06698690900935575 0 0.41850446755306348 -0.063527626796264225 0 0.42216081277671069 -0.077374464844618865 0 0.40188733700845858 -0.073202706496863792 0 0.40299152614099132 -0.083668111011716326 0 0.41850446755306348 -0.063527626796264225 0 0.4067936201674317 -0.063605135948470434 0 0.41868817859096807 -0.061745610979443519 0 0.42216081277671069 -0.077374464844618865 0 0.4067936201674317 -0.063605135948470434 0 0.40188733700845858 -0.073202706496863792 0 0.42216081277671069 -0.077374464844618865 0 0.41850446755306348 -0.063527626796264225 0 0.4067936201674317 -0.063605135948470434 0 0.41850446755306348 -0.063527626796264225 0 0.41868817859096807 -0.061745610979443519 0 0.42216081277671069 -0.077374464844618865 0 0.4067936201674317 -0.063605135948470434 0 0.4067936201674317 -0.063605135948470434 0 0.41868817859096807 -0.061745610979443519 0 0.4067936201674317 -0.063605135948470434 0 0.40188733700845858 -0.073202706496863792 0 0.39139034217518898 -0.066013193398909181 0 0.4067936201674317 -0.063605135948470434 0 0.39776040507211963 -0.063611686965398914 0 0.39139034217518898 -0.066013193398909181 0 0.4067936201674317 -0.063605135948470434 0 0.39139034217518898 -0.066013193398909181 0 0.40188733700845858 -0.073202706496863792 0 0.39104828908163092 -0.077247784428504038 0 0.40299152614099132 -0.083668111011716326 0 0.40188733700845858 -0.073202706496863792 0 0.39104828908163092 -0.077247784428504038 0 0.39139034217518898 -0.066013193398909181 0 0.39776040507211963 -0.063611686965398914 0 0.39139034217518898 -0.066013193398909181 0 0.37220700250254363 -0.059340702350146497 0 0.39139034217518898 -0.066013193398909181 0 0.37598706418294597 -0.068421250849346138 0 0.39139034217518898 -0.066013193398909181 0 0.37598706418294597 -0.068421250849346138 0 0.37220700250254363 -0.059340702350146497 0 0.39104828908163092 -0.077247784428504038 0 0.39139034217518898 -0.066013193398909181 0 0.37598706418294597 -0.068421250849346138 0 0.39104828908163092 -0.077247784428504038 0 0.37598706418294597 -0.068421250849346138 0 0.38595412242823801 -0.092364340524249189 0 0.37598706418294597 -0.068421250849346138 0 0.38595412242823801 -0.092364340524249189 0 0.37598706418294597 -0.068421250849346138 0 0.38595412242823801 -0.092364340524249189 0 0.3633147646899369 -0.082666602191507663 0 0.41458433545905993 -0.098414458638250268 0 0.38595412242823801 -0.092364340524249189 0 0.40299152614099132 -0.083668111011716326 0 0.39104828908163092 -0.077247784428504038 0 0.38595412242823801 -0.092364340524249189 0 0.40299152614099132 -0.083668111011716326 0 0.38595412242823801 -0.092364340524249189 0 0.39592118067352727 -0.1163074301991535 0 0.41458433545905993 -0.098414458638250268 0 0.38595412242823801 -0.092364340524249189 0 0.39592118067352727 -0.1163074301991535 0 0.38595412242823801 -0.092364340524249189 0 0.3756298573667074 -0.1121325287009476 0 0.39592118067352727 -0.1163074301991535 0 0.3756298573667074 -0.1121325287009476 0 0.39592118067352727 -0.1163074301991535 0 0.38896199114956759 -0.1332505043577599 0 0.42147430254495533 -0.034719924280298957 0 0.40254002081237422 -0.033893301785332751 0 0.40461605472397361 -0.017101913490203329 0 0.42426042649894041 -0.007694237581154225 0 0.42147430254495533 -0.034719924280298957 0 0.40461605472397361 -0.017101913490203329 0 0.41462129863557812 0.0040521324363909823 0 0.40816500409161949 -0.0042299970316301222 0 0.42426042649894041 -0.007694237581154225 0 0.40816500409161949 -0.0042299970316301222 0 0.42426042649894041 -0.007694237581154225 0 0.40461605472397361 -0.017101913490203329 0 0.41462129863557812 0.0040521324363909823 0 0.42426042649894041 -0.007694237581154225 0 0.42426042649894041 -0.007694237581154225 0 0.43414703366845081 -0.0044506786977244481 0 0.43054530856142148 -0.01535307884449651 0 0.42426042649894041 -0.007694237581154225 0 0.43054530856142148 -0.01535307884449651 0 0.42757380939044998 -0.019841901310930509 0 0.42426042649894041 -0.007694237581154225 0 0.43054530856142148 -0.01535307884449651 0 0.4317922620945811 0.003670571562150996 0 0.42426042649894041 -0.007694237581154225 0 0.43414703366845081 -0.0044506786977244481 0 0.44302015506799619 -0.0055733252883869207 0 0.43054530856142148 -0.01535307884449651 0 0.42757380939044998 -0.019841901310930509 0 0.44302015506799619 -0.0055733252883869207 0 0.43414703366845081 -0.0044506786977244481 0 0.43054530856142148 -0.01535307884449651 0 0.44302015506799619 -0.0055733252883869207 0 0.42757380939044998 -0.019841901310930509 0 0.42426042649894041 -0.007694237581154225 0 0.42757380939044998 -0.019841901310930509 0 0.42147430254495533 -0.034719924280298957 0 0.42426042649894041 -0.007694237581154225 0 0.42147430254495533 -0.034719924280298957 0 0.42757380939044998 -0.019841901310930509 0 0.43380688782007232 -0.031394674967759377 0 0.42147430254495533 -0.034719924280298957 0 0.44215364293675768 -0.020130242671707231 0 0.42757380939044998 -0.019841901310930509 0 0.43380688782007232 -0.031394674967759377 0 0.44554152465628871 -0.03545595548450825 0 0.43380688782007232 -0.031394674967759377 0 0.43229115957190961 -0.046825351091351948 0 0.43380688782007232 -0.031394674967759377 0 0.43229115957190961 -0.046825351091351948 0 0.42147430254495533 -0.034719924280298957 0 0.44430818871838978 -0.057740330006218137 0 0.41868817859096807 -0.061745610979443519 0 0.44430818871838978 -0.057740330006218137 0 0.43229115957190961 -0.046825351091351948 0 0.41868817859096807 -0.061745610979443519 0 0.44430818871838978 -0.057740330006218137 0 0.42851723901495348 -0.06698690900935575 0 0.41868817859096807 -0.061745610979443519 0 0.43229115957190961 -0.046825351091351948 0 0.41868817859096807 -0.061745610979443519 0 0.42147430254495533 -0.034719924280298957 0 0.4067936201674317 -0.063605135948470434 0 0.40840871615679242 -0.047650792440796591 0 0.41868817859096807 -0.061745610979443519 0 0.40840871615679242 -0.047650792440796591 0 0.41868817859096807 -0.061745610979443519 0 0.42147430254495533 -0.034719924280298957 0 0.41868817859096807 -0.061745610979443519 0 0.42147430254495533 -0.034719924280298957 0 0.40840871615679242 -0.047650792440796591 0 0.42147430254495533 -0.034719924280298957 0 0.40254002081237422 -0.033893301785332751 0 0.40254002081237422 -0.033893301785332751 0 0.38770138466992787 -0.046498090008979913 0 0.38847584053689072 -0.026217072037333099 0 0.40840871615679242 -0.047650792440796591 0 0.40254002081237422 -0.033893301785332751 0 0.38770138466992787 -0.046498090008979913 0 0.4067936201674317 -0.063605135948470434 0 0.39776040507211963 -0.063611686965398914 0 0.38770138466992787 -0.046498090008979913 0 0.4067936201674317 -0.063605135948470434 0 0.38770138466992787 -0.046498090008979913 0 0.4067936201674317 -0.063605135948470434 0 0.40840871615679242 -0.047650792440796591 0 0.38770138466992787 -0.046498090008979913 0 0.39776040507211963 -0.063611686965398914 0 0.37622921989354341 -0.04946233235659301 0 0.38770138466992787 -0.046498090008979913 0 0.39776040507211963 -0.063611686965398914 0 0.37622921989354341 -0.04946233235659301 0 0.37220700250254363 -0.059340702350146497 0 0.39776040507211963 -0.063611686965398914 0 0.37220700250254363 -0.059340702350146497 0 0.38770138466992787 -0.046498090008979913 0 0.36860914917242271 -0.02939104406949071 0 0.38770138466992787 -0.046498090008979913 0 0.38847584053689072 -0.026217072037333099 0 0.36860914917242271 -0.02939104406949071 0 0.37622921989354341 -0.04946233235659301 0 0.38770138466992787 -0.046498090008979913 0 0.36860914917242271 -0.02939104406949071 0 0.37685369196324481 -0.016548634830496629 0 0.38847584053689072 -0.026217072037333099 0 0.36860914917242271 -0.02939104406949071 0 0.37685369196324481 -0.016548634830496629 0 0.38847584053689072 -0.026217072037333099 0 0.38753277141434028 -0.012417730744169761 0 0.40254002081237422 -0.033893301785332751 0 0.38847584053689072 -0.026217072037333099 0 0.40461605472397361 -0.017101913490203329 0 0.38847584053689072 -0.026217072037333099 0 0.40461605472397361 -0.017101913490203329 0 0.38753277141434028 -0.012417730744169761 0 0.40461605472397361 -0.017101913490203329 0 0.39512660610726902 -0.0037635568173960809 0 0.38753277141434028 -0.012417730744169761 0 0.40220063449233717 0.0033575902942124228 0 0.40816500409161949 -0.0042299970316301222 0 0.39512660610726902 -0.0037635568173960809 0 0.40816500409161949 -0.0042299970316301222 0 0.40461605472397361 -0.017101913490203329 0 0.39512660610726902 -0.0037635568173960809 0 0.39512660610726902 -0.0037635568173960809 0 0.38383006574189632 -0.001074199461184717 0 0.38753277141434028 -0.012417730744169761 0 0.37685369196324481 -0.016548634830496629 0 0.38753277141434028 -0.012417730744169761 0 0.37521916583220177 -0.0055812383054568079 0 0.37576332961284681 0.004108183588312002 0 0.38383006574189632 -0.001074199461184717 0 0.37521916583220177 -0.0055812383054568079 0 0.38383006574189632 -0.001074199461184717 0 0.38753277141434028 -0.012417730744169761 0 0.37521916583220177 -0.0055812383054568079 0 0.36847154090155498 0.0023943355442805408 0 0.37521916583220177 -0.0055812383054568079 0 0.36443153286036872 -0.0091360889960328002 0 0.37685369196324481 -0.016548634830496629 0 0.37521916583220177 -0.0055812383054568079 0 0.36443153286036872 -0.0091360889960328002 0 0.37685369196324481 -0.016548634830496629 0 0.36443153286036872 -0.0091360889960328002 0 0.36860914917242271 -0.02939104406949071 0 0.36443153286036872 -0.0091360889960328002 0 0.36860914917242271 -0.02939104406949071 0 0.34951691367491772 -0.012283998130001609 0 0.36860914917242271 -0.02939104406949071 0 0.34951691367491772 -0.012283998130001609 0 0.3446522522114483 -0.039386200777438457 0 0.36860914917242271 -0.02939104406949071 0 0.34951691367491772 -0.012283998130001609 0 0.35399377624232842 0.0082926061036159293 0 0.36443153286036872 -0.0091360889960328002 0 0.34951691367491772 -0.012283998130001609 0 0.33042467817741022 0.0048230478094846404 0 0.34951691367491772 -0.012283998130001609 0 0.32839324399456887 -0.0083879771245694099 0 0.34951691367491772 -0.012283998130001609 0 0.32839324399456887 -0.0083879771245694099 0 0.32833629531939801 -0.024443216257606211 0 0.33042467817741022 0.0048230478094846404 0 0.34951691367491772 -0.012283998130001609 0 0.34951691367491772 -0.012283998130001609 0 0.32833629531939801 -0.024443216257606211 0 0.3446522522114483 -0.039386200777438457 0 0.31622154218412302 -0.01391134382297716 0 0.30980213521629291 -0.031499908766383408 0 0.32833629531939801 -0.024443216257606211 0 0.31622154218412302 -0.01391134382297716 0 0.30980213521629291 -0.031499908766383408 0 0.32264094915195268 0.0036772211204291199 0 0.32839324399456887 -0.0083879771245694099 0 0.31622154218412302 -0.01391134382297716 0 0.32264094915195268 0.0036772211204291199 0 0.31622154218412302 -0.01391134382297716 0 0.32839324399456887 -0.0083879771245694099 0 0.32833629531939801 -0.024443216257606211 0 0.31622154218412302 -0.01391134382297716 0 0.32178649584250052 -0.03980441600629412 0 0.3321597051849689 -0.052647214457088122 0 0.31213605652618143 -0.049300470510559698 0 0.3321597051849689 -0.052647214457088122 0 0.32118595155751778 -0.063903214225834254 0 0.31213605652618143 -0.049300470510559698 0 0.3321597051849689 -0.052647214457088122 0 0.31213605652618143 -0.049300470510559698 0 0.32118595155751778 -0.063903214225834254 0 0.31213605652618143 -0.049300470510559698 0 0.31028765366945299 -0.059813859753099302 0 0.32178649584250052 -0.03980441600629412 0 0.30669329071692403 -0.042021489982263648 0 0.31213605652618143 -0.049300470510559698 0 0.32833629531939801 -0.024443216257606211 0 0.32178649584250052 -0.03980441600629412 0 0.30980213521629291 -0.031499908766383408 0 0.32178649584250052 -0.03980441600629412 0 0.30980213521629291 -0.031499908766383408 0 0.30669329071692403 -0.042021489982263648 0 0.32833629531939801 -0.024443216257606211 0 0.32178649584250052 -0.03980441600629412 0 0.3446522522114483 -0.039386200777438457 0 0.32178649584250052 -0.03980441600629412 0 0.3321597051849689 -0.052647214457088122 0 0.3446522522114483 -0.039386200777438457 0 0.3321597051849689 -0.052647214457088122 0 0.35218335384375632 -0.055993958403616553 0 0.33631356846709609 -0.065140531000461077 0 0.3321597051849689 -0.052647214457088122 0 0.35218335384375632 -0.055993958403616553 0 0.3446522522114483 -0.039386200777438457 0 0.3321597051849689 -0.052647214457088122 0 0.35218335384375632 -0.055993958403616553 0 0.3321597051849689 -0.052647214457088122 0 0.33631356846709609 -0.065140531000461077 0 0.32118595155751778 -0.063903214225834254 0 0.35218335384375632 -0.055993958403616553 0 0.3446522522114483 -0.039386200777438457 0 0.36235014127912291 -0.046302831895513742 0 0.36860914917242271 -0.02939104406949071 0 0.3446522522114483 -0.039386200777438457 0 0.36235014127912291 -0.046302831895513742 0 0.37622921989354341 -0.04946233235659301 0 0.36860914917242271 -0.02939104406949071 0 0.36235014127912291 -0.046302831895513742 0 0.35218335384375632 -0.055993958403616553 0 0.3704303456847039 -0.055072777706373671 0 0.37220700250254363 -0.059340702350146497 0 0.35218335384375632 -0.055993958403616553 0 0.36235014127912291 -0.046302831895513742 0 0.3704303456847039 -0.055072777706373671 0 0.35218335384375632 -0.055993958403616553 0 0.37220700250254363 -0.059340702350146497 0 0.37622921989354341 -0.04946233235659301 0 0.36235014127912291 -0.046302831895513742 0 0.3704303456847039 -0.055072777706373671 0 0.37622921989354341 -0.04946233235659301 0 0.3704303456847039 -0.055072777706373671 0 0.37220700250254363 -0.059340702350146497 0 0.3704303456847039 -0.055072777706373671 0 0.37220700250254363 -0.059340702350146497 0 0.37598706418294597 -0.068421250849346138 0 0.34689931189575868 -0.072968658138036963 0 0.37598706418294597 -0.068421250849346138 0 0.37220700250254363 -0.059340702350146497 0 0.34689931189575868 -0.072968658138036963 0 0.37598706418294597 -0.068421250849346138 0 0.37220700250254363 -0.059340702350146497 0 0.37598706418294597 -0.068421250849346138 0 0.3633147646899369 -0.082666602191507663 0 0.34689931189575868 -0.072968658138036963 0 0.38595412242823801 -0.092364340524249189 0 0.3633147646899369 -0.082666602191507663 0 0.35742157350034348 -0.1007991008308301 0 0.3633147646899369 -0.082666602191507663 0 0.34768199394140242 -0.086731131165957182 0 0.34689931189575868 -0.072968658138036963 0 0.3633147646899369 -0.082666602191507663 0 0.34768199394140242 -0.086731131165957182 0 0.35742157350034348 -0.1007991008308301 0 0.35218335384375632 -0.055993958403616553 0 0.37220700250254363 -0.059340702350146497 0 0.34689931189575868 -0.072968658138036963 0 0.35218335384375632 -0.055993958403616553 0 0.34689931189575868 -0.072968658138036963 0 0.33631356846709609 -0.065140531000461077 0 0.3756298573667074 -0.1121325287009476 0 0.35281273824187598 -0.1180947422506244 0 0.37113166727084229 -0.1298369395766992 0 0.3756298573667074 -0.1121325287009476 0 0.35742157350034348 -0.1007991008308301 0 0.35281273824187598 -0.1180947422506244 0 0.38595412242823801 -0.092364340524249189 0 0.3756298573667074 -0.1121325287009476 0 0.35742157350034348 -0.1007991008308301 0 0.34768199394140242 -0.086731131165957182 0 0.35742157350034348 -0.1007991008308301 0 0.33686224911640511 -0.097313832157909924 0 0.35742157350034348 -0.1007991008308301 0 0.35281273824187598 -0.1180947422506244 0 0.33686224911640511 -0.097313832157909924 0 0.35281273824187598 -0.1180947422506244 0 0.33300908673166357 -0.1178073935000308 0 0.34339729202483582 -0.13417808471666101 0 0.35281273824187598 -0.1180947422506244 0 0.33300908673166357 -0.1178073935000308 0 0.33686224911640511 -0.097313832157909924 0 0.33300908673166357 -0.1178073935000308 0 0.33686224911640511 -0.097313832157909924 0 0.3247680563325876 -0.1056489168639404 0 0.33686224911640511 -0.097313832157909924 0 0.3247680563325876 -0.1056489168639404 0 0.32160018235703192 -0.091431062077084763 0 0.3247680563325876 -0.1056489168639404 0 0.32160018235703192 -0.091431062077084763 0 0.31031741738569368 -0.10301791512023829 0 0.31031741738569368 -0.10301791512023829 0 0.3155764542219951 -0.1267745065661133 0 0.33300908673166357 -0.1178073935000308 0 0.3247680563325876 -0.1056489168639404 0 0.3155764542219951 -0.1267745065661133 0 0.3247680563325876 -0.1056489168639404 0 0.31031741738569368 -0.10301791512023829 0 0.3155764542219951 -0.1267745065661133 0 0.34689931189575868 -0.072968658138036963 0 0.3311603449480145 -0.077255885959434181 0 0.33631356846709609 -0.065140531000461077 0 0.3311603449480145 -0.077255885959434181 0 0.33631356846709609 -0.065140531000461077 0 0.32118595155751778 -0.063903214225834254 0 0.34768199394140242 -0.086731131165957182 0 0.34689931189575868 -0.072968658138036963 0 0.3311603449480145 -0.077255885959434181 0 0.34768199394140242 -0.086731131165957182 0 0.33686224911640511 -0.097313832157909924 0 0.3311603449480145 -0.077255885959434181 0 0.33686224911640511 -0.097313832157909924 0 0.3311603449480145 -0.077255885959434181 0 0.32160018235703192 -0.091431062077084763 0 0.3311603449480145 -0.077255885959434181 0 0.30505838054939299 -0.079261323674363143 0 0.3311603449480145 -0.077255885959434181 0 0.32160018235703192 -0.091431062077084763 0 0.30505838054939299 -0.079261323674363143 0 0.3311603449480145 -0.077255885959434181 0 0.32118595155751778 -0.063903214225834254 0 0.30505838054939299 -0.079261323674363143 0 0.32118595155751778 -0.063903214225834254 0 0.30505838054939299 -0.079261323674363143 0 0.31028765366945299 -0.059813859753099302 0 0.30505838054939299 -0.079261323674363143 0 0.30006956444745492 -0.056725397492169018 0 0.30505838054939299 -0.079261323674363143 0 0.28862019264376698 -0.066497334691705531 0 0.30006956444745492 -0.056725397492169018 0 0.30505838054939299 -0.079261323674363143 0 0.31028765366945299 -0.059813859753099302 0 0.30006956444745492 -0.056725397492169018 0 0.30505838054939299 -0.079261323674363143 0 0.31031741738569368 -0.10301791512023829 0 0.29283392045420159 -0.094427869748587814 0 0.30505838054939299 -0.079261323674363143 0 0.31031741738569368 -0.10301791512023829 0 0.32160018235703192 -0.091431062077084763 0 0.30505838054939299 -0.079261323674363143 0 0.31031741738569368 -0.10301791512023829 0 0.30505838054939299 -0.079261323674363143 0 0.29283392045420159 -0.094427869748587814 0 0.2761325871866005 -0.081483718742339104 0 0.30505838054939299 -0.079261323674363143 0 0.2761325871866005 -0.081483718742339104 0 0.29283392045420159 -0.094427869748587814 0 0.28037939363898112 -0.1021950051257175 0 0.2761325871866005 -0.081483718742339104 0 0.30505838054939299 -0.079261323674363143 0 0.28862019264376698 -0.066497334691705531 0 0.2761325871866005 -0.081483718742339104 0 0.31031741738569368 -0.10301791512023829 0 0.29482179699199079 -0.1135426889583632 0 0.3155764542219951 -0.1267745065661133 0 0.29482179699199079 -0.1135426889583632 0 0.29596683270299212 -0.12770183990796111 0 0.3155764542219951 -0.1267745065661133 0 0.31031741738569368 -0.10301791512023829 0 0.29283392045420159 -0.094427869748587814 0 0.29482179699199079 -0.1135426889583632 0 0.29283392045420159 -0.094427869748587814 0 0.29482179699199079 -0.1135426889583632 0 0.28037939363898112 -0.1021950051257175 0 0.29482179699199079 -0.1135426889583632 0 0.28197998887454651 -0.1153642932657986 0 0.28037939363898112 -0.1021950051257175 0 0.29482179699199079 -0.1135426889583632 0 0.28197998887454651 -0.1153642932657986 0 0.28580966605375718 -0.1235880223547437 0 0.29482179699199079 -0.1135426889583632 0 0.28580966605375718 -0.1235880223547437 0 0.29596683270299212 -0.12770183990796111 0 0.27486795419144161 -0.12429321240304519 0 0.27046394930342837 -0.1113314892848306 0 0.2597982996860107 -0.12367424494955589 0 0.28197998887454651 -0.1153642932657986 0 0.28580966605375718 -0.1235880223547437 0 0.27486795419144161 -0.12429321240304519 0 0.28197998887454651 -0.1153642932657986 0 0.27046394930342837 -0.1113314892848306 0 0.28037939363898112 -0.1021950051257175 0 0.28197998887454651 -0.1153642932657986 0 0.27486795419144161 -0.12429321240304519 0 0.27046394930342837 -0.1113314892848306 0 0.27046394930342837 -0.1113314892848306 0 0.28037939363898112 -0.1021950051257175 0 0.26604411902311897 -0.097019970754385801 0 0.27046394930342837 -0.1113314892848306 0 0.26604411902311897 -0.097019970754385801 0 0.25248068696964349 -0.10451247860643401 0 0.26604411902311897 -0.097019970754385801 0 0.25248068696964349 -0.10451247860643401 0 0.24720679382380811 -0.083706113810315161 0 0.27046394930342837 -0.1113314892848306 0 0.25248068696964349 -0.10451247860643401 0 0.2597982996860107 -0.12367424494955589 0 0.25248068696964349 -0.10451247860643401 0 0.2597982996860107 -0.12367424494955589 0 0.24073824683074749 -0.11898309597363541 0 0.2761325871866005 -0.081483718742339104 0 0.25203211719755469 -0.064864740168063206 0 0.27295324768807422 -0.061279573208932077 0 0.28862019264376698 -0.066497334691705531 0 0.2761325871866005 -0.081483718742339104 0 0.27295324768807422 -0.061279573208932077 0 0.28037939363898112 -0.1021950051257175 0 0.26604411902311897 -0.097019970754385801 0 0.2761325871866005 -0.081483718742339104 0 0.2761325871866005 -0.081483718742339104 0 0.24720679382380811 -0.083706113810315161 0 0.26604411902311897 -0.097019970754385801 0 0.2761325871866005 -0.081483718742339104 0 0.24720679382380811 -0.083706113810315161 0 0.2761325871866005 -0.081483718742339104 0 0.25203211719755469 -0.064864740168063206 0 0.24720679382380811 -0.083706113810315161 0 0.25203211719755469 -0.064864740168063206 0 0.26143378601699291 -0.05077457182344082 0 0.27295324768807422 -0.061279573208932077 0 0.25203211719755469 -0.064864740168063206 0 0.25000706599388611 -0.051970212916489379 0 0.26143378601699291 -0.05077457182344082 0 0.25000706599388611 -0.051970212916489379 0 0.26143378601699291 -0.05077457182344082 0 0.25057940684032642 -0.039708976576940939 0 0.27295324768807422 -0.061279573208932077 0 0.2734014231400832 -0.046116761400404271 0 0.28888718334731278 -0.053736660340724308 0 0.26143378601699291 -0.05077457182344082 0 0.27295324768807422 -0.061279573208932077 0 0.2734014231400832 -0.046116761400404271 0 0.2734014231400832 -0.046116761400404271 0 0.2644647156204894 -0.036395450133496231 0 0.27760035944475969 -0.029175640776471709 0 0.2734014231400832 -0.046116761400404271 0 0.27760035944475969 -0.029175640776471709 0 0.28888718334731278 -0.053736660340724308 0 0.26143378601699291 -0.05077457182344082 0 0.2734014231400832 -0.046116761400404271 0 0.2644647156204894 -0.036395450133496231 0 0.26143378601699291 -0.05077457182344082 0 0.2644647156204894 -0.036395450133496231 0 0.25057940684032642 -0.039708976576940939 0 0.2644647156204894 -0.036395450133496231 0 0.25057940684032642 -0.039708976576940939 0 0.2550806638953147 -0.025735556707865509 0 0.25057940684032642 -0.039708976576940939 0 0.2550806638953147 -0.025735556707865509 0 0.24807984005970191 -0.028253642934939888 0 0.2550806638953147 -0.025735556707865509 0 0.25179701251938408 -0.017694226939863441 0 0.2465187985406741 -0.02114865632870299 0 0.2550806638953147 -0.025735556707865509 0 0.25179701251938408 -0.017694226939863441 0 0.25740926141773712 -0.017856876947501141 0 0.25179701251938408 -0.017694226939863441 0 0.25740926141773712 -0.017856876947501141 0 0.25364027478551648 -0.01143751081797992 0 0.25740926141773712 -0.017856876947501141 0 0.26552621845285462 -0.018112004422397899 0 0.26552202806562702 -0.0269924649531103 0 0.25740926141773712 -0.017856876947501141 0 0.26552621845285462 -0.018112004422397899 0 0.26146358212722048 -0.012233094089575401 0 0.2550806638953147 -0.025735556707865509 0 0.25740926141773712 -0.017856876947501141 0 0.26552202806562702 -0.0269924649531103 0 0.2644647156204894 -0.036395450133496231 0 0.2550806638953147 -0.025735556707865509 0 0.26552202806562702 -0.0269924649531103 0 0.24717639833345989 6.4481204013932397e-05 0 0.25582356345651869 0.0037151648870848682 0 0.25120190602382952 -0.0052095755072275214 0 0.25582356345651869 0.0037151648870848682 0 0.25120190602382952 -0.0052095755072275214 0 0.25795112800726999 -0.0058570290173119363 0 0.25120190602382952 -0.0052095755072275214 0 0.25364027478551648 -0.01143751081797992 0 0.25795112800726999 -0.0058570290173119363 0 0.25740926141773712 -0.017856876947501141 0 0.25364027478551648 -0.01143751081797992 0 0.26146358212722048 -0.012233094089575401 0 0.25364027478551648 -0.01143751081797992 0 0.26146358212722048 -0.012233094089575401 0 0.25795112800726999 -0.0058570290173119363 0 0.25120190602382952 -0.0052095755072275214 0 0.25364027478551648 -0.01143751081797992 0 0.24633606395767821 -0.012292533897267661 0 0.25179701251938408 -0.017694226939863441 0 0.25364027478551648 -0.01143751081797992 0 0.24633606395767821 -0.012292533897267661 0 0.26552621845285462 -0.018112004422397899 0 0.26146358212722048 -0.012233094089575401 0 0.26631353554220982 -0.0046146212122176247 0 0.26146358212722048 -0.012233094089575401 0 0.2627199092146707 -0.0068726106011613702 0 0.26631353554220982 -0.0046146212122176247 0 0.26146358212722048 -0.012233094089575401 0 0.25795112800726999 -0.0058570290173119363 0 0.2627199092146707 -0.0068726106011613702 0 0.25795112800726999 -0.0058570290173119363 0 0.2627199092146707 -0.0068726106011613702 0 0.26631353554220982 -0.0046146212122176247 0 0.25582356345651869 0.0037151648870848682 0 0.25795112800726999 -0.0058570290173119363 0 0.26631353554220982 -0.0046146212122176247 0 0.26631353554220982 -0.0046146212122176247 0 0.29447724234708123 -0.00046870004589340611 0 0.26631353554220982 -0.0046146212122176247 0 0.27760035944475969 -0.029175640776471709 0 0.26631353554220982 -0.0046146212122176247 0 0.27760035944475969 -0.029175640776471709 0 0.28434920985366519 -0.01433814118644665 0 0.26552621845285462 -0.018112004422397899 0 0.26631353554220982 -0.0046146212122176247 0 0.27760035944475969 -0.029175640776471709 0 0.26552621845285462 -0.018112004422397899 0 0.26552202806562702 -0.0269924649531103 0 0.27760035944475969 -0.029175640776471709 0 0.2644647156204894 -0.036395450133496231 0 0.26552202806562702 -0.0269924649531103 0 0.27760035944475969 -0.029175640776471709 0 0.27760035944475969 -0.029175640776471709 0 0.28875115087537578 -0.024115816305427799 0 0.29508074834551762 -0.034189471309974788 0 0.27760035944475969 -0.029175640776471709 0 0.28875115087537578 -0.024115816305427799 0 0.28434920985366519 -0.01433814118644665 0 0.28875115087537578 -0.024115816305427799 0 0.28434920985366519 -0.01433814118644665 0 0.29810052188423108 -0.0196601341743569 0 0.28875115087537578 -0.024115816305427799 0 0.29810052188423108 -0.0196601341743569 0 0.29508074834551762 -0.034189471309974788 0 0.29447724234708123 -0.00046870004589340611 0 0.28434920985366519 -0.01433814118644665 0 0.29810052188423108 -0.0196601341743569 0 0.26631353554220982 -0.0046146212122176247 0 0.29447724234708123 -0.00046870004589340611 0 0.28434920985366519 -0.01433814118644665 0 0.32264094915195268 0.0036772211204291199 0 0.31622154218412302 -0.01391134382297716 0 0.29447724234708123 -0.00046870004589340611 0 0.31622154218412302 -0.01391134382297716 0 0.29447724234708123 -0.00046870004589340611 0 0.29810052188423108 -0.0196601341743569 0 0.31622154218412302 -0.01391134382297716 0 0.29810052188423108 -0.0196601341743569 0 0.30980213521629291 -0.031499908766383408 0 0.29810052188423108 -0.0196601341743569 0 0.30980213521629291 -0.031499908766383408 0 0.29508074834551762 -0.034189471309974788 0 0.30006956444745492 -0.056725397492169018 0 0.29508074834551762 -0.034189471309974788 0 0.30669329071692403 -0.042021489982263648 0 0.30006956444745492 -0.056725397492169018 0 0.29508074834551762 -0.034189471309974788 0 0.30980213521629291 -0.031499908766383408 0 0.30669329071692403 -0.042021489982263648 0 0.29508074834551762 -0.034189471309974788 0 0.30669329071692403 -0.042021489982263648 0 0.31213605652618143 -0.049300470510559698 0 0.30006956444745492 -0.056725397492169018 0 0.31213605652618143 -0.049300470510559698 0 0.31028765366945299 -0.059813859753099302 0 0.30006956444745492 -0.056725397492169018 0 0.30006956444745492 -0.056725397492169018 0 0.28888718334731278 -0.053736660340724308 0 0.29508074834551762 -0.034189471309974788 0 0.28862019264376698 -0.066497334691705531 0 0.27295324768807422 -0.061279573208932077 0 0.28888718334731278 -0.053736660340724308 0 0.28862019264376698 -0.066497334691705531 0 0.30006956444745492 -0.056725397492169018 0 0.28888718334731278 -0.053736660340724308 0 0.27760035944475969 -0.029175640776471709 0 0.28888718334731278 -0.053736660340724308 0 0.29508074834551762 -0.034189471309974788 0 0.27760035944475969 -0.029175640776471709 0 0.28888718334731278 -0.053736660340724308 0 0.28481308202711692 -0.21754428947698529 0 0.28958088885113709 -0.19804448160796659 0 0.30311102886287322 -0.20233399892257611 0 0.28481308202711692 -0.21754428947698529 0 0.28958088885113709 -0.19804448160796659 0 0.27508428013598479 -0.1941114162115522 0 0.28958088885113709 -0.19804448160796659 0 0.30059999447824159 -0.1879344105909275 0 0.28868513743100888 -0.17929067554219161 0 0.28958088885113709 -0.19804448160796659 0 0.27508428013598479 -0.1941114162115522 0 0.28868513743100888 -0.17929067554219161 0 0.28958088885113709 -0.19804448160796659 0 0.30311102886287322 -0.20233399892257611 0 0.30059999447824159 -0.1879344105909275 0 0.30311102886287322 -0.20233399892257611 0 0.30059999447824159 -0.1879344105909275 0 0.31338697532703391 -0.19019266013455111 0 0.28481308202711692 -0.21754428947698529 0 0.30311102886287322 -0.20233399892257611 0 0.31157950201889789 -0.2223599900154333 0 0.28481308202711692 -0.21754428947698529 0 0.31157950201889789 -0.2223599900154333 0 0.30319782325364969 -0.24304381306985409 0 0.30319782325364969 -0.24304381306985409 0 0.27474985741257119 -0.24083550340129439 0 0.30319782325364969 -0.24304381306985409 0 0.27474985741257119 -0.24083550340129439 0 0.28677326490980509 -0.26553328257918329 0 0.28481308202711692 -0.21754428947698529 0 0.30319782325364969 -0.24304381306985409 0 0.27474985741257119 -0.24083550340129439 0 0.28481308202711692 -0.21754428947698529 0 0.27474985741257119 -0.24083550340129439 0 0.26413358901203171 -0.215992289990554 0 0.27474985741257119 -0.24083550340129439 0 0.24630189157149271 -0.23862719373273489 0 0.27474985741257119 -0.24083550340129439 0 0.26424800045146218 -0.26647896932476101 0 0.24630189157149271 -0.23862719373273489 0 0.27474985741257119 -0.24083550340129439 0 0.26413358901203171 -0.215992289990554 0 0.24630189157149271 -0.23862719373273489 0 0.26413358901203171 -0.215992289990554 0 0.24621464331876661 -0.21430126791017801 0 0.24630189157149271 -0.23862719373273489 0 0.26413358901203171 -0.215992289990554 0 0.25763777960625811 -0.1905340692105793 0 0.24621464331876661 -0.21430126791017801 0 0.28481308202711692 -0.21754428947698529 0 0.26413358901203171 -0.215992289990554 0 0.27508428013598479 -0.1941114162115522 0 0.27508428013598479 -0.1941114162115522 0 0.25763777960625811 -0.1905340692105793 0 0.27396259362887698 -0.17927141992405071 0 0.26413358901203171 -0.215992289990554 0 0.27508428013598479 -0.1941114162115522 0 0.25763777960625811 -0.1905340692105793 0 0.25763777960625811 -0.1905340692105793 0 0.26473810636541001 -0.16759997742855029 0 0.24368847620589321 -0.17005331356982009 0 0.25763777960625811 -0.1905340692105793 0 0.26473810636541001 -0.16759997742855029 0 0.27396259362887698 -0.17927141992405071 0 0.26473810636541001 -0.16759997742855029 0 0.2593630558311944 -0.15522840324506251 0 0.24368847620589321 -0.17005331356982009 0 0.26473810636541001 -0.16759997742855029 0 0.2593630558311944 -0.15522840324506251 0 0.2724583978228215 -0.15610684189743379 0 0.28006300350585162 -0.1671640752775593 0 0.2724583978228215 -0.15610684189743379 0 0.28849842414838761 -0.15487949135339729 0 0.26473810636541001 -0.16759997742855029 0 0.28006300350585162 -0.1671640752775593 0 0.27396259362887698 -0.17927141992405071 0 0.26473810636541001 -0.16759997742855029 0 0.28006300350585162 -0.1671640752775593 0 0.2724583978228215 -0.15610684189743379 0 0.28006300350585162 -0.1671640752775593 0 0.27396259362887698 -0.17927141992405071 0 0.28868513743100888 -0.17929067554219161 0 0.27508428013598479 -0.1941114162115522 0 0.27396259362887698 -0.17927141992405071 0 0.28868513743100888 -0.17929067554219161 0 0.2597982996860107 -0.12367424494955589 0 0.25297455976986188 -0.13670752837950159 0 0.24073824683074749 -0.11898309597363541 0 0.2597982996860107 -0.12367424494955589 0 0.2628496448736467 -0.1318130462106476 0 0.25297455976986188 -0.13670752837950159 0 0.2597982996860107 -0.12367424494955589 0 0.2628496448736467 -0.1318130462106476 0 0.26916696521830658 -0.13070666356532379 0 0.25297455976986188 -0.13670752837950159 0 0.26853738895072832 -0.1404439412017463 0 0.26698560035816499 -0.13799012919014761 0 0.2628496448736467 -0.1318130462106476 0 0.25297455976986188 -0.13670752837950159 0 0.26698560035816499 -0.13799012919014761 0 0.2593630558311944 -0.15522840324506251 0 0.26853738895072832 -0.1404439412017463 0 0.2461275228407423 -0.14899868001382041 0 0.25297455976986188 -0.13670752837950159 0 0.26853738895072832 -0.1404439412017463 0 0.2461275228407423 -0.14899868001382041 0 0.26853738895072832 -0.1404439412017463 0 0.2461275228407423 -0.14899868001382041 0 0.26853738895072832 -0.1404439412017463 0 0.26698560035816499 -0.13799012919014761 0 0.28849842414838761 -0.15487949135339729 0 0.2593630558311944 -0.15522840324506251 0 0.2724583978228215 -0.15610684189743379 0 0.26853738895072832 -0.1404439412017463 0 0.2724583978228215 -0.15610684189743379 0 0.26853738895072832 -0.1404439412017463 0 0.28849842414838761 -0.15487949135339729 0 0.26698560035816499 -0.13799012919014761 0 0.28849842414838761 -0.15487949135339729 0 0.2811430518601053 -0.14181871779710581 0 0.26698560035816499 -0.13799012919014761 0 0.28849842414838761 -0.15487949135339729 0 0.27264225976652512 -0.13585303781849711 0 0.27740992750453097 -0.13431403584281301 0 0.26916696521830658 -0.13070666356532379 0 0.26698560035816499 -0.13799012919014761 0 0.26791111755416092 -0.13409071919615401 0 0.27264225976652512 -0.13585303781849711 0 0.2628496448736467 -0.1318130462106476 0 0.26698560035816499 -0.13799012919014761 0 0.26791111755416092 -0.13409071919615401 0 0.26791111755416092 -0.13409071919615401 0 0.27264225976652512 -0.13585303781849711 0 0.26916696521830658 -0.13070666356532379 0 0.2811430518601053 -0.14181871779710581 0 0.26698560035816499 -0.13799012919014761 0 0.27264225976652512 -0.13585303781849711 0 0.2811430518601053 -0.14181871779710581 0 0.27264225976652512 -0.13585303781849711 0 0.27740992750453097 -0.13431403584281301 0 0.2811430518601053 -0.14181871779710581 0 0.27740992750453097 -0.13431403584281301 0 0.28355173782398169 -0.1363785018331107 0 0.27740992750453097 -0.13431403584281301 0 0.28165887915567639 -0.12912237196641829 0 0.28355173782398169 -0.1363785018331107 0 0.27486795419144161 -0.12429321240304519 0 0.27740992750453097 -0.13431403584281301 0 0.28165887915567639 -0.12912237196641829 0 0.27486795419144161 -0.12429321240304519 0 0.27740992750453097 -0.13431403584281301 0 0.26916696521830658 -0.13070666356532379 0 0.28580966605375718 -0.1235880223547437 0 0.27486795419144161 -0.12429321240304519 0 0.28165887915567639 -0.12912237196641829 0 0.27486795419144161 -0.12429321240304519 0 0.2597982996860107 -0.12367424494955589 0 0.26916696521830658 -0.13070666356532379 0 0.2628496448736467 -0.1318130462106476 0 0.26791111755416092 -0.13409071919615401 0 0.26916696521830658 -0.13070666356532379 0 0.28580966605375718 -0.1235880223547437 0 0.29596683270299212 -0.12770183990796111 0 0.28785623107854691 -0.13257700594107891 0 0.28580966605375718 -0.1235880223547437 0 0.28165887915567639 -0.12912237196641829 0 0.28785623107854691 -0.13257700594107891 0 0.28165887915567639 -0.12912237196641829 0 0.28785623107854691 -0.13257700594107891 0 0.28355173782398169 -0.1363785018331107 0 0.2811430518601053 -0.14181871779710581 0 0.28355173782398169 -0.1363785018331107 0 0.29133126106055451 -0.1402560866650967 0 0.28785623107854691 -0.13257700594107891 0 0.28355173782398169 -0.1363785018331107 0 0.29133126106055451 -0.1402560866650967 0 0.29596683270299212 -0.12770183990796111 0 0.29133126106055451 -0.1402560866650967 0 0.30295709854186348 -0.1364224322925445 0 0.29596683270299212 -0.12770183990796111 0 0.28785623107854691 -0.13257700594107891 0 0.29133126106055451 -0.1402560866650967 0 0.2811430518601053 -0.14181871779710581 0 0.29133126106055451 -0.1402560866650967 0 0.28849842414838761 -0.15487949135339729 0 0.29133126106055451 -0.1402560866650967 0 0.28849842414838761 -0.15487949135339729 0 0.30031543433052399 -0.15052008885025689 0 0.30031543433052399 -0.15052008885025689 0 0.31010900997331042 -0.1420226913929899 0 0.32083549105829512 -0.15053109801198861 0 0.30031543433052399 -0.15052008885025689 0 0.32083549105829512 -0.15053109801198861 0 0.30031543433052399 -0.15052008885025689 0 0.31057108945026313 -0.1586769150439945 0 0.32083549105829512 -0.15053109801198861 0 0.28849842414838761 -0.15487949135339729 0 0.30031543433052399 -0.15052008885025689 0 0.31057108945026313 -0.1586769150439945 0 0.29133126106055451 -0.1402560866650967 0 0.30031543433052399 -0.15052008885025689 0 0.30295709854186348 -0.1364224322925445 0 0.30031543433052399 -0.15052008885025689 0 0.31010900997331042 -0.1420226913929899 0 0.30295709854186348 -0.1364224322925445 0 0.29596683270299212 -0.12770183990796111 0 0.30295709854186348 -0.1364224322925445 0 0.3155764542219951 -0.1267745065661133 0 0.31010900997331042 -0.1420226913929899 0 0.30295709854186348 -0.1364224322925445 0 0.3155764542219951 -0.1267745065661133 0 0.28868513743100888 -0.17929067554219161 0 0.2918144532559645 -0.16827577392244869 0 0.31001124793861012 -0.17176885351664681 0 0.28849842414838761 -0.15487949135339729 0 0.2918144532559645 -0.16827577392244869 0 0.31001124793861012 -0.17176885351664681 0 0.28006300350585162 -0.1671640752775593 0 0.28868513743100888 -0.17929067554219161 0 0.2918144532559645 -0.16827577392244869 0 0.28006300350585162 -0.1671640752775593 0 0.28849842414838761 -0.15487949135339729 0 0.2918144532559645 -0.16827577392244869 0 0.28849842414838761 -0.15487949135339729 0 0.31001124793861012 -0.17176885351664681 0 0.28849842414838761 -0.15487949135339729 0 0.31057108945026313 -0.1586769150439945 0 0.31001124793861012 -0.17176885351664681 0 0.30059999447824159 -0.1879344105909275 0 0.31001124793861012 -0.17176885351664681 0 0.31338697532703391 -0.19019266013455111 0 0.30059999447824159 -0.1879344105909275 0 0.28868513743100888 -0.17929067554219161 0 0.31001124793861012 -0.17176885351664681 0 0.31001124793861012 -0.17176885351664681 0 0.33152407172883241 -0.1886582156798963 0 0.31001124793861012 -0.17176885351664681 0 0.32737400812944578 -0.18006747198240081 0 0.33152407172883241 -0.1886582156798963 0 0.31001124793861012 -0.17176885351664681 0 0.33152407172883241 -0.1886582156798963 0 0.31338697532703391 -0.19019266013455111 0 0.31057108945026313 -0.1586769150439945 0 0.32737400812944578 -0.18006747198240081 0 0.32083549105829512 -0.15053109801198861 0 0.32737400812944578 -0.18006747198240081 0 0.33140352814142271 -0.16470772984645399 0 0.32083549105829512 -0.15053109801198861 0 0.32737400812944578 -0.18006747198240081 0 0.32083549105829512 -0.15053109801198861 0 0.31057108945026313 -0.1586769150439945 0 0.31001124793861012 -0.17176885351664681 0 0.32737400812944578 -0.18006747198240081 0 0.33140352814142271 -0.16470772984645399 0 0.33731049418815129 -0.1505399369726409 0 0.34475411136617218 -0.16880551894058099 0 0.33140352814142271 -0.16470772984645399 0 0.33567379051094809 -0.17331266074261831 0 0.34475411136617218 -0.16880551894058099 0 0.3391635144067518 -0.17966992220103761 0 0.33567379051094809 -0.17331266074261831 0 0.34475411136617218 -0.16880551894058099 0 0.3391635144067518 -0.17966992220103761 0 0.35006933943388652 -0.18695298246709521 0 0.33152407172883241 -0.1886582156798963 0 0.32737400812944578 -0.18006747198240081 0 0.3391635144067518 -0.17966992220103761 0 0.33152407172883241 -0.1886582156798963 0 0.32737400812944578 -0.18006747198240081 0 0.3391635144067518 -0.17966992220103761 0 0.33567379051094809 -0.17331266074261831 0 0.32737400812944578 -0.18006747198240081 0 0.33140352814142271 -0.16470772984645399 0 0.33567379051094809 -0.17331266074261831 0 0.3155764542219951 -0.1267745065661133 0 0.32083549105829512 -0.15053109801198861 0 0.3155764542219951 -0.1267745065661133 0 0.32083549105829512 -0.15053109801198861 0 0.32975543962499509 -0.1365943898863646 0 0.31010900997331042 -0.1420226913929899 0 0.3155764542219951 -0.1267745065661133 0 0.32083549105829512 -0.15053109801198861 0 0.33300908673166357 -0.1178073935000308 0 0.3155764542219951 -0.1267745065661133 0 0.32975543962499509 -0.1365943898863646 0 0.32083549105829512 -0.15053109801198861 0 0.33731049418815129 -0.1505399369726409 0 0.32083549105829512 -0.15053109801198861 0 0.33731049418815129 -0.1505399369726409 0 0.32975543962499509 -0.1365943898863646 0 0.33140352814142271 -0.16470772984645399 0 0.32083549105829512 -0.15053109801198861 0 0.33731049418815129 -0.1505399369726409 0 0.33300908673166357 -0.1178073935000308 0 0.34339729202483582 -0.13417808471666101 0 0.32975543962499509 -0.1365943898863646 0 0.33731049418815129 -0.1505399369726409 0 0.34339729202483582 -0.13417808471666101 0 0.32975543962499509 -0.1365943898863646 0 0.33300908673166357 -0.1178073935000308 0 0.34339729202483582 -0.13417808471666101 0 0.35281273824187598 -0.1180947422506244 0 0.34339729202483582 -0.13417808471666101 0 0.35967383332498121 -0.13678987302462961 0 0.34339729202483582 -0.13417808471666101 0 0.35378549731800751 -0.1505487759332915 0 0.35967383332498121 -0.13678987302462961 0 0.33731049418815129 -0.1505399369726409 0 0.35378549731800751 -0.1505487759332915 0 0.33731049418815129 -0.1505399369726409 0 0.34339729202483582 -0.13417808471666101 0 0.35378549731800751 -0.1505487759332915 0 0.34339729202483582 -0.13417808471666101 0 0.35378549731800751 -0.1505487759332915 0 0.35378549731800751 -0.1505487759332915 0 0.35967383332498121 -0.13678987302462961 0 0.38298489678591058 -0.15056444162639901 0 0.35378549731800751 -0.1505487759332915 0 0.38298489678591058 -0.15056444162639901 0 0.35281273824187598 -0.1180947422506244 0 0.35967383332498121 -0.13678987302462961 0 0.37113166727084229 -0.1298369395766992 0 0.35967383332498121 -0.13678987302462961 0 0.37113166727084229 -0.1298369395766992 0 0.38298489678591058 -0.15056444162639901 0 0.35006933943388652 -0.18695298246709521 0 0.34475411136617218 -0.16880551894058099 0 0.36950494281605217 -0.17532092676037059 0 0.3391635144067518 -0.17966992220103761 0 0.35006933943388652 -0.18695298246709521 0 0.34475411136617218 -0.16880551894058099 0 0.33731049418815129 -0.1505399369726409 0 0.35378549731800751 -0.1505487759332915 0 0.34475411136617218 -0.16880551894058099 0 0.35378549731800751 -0.1505487759332915 0 0.34475411136617218 -0.16880551894058099 0 0.36950494281605217 -0.17532092676037059 0 0.35378549731800751 -0.1505487759332915 0 0.36950494281605217 -0.17532092676037059 0 0.35378549731800751 -0.1505487759332915 0 0.36950494281605217 -0.17532092676037059 0 0.38298489678591058 -0.15056444162639901 0 0.35006933943388652 -0.18695298246709521 0 0.36950494281605217 -0.17532092676037059 0 0.36724214127137922 -0.19368748626927221 0 0.36950494281605217 -0.17532092676037059 0 0.36724214127137922 -0.19368748626927221 0 0.38522438831409639 -0.2000930775874501 0 0.36724214127137922 -0.19368748626927221 0 0.35303689551905482 -0.20554757784314581 0 0.37454971930927727 -0.22243694000639541 0 0.35303689551905482 -0.20554757784314581 0 0.37454971930927727 -0.22243694000639541 0 0.35006933943388652 -0.18695298246709521 0 0.36724214127137922 -0.19368748626927221 0 0.35303689551905482 -0.20554757784314581 0 0.35006933943388652 -0.18695298246709521 0 0.35303689551905482 -0.20554757784314581 0 0.33152407172883241 -0.1886582156798963 0 0.35303689551905482 -0.20554757784314581 0 0.33152407172883241 -0.1886582156798963 0 0.32361749017362401 -0.20503619447443869 0 0.35303689551905482 -0.20554757784314581 0 0.33152407172883241 -0.1886582156798963 0 0.35303689551905482 -0.20554757784314581 0 0.32361749017362401 -0.20503619447443869 0 0.33333408821623389 -0.22124986913724259 0 0.30311102886287322 -0.20233399892257611 0 0.31157950201889789 -0.2223599900154333 0 0.32361749017362401 -0.20503619447443869 0 0.31157950201889789 -0.2223599900154333 0 0.32361749017362401 -0.20503619447443869 0 0.33333408821623389 -0.22124986913724259 0 0.30311102886287322 -0.20233399892257611 0 0.32361749017362401 -0.20503619447443869 0 0.31338697532703391 -0.19019266013455111 0 0.33152407172883241 -0.1886582156798963 0 0.32361749017362401 -0.20503619447443869 0 0.31338697532703391 -0.19019266013455111 0 0.30319782325364969 -0.24304381306985409 0 0.33164578909472808 -0.24525212273841371 0 0.31157950201889789 -0.2223599900154333 0 0.30319782325364969 -0.24304381306985409 0 0.33164578909472808 -0.24525212273841371 0 0.31157950201889789 -0.2223599900154333 0 0.33333408821623389 -0.22124986913724259 0 0.33164578909472808 -0.24525212273841371 0 0.33333408821623389 -0.22124986913724259 0 0.33164578909472808 -0.24525212273841371 0 0.35209968844333128 -0.23196766962807711 0 0.33164578909472808 -0.24525212273841371 0 0.35209968844333128 -0.23196766962807711 0 0.34337386365515071 -0.25990193033803188 0 0.35209968844333128 -0.23196766962807711 0 0.34337386365515071 -0.25990193033803188 0 0.36284533118166051 -0.25184142910743867 0 0.35303689551905482 -0.20554757784314581 0 0.33333408821623389 -0.22124986913724259 0 0.35209968844333128 -0.23196766962807711 0 0.37454971930927727 -0.22243694000639541 0 0.36679430028833598 -0.23635085058581301 0 0.37778092624594778 -0.24313624425873381 0 0.35303689551905482 -0.20554757784314581 0 0.35209968844333128 -0.23196766962807711 0 0.37454971930927727 -0.22243694000639541 0 0.35209968844333128 -0.23196766962807711 0 0.37454971930927727 -0.22243694000639541 0 0.36679430028833598 -0.23635085058581301 0 0.35209968844333128 -0.23196766962807711 0 0.36679430028833598 -0.23635085058581301 0 0.36284533118166051 -0.25184142910743867 0 0.36679430028833598 -0.23635085058581301 0 0.37778092624594778 -0.24313624425873381 0 0.36284533118166051 -0.25184142910743867 0 0.37778092624594778 -0.24313624425873381 0 0.38972013589370658 -0.24860602692987729 0 0.39606254309949968 -0.2393263021696449 0 0.37454971930927727 -0.22243694000639541 0 0.37778092624594778 -0.24313624425873381 0 0.39606254309949968 -0.2393263021696449 0 0.39606254309949968 -0.2393263021696449 0 0.39339019263086872 -0.22636127981786661 0 0.40989247196553152 -0.25088968501773468 0 0.38972013589370658 -0.24860602692987729 0 0.39606254309949968 -0.2393263021696449 0 0.39806170646907491 -0.25157951124394029 0 0.39339019263086872 -0.22636127981786661 0 0.40989247196553152 -0.25088968501773468 0 0.39606254309949968 -0.2393263021696449 0 0.39806170646907491 -0.25157951124394029 0 0.40989247196553152 -0.25088968501773468 0 0.39339019263086872 -0.22636127981786661 0 0.40094383381214072 -0.22486522841452969 0 0.40989247196553152 -0.25088968501773468 0 0.37454971930927727 -0.22243694000639541 0 0.39606254309949968 -0.2393263021696449 0 0.39339019263086872 -0.22636127981786661 0 0.37454971930927727 -0.22243694000639541 0 0.39606254309949968 -0.2393263021696449 0 0.36724214127137922 -0.19368748626927221 0 0.37454971930927727 -0.22243694000639541 0 0.38522438831409639 -0.2000930775874501 0 0.37454971930927727 -0.22243694000639541 0 0.39339019263086872 -0.22636127981786661 0 0.38522438831409639 -0.2000930775874501 0 0.36950494281605217 -0.17532092676037059 0 0.38522438831409639 -0.2000930775874501 0 0.40132332963278788 -0.20393533337722741 0 0.39893042918046168 -0.17973374753413829 0 0.41217082038485658 -0.1830442990372847 0 0.38522438831409639 -0.2000930775874501 0 0.40132332963278788 -0.20393533337722741 0 0.39893042918046168 -0.17973374753413829 0 0.40094383381214072 -0.22486522841452969 0 0.38522438831409639 -0.2000930775874501 0 0.40094383381214072 -0.22486522841452969 0 0.38522438831409639 -0.2000930775874501 0 0.40132332963278788 -0.20393533337722741 0 0.40094383381214072 -0.22486522841452969 0 0.40132332963278788 -0.20393533337722741 0 0.40758099342992521 -0.21693771273545981 0 0.39339019263086872 -0.22636127981786661 0 0.40094383381214072 -0.22486522841452969 0 0.38522438831409639 -0.2000930775874501 0 0.40132332963278788 -0.20393533337722741 0 0.4150072925707855 -0.21472777653291711 0 0.41684924298249387 -0.19820080150494929 0 0.40132332963278788 -0.20393533337722741 0 0.40758099342992521 -0.21693771273545981 0 0.4150072925707855 -0.21472777653291711 0 0.4150072925707855 -0.21472777653291711 0 0.41684924298249387 -0.19820080150494929 0 0.42687404468587431 -0.21342668297075321 0 0.40758099342992521 -0.21693771273545981 0 0.4150072925707855 -0.21472777653291711 0 0.41304951770398662 -0.22422251261716489 0 0.40132332963278788 -0.20393533337722741 0 0.41684924298249387 -0.19820080150494929 0 0.41217082038485658 -0.1830442990372847 0 0.41684924298249387 -0.19820080150494929 0 0.4383743294469078 -0.20627517657470831 0 0.44078971776123471 -0.1884296026845276 0 0.41684924298249387 -0.19820080150494929 0 0.4383743294469078 -0.20627517657470831 0 0.41684924298249387 -0.19820080150494929 0 0.42687404468587431 -0.21342668297075321 0 0.4383743294469078 -0.20627517657470831 0 0.4150072925707855 -0.21472777653291711 0 0.42687404468587431 -0.21342668297075321 0 0.42413563389686709 -0.22614634025147379 0 0.42687404468587431 -0.21342668297075321 0 0.44000372453231668 -0.2217833199897172 0 0.4383743294469078 -0.20627517657470831 0 0.42413563389686709 -0.22614634025147379 0 0.42990480379075602 -0.24159383882398189 0 0.44000372453231668 -0.2217833199897172 0 0.42687404468587431 -0.21342668297075321 0 0.42413563389686709 -0.22614634025147379 0 0.44000372453231668 -0.2217833199897172 0 0.42990480379075602 -0.24159383882398189 0 0.43756297283723639 -0.25506191069322409 0 0.42689480477342839 -0.25068783913870613 0 0.42990480379075602 -0.24159383882398189 0 0.41666327931018488 -0.24963737924160931 0 0.42689480477342839 -0.25068783913870613 0 0.42413563389686709 -0.22614634025147379 0 0.42990480379075602 -0.24159383882398189 0 0.4175102228975538 -0.23542513760335271 0 0.40094383381214072 -0.22486522841452969 0 0.41666327931018488 -0.24963737924160931 0 0.40989247196553152 -0.25088968501773468 0 0.40094383381214072 -0.22486522841452969 0 0.41666327931018488 -0.24963737924160931 0 0.40094383381214072 -0.22486522841452969 0 0.4175102228975538 -0.23542513760335271 0 0.41666327931018488 -0.24963737924160931 0 0.42990480379075602 -0.24159383882398189 0 0.4175102228975538 -0.23542513760335271 0 0.41666327931018488 -0.24963737924160931 0 0.40094383381214072 -0.22486522841452969 0 0.4175102228975538 -0.23542513760335271 0 0.41304951770398662 -0.22422251261716489 0 0.40094383381214072 -0.22486522841452969 0 0.40758099342992521 -0.21693771273545981 0 0.41304951770398662 -0.22422251261716489 0 0.4150072925707855 -0.21472777653291711 0 0.42413563389686709 -0.22614634025147379 0 0.41304951770398662 -0.22422251261716489 0 0.42413563389686709 -0.22614634025147379 0 0.4175102228975538 -0.23542513760335271 0 0.41304951770398662 -0.22422251261716489 0 0.39592118067352727 -0.1163074301991535 0 0.40588823891881659 -0.1402505198740579 0 0.41255287296548809 -0.1290505203717412 0 0.39592118067352727 -0.1163074301991535 0 0.40588823891881659 -0.1402505198740579 0 0.39592118067352727 -0.1163074301991535 0 0.40588823891881659 -0.1402505198740579 0 0.38896199114956759 -0.1332505043577599 0 0.37113166727084229 -0.1298369395766992 0 0.38896199114956759 -0.1332505043577599 0 0.38298489678591058 -0.15056444162639901 0 0.3756298573667074 -0.1121325287009476 0 0.37113166727084229 -0.1298369395766992 0 0.38896199114956759 -0.1332505043577599 0 0.38298489678591058 -0.15056444162639901 0 0.41218429625381348 -0.1505801073195053 0 0.38298489678591058 -0.15056444162639901 0 0.3980217356083291 -0.1631905127795969 0 0.41218429625381348 -0.1505801073195053 0 0.40588823891881659 -0.1402505198740579 0 0.38298489678591058 -0.15056444162639901 0 0.41218429625381348 -0.1505801073195053 0 0.40588823891881659 -0.1402505198740579 0 0.38896199114956759 -0.1332505043577599 0 0.38298489678591058 -0.15056444162639901 0 0.3980217356083291 -0.1631905127795969 0 0.38550485312584881 -0.1708535891723586 0 0.39893042918046168 -0.17973374753413829 0 0.3980217356083291 -0.1631905127795969 0 0.39893042918046168 -0.17973374753413829 0 0.41132325396574881 -0.16589897645959251 0 0.38298489678591058 -0.15056444162639901 0 0.3980217356083291 -0.1631905127795969 0 0.38550485312584881 -0.1708535891723586 0 0.36950494281605217 -0.17532092676037059 0 0.38298489678591058 -0.15056444162639901 0 0.38550485312584881 -0.1708535891723586 0 0.36950494281605217 -0.17532092676037059 0 0.38522438831409639 -0.2000930775874501 0 0.38550485312584881 -0.1708535891723586 0 0.38522438831409639 -0.2000930775874501 0 0.38550485312584881 -0.1708535891723586 0 0.39893042918046168 -0.17973374753413829 0 0.41217082038485658 -0.1830442990372847 0 0.4298779511497815 -0.17309654838418029 0 0.41132325396574881 -0.16589897645959251 0 0.41684924298249387 -0.19820080150494929 0 0.41217082038485658 -0.1830442990372847 0 0.4298779511497815 -0.17309654838418029 0 0.39893042918046168 -0.17973374753413829 0 0.41217082038485658 -0.1830442990372847 0 0.41132325396574881 -0.16589897645959251 0 0.41684924298249387 -0.19820080150494929 0 0.4298779511497815 -0.17309654838418029 0 0.44078971776123471 -0.1884296026845276 0 0.4298779511497815 -0.17309654838418029 0 0.42369229927276508 -0.16004285129397239 0 0.4413836957217166 -0.15059577301261151 0 0.42369229927276508 -0.16004285129397239 0 0.41132325396574881 -0.16589897645959251 0 0.41218429625381348 -0.1505801073195053 0 0.4298779511497815 -0.17309654838418029 0 0.42369229927276508 -0.16004285129397239 0 0.41132325396574881 -0.16589897645959251 0 0.3980217356083291 -0.1631905127795969 0 0.41132325396574881 -0.16589897645959251 0 0.41218429625381348 -0.1505801073195053 0 0.40588823891881659 -0.1402505198740579 0 0.41218429625381348 -0.1505801073195053 0 0.42385275921023469 -0.1365067047463949 0 0.42369229927276508 -0.16004285129397239 0 0.41218429625381348 -0.1505801073195053 0 0.4413836957217166 -0.15059577301261151 0 0.41218429625381348 -0.1505801073195053 0 0.42385275921023469 -0.1365067047463949 0 0.4413836957217166 -0.15059577301261151 0 0.41218429625381348 -0.1505801073195053 0 0.4413836957217166 -0.15059577301261151 0 0.42159608029648549 -0.1196655463708958 0 0.43479326036583821 -0.1243194629350251 0 0.42385275921023469 -0.1365067047463949 0 0.43479326036583821 -0.1243194629350251 0 0.42385275921023469 -0.1365067047463949 0 0.44343861149794328 -0.13431391773607471 0 0.42385275921023469 -0.1365067047463949 0 0.44343861149794328 -0.13431391773607471 0 0.4413836957217166 -0.15059577301261151 0 0.40588823891881659 -0.1402505198740579 0 0.42385275921023469 -0.1365067047463949 0 0.41255287296548809 -0.1290505203717412 0 0.42159608029648549 -0.1196655463708958 0 0.42385275921023469 -0.1365067047463949 0 0.41255287296548809 -0.1290505203717412 0 0.4705600542762402 -0.1207412066741483 0 0.44743723931885598 -0.12131233574797121 0 0.4593607014926831 -0.13568497038838259 0 0.4705600542762402 -0.1207412066741483 0 0.4593607014926831 -0.13568497038838259 0 0.47263887983407848 -0.13607992524104179 0 0.44743723931885598 -0.12131233574797121 0 0.4593607014926831 -0.13568497038838259 0 0.44343861149794328 -0.13431391773607471 0 0.4593607014926831 -0.13568497038838259 0 0.44343861149794328 -0.13431391773607471 0 0.4413836957217166 -0.15059577301261151 0 0.44743723931885598 -0.12131233574797121 0 0.43479326036583821 -0.1243194629350251 0 0.44343861149794328 -0.13431391773607471 0 0.4413836957217166 -0.15059577301261151 0 0.4705830951896196 -0.1506114387057178 0 0.4593607014926831 -0.13568497038838259 0 0.4413836957217166 -0.15059577301261151 0 0.4705830951896196 -0.1506114387057178 0 0.4593607014926831 -0.13568497038838259 0 0.4705830951896196 -0.1506114387057178 0 0.47263887983407848 -0.13607992524104179 0 0.45906046449505139 -0.1720721694604129 0 0.47106901259065581 -0.16474642981543719 0 0.4705830951896196 -0.1506114387057178 0 0.4413836957217166 -0.15059577301261151 0 0.45906046449505139 -0.1720721694604129 0 0.4705830951896196 -0.1506114387057178 0 0.4298779511497815 -0.17309654838418029 0 0.4413836957217166 -0.15059577301261151 0 0.45906046449505139 -0.1720721694604129 0 0.45906046449505139 -0.1720721694604129 0 0.44078971776123471 -0.1884296026845276 0 0.45522948940946439 -0.1978484083220311 0 0.4298779511497815 -0.17309654838418029 0 0.45906046449505139 -0.1720721694604129 0 0.44078971776123471 -0.1884296026845276 0 0.45906046449505139 -0.1720721694604129 0 0.48341203523997228 -0.1714933906563553 0 0.47165572557564711 -0.19292147115041089 0 0.48341203523997228 -0.1714933906563553 0 0.47165572557564711 -0.19292147115041089 0 0.48341203523997228 -0.1714933906563553 0 0.47165572557564711 -0.19292147115041089 0 0.4876497547103063 -0.19023689708041769 0 0.5 -0.17786099169338471 0 0.48341203523997228 -0.1714933906563553 0 0.4876497547103063 -0.19023689708041769 0 0.48341203523997228 -0.1714933906563553 0 0.48207430671284091 -0.15545384043139671 0 0.49516834490429762 -0.15006531016229971 0 0.5 -0.17786099169338471 0 0.48341203523997228 -0.1714933906563553 0 0.5 -0.15209555362670871 0 0.48341203523997228 -0.1714933906563553 0 0.49516834490429762 -0.15006531016229971 0 0.5 -0.15209555362670871 0 0.48341203523997228 -0.1714933906563553 0 0.49516834490429762 -0.15006531016229971 0 0.48341203523997228 -0.1714933906563553 0 0.47106901259065581 -0.16474642981543719 0 0.48207430671284091 -0.15545384043139671 0 0.45906046449505139 -0.1720721694604129 0 0.48341203523997228 -0.1714933906563553 0 0.47106901259065581 -0.16474642981543719 0 0.47106901259065581 -0.16474642981543719 0 0.4705830951896196 -0.1506114387057178 0 0.48207430671284091 -0.15545384043139671 0 0.4705830951896196 -0.1506114387057178 0 0.48822491055721401 -0.13656929071137819 0 0.47263887983407848 -0.13607992524104179 0 0.4705830951896196 -0.1506114387057178 0 0.48207430671284091 -0.15545384043139671 0 0.48822491055721401 -0.13656929071137819 0 0.48207430671284091 -0.15545384043139671 0 0.49516834490429762 -0.15006531016229971 0 0.48822491055721401 -0.13656929071137819 0 0.49516834490429762 -0.15006531016229971 0 0.5 -0.15209555362670871 0 0.5 -0.12633011556003279 0 0.48721517183547203 -0.11411714512046101 0 0.48822491055721401 -0.13656929071137819 0 0.5 -0.12633011556003279 0 0.49516834490429762 -0.15006531016229971 0 0.48822491055721401 -0.13656929071137819 0 0.5 -0.12633011556003279 0 0.4705600542762402 -0.1207412066741483 0 0.48822491055721401 -0.13656929071137819 0 0.47263887983407848 -0.13607992524104179 0 0.4705600542762402 -0.1207412066741483 0 0.48822491055721401 -0.13656929071137819 0 0.46551258054565792 -0.2350543601612286 0 0.45989941591132188 -0.21434955164446651 0 0.47994970795566072 -0.22187070973560191 0 0.46551258054565792 -0.2350543601612286 0 0.44873119437427911 -0.2347057311688453 0 0.45989941591132188 -0.21434955164446651 0 0.44873119437427911 -0.2347057311688453 0 0.45989941591132188 -0.21434955164446651 0 0.46551258054565792 -0.2350543601612286 0 0.47371889651218219 -0.2487370014827493 0 0.45638490602314452 -0.25715149347717342 0 0.46551258054565792 -0.2350543601612286 0 0.44873119437427911 -0.2347057311688453 0 0.45638490602314452 -0.25715149347717342 0 0.44873119437427911 -0.2347057311688453 0 0.43756297283723639 -0.25506191069322409 0 0.44873119437427911 -0.2347057311688453 0 0.45638490602314452 -0.25715149347717342 0 0.43756297283723639 -0.25506191069322409 0 0.42990480379075602 -0.24159383882398189 0 0.44873119437427911 -0.2347057311688453 0 0.43756297283723639 -0.25506191069322409 0 0.44873119437427911 -0.2347057311688453 0 0.44000372453231668 -0.2217833199897172 0 0.45989941591132188 -0.21434955164446651 0 0.42990480379075602 -0.24159383882398189 0 0.44873119437427911 -0.2347057311688453 0 0.44000372453231668 -0.2217833199897172 0 0.4383743294469078 -0.20627517657470831 0 0.45522948940946439 -0.1978484083220311 0 0.45989941591132188 -0.21434955164446651 0 0.4383743294469078 -0.20627517657470831 0 0.45989941591132188 -0.21434955164446651 0 0.44000372453231668 -0.2217833199897172 0 0.4383743294469078 -0.20627517657470831 0 0.45989941591132188 -0.21434955164446651 0 0.4383743294469078 -0.20627517657470831 0 0.44078971776123471 -0.1884296026845276 0 0.45522948940946439 -0.1978484083220311 0 0.45906046449505139 -0.1720721694604129 0 0.45522948940946439 -0.1978484083220311 0 0.47165572557564711 -0.19292147115041089 0 0.45522948940946439 -0.1978484083220311 0 0.45989941591132188 -0.21434955164446651 0 0.47165572557564711 -0.19292147115041089 0 0.45989941591132188 -0.21434955164446651 0 0.47165572557564711 -0.19292147115041089 0 0.45989941591132188 -0.21434955164446651 0 0.48196013376166819 -0.20503395495977569 0 0.47994970795566072 -0.22187070973560191 0 0.45989941591132188 -0.21434955164446651 0 0.48196013376166819 -0.20503395495977569 0 0.47165572557564711 -0.19292147115041089 0 0.45989941591132188 -0.21434955164446651 0 0.47994970795566072 -0.22187070973560191 0 0.48196013376166819 -0.20503395495977569 0 0.47165572557564711 -0.19292147115041089 0 0.4876497547103063 -0.19023689708041769 0 0.48196013376166819 -0.20503395495977569 0 0.4876497547103063 -0.19023689708041769 0 0.5 -0.2036264297600606 0 0.5 -0.17786099169338471 0 0.4876497547103063 -0.19023689708041769 0 0.5 -0.2036264297600606 0 0.48196013376166819 -0.20503395495977569 0 0.5 -0.2036264297600606 0 0.47994970795566072 -0.22187070973560191 0 0.5 -0.2036264297600606 0 0.49999999999999989 -0.22939186782673651 0 0.47994970795566072 -0.22187070973560191 0 0.49999999999999989 -0.22939186782673651 0 0.47994970795566072 -0.22187070973560191 0 0.48213675569416897 -0.2362305202775063 0 0.49999999999999989 -0.22939186782673651 0 0.47994970795566072 -0.22187070973560191 0 0.46551258054565792 -0.2350543601612286 0 0.47994970795566072 -0.22187070973560191 0 0.48213675569416897 -0.2362305202775063 0 0.48213675569416897 -0.2362305202775063 0 0.47371889651218219 -0.2487370014827493 0 0.49195687937588789 -0.24625812907891181 0 0.46551258054565792 -0.2350543601612286 0 0.48213675569416897 -0.2362305202775063 0 0.47371889651218219 -0.2487370014827493 0 0.49999999999999989 -0.22939186782673651 0 0.49195687937588789 -0.24625812907891181 0 0.5 -0.25293022324215048 0 0.49999999999999989 -0.22939186782673651 0 0.48213675569416897 -0.2362305202775063 0 0.49195687937588789 -0.24625812907891181 0 0.49195687937588789 -0.24625812907891181 0 0.5 -0.25293022324215048 0 0.48078136030509599 -0.26884007005042843 0 0.49195687937588789 -0.24625812907891181 0 0.48078136030509599 -0.26884007005042843 0 0.5 -0.27646857865756441 0 0.48078136030509599 -0.26884007005042843 0 0.49039068015254922 -0.29619267976940977 0 0.5 -0.25293022324215048 0 0.5 -0.27646857865756441 0 0.48078136030509599 -0.26884007005042843 0 0.48078136030509599 -0.26884007005042843 0 0.46692190105455472 -0.26783836597731042 0 0.47166515997241099 -0.28726082496060629 0 0.48078136030509599 -0.26884007005042843 0 0.47166515997241099 -0.28726082496060629 0 0.47371889651218219 -0.2487370014827493 0 0.48078136030509599 -0.26884007005042843 0 0.46692190105455472 -0.26783836597731042 0 0.47371889651218219 -0.2487370014827493 0 0.48078136030509599 -0.26884007005042843 0 0.47371889651218219 -0.2487370014827493 0 0.49195687937588789 -0.24625812907891181 0 0.48078136030509599 -0.26884007005042843 0 0.47371889651218219 -0.2487370014827493 0 0.45638490602314452 -0.25715149347717342 0 0.46692190105455472 -0.26783836597731042 0 0.46692190105455472 -0.26783836597731042 0 0.457711104020462 -0.27685875243279617 0 0.47166515997241099 -0.28726082496060629 0 0.45638490602314452 -0.25715149347717342 0 0.46692190105455472 -0.26783836597731042 0 0.457711104020462 -0.27685875243279617 0 0.45638490602314452 -0.25715149347717342 0 0.457711104020462 -0.27685875243279617 0 0.4424056814083836 -0.27390528821591681 0 0.457711104020462 -0.27685875243279617 0 0.4424056814083836 -0.27390528821591681 0 0.44923260553916999 -0.28156456885253162 0 0.4424056814083836 -0.27390528821591681 0 0.44135431075352838 -0.28504466136174239 0 0.43499338819666522 -0.2795710343536848 0 0.4424056814083836 -0.27390528821591681 0 0.44135431075352838 -0.28504466136174239 0 0.44923260553916999 -0.28156456885253162 0 0.45638490602314452 -0.25715149347717342 0 0.4424056814083836 -0.27390528821591681 0 0.43756297283723639 -0.25506191069322409 0 0.44937559604391891 -0.30120099523086658 0 0.44413558996226998 -0.31393935592811478 0 0.43058504361814942 -0.31146828515519581 0 0.44937559604391891 -0.30120099523086658 0 0.4435479504709377 -0.300913999673594 0 0.43058504361814942 -0.31146828515519581 0 0.44937559604391891 -0.30120099523086658 0 0.46254895963972881 -0.30568157987078548 0 0.44413558996226998 -0.31393935592811478 0 0.44937559604391891 -0.30120099523086658 0 0.43058504361814942 -0.31146828515519581 0 0.44937559604391891 -0.30120099523086658 0 0.4435479504709377 -0.300913999673594 0 0.44673336895220878 -0.2955425568609355 0 0.44937559604391891 -0.30120099523086658 0 0.44673336895220878 -0.2955425568609355 0 0.45342627127390311 -0.29586340095960789 0 0.4435479504709377 -0.300913999673594 0 0.43497135088556588 -0.28816604494559839 0 0.4435479504709377 -0.300913999673594 0 0.44301156339517328 -0.29201233577308189 0 0.44673336895220878 -0.2955425568609355 0 0.4435479504709377 -0.300913999673594 0 0.44301156339517328 -0.29201233577308189 0 0.43497135088556588 -0.28816604494559839 0 0.44301156339517328 -0.29201233577308189 0 0.44135431075352838 -0.28504466136174239 0 0.4484508359136255 -0.29039441602353888 0 0.44301156339517328 -0.29201233577308189 0 0.44135431075352838 -0.28504466136174239 0 0.43497135088556588 -0.28816604494559839 0 0.44923260553916999 -0.28156456885253162 0 0.4484508359136255 -0.29039441602353888 0 0.4595012619788047 -0.29303632289935988 0 0.44135431075352838 -0.28504466136174239 0 0.44923260553916999 -0.28156456885253162 0 0.4484508359136255 -0.29039441602353888 0 0.44301156339517328 -0.29201233577308189 0 0.44673336895220878 -0.2955425568609355 0 0.4484508359136255 -0.29039441602353888 0 0.44673336895220878 -0.2955425568609355 0 0.4484508359136255 -0.29039441602353888 0 0.45342627127390311 -0.29586340095960789 0 0.46254895963972881 -0.30568157987078548 0 0.47166515997241099 -0.28726082496060629 0 0.457711104020462 -0.27685875243279617 0 0.44923260553916999 -0.28156456885253162 0 0.4595012619788047 -0.29303632289935988 0 0.4595012619788047 -0.29303632289935988 0 0.46254895963972881 -0.30568157987078548 0 0.47166515997241099 -0.28726082496060629 0 0.4484508359136255 -0.29039441602353888 0 0.4595012619788047 -0.29303632289935988 0 0.45342627127390311 -0.29586340095960789 0 0.457711104020462 -0.27685875243279617 0 0.4595012619788047 -0.29303632289935988 0 0.47166515997241099 -0.28726082496060629 0 0.4595012619788047 -0.29303632289935988 0 0.45342627127390311 -0.29586340095960789 0 0.46254895963972881 -0.30568157987078548 0 0.44937559604391891 -0.30120099523086658 0 0.45342627127390311 -0.29586340095960789 0 0.46254895963972881 -0.30568157987078548 0 0.46254895963972881 -0.30568157987078548 0 0.47637328632681819 -0.30120002001250579 0 0.47166515997241099 -0.28726082496060629 0 0.47637328632681819 -0.30120002001250579 0 0.49039068015254922 -0.29619267976940977 0 0.48088834554258419 -0.31566499544922139 0 0.46254895963972881 -0.30568157987078548 0 0.47637328632681819 -0.30120002001250579 0 0.48088834554258419 -0.31566499544922139 0 0.48078136030509599 -0.26884007005042843 0 0.47166515997241099 -0.28726082496060629 0 0.49039068015254922 -0.29619267976940977 0 0.47637328632681819 -0.30120002001250579 0 0.47166515997241099 -0.28726082496060629 0 0.49039068015254922 -0.29619267976940977 0 0.5 -0.27646857865756441 0 0.49039068015254922 -0.29619267976940977 0 0.5 -0.30000693407297818 0 0.48078136030509599 -0.26884007005042843 0 0.49039068015254922 -0.29619267976940977 0 0.49039068015254922 -0.29619267976940977 0 0.50000000000000022 -0.32354528948839201 0 0.48088834554258419 -0.31566499544922139 0 0.49039068015254922 -0.29619267976940977 0 0.50000000000000022 -0.32354528948839201 0 0.49039068015254922 -0.29619267976940977 0 0.5 -0.30000693407297818 0 0.50000000000000022 -0.32354528948839201 0 0.50000000000000022 -0.32354528948839201 0 0.48851529600822569 -0.33605159810710777 0 0.48088834554258419 -0.31566499544922139 0 0.50000000000000022 -0.32354528948839201 0 0.48851529600822569 -0.33605159810710777 0 0.5 -0.35213716912984472 0 0.48851529600822569 -0.33605159810710777 0 0.47491234637456919 -0.33661554306743041 0 0.48088834554258419 -0.31566499544922139 0 0.47491234637456919 -0.33661554306743041 0 0.47136735484092618 -0.35347374538633008 0 0.46029344080735213 -0.3380128582151477 0 0.48851529600822569 -0.33605159810710777 0 0.47491234637456919 -0.33661554306743041 0 0.4823788533639321 -0.34871573099662928 0 0.47491234637456919 -0.33661554306743041 0 0.48088834554258419 -0.31566499544922139 0 0.46693264099485271 -0.32110437008835502 0 0.46254895963972881 -0.30568157987078548 0 0.48088834554258419 -0.31566499544922139 0 0.46693264099485271 -0.32110437008835502 0 0.48677988336055422 -0.36082108795714563 0 0.5 -0.35213716912984472 0 0.5 -0.38072904877129737 0 0.48677988336055422 -0.36082108795714563 0 0.48547152742100042 -0.38597819350020213 0 0.48677988336055422 -0.36082108795714563 0 0.5 -0.35213716912984472 0 0.4823788533639321 -0.34871573099662928 0 0.48851529600822569 -0.33605159810710777 0 0.5 -0.35213716912984472 0 0.4823788533639321 -0.34871573099662928 0 0.47491234637456919 -0.33661554306743041 0 0.4823788533639321 -0.34871573099662928 0 0.47136735484092618 -0.35347374538633008 0 0.48677988336055422 -0.36082108795714563 0 0.4823788533639321 -0.34871573099662928 0 0.47136735484092618 -0.35347374538633008 0 0.48677988336055422 -0.36082108795714563 0 0.46967985974134702 -0.37016718822746608 0 0.48547152742100042 -0.38597819350020213 0 0.48677988336055422 -0.36082108795714563 0 0.47136735484092618 -0.35347374538633008 0 0.46967985974134702 -0.37016718822746608 0 0.47136735484092618 -0.35347374538633008 0 0.46967985974134702 -0.37016718822746608 0 0.4551794022833604 -0.35628951230254491 0 0.46967985974134702 -0.37016718822746608 0 0.4551794022833604 -0.35628951230254491 0 0.44669292513219061 -0.37695801552449332 0 0.47136735484092618 -0.35347374538633008 0 0.4551794022833604 -0.35628951230254491 0 0.46029344080735213 -0.3380128582151477 0 0.4551794022833604 -0.35628951230254491 0 0.46029344080735213 -0.3380128582151477 0 0.44526895539350753 -0.34057769797159021 0 0.4551794022833604 -0.35628951230254491 0 0.43926477257684587 -0.35514891415589139 0 0.44526895539350753 -0.34057769797159021 0 0.4551794022833604 -0.35628951230254491 0 0.43926477257684587 -0.35514891415589139 0 0.44669292513219061 -0.37695801552449332 0 0.46254895963972881 -0.30568157987078548 0 0.46693264099485271 -0.32110437008835502 0 0.45343275930704652 -0.32410233478096467 0 0.46254895963972881 -0.30568157987078548 0 0.45343275930704652 -0.32410233478096467 0 0.44413558996226998 -0.31393935592811478 0 0.46254895963972881 -0.30568157987078548 0 0.45343275930704652 -0.32410233478096467 0 0.46693264099485271 -0.32110437008835502 0 0.45343275930704652 -0.32410233478096467 0 0.46029344080735213 -0.3380128582151477 0 0.47491234637456919 -0.33661554306743041 0 0.46693264099485271 -0.32110437008835502 0 0.46029344080735213 -0.3380128582151477 0 0.45343275930704652 -0.32410233478096467 0 0.46029344080735213 -0.3380128582151477 0 0.44526895539350753 -0.34057769797159021 0 0.45343275930704652 -0.32410233478096467 0 0.44526895539350753 -0.34057769797159021 0 0.44011503016486669 -0.32550409765248473 0 0.44526895539350753 -0.34057769797159021 0 0.44011503016486669 -0.32550409765248473 0 0.42715280254336002 -0.33743281442655798 0 0.45343275930704652 -0.32410233478096467 0 0.44011503016486669 -0.32550409765248473 0 0.44413558996226998 -0.31393935592811478 0 0.44011503016486669 -0.32550409765248473 0 0.44413558996226998 -0.31393935592811478 0 0.43058504361814942 -0.31146828515519581 0 0.44011503016486669 -0.32550409765248473 0 0.42715280254336002 -0.33743281442655798 0 0.43058504361814942 -0.31146828515519581 0 0.42715280254336002 -0.33743281442655798 0 0.43058504361814942 -0.31146828515519581 0 0.42715280254336002 -0.33743281442655798 0 0.4152552434246064 -0.31984459573418672 0 0.43058504361814942 -0.31146828515519581 0 0.4152552434246064 -0.31984459573418672 0 0.43058504361814942 -0.31146828515519581 0 0.4152552434246064 -0.31984459573418672 0 0.43058504361814942 -0.31146828515519581 0 0.42197392821585711 -0.3065136011248869 0 0.42715280254336002 -0.33743281442655798 0 0.41251402854579328 -0.33348501705474448 0 0.4067822014109943 -0.34742663932262341 0 0.42715280254336002 -0.33743281442655798 0 0.41251402854579328 -0.33348501705474448 0 0.4152552434246064 -0.31984459573418672 0 0.41251402854579328 -0.33348501705474448 0 0.4067822014109943 -0.34742663932262341 0 0.39992544323106399 -0.3282209063131788 0 0.4152552434246064 -0.31984459573418672 0 0.39992544323106399 -0.3282209063131788 0 0.41251402854579328 -0.33348501705474448 0 0.4152552434246064 -0.31984459573418672 0 0.39992544323106399 -0.3282209063131788 0 0.4152552434246064 -0.31984459573418672 0 0.39992544323106399 -0.3282209063131788 0 0.41202657656190211 -0.31018934859101571 0 0.43926477257684587 -0.35514891415589139 0 0.42372056146856918 -0.36339734369791987 0 0.44669292513219061 -0.37695801552449332 0 0.42715280254336002 -0.33743281442655798 0 0.42372056146856918 -0.36339734369791987 0 0.43926477257684587 -0.35514891415589139 0 0.44526895539350753 -0.34057769797159021 0 0.42715280254336002 -0.33743281442655798 0 0.43926477257684587 -0.35514891415589139 0 0.42715280254336002 -0.33743281442655798 0 0.42372056146856918 -0.36339734369791987 0 0.42715280254336002 -0.33743281442655798 0 0.42372056146856918 -0.36339734369791987 0 0.4067822014109943 -0.34742663932262341 0 0.42372056146856918 -0.36339734369791987 0 0.4067822014109943 -0.34742663932262341 0 0.39582897825467389 -0.36386063096252791 0 0.42372056146856918 -0.36339734369791987 0 0.39582897825467389 -0.36386063096252791 0 0.39804232549897628 -0.38091864675304238 0 0.4067822014109943 -0.34742663932262341 0 0.39582897825467389 -0.36386063096252791 0 0.38340187535638232 -0.35284220910876829 0 0.38340187535638232 -0.35284220910876829 0 0.36687830748170119 -0.37746351190435812 0 0.39582897825467389 -0.36386063096252791 0 0.39804232549897628 -0.38091864675304238 0 0.36687830748170119 -0.37746351190435812 0 0.39582897825467389 -0.36386063096252791 0 0.38340187535638232 -0.35284220910876829 0 0.36687830748170119 -0.37746351190435812 0 0.39992544323106399 -0.3282209063131788 0 0.41202657656190211 -0.31018934859101571 0 0.39992544323106399 -0.3282209063131788 0 0.4000478473225324 -0.31110654828200879 0 0.41202657656190211 -0.31018934859101571 0 0.39224842679558758 -0.31869019435519319 0 0.39992544323106399 -0.3282209063131788 0 0.38117582617505552 -0.32510628498508087 0 0.39224842679558758 -0.31869019435519319 0 0.39992544323106399 -0.3282209063131788 0 0.4000478473225324 -0.31110654828200879 0 0.39224842679558758 -0.31869019435519319 0 0.38689763121207821 -0.30772679202414682 0 0.4000478473225324 -0.31110654828200879 0 0.38340187535638232 -0.35284220910876829 0 0.39992544323106399 -0.3282209063131788 0 0.4067822014109943 -0.34742663932262341 0 0.38340187535638232 -0.35284220910876829 0 0.39992544323106399 -0.3282209063131788 0 0.39992544323106399 -0.3282209063131788 0 0.37366903975347943 -0.34256758972972229 0 0.38340187535638232 -0.35284220910876829 0 0.39992544323106399 -0.3282209063131788 0 0.37366903975347943 -0.34256758972972229 0 0.39992544323106399 -0.3282209063131788 0 0.38117582617505552 -0.32510628498508087 0 0.37366903975347943 -0.34256758972972229 0 0.38117582617505552 -0.32510628498508087 0 0.38689763121207821 -0.30772679202414682 0 0.37219226040532771 -0.31334382324257581 0 0.39224842679558758 -0.31869019435519319 0 0.38117582617505552 -0.32510628498508087 0 0.38689763121207821 -0.30772679202414682 0 0.38689763121207821 -0.30772679202414682 0 0.36956577276930203 -0.29617820675167411 0 0.37219226040532771 -0.31334382324257581 0 0.38689763121207821 -0.30772679202414682 0 0.38931301422172898 -0.29238665246038298 0 0.36956577276930203 -0.29617820675167411 0 0.38689763121207821 -0.30772679202414682 0 0.40135500008854141 -0.2997530462244411 0 0.4000478473225324 -0.31110654828200879 0 0.38689763121207821 -0.30772679202414682 0 0.40135500008854141 -0.2997530462244411 0 0.38931301422172898 -0.29238665246038298 0 0.40624593447964358 -0.3058791288191906 0 0.4000478473225324 -0.31110654828200879 0 0.41202657656190211 -0.31018934859101571 0 0.40135500008854141 -0.2997530462244411 0 0.40624593447964358 -0.3058791288191906 0 0.4000478473225324 -0.31110654828200879 0 0.4032488471478633 -0.28765960677769947 0 0.39446564727815958 -0.2792625064581466 0 0.40286262396494621 -0.27997156856717192 0 0.4032488471478633 -0.28765960677769947 0 0.40286262396494621 -0.27997156856717192 0 0.40946202117596209 -0.28020830942009561 0 0.40135500008854141 -0.2997530462244411 0 0.4032488471478633 -0.28765960677769947 0 0.40979231016693329 -0.29301935006036772 0 0.40135500008854141 -0.2997530462244411 0 0.4032488471478633 -0.28765960677769947 0 0.38931301422172898 -0.29238665246038298 0 0.4032488471478633 -0.28765960677769947 0 0.38931301422172898 -0.29238665246038298 0 0.39446564727815958 -0.2792625064581466 0 0.38931301422172898 -0.29238665246038298 0 0.38225668983245609 -0.27759582712849662 0 0.36956577276930203 -0.29617820675167411 0 0.38931301422172898 -0.29238665246038298 0 0.38225668983245609 -0.27759582712849662 0 0.39446564727815958 -0.2792625064581466 0 0.38225668983245609 -0.27759582712849662 0 0.38707902688018642 -0.26739107182117672 0 0.37686302842415381 -0.26152495457731839 0 0.38225668983245609 -0.27759582712849662 0 0.38707902688018642 -0.26739107182117672 0 0.39446564727815958 -0.2792625064581466 0 0.37778092624594778 -0.24313624425873381 0 0.38972013589370658 -0.24860602692987729 0 0.37686302842415381 -0.26152495457731839 0 0.38707902688018642 -0.26739107182117672 0 0.37686302842415381 -0.26152495457731839 0 0.39205337628062148 -0.25879484303050598 0 0.38972013589370658 -0.24860602692987729 0 0.37686302842415381 -0.26152495457731839 0 0.39205337628062148 -0.25879484303050598 0 0.38972013589370658 -0.24860602692987729 0 0.39806170646907491 -0.25157951124394029 0 0.39205337628062148 -0.25879484303050598 0 0.39806170646907491 -0.25157951124394029 0 0.39205337628062148 -0.25879484303050598 0 0.40203248969573657 -0.26107825823795461 0 0.39205337628062148 -0.25879484303050598 0 0.40203248969573657 -0.26107825823795461 0 0.39599322808350368 -0.26717442426334509 0 0.38707902688018642 -0.26739107182117672 0 0.39205337628062148 -0.25879484303050598 0 0.39599322808350368 -0.26717442426334509 0 0.39806170646907491 -0.25157951124394029 0 0.40203248969573657 -0.26107825823795461 0 0.40989247196553152 -0.25088968501773468 0 0.38707902688018642 -0.26739107182117672 0 0.39446564727815958 -0.2792625064581466 0 0.39599322808350368 -0.26717442426334509 0 0.39446564727815958 -0.2792625064581466 0 0.39599322808350368 -0.26717442426334509 0 0.40460597239764662 -0.27226177304157051 0 0.40203248969573657 -0.26107825823795461 0 0.39599322808350368 -0.26717442426334509 0 0.40460597239764662 -0.27226177304157051 0 0.40203248969573657 -0.26107825823795461 0 0.40460597239764662 -0.27226177304157051 0 0.40809912509282731 -0.26388713951026271 0 0.40460597239764662 -0.27226177304157051 0 0.40286262396494621 -0.27997156856717192 0 0.40946202117596209 -0.28020830942009561 0 0.39446564727815958 -0.2792625064581466 0 0.40460597239764662 -0.27226177304157051 0 0.40286262396494621 -0.27997156856717192 0 0.41586556631239457 -0.27131884174379112 0 0.40989247196553152 -0.25088968501773468 0 0.426394751300194 -0.27541809021760311 0 0.40460597239764662 -0.27226177304157051 0 0.40946202117596209 -0.28020830942009561 0 0.41586556631239457 -0.27131884174379112 0 0.40946202117596209 -0.28020830942009561 0 0.41586556631239457 -0.27131884174379112 0 0.41649747145223598 -0.28046662460143601 0 0.40460597239764662 -0.27226177304157051 0 0.41586556631239457 -0.27131884174379112 0 0.40809912509282731 -0.26388713951026271 0 0.41586556631239457 -0.27131884174379112 0 0.41649747145223598 -0.28046662460143601 0 0.426394751300194 -0.27541809021760311 0 0.40989247196553152 -0.25088968501773468 0 0.426394751300194 -0.27541809021760311 0 0.40989247196553152 -0.25088968501773468 0 0.42344816315553618 -0.2564582277960093 0 0.426394751300194 -0.27541809021760311 0 0.41586556631239457 -0.27131884174379112 0 0.40989247196553152 -0.25088968501773468 0 0.40809912509282731 -0.26388713951026271 0 0.40203248969573657 -0.26107825823795461 0 0.40989247196553152 -0.25088968501773468 0 0.40809912509282731 -0.26388713951026271 0 0.41666327931018488 -0.24963737924160931 0 0.40989247196553152 -0.25088968501773468 0 0.42344816315553618 -0.2564582277960093 0 0.43756297283723639 -0.25506191069322409 0 0.42344816315553618 -0.2564582277960093 0 0.426394751300194 -0.27541809021760311 0 0.43756297283723639 -0.25506191069322409 0 0.426394751300194 -0.27541809021760311 0 0.43756297283723639 -0.25506191069322409 0 0.42344816315553618 -0.2564582277960093 0 0.42689480477342839 -0.25068783913870613 0 0.41666327931018488 -0.24963737924160931 0 0.42344816315553618 -0.2564582277960093 0 0.42689480477342839 -0.25068783913870613 0 0.4424056814083836 -0.27390528821591681 0 0.426394751300194 -0.27541809021760311 0 0.43499338819666522 -0.2795710343536848 0 0.4424056814083836 -0.27390528821591681 0 0.43756297283723639 -0.25506191069322409 0 0.426394751300194 -0.27541809021760311 0 0.426394751300194 -0.27541809021760311 0 0.43499338819666522 -0.2795710343536848 0 0.43497135088556588 -0.28816604494559839 0 0.426394751300194 -0.27541809021760311 0 0.43497135088556588 -0.28816604494559839 0 0.44135431075352838 -0.28504466136174239 0 0.43499338819666522 -0.2795710343536848 0 0.43497135088556588 -0.28816604494559839 0 0.426394751300194 -0.27541809021760311 0 0.42766464664089748 -0.28849672944256483 0 0.41897453262289619 -0.28894283119844988 0 0.426394751300194 -0.27541809021760311 0 0.41897453262289619 -0.28894283119844988 0 0.426394751300194 -0.27541809021760311 0 0.43497135088556588 -0.28816604494559839 0 0.42766464664089748 -0.28849672944256483 0 0.42766464664089748 -0.28849672944256483 0 0.42412770989274068 -0.29215779086885302 0 0.41897453262289619 -0.28894283119844988 0 0.42766464664089748 -0.28849672944256483 0 0.42412770989274068 -0.29215779086885302 0 0.4284072664903642 -0.293185113322043 0 0.4284072664903642 -0.293185113322043 0 0.43300777747056712 -0.29314056788329118 0 0.42764124337414722 -0.29928705931476413 0 0.42412770989274068 -0.29215779086885302 0 0.4284072664903642 -0.293185113322043 0 0.42764124337414722 -0.29928705931476413 0 0.4435479504709377 -0.300913999673594 0 0.43497135088556588 -0.28816604494559839 0 0.43300777747056712 -0.29314056788329118 0 0.43497135088556588 -0.28816604494559839 0 0.42766464664089748 -0.28849672944256483 0 0.43300777747056712 -0.29314056788329118 0 0.42766464664089748 -0.28849672944256483 0 0.4284072664903642 -0.293185113322043 0 0.43300777747056712 -0.29314056788329118 0 0.4435479504709377 -0.300913999673594 0 0.43300777747056712 -0.29314056788329118 0 0.43058504361814942 -0.31146828515519581 0 0.43300777747056712 -0.29314056788329118 0 0.43058504361814942 -0.31146828515519581 0 0.42764124337414722 -0.29928705931476413 0 0.43300777747056712 -0.29314056788329118 0 0.43058504361814942 -0.31146828515519581 0 0.43058504361814942 -0.31146828515519581 0 0.42197392821585711 -0.3065136011248869 0 0.42764124337414722 -0.29928705931476413 0 0.42412770989274068 -0.29215779086885302 0 0.42197392821585711 -0.3065136011248869 0 0.42764124337414722 -0.29928705931476413 0 0.42412770989274068 -0.29215779086885302 0 0.41202657656190211 -0.31018934859101571 0 0.42412770989274068 -0.29215779086885302 0 0.42197392821585711 -0.3065136011248869 0 0.41202657656190211 -0.31018934859101571 0 0.42412770989274068 -0.29215779086885302 0 0.41202657656190211 -0.31018934859101571 0 0.4115543139455986 -0.30246757217929687 0 0.4152552434246064 -0.31984459573418672 0 0.42197392821585711 -0.3065136011248869 0 0.41202657656190211 -0.31018934859101571 0 0.40624593447964358 -0.3058791288191906 0 0.41202657656190211 -0.31018934859101571 0 0.4115543139455986 -0.30246757217929687 0 0.40135500008854141 -0.2997530462244411 0 0.40624593447964358 -0.3058791288191906 0 0.4115543139455986 -0.30246757217929687 0 0.40135500008854141 -0.2997530462244411 0 0.4115543139455986 -0.30246757217929687 0 0.40979231016693329 -0.29301935006036772 0 0.4115543139455986 -0.30246757217929687 0 0.40979231016693329 -0.29301935006036772 0 0.41897453262289619 -0.28894283119844988 0 0.40979231016693329 -0.29301935006036772 0 0.41179048584973321 -0.28644505042724028 0 0.41897453262289619 -0.28894283119844988 0 0.4032488471478633 -0.28765960677769947 0 0.40979231016693329 -0.29301935006036772 0 0.41179048584973321 -0.28644505042724028 0 0.4032488471478633 -0.28765960677769947 0 0.40946202117596209 -0.28020830942009561 0 0.41179048584973321 -0.28644505042724028 0 0.40946202117596209 -0.28020830942009561 0 0.41649747145223598 -0.28046662460143601 0 0.41179048584973321 -0.28644505042724028 0 0.41649747145223598 -0.28046662460143601 0 0.426394751300194 -0.27541809021760311 0 0.41897453262289619 -0.28894283119844988 0 0.41649747145223598 -0.28046662460143601 0 0.41179048584973321 -0.28644505042724028 0 0.41897453262289619 -0.28894283119844988 0 0.42412770989274068 -0.29215779086885302 0 0.4115543139455986 -0.30246757217929687 0 0.41897453262289619 -0.28894283119844988 0 0.4115543139455986 -0.30246757217929687 0 0.41897453262289619 -0.28894283119844988 0 0.5 -0.5 0 0.47552091673434838 -0.48052264680798079 0 0.41641988850815631 -0.50000000000000355 0 0.45020963578890061 -0.47770585891504708 0 0.47552091673434838 -0.48052264680798079 0 0.41641988850815631 -0.50000000000000355 0 0.45020963578890061 -0.47770585891504708 0 0.4550973194095439 -0.45682729964429503 0 0.43596987244984908 -0.47817782673246029 0 0.43753353570114611 -0.48017405777008881 0 0.45020963578890061 -0.47770585891504708 0 0.43596987244984908 -0.47817782673246029 0 0.45020963578890061 -0.47770585891504708 0 0.47552091673434838 -0.48052264680798079 0 0.4550973194095439 -0.45682729964429503 0 0.5 -0.5 0 0.47552091673434838 -0.48052264680798079 0 0.4821445479204568 -0.44994945078918402 0 0.5 -0.5 0 0.49999999999999828 -0.43791280805420252 0 0.4821445479204568 -0.44994945078918402 0 0.47552091673434838 -0.48052264680798079 0 0.4821445479204568 -0.44994945078918402 0 0.4550973194095439 -0.45682729964429503 0 0.49999999999999828 -0.43791280805420252 0 0.4821445479204568 -0.44994945078918402 0 0.48285481554189302 -0.43629240458631552 0 0.4821445479204568 -0.44994945078918402 0 0.4550973194095439 -0.45682729964429503 0 0.47422476636923899 -0.43547677255612999 0 0.4821445479204568 -0.44994945078918402 0 0.47422476636923899 -0.43547677255612999 0 0.48285481554189302 -0.43629240458631552 0 0.4821445479204568 -0.44994945078918402 0 0.48285481554189302 -0.43629240458631552 0 0.4550973194095439 -0.45682729964429503 0 0.44533597927511148 -0.4327464729256511 0 0.47422476636923899 -0.43547677255612999 0 0.4550973194095439 -0.45682729964429503 0 0.47422476636923899 -0.43547677255612999 0 0.4550973194095439 -0.45682729964429503 0 0.43596987244984908 -0.47817782673246029 0 0.4550973194095439 -0.45682729964429503 0 0.44533597927511148 -0.4327464729256511 0 0.42527690835835291 -0.43723135119112189 0 0.44533597927511148 -0.4327464729256511 0 0.44379619833535378 -0.41236773953628092 0 0.46148860585588042 -0.41478814978291789 0 0.44379619833535378 -0.41236773953628092 0 0.46148860585588042 -0.41478814978291789 0 0.45549187594694079 -0.39845495145942122 0 0.46148860585588042 -0.41478814978291789 0 0.47262234643958911 -0.41132597018854988 0 0.47051843857880388 -0.40022104922816742 0 0.46148860585588042 -0.41478814978291789 0 0.46750183444605392 -0.42743841646637698 0 0.47528976510788212 -0.4204269174628833 0 0.44533597927511148 -0.4327464729256511 0 0.46148860585588042 -0.41478814978291789 0 0.46750183444605392 -0.42743841646637698 0 0.44533597927511148 -0.4327464729256511 0 0.46750183444605392 -0.42743841646637698 0 0.47422476636923899 -0.43547677255612999 0 0.44533597927511148 -0.4327464729256511 0 0.47422476636923899 -0.43547677255612999 0 0.47622808041963599 -0.433240624104681 0 0.48285481554189302 -0.43629240458631552 0 0.47528976510788212 -0.4204269174628833 0 0.46750183444605392 -0.42743841646637698 0 0.47622808041963599 -0.433240624104681 0 0.47422476636923899 -0.43547677255612999 0 0.48285481554189302 -0.43629240458631552 0 0.48416317148144672 -0.41113529904325868 0 0.47528976510788212 -0.4204269174628833 0 0.48285481554189302 -0.43629240458631552 0 0.48416317148144672 -0.41113529904325868 0 0.47622808041963599 -0.433240624104681 0 0.47422476636923899 -0.43547677255612999 0 0.46750183444605392 -0.42743841646637698 0 0.47622808041963599 -0.433240624104681 0 0.47528976510788212 -0.4204269174628833 0 0.47422476636923899 -0.43547677255612999 0 0.48285481554189302 -0.43629240458631552 0 0.47622808041963599 -0.433240624104681 0 0.47422476636923899 -0.43547677255612999 0 0.48285481554189302 -0.43629240458631552 0 0.49999999999999828 -0.43791280805420252 0 0.49175449675583449 -0.42366536002413102 0 0.5 -0.40932092841274992 0 0.49999999999999828 -0.43791280805420252 0 0.48285481554189302 -0.43629240458631552 0 0.49175449675583449 -0.42366536002413102 0 0.48285481554189302 -0.43629240458631552 0 0.49175449675583449 -0.42366536002413102 0 0.48416317148144672 -0.41113529904325868 0 0.49999999999999828 -0.43791280805420252 0 0.48285481554189302 -0.43629240458631552 0 0.49175449675583449 -0.42366536002413102 0 0.5 -0.40932092841274992 0 0.48416317148144672 -0.41113529904325868 0 0.48416317148144672 -0.41113529904325868 0 0.47528976510788212 -0.4204269174628833 0 0.47262234643958911 -0.41132597018854988 0 0.46148860585588042 -0.41478814978291789 0 0.47528976510788212 -0.4204269174628833 0 0.47262234643958911 -0.41132597018854988 0 0.48416317148144672 -0.41113529904325868 0 0.47262234643958911 -0.41132597018854988 0 0.47051843857880388 -0.40022104922816742 0 0.48416317148144672 -0.41113529904325868 0 0.47051843857880388 -0.40022104922816742 0 0.48547152742100042 -0.38597819350020213 0 0.47051843857880388 -0.40022104922816742 0 0.48547152742100042 -0.38597819350020213 0 0.46557092536405648 -0.38635587958794998 0 0.5 -0.40932092841274992 0 0.48416317148144672 -0.41113529904325868 0 0.48547152742100042 -0.38597819350020213 0 0.5 -0.40932092841274992 0 0.48547152742100042 -0.38597819350020213 0 0.5 -0.38072904877129737 0 0.48416317148144672 -0.41113529904325868 0 0.48547152742100042 -0.38597819350020213 0 0.48677988336055422 -0.36082108795714563 0 0.48547152742100042 -0.38597819350020213 0 0.5 -0.38072904877129737 0 0.46967985974134702 -0.37016718822746608 0 0.48547152742100042 -0.38597819350020213 0 0.46557092536405648 -0.38635587958794998 0 0.46557092536405648 -0.38635587958794998 0 0.45549187594694079 -0.39845495145942122 0 0.44669292513219061 -0.37695801552449332 0 0.46967985974134702 -0.37016718822746608 0 0.46557092536405648 -0.38635587958794998 0 0.44669292513219061 -0.37695801552449332 0 0.46148860585588042 -0.41478814978291789 0 0.47051843857880388 -0.40022104922816742 0 0.45549187594694079 -0.39845495145942122 0 0.47051843857880388 -0.40022104922816742 0 0.46557092536405648 -0.38635587958794998 0 0.45549187594694079 -0.39845495145942122 0 0.45549187594694079 -0.39845495145942122 0 0.44669292513219061 -0.37695801552449332 0 0.43648421544511351 -0.39830975532828311 0 0.44379619833535378 -0.41236773953628092 0 0.45549187594694079 -0.39845495145942122 0 0.43648421544511351 -0.39830975532828311 0 0.44669292513219061 -0.37695801552449332 0 0.43648421544511351 -0.39830975532828311 0 0.4202883203937785 -0.38936187296928182 0 0.42372056146856918 -0.36339734369791987 0 0.44669292513219061 -0.37695801552449332 0 0.4202883203937785 -0.38936187296928182 0 0.42372056146856918 -0.36339734369791987 0 0.4202883203937785 -0.38936187296928182 0 0.43648421544511351 -0.39830975532828311 0 0.4202883203937785 -0.38936187296928182 0 0.42005202006761022 -0.41500959524021408 0 0.4202883203937785 -0.38936187296928182 0 0.40094864370310768 -0.39870542013910648 0 0.42005202006761022 -0.41500959524021408 0 0.4202883203937785 -0.38936187296928182 0 0.39804232549897628 -0.38091864675304238 0 0.40094864370310768 -0.39870542013910648 0 0.42372056146856918 -0.36339734369791987 0 0.4202883203937785 -0.38936187296928182 0 0.39804232549897628 -0.38091864675304238 0 0.39804232549897628 -0.38091864675304238 0 0.3839260649417684 -0.39613747676743177 0 0.36687830748170119 -0.37746351190435812 0 0.3839260649417684 -0.39613747676743177 0 0.40094864370310768 -0.39870542013910648 0 0.38596348309549389 -0.41433779824392603 0 0.39804232549897628 -0.38091864675304238 0 0.3839260649417684 -0.39613747676743177 0 0.40094864370310768 -0.39870542013910648 0 0.38596348309549389 -0.41433779824392603 0 0.4026322795469468 -0.43561780774010322 0 0.42005202006761022 -0.41500959524021408 0 0.40094864370310768 -0.39870542013910648 0 0.38596348309549389 -0.41433779824392603 0 0.42005202006761022 -0.41500959524021408 0 0.3839260649417684 -0.39613747676743177 0 0.38596348309549389 -0.41433779824392603 0 0.36928065296100399 -0.40873123841504022 0 0.38596348309549389 -0.41433779824392603 0 0.37814603850010442 -0.43338254181182018 0 0.36928065296100399 -0.40873123841504022 0 0.38596348309549389 -0.41433779824392603 0 0.37814603850010442 -0.43338254181182018 0 0.4026322795469468 -0.43561780774010322 0 0.38596348309549389 -0.41433779824392603 0 0.4026322795469468 -0.43561780774010322 0 0.4026322795469468 -0.43561780774010322 0 0.42005202006761022 -0.41500959524021408 0 0.42527690835835291 -0.43723135119112189 0 0.44533597927511148 -0.4327464729256511 0 0.44379619833535378 -0.41236773953628092 0 0.42005202006761022 -0.41500959524021408 0 0.44379619833535378 -0.41236773953628092 0 0.43648421544511351 -0.39830975532828311 0 0.42005202006761022 -0.41500959524021408 0 0.44533597927511148 -0.4327464729256511 0 0.42005202006761022 -0.41500959524021408 0 0.42527690835835291 -0.43723135119112189 0 0.4550973194095439 -0.45682729964429503 0 0.42527690835835291 -0.43723135119112189 0 0.41930107599839972 -0.45689781723628042 0 0.4550973194095439 -0.45682729964429503 0 0.41930107599839972 -0.45689781723628042 0 0.43596987244984908 -0.47817782673246029 0 0.41930107599839972 -0.45689781723628042 0 0.43596987244984908 -0.47817782673246029 0 0.4026322795469468 -0.43561780774010322 0 0.41930107599839972 -0.45689781723628042 0 0.4026322795469468 -0.43561780774010322 0 0.42527690835835291 -0.43723135119112189 0 0.41930107599839972 -0.45689781723628042 0 0.41930107599839972 -0.45689781723628042 0 0.38523855334661727 -0.45100240318804019 0 0.39186590909152452 -0.4724153432690904 0 0.4026322795469468 -0.43561780774010322 0 0.41930107599839972 -0.45689781723628042 0 0.38523855334661727 -0.45100240318804019 0 0.37814603850010442 -0.43338254181182018 0 0.4026322795469468 -0.43561780774010322 0 0.38523855334661727 -0.45100240318804019 0 0.37814603850010442 -0.43338254181182018 0 0.38523855334661727 -0.45100240318804019 0 0.36626204538194929 -0.45019281858338051 0 0.38523855334661727 -0.45100240318804019 0 0.37429565078029042 -0.46588338160399417 0 0.36626204538194929 -0.45019281858338051 0 0.38523855334661727 -0.45100240318804019 0 0.39186590909152452 -0.4724153432690904 0 0.37429565078029042 -0.46588338160399417 0 0.39186590909152452 -0.4724153432690904 0 0.38745057946837358 -0.5 0 0.41057473913393272 -0.48050564635427601 0 0.39186590909152452 -0.4724153432690904 0 0.37378396251326662 -0.48291038112254392 0 0.37429565078029042 -0.46588338160399417 0 0.39186590909152452 -0.4724153432690904 0 0.38745057946837358 -0.5 0 0.37378396251326662 -0.48291038112254392 0 0.38745057946837358 -0.5 0 0.41641988850815631 -0.50000000000000355 0 0.41057473913393272 -0.48050564635427601 0 0.41641988850815631 -0.50000000000000355 0 0.41057473913393272 -0.48050564635427601 0 0.43596987244984908 -0.47817782673246029 0 0.43753353570114611 -0.48017405777008881 0 0.45020963578890061 -0.47770585891504708 0 0.41641988850815631 -0.50000000000000355 0 0.41930107599839972 -0.45689781723628042 0 0.39186590909152452 -0.4724153432690904 0 0.41057473913393272 -0.48050564635427601 0 0.41930107599839972 -0.45689781723628042 0 0.41057473913393272 -0.48050564635427601 0 0.43596987244984908 -0.47817782673246029 0 0.43753353570114611 -0.48017405777008881 0 0.43596987244984908 -0.47817782673246029 0 0.41641988850815631 -0.50000000000000355 0 0.43596987244984908 -0.47817782673246029 0 0.43753353570114611 -0.48017405777008881 0 0.41641988850815631 -0.50000000000000355 0 0.43596987244984908 -0.47817782673246029 0 0.31961712169918832 -0.49111642676834921 0 0.32868085578442918 -0.4732032317704426 0 0.32951196138880862 -0.49999999999999523 0 0.31961712169918832 -0.49111642676834921 0 0.30912953980976532 -0.48294107650319518 0 0.30972228200957203 -0.49999999999999978 0 0.31961712169918832 -0.49111642676834921 0 0.32951196138880862 -0.49999999999999523 0 0.30972228200957203 -0.49999999999999978 0 0.31961712169918832 -0.49111642676834921 0 0.31775189083149319 -0.47866030730123421 0 0.32868085578442918 -0.4732032317704426 0 0.31961712169918832 -0.49111642676834921 0 0.31775189083149319 -0.47866030730123421 0 0.30912953980976532 -0.48294107650319518 0 0.31775189083149319 -0.47866030730123421 0 0.31358004603259032 -0.46738049416294969 0 0.30912953980976532 -0.48294107650319518 0 0.31775189083149319 -0.47866030730123421 0 0.32868085578442918 -0.4732032317704426 0 0.31358004603259032 -0.46738049416294969 0 0.32868085578442918 -0.4732032317704426 0 0.32951196138880862 -0.49999999999999523 0 0.35432778356809458 -0.47289596185691601 0 0.32868085578442918 -0.4732032317704426 0 0.32951196138880862 -0.49999999999999523 0 0.32951196138880862 -0.49999999999999523 0 0.35848127042859113 -0.5 0 0.35432778356809458 -0.47289596185691601 0 0.38745057946837358 -0.5 0 0.35848127042859113 -0.5 0 0.37378396251326662 -0.48291038112254392 0 0.35848127042859113 -0.5 0 0.37378396251326662 -0.48291038112254392 0 0.35432778356809458 -0.47289596185691601 0 0.37378396251326662 -0.48291038112254392 0 0.35432778356809458 -0.47289596185691601 0 0.37429565078029042 -0.46588338160399417 0 0.35432778356809458 -0.47289596185691601 0 0.36626204538194929 -0.45019281858338051 0 0.34705589778099838 -0.44829964106213538 0 0.35432778356809458 -0.47289596185691601 0 0.37429565078029042 -0.46588338160399417 0 0.36626204538194929 -0.45019281858338051 0 0.36626204538194929 -0.45019281858338051 0 0.34705589778099838 -0.44829964106213538 0 0.36626204538194929 -0.45019281858338051 0 0.34705589778099838 -0.44829964106213538 0 0.35895787120103861 -0.42592406118424619 0 0.34705589778099838 -0.44829964106213538 0 0.32784975018004747 -0.44640646354088992 0 0.34705589778099838 -0.44829964106213538 0 0.32784975018004747 -0.44640646354088992 0 0.34224745735555839 -0.42846740771329278 0 0.32868085578442918 -0.4732032317704426 0 0.32784975018004747 -0.44640646354088992 0 0.32868085578442918 -0.4732032317704426 0 0.34705589778099838 -0.44829964106213538 0 0.32784975018004747 -0.44640646354088992 0 0.32868085578442918 -0.4732032317704426 0 0.35432778356809458 -0.47289596185691601 0 0.34705589778099838 -0.44829964106213538 0 0.32868085578442918 -0.4732032317704426 0 0.31358004603259032 -0.46738049416294969 0 0.32784975018004747 -0.44640646354088992 0 0.32784975018004747 -0.44640646354088992 0 0.31490500923565312 -0.43251325891487991 0 0.30962196598569203 -0.44460972470414639 0 0.32784975018004747 -0.44640646354088992 0 0.30962196598569203 -0.44460972470414639 0 0.31358004603259032 -0.46738049416294969 0 0.32784975018004747 -0.44640646354088992 0 0.30962196598569203 -0.44460972470414639 0 0.32784975018004747 -0.44640646354088992 0 0.31490500923565312 -0.43251325891487991 0 0.32701902800868732 -0.41962205807924469 0 0.32784975018004747 -0.44640646354088992 0 0.32701902800868732 -0.41962205807924469 0 0.31490500923565312 -0.43251325891487991 0 0.32701902800868732 -0.41962205807924469 0 0.30865778535040211 -0.41702698134929522 0 0.32701902800868732 -0.41962205807924469 0 0.32618830583732489 -0.3928376526175994 0 0.30865778535040211 -0.41702698134929522 0 0.32701902800868732 -0.41962205807924469 0 0.34224745735555839 -0.42846740771329278 0 0.35035473960702013 -0.40208481469994789 0 0.32784975018004747 -0.44640646354088992 0 0.32701902800868732 -0.41962205807924469 0 0.34224745735555839 -0.42846740771329278 0 0.34705589778099838 -0.44829964106213538 0 0.34224745735555839 -0.42846740771329278 0 0.35895787120103861 -0.42592406118424619 0 0.37814603850010442 -0.43338254181182018 0 0.35895787120103861 -0.42592406118424619 0 0.36928065296100399 -0.40873123841504022 0 0.37814603850010442 -0.43338254181182018 0 0.36626204538194929 -0.45019281858338051 0 0.35895787120103861 -0.42592406118424619 0 0.35895787120103861 -0.42592406118424619 0 0.36928065296100399 -0.40873123841504022 0 0.35035473960702013 -0.40208481469994789 0 0.34224745735555839 -0.42846740771329278 0 0.35895787120103861 -0.42592406118424619 0 0.35035473960702013 -0.40208481469994789 0 0.3839260649417684 -0.39613747676743177 0 0.36928065296100399 -0.40873123841504022 0 0.36687830748170119 -0.37746351190435812 0 0.36928065296100399 -0.40873123841504022 0 0.35035473960702013 -0.40208481469994789 0 0.36687830748170119 -0.37746351190435812 0 0.35035473960702013 -0.40208481469994789 0 0.36687830748170119 -0.37746351190435812 0 0.3408526051493872 -0.37811939125700672 0 0.35035473960702013 -0.40208481469994789 0 0.36687830748170119 -0.37746351190435812 0 0.3408526051493872 -0.37811939125700672 0 0.32618830583732489 -0.3928376526175994 0 0.32293207796547568 -0.37565101325984679 0 0.32701902800868732 -0.41962205807924469 0 0.35035473960702013 -0.40208481469994789 0 0.32618830583732489 -0.3928376526175994 0 0.35035473960702013 -0.40208481469994789 0 0.3408526051493872 -0.37811939125700672 0 0.32618830583732489 -0.3928376526175994 0 0.32701902800868732 -0.41962205807924469 0 0.32618830583732489 -0.3928376526175994 0 0.32293207796547568 -0.37565101325984679 0 0.30666948885861828 -0.38406112226932049 0 0.30936441786792679 -0.36738148533176412 0 0.32618830583732489 -0.3928376526175994 0 0.32293207796547568 -0.37565101325984679 0 0.30666948885861828 -0.38406112226932049 0 0.30666948885861828 -0.38406112226932049 0 0.28832323080120847 -0.37754687067653953 0 0.30936441786792679 -0.36738148533176412 0 0.30666948885861828 -0.38406112226932049 0 0.29883256325794599 -0.40172771267139629 0 0.29411237228000692 -0.3887862184316021 0 0.32618830583732489 -0.3928376526175994 0 0.29883256325794599 -0.40172771267139629 0 0.30865778535040211 -0.41702698134929522 0 0.32618830583732489 -0.3928376526175994 0 0.30666948885861828 -0.38406112226932049 0 0.29883256325794599 -0.40172771267139629 0 0.29883256325794599 -0.40172771267139629 0 0.2841663527812629 -0.39580172790695178 0 0.29411237228000692 -0.3887862184316021 0 0.29883256325794599 -0.40172771267139629 0 0.2841663527812629 -0.39580172790695178 0 0.28078618429577779 -0.4142162305715682 0 0.2841663527812629 -0.39580172790695178 0 0.28832323080120847 -0.37754687067653953 0 0.29411237228000692 -0.3887862184316021 0 0.30666948885861828 -0.38406112226932049 0 0.28832323080120847 -0.37754687067653953 0 0.29411237228000692 -0.3887862184316021 0 0.2841663527812629 -0.39580172790695178 0 0.28832323080120847 -0.37754687067653953 0 0.2672820437344901 -0.38771225602131493 0 0.28832323080120847 -0.37754687067653953 0 0.2672820437344901 -0.38771225602131493 0 0.28832323080120847 -0.37754687067653953 0 0.27576294810115187 -0.37831899175545047 0 0.2672820437344901 -0.38771225602131493 0 0.27576294810115187 -0.37831899175545047 0 0.26101289094709779 -0.37776622657233522 0 0.25072728554097401 -0.39225920906677919 0 0.27576294810115187 -0.37831899175545047 0 0.2672820437344901 -0.38771225602131493 0 0.25072728554097401 -0.39225920906677919 0 0.27576294810115187 -0.37831899175545047 0 0.25072728554097401 -0.39225920906677919 0 0.26101289094709779 -0.37776622657233522 0 0.25339810722930878 -0.38087195501962939 0 0.25072728554097401 -0.39225920906677919 0 0.25339810722930878 -0.38087195501962939 0 0.25444059068645558 -0.37191808954092881 0 0.24380606657216011 -0.37974840465794668 0 0.26101289094709779 -0.37776622657233522 0 0.25339810722930878 -0.38087195501962939 0 0.25444059068645558 -0.37191808954092881 0 0.2672820437344901 -0.38771225602131493 0 0.24624085666777179 -0.39787764136609022 0 0.2672820437344901 -0.38771225602131493 0 0.25072728554097401 -0.39225920906677919 0 0.24624085666777179 -0.39787764136609022 0 0.2672820437344901 -0.38771225602131493 0 0.26205693304776978 -0.40375599359319542 0 0.24624085666777179 -0.39787764136609022 0 0.26205693304776978 -0.40375599359319542 0 0.25114155707815061 -0.40719189012314011 0 0.24624085666777179 -0.39787764136609022 0 0.2841663527812629 -0.39580172790695178 0 0.2672820437344901 -0.38771225602131493 0 0.27258378588810811 -0.3983116464255238 0 0.2841663527812629 -0.39580172790695178 0 0.27258378588810811 -0.3983116464255238 0 0.28078618429577779 -0.4142162305715682 0 0.2672820437344901 -0.38771225602131493 0 0.26205693304776978 -0.40375599359319542 0 0.27258378588810811 -0.3983116464255238 0 0.26205693304776978 -0.40375599359319542 0 0.27258378588810811 -0.3983116464255238 0 0.28078618429577779 -0.4142162305715682 0 0.28078618429577779 -0.4142162305715682 0 0.25303131495126879 -0.41801227343542441 0 0.28078618429577779 -0.4142162305715682 0 0.25303131495126879 -0.41801227343542441 0 0.26862457326202849 -0.42576385013125201 0 0.26205693304776978 -0.40375599359319542 0 0.28078618429577779 -0.4142162305715682 0 0.25303131495126879 -0.41801227343542441 0 0.26205693304776978 -0.40375599359319542 0 0.25303131495126879 -0.41801227343542441 0 0.25114155707815061 -0.40719189012314011 0 0.25303131495126879 -0.41801227343542441 0 0.25055652634272252 -0.43500727358404162 0 0.25962082173622852 -0.43050162725764041 0 0.25055652634272252 -0.43500727358404162 0 0.25962082173622852 -0.43050162725764041 0 0.26177050715897032 -0.43937643812997901 0 0.25303131495126879 -0.41801227343542441 0 0.25962082173622852 -0.43050162725764041 0 0.26862457326202849 -0.42576385013125201 0 0.25962082173622852 -0.43050162725764041 0 0.2672399005254591 -0.43433258231412042 0 0.26177050715897032 -0.43937643812997901 0 0.25962082173622852 -0.43050162725764041 0 0.2672399005254591 -0.43433258231412042 0 0.26862457326202849 -0.42576385013125201 0 0.2672399005254591 -0.43433258231412042 0 0.27573131552824359 -0.43473306422833091 0 0.27045228494182449 -0.44128793182339959 0 0.2672399005254591 -0.43433258231412042 0 0.26862457326202849 -0.42576385013125201 0 0.27573131552824359 -0.43473306422833091 0 0.26862457326202849 -0.42576385013125201 0 0.27573131552824359 -0.43473306422833091 0 0.28169964439443651 -0.4275919107327304 0 0.28078618429577779 -0.4142162305715682 0 0.26862457326202849 -0.42576385013125201 0 0.28169964439443651 -0.4275919107327304 0 0.27573131552824359 -0.43473306422833091 0 0.28227330264573819 -0.43671789387881588 0 0.28169964439443651 -0.4275919107327304 0 0.28227330264573819 -0.43671789387881588 0 0.28865481368211537 -0.43426565794409822 0 0.28169964439443651 -0.4275919107327304 0 0.28865481368211537 -0.43426565794409822 0 0.29366400970362089 -0.42319941225994251 0 0.3013765166534369 -0.43490106690082309 0 0.28865481368211537 -0.43426565794409822 0 0.3013765166534369 -0.43490106690082309 0 0.29139418179133658 -0.44281298586740209 0 0.28865481368211537 -0.43426565794409822 0 0.29366400970362089 -0.42319941225994251 0 0.28169964439443651 -0.4275919107327304 0 0.28078618429577779 -0.4142162305715682 0 0.29366400970362089 -0.42319941225994251 0 0.28169964439443651 -0.4275919107327304 0 0.29883256325794599 -0.40172771267139629 0 0.28078618429577779 -0.4142162305715682 0 0.29366400970362089 -0.42319941225994251 0 0.29883256325794599 -0.40172771267139629 0 0.29366400970362089 -0.42319941225994251 0 0.30865778535040211 -0.41702698134929522 0 0.31490500923565312 -0.43251325891487991 0 0.30865778535040211 -0.41702698134929522 0 0.3013765166534369 -0.43490106690082309 0 0.29366400970362089 -0.42319941225994251 0 0.30865778535040211 -0.41702698134929522 0 0.3013765166534369 -0.43490106690082309 0 0.31490500923565312 -0.43251325891487991 0 0.3013765166534369 -0.43490106690082309 0 0.30962196598569203 -0.44460972470414639 0 0.30962196598569203 -0.44460972470414639 0 0.2979371969654408 -0.46322838608760619 0 0.29139418179133658 -0.44281298586740209 0 0.30962196598569203 -0.44460972470414639 0 0.29139418179133658 -0.44281298586740209 0 0.3013765166534369 -0.43490106690082309 0 0.30962196598569203 -0.44460972470414639 0 0.29139418179133658 -0.44281298586740209 0 0.31358004603259032 -0.46738049416294969 0 0.30962196598569203 -0.44460972470414639 0 0.2979371969654408 -0.46322838608760619 0 0.28547185063994612 -0.45646501121961358 0 0.27575613548444389 -0.46712668782526301 0 0.28831031395772061 -0.47241398283222019 0 0.2979371969654408 -0.46322838608760619 0 0.28547185063994612 -0.45646501121961358 0 0.28831031395772061 -0.47241398283222019 0 0.2979371969654408 -0.46322838608760619 0 0.28547185063994612 -0.45646501121961358 0 0.29139418179133658 -0.44281298586740209 0 0.28547185063994612 -0.45646501121961358 0 0.283186705812286 -0.44663535678888971 0 0.29139418179133658 -0.44281298586740209 0 0.2979371969654408 -0.46322838608760619 0 0.29139418179133658 -0.44281298586740209 0 0.28865481368211537 -0.43426565794409822 0 0.29139418179133658 -0.44281298586740209 0 0.28865481368211537 -0.43426565794409822 0 0.29139418179133658 -0.44281298586740209 0 0.28621641500451839 -0.4423026059674498 0 0.283186705812286 -0.44663535678888971 0 0.29139418179133658 -0.44281298586740209 0 0.28621641500451839 -0.4423026059674498 0 0.28227330264573819 -0.43671789387881588 0 0.28865481368211537 -0.43426565794409822 0 0.28621641500451839 -0.4423026059674498 0 0.29139418179133658 -0.44281298586740209 0 0.28621641500451839 -0.4423026059674498 0 0.283186705812286 -0.44663535678888971 0 0.28621641500451839 -0.4423026059674498 0 0.27848346962944381 -0.44221690934706009 0 0.28227330264573819 -0.43671789387881588 0 0.28621641500451839 -0.4423026059674498 0 0.27848346962944381 -0.44221690934706009 0 0.27573131552824359 -0.43473306422833091 0 0.28227330264573819 -0.43671789387881588 0 0.27848346962944381 -0.44221690934706009 0 0.27573131552824359 -0.43473306422833091 0 0.27848346962944381 -0.44221690934706009 0 0.27045228494182449 -0.44128793182339959 0 0.27848346962944381 -0.44221690934706009 0 0.27436761199618459 -0.44937927154292262 0 0.27045228494182449 -0.44128793182339959 0 0.28547185063994612 -0.45646501121961358 0 0.283186705812286 -0.44663535678888971 0 0.27436761199618459 -0.44937927154292262 0 0.283186705812286 -0.44663535678888971 0 0.27848346962944381 -0.44221690934706009 0 0.27436761199618459 -0.44937927154292262 0 0.27436761199618459 -0.44937927154292262 0 0.26592638067605739 -0.44791869910949672 0 0.26840941641217519 -0.4581841581601257 0 0.27436761199618459 -0.44937927154292262 0 0.26592638067605739 -0.44791869910949672 0 0.27045228494182449 -0.44128793182339959 0 0.26592638067605739 -0.44791869910949672 0 0.27045228494182449 -0.44128793182339959 0 0.26177050715897032 -0.43937643812997901 0 0.2672399005254591 -0.43433258231412042 0 0.27045228494182449 -0.44128793182339959 0 0.26177050715897032 -0.43937643812997901 0 0.26592638067605739 -0.44791869910949672 0 0.26177050715897032 -0.43937643812997901 0 0.25511771060706018 -0.44914440124838467 0 0.26592638067605739 -0.44791869910949672 0 0.25511771060706018 -0.44914440124838467 0 0.26840941641217519 -0.4581841581601257 0 0.25055652634272252 -0.43500727358404162 0 0.26177050715897032 -0.43937643812997901 0 0.25511771060706018 -0.44914440124838467 0 0.25511771060706018 -0.44914440124838467 0 0.25661402482830381 -0.46627622087328607 0 0.26840941641217519 -0.4581841581601257 0 0.25511771060706018 -0.44914440124838467 0 0.25661402482830381 -0.46627622087328607 0 0.24094523521753189 -0.44404226858628248 0 0.28547185063994612 -0.45646501121961358 0 0.26840941641217519 -0.4581841581601257 0 0.27575613548444389 -0.46712668782526301 0 0.25661402482830381 -0.46627622087328607 0 0.26840941641217519 -0.4581841581601257 0 0.27575613548444389 -0.46712668782526301 0 0.28547185063994612 -0.45646501121961358 0 0.27436761199618459 -0.44937927154292262 0 0.26840941641217519 -0.4581841581601257 0 0.25661402482830381 -0.46627622087328607 0 0.27575613548444389 -0.46712668782526301 0 0.27783497522763762 -0.4779430458189789 0 0.27783497522763762 -0.4779430458189789 0 0.27228281443907609 -0.48851017316028927 0 0.28838151328931028 -0.48607697973404901 0 0.25661402482830381 -0.46627622087328607 0 0.27783497522763762 -0.4779430458189789 0 0.27228281443907609 -0.48851017316028927 0 0.27575613548444389 -0.46712668782526301 0 0.27783497522763762 -0.4779430458189789 0 0.28831031395772061 -0.47241398283222019 0 0.25661402482830381 -0.46627622087328607 0 0.25547179674817921 -0.48129583905144002 0 0.27228281443907609 -0.48851017316028927 0 0.25661402482830381 -0.46627622087328607 0 0.27228281443907609 -0.48851017316028927 0 0.25661402482830381 -0.46627622087328607 0 0.25547179674817921 -0.48129583905144002 0 0.24535942785631279 -0.47816084641428719 0 0.25341619424093648 -0.5 0 0.27228281443907609 -0.48851017316028927 0 0.24763091986902461 -0.49223611575789677 0 0.25547179674817921 -0.48129583905144002 0 0.27228281443907609 -0.48851017316028927 0 0.24763091986902461 -0.49223611575789677 0 0.27228281443907609 -0.48851017316028927 0 0.24763091986902461 -0.49223611575789677 0 0.27228281443907609 -0.48851017316028927 0 0.28838151328931028 -0.48607697973404901 0 0.27228281443907609 -0.48851017316028927 0 0.28037996590777642 -0.50000000000000377 0 0.28838151328931028 -0.48607697973404901 0 0.25341619424093648 -0.5 0 0.27228281443907609 -0.48851017316028927 0 0.28037996590777642 -0.50000000000000377 0 0.27228281443907609 -0.48851017316028927 0 0.28037996590777642 -0.50000000000000377 0 0.28037996590777642 -0.50000000000000377 0 0.28838151328931028 -0.48607697973404901 0 0.30972228200957203 -0.49999999999999978 0 0.28838151328931028 -0.48607697973404901 0 0.30448021213954468 -0.48364378630781041 0 0.28838151328931028 -0.48607697973404901 0 0.28831031395772061 -0.47241398283222019 0 0.30448021213954468 -0.48364378630781041 0 0.27783497522763762 -0.4779430458189789 0 0.28838151328931028 -0.48607697973404901 0 0.28831031395772061 -0.47241398283222019 0 0.2979371969654408 -0.46322838608760619 0 0.30448021213954468 -0.48364378630781041 0 0.31358004603259032 -0.46738049416294969 0 0.2979371969654408 -0.46322838608760619 0 0.30448021213954468 -0.48364378630781041 0 0.2979371969654408 -0.46322838608760619 0 0.28831031395772061 -0.47241398283222019 0 0.30448021213954468 -0.48364378630781041 0 0.31358004603259032 -0.46738049416294969 0 0.30448021213954468 -0.48364378630781041 0 0.30912953980976532 -0.48294107650319518 0 0.30448021213954468 -0.48364378630781041 0 0.30912953980976532 -0.48294107650319518 0 0.30448021213954468 -0.48364378630781041 0 0.30972228200957203 -0.49999999999999978 0 0.28838151328931028 -0.48607697973404901 0 0.30448021213954468 -0.48364378630781041 0 0.30972228200957203 -0.49999999999999978 0 0.30448021213954468 -0.48364378630781041 0 0.30912953980976532 -0.48294107650319518 0 0.30972228200957203 -0.49999999999999978 0 0.3243120255984665 -0.30297620936026592 0 0.31544929708888159 -0.27379155156986162 0 0.30401962561685342 -0.30711228788272238 0 0.3243120255984665 -0.30297620936026592 0 0.3390479730941135 -0.27816257836745822 0 0.3243120255984665 -0.30297620936026592 0 0.3390479730941135 -0.27816257836745822 0 0.34953271941572361 -0.29447816869214583 0 0.3243120255984665 -0.30297620936026592 0 0.34953271941572361 -0.29447816869214583 0 0.35371660233441449 -0.31489342483359373 0 0.3243120255984665 -0.30297620936026592 0 0.31544929708888159 -0.27379155156986162 0 0.3390479730941135 -0.27816257836745822 0 0.30319782325364969 -0.24304381306985409 0 0.33164578909472808 -0.24525212273841371 0 0.31544929708888159 -0.27379155156986162 0 0.33164578909472808 -0.24525212273841371 0 0.31544929708888159 -0.27379155156986162 0 0.34337386365515071 -0.25990193033803188 0 0.31544929708888159 -0.27379155156986162 0 0.34337386365515071 -0.25990193033803188 0 0.3390479730941135 -0.27816257836745822 0 0.34337386365515071 -0.25990193033803188 0 0.3390479730941135 -0.27816257836745822 0 0.3604119815831901 -0.27441555598241613 0 0.34337386365515071 -0.25990193033803188 0 0.36284533118166051 -0.25184142910743867 0 0.3604119815831901 -0.27441555598241613 0 0.37686302842415381 -0.26152495457731839 0 0.36284533118166051 -0.25184142910743867 0 0.3604119815831901 -0.27441555598241613 0 0.37778092624594778 -0.24313624425873381 0 0.37686302842415381 -0.26152495457731839 0 0.36284533118166051 -0.25184142910743867 0 0.38225668983245609 -0.27759582712849662 0 0.37686302842415381 -0.26152495457731839 0 0.3604119815831901 -0.27441555598241613 0 0.38225668983245609 -0.27759582712849662 0 0.3604119815831901 -0.27441555598241613 0 0.36956577276930203 -0.29617820675167411 0 0.3604119815831901 -0.27441555598241613 0 0.36956577276930203 -0.29617820675167411 0 0.34953271941572361 -0.29447816869214583 0 0.3390479730941135 -0.27816257836745822 0 0.3604119815831901 -0.27441555598241613 0 0.34953271941572361 -0.29447816869214583 0 0.36956577276930203 -0.29617820675167411 0 0.34953271941572361 -0.29447816869214583 0 0.35371660233441449 -0.31489342483359373 0 0.36956577276930203 -0.29617820675167411 0 0.37219226040532771 -0.31334382324257581 0 0.35371660233441449 -0.31489342483359373 0 0.37219226040532771 -0.31334382324257581 0 0.36679228438020878 -0.32679524919380393 0 0.35371660233441449 -0.31489342483359373 0 0.38117582617505552 -0.32510628498508087 0 0.37219226040532771 -0.31334382324257581 0 0.36679228438020878 -0.32679524919380393 0 0.38117582617505552 -0.32510628498508087 0 0.36679228438020878 -0.32679524919380393 0 0.37366903975347943 -0.34256758972972229 0 0.36679228438020878 -0.32679524919380393 0 0.37366903975347943 -0.34256758972972229 0 0.35371276827028419 -0.33733106383105488 0 0.35371276827028419 -0.33733106383105488 0 0.35371660233441449 -0.31489342483359373 0 0.33614928316089798 -0.33240727760531791 0 0.35371276827028419 -0.33733106383105488 0 0.3474126362758943 -0.35691427314626512 0 0.33614928316089798 -0.33240727760531791 0 0.36679228438020878 -0.32679524919380393 0 0.35371276827028419 -0.33733106383105488 0 0.35371660233441449 -0.31489342483359373 0 0.36687830748170119 -0.37746351190435812 0 0.3663463293516363 -0.35925129121914989 0 0.3474126362758943 -0.35691427314626512 0 0.38340187535638232 -0.35284220910876829 0 0.36687830748170119 -0.37746351190435812 0 0.3663463293516363 -0.35925129121914989 0 0.37366903975347943 -0.34256758972972229 0 0.3474126362758943 -0.35691427314626512 0 0.37366903975347943 -0.34256758972972229 0 0.3663463293516363 -0.35925129121914989 0 0.3474126362758943 -0.35691427314626512 0 0.38340187535638232 -0.35284220910876829 0 0.37366903975347943 -0.34256758972972229 0 0.3663463293516363 -0.35925129121914989 0 0.37366903975347943 -0.34256758972972229 0 0.35371276827028419 -0.33733106383105488 0 0.3474126362758943 -0.35691427314626512 0 0.36687830748170119 -0.37746351190435812 0 0.3408526051493872 -0.37811939125700672 0 0.3474126362758943 -0.35691427314626512 0 0.3408526051493872 -0.37811939125700672 0 0.32293207796547568 -0.37565101325984679 0 0.33134956372890711 -0.36376508191402279 0 0.3408526051493872 -0.37811939125700672 0 0.3474126362758943 -0.35691427314626512 0 0.33134956372890711 -0.36376508191402279 0 0.3474126362758943 -0.35691427314626512 0 0.32463702832856051 -0.34588038133605192 0 0.33614928316089798 -0.33240727760531791 0 0.3474126362758943 -0.35691427314626512 0 0.33134956372890711 -0.36376508191402279 0 0.32463702832856051 -0.34588038133605192 0 0.33134956372890711 -0.36376508191402279 0 0.32463702832856051 -0.34588038133605192 0 0.31844490111157758 -0.36058342254143999 0 0.32463702832856051 -0.34588038133605192 0 0.31844490111157758 -0.36058342254143999 0 0.30979616565892742 -0.35243068490271617 0 0.32293207796547568 -0.37565101325984679 0 0.33134956372890711 -0.36376508191402279 0 0.31844490111157758 -0.36058342254143999 0 0.31844490111157758 -0.36058342254143999 0 0.30936441786792679 -0.36738148533176412 0 0.30979616565892742 -0.35243068490271617 0 0.32293207796547568 -0.37565101325984679 0 0.31844490111157758 -0.36058342254143999 0 0.30936441786792679 -0.36738148533176412 0 0.3243120255984665 -0.30297620936026592 0 0.35371660233441449 -0.31489342483359373 0 0.33614928316089798 -0.33240727760531791 0 0.32463702832856051 -0.34588038133605192 0 0.30957607810281951 -0.32778984035307368 0 0.30979616565892742 -0.35243068490271617 0 0.32463702832856051 -0.34588038133605192 0 0.33614928316089798 -0.33240727760531791 0 0.30957607810281951 -0.32778984035307368 0 0.3243120255984665 -0.30297620936026592 0 0.33614928316089798 -0.33240727760531791 0 0.30957607810281951 -0.32778984035307368 0 0.3243120255984665 -0.30297620936026592 0 0.30957607810281951 -0.32778984035307368 0 0.30401962561685342 -0.30711228788272238 0 0.3243120255984665 -0.30297620936026592 0 0.30957607810281951 -0.32778984035307368 0 0.30957607810281951 -0.32778984035307368 0 0.29068902390063589 -0.32296106387461732 0 0.30401962561685342 -0.30711228788272238 0 0.30957607810281951 -0.32778984035307368 0 0.29068902390063589 -0.32296106387461732 0 0.29484013060717251 -0.35260347134588138 0 0.30957607810281951 -0.32778984035307368 0 0.29484013060717251 -0.35260347134588138 0 0.29068902390063589 -0.32296106387461732 0 0.29484013060717251 -0.35260347134588138 0 0.2800429228726945 -0.34014859134046188 0 0.28832323080120847 -0.37754687067653953 0 0.30936441786792679 -0.36738148533176412 0 0.28832323080120847 -0.37754687067653953 0 0.30936441786792679 -0.36738148533176412 0 0.30079861066132968 -0.36437877444412192 0 0.30936441786792679 -0.36738148533176412 0 0.30079861066132968 -0.36437877444412192 0 0.30979616565892742 -0.35243068490271617 0 0.30957607810281951 -0.32778984035307368 0 0.30979616565892742 -0.35243068490271617 0 0.29484013060717251 -0.35260347134588138 0 0.30079861066132968 -0.36437877444412192 0 0.30979616565892742 -0.35243068490271617 0 0.29484013060717251 -0.35260347134588138 0 0.28204396135271731 -0.35500392845373702 0 0.29484013060717251 -0.35260347134588138 0 0.2800429228726945 -0.34014859134046188 0 0.30079861066132968 -0.36437877444412192 0 0.29061866375092182 -0.35926734156209261 0 0.29484013060717251 -0.35260347134588138 0 0.28204396135271731 -0.35500392845373702 0 0.29061866375092182 -0.35926734156209261 0 0.29484013060717251 -0.35260347134588138 0 0.28832323080120847 -0.37754687067653953 0 0.27576294810115187 -0.37831899175545047 0 0.30079861066132968 -0.36437877444412192 0 0.27576294810115187 -0.37831899175545047 0 0.30079861066132968 -0.36437877444412192 0 0.28479195238246757 -0.36508319200463007 0 0.30079861066132968 -0.36437877444412192 0 0.29061866375092182 -0.35926734156209261 0 0.28479195238246757 -0.36508319200463007 0 0.27576294810115187 -0.37831899175545047 0 0.30079861066132968 -0.36437877444412192 0 0.28204396135271731 -0.35500392845373702 0 0.29061866375092182 -0.35926734156209261 0 0.28479195238246757 -0.36508319200463007 0 0.27576294810115187 -0.37831899175545047 0 0.26101289094709779 -0.37776622657233522 0 0.2707355231775988 -0.36546288747888761 0 0.27576294810115187 -0.37831899175545047 0 0.28479195238246757 -0.36508319200463007 0 0.2707355231775988 -0.36546288747888761 0 0.28204396135271731 -0.35500392845373702 0 0.28479195238246757 -0.36508319200463007 0 0.2707355231775988 -0.36546288747888761 0 0.28204396135271731 -0.35500392845373702 0 0.2707355231775988 -0.36546288747888761 0 0.26884264761465132 -0.35111405645978477 0 0.28204396135271731 -0.35500392845373702 0 0.26884264761465132 -0.35111405645978477 0 0.2800429228726945 -0.34014859134046188 0 0.2707355231775988 -0.36546288747888761 0 0.26884264761465132 -0.35111405645978477 0 0.2537947373904903 -0.35675619724414459 0 0.2537947373904903 -0.35675619724414459 0 0.25979194053494348 -0.33690292201496269 0 0.24172088398188979 -0.34612960648814189 0 0.26884264761465132 -0.35111405645978477 0 0.2537947373904903 -0.35675619724414459 0 0.25979194053494348 -0.33690292201496269 0 0.26101289094709779 -0.37776622657233522 0 0.2707355231775988 -0.36546288747888761 0 0.25444059068645558 -0.37191808954092881 0 0.2707355231775988 -0.36546288747888761 0 0.2537947373904903 -0.35675619724414459 0 0.25444059068645558 -0.37191808954092881 0 0.29068902390063589 -0.32296106387461732 0 0.2712784066113284 -0.32476822605968608 0 0.27101247601829809 -0.30364099378184539 0 0.2712784066113284 -0.32476822605968608 0 0.25653124397825278 -0.31463832042947237 0 0.27101247601829809 -0.30364099378184539 0 0.26884264761465132 -0.35111405645978477 0 0.2800429228726945 -0.34014859134046188 0 0.25979194053494348 -0.33690292201496269 0 0.2712784066113284 -0.32476822605968608 0 0.2800429228726945 -0.34014859134046188 0 0.25979194053494348 -0.33690292201496269 0 0.29068902390063589 -0.32296106387461732 0 0.2712784066113284 -0.32476822605968608 0 0.2800429228726945 -0.34014859134046188 0 0.25979194053494348 -0.33690292201496269 0 0.25653124397825278 -0.31463832042947237 0 0.24364017958120229 -0.32478709672664802 0 0.2712784066113284 -0.32476822605968608 0 0.25979194053494348 -0.33690292201496269 0 0.25653124397825278 -0.31463832042947237 0 0.25653124397825278 -0.31463832042947237 0 0.25276693154094942 -0.29085798371577032 0 0.27101247601829809 -0.30364099378184539 0 0.25276693154094942 -0.29085798371577032 0 0.27067787902652862 -0.28491069968514809 0 0.27101247601829809 -0.30364099378184539 0 0.27067787902652862 -0.28491069968514809 0 0.27101247601829809 -0.30364099378184539 0 0.28890790412871098 -0.29222389597366011 0 0.31544929708888159 -0.27379155156986162 0 0.28890790412871098 -0.29222389597366011 0 0.30401962561685342 -0.30711228788272238 0 0.29068902390063589 -0.32296106387461732 0 0.28890790412871098 -0.29222389597366011 0 0.30401962561685342 -0.30711228788272238 0 0.29068902390063589 -0.32296106387461732 0 0.27101247601829809 -0.30364099378184539 0 0.28890790412871098 -0.29222389597366011 0 0.30319782325364969 -0.24304381306985409 0 0.31544929708888159 -0.27379155156986162 0 0.28677326490980509 -0.26553328257918329 0 0.31544929708888159 -0.27379155156986162 0 0.28890790412871098 -0.29222389597366011 0 0.28677326490980509 -0.26553328257918329 0 0.27067787902652862 -0.28491069968514809 0 0.28890790412871098 -0.29222389597366011 0 0.28677326490980509 -0.26553328257918329 0 0.27474985741257119 -0.24083550340129439 0 0.28677326490980509 -0.26553328257918329 0 0.26424800045146218 -0.26647896932476101 0 0.27067787902652862 -0.28491069968514809 0 0.28677326490980509 -0.26553328257918329 0 0.26424800045146218 -0.26647896932476101 0 0.25276693154094942 -0.29085798371577032 0 0.27067787902652862 -0.28491069968514809 0 0.26424800045146218 -0.26647896932476101 0 0.25276693154094942 -0.29085798371577032 0 0.26424800045146218 -0.26647896932476101 0 0.23957730355537241 -0.2690264722939496 0 0.26424800045146218 -0.26647896932476101 0 0.23957730355537241 -0.2690264722939496 0 0.24630189157149271 -0.23862719373273489 0 0.23957730355537241 -0.2690264722939496 0 0.22539995833197279 -0.25439694151812092 0 0.24630189157149271 -0.23862719373273489 0 0.23957730355537241 -0.2690264722939496 0 0.22201160553014149 -0.27282713281430182 0 0.22597038554665891 -0.29198530353609969 0 0.23957730355537241 -0.2690264722939496 0 0.22201160553014149 -0.27282713281430182 0 0.22539995833197279 -0.25439694151812092 0 0.22201160553014149 -0.27282713281430182 0 0.22539995833197279 -0.25439694151812092 0 0.20839792567908169 -0.26286137611100968 0 0.22539995833197279 -0.25439694151812092 0 0.20839792567908169 -0.26286137611100968 0 0.21785392573041409 -0.23641888406417749 0 0.20839792567908169 -0.26286137611100968 0 0.19894192562774871 -0.28930386815784148 0 0.22201160553014149 -0.27282713281430182 0 0.20839792567908169 -0.26286137611100968 0 0.19894192562774871 -0.28930386815784148 0 0.20839792567908169 -0.26286137611100968 0 0.19243964543688619 -0.27084220977607648 0 0.19894192562774871 -0.28930386815784148 0 0.19243964543688619 -0.27084220977607648 0 0.18788263882716169 -0.25679145815736337 0 0.2011585879306918 -0.25009629578211662 0 0.18788263882716169 -0.25679145815736337 0 0.18152387782089699 -0.25911639126544889 0 0.198785433941357 -0.2385073185293709 0 0.20839792567908169 -0.26286137611100968 0 0.19243964543688619 -0.27084220977607648 0 0.2011585879306918 -0.25009629578211662 0 0.19894192562774871 -0.28930386815784148 0 0.18948592557641589 -0.31574636020467339 0 0.19894192562774871 -0.28930386815784148 0 0.18948592557641589 -0.31574636020467339 0 0.1770129769203902 -0.30535665193074168 0 0.19894192562774871 -0.28930386815784148 0 0.2085923184386152 -0.30701114228629311 0 0.18948592557641589 -0.31574636020467339 0 0.19243964543688619 -0.27084220977607648 0 0.19894192562774871 -0.28930386815784148 0 0.18195351203568819 -0.28910923805319949 0 0.19894192562774871 -0.28930386815784148 0 0.2085923184386152 -0.30701114228629311 0 0.22597038554665891 -0.29198530353609969 0 0.22201160553014149 -0.27282713281430182 0 0.19894192562774871 -0.28930386815784148 0 0.22597038554665891 -0.29198530353609969 0 0.2085923184386152 -0.30701114228629311 0 0.22597038554665891 -0.29198530353609969 0 0.22472105574930559 -0.31526289337286872 0 0.22597038554665891 -0.29198530353609969 0 0.2406975295827955 -0.30687270027792241 0 0.22472105574930559 -0.31526289337286872 0 0.25276693154094942 -0.29085798371577032 0 0.23957730355537241 -0.2690264722939496 0 0.22597038554665891 -0.29198530353609969 0 0.25276693154094942 -0.29085798371577032 0 0.22597038554665891 -0.29198530353609969 0 0.2406975295827955 -0.30687270027792241 0 0.25653124397825278 -0.31463832042947237 0 0.25276693154094942 -0.29085798371577032 0 0.2406975295827955 -0.30687270027792241 0 0.25653124397825278 -0.31463832042947237 0 0.2406975295827955 -0.30687270027792241 0 0.24364017958120229 -0.32478709672664802 0 0.2406975295827955 -0.30687270027792241 0 0.24364017958120229 -0.32478709672664802 0 0.22472105574930559 -0.31526289337286872 0 0.24364017958120229 -0.32478709672664802 0 0.2237320611570546 -0.3338085578095345 0 0.24172088398188979 -0.34612960648814189 0 0.25979194053494348 -0.33690292201496269 0 0.24364017958120229 -0.32478709672664802 0 0.24172088398188979 -0.34612960648814189 0 0.24364017958120229 -0.32478709672664802 0 0.2237320611570546 -0.3338085578095345 0 0.22472105574930559 -0.31526289337286872 0 0.2537947373904903 -0.35675619724414459 0 0.25444059068645558 -0.37191808954092881 0 0.23637779698152581 -0.36615287978479749 0 0.25444059068645558 -0.37191808954092881 0 0.23637779698152581 -0.36615287978479749 0 0.24380606657216011 -0.37974840465794668 0 0.2537947373904903 -0.35675619724414459 0 0.23637779698152581 -0.36615287978479749 0 0.24172088398188979 -0.34612960648814189 0 0.23637779698152581 -0.36615287978479749 0 0.24172088398188979 -0.34612960648814189 0 0.2237320611570546 -0.3338085578095345 0 0.24172088398188979 -0.34612960648814189 0 0.22204741308944859 -0.35417908652141578 0 0.23637779698152581 -0.36615287978479749 0 0.24172088398188979 -0.34612960648814189 0 0.22204741308944859 -0.35417908652141578 0 0.23637779698152581 -0.36615287978479749 0 0.22204741308944859 -0.35417908652141578 0 0.2191939411925202 -0.37263181995564731 0 0.23637779698152581 -0.36615287978479749 0 0.2191939411925202 -0.37263181995564731 0 0.2310347099811618 -0.38617615308145331 0 0.22204741308944859 -0.35417908652141578 0 0.2191939411925202 -0.37263181995564731 0 0.20145269425608561 -0.3665412632288384 0 0.22204741308944859 -0.35417908652141578 0 0.20145269425608561 -0.3665412632288384 0 0.2064205348475347 -0.3397353775881507 0 0.18973940258922151 -0.34929604267397318 0 0.20145269425608561 -0.3665412632288384 0 0.18075138689458439 -0.36220584295203673 0 0.18973940258922151 -0.34929604267397318 0 0.20145269425608561 -0.3665412632288384 0 0.2064205348475347 -0.3397353775881507 0 0.20145269425608561 -0.3665412632288384 0 0.18075138689458439 -0.36220584295203673 0 0.18213057246060591 -0.38074624602169133 0 0.2085923184386152 -0.30701114228629311 0 0.22472105574930559 -0.31526289337286872 0 0.20457359191662389 -0.32305166573223781 0 0.2237320611570546 -0.3338085578095345 0 0.22472105574930559 -0.31526289337286872 0 0.20457359191662389 -0.32305166573223781 0 0.2237320611570546 -0.3338085578095345 0 0.20457359191662389 -0.32305166573223781 0 0.2064205348475347 -0.3397353775881507 0 0.2237320611570546 -0.3338085578095345 0 0.22204741308944859 -0.35417908652141578 0 0.2064205348475347 -0.3397353775881507 0 0.18973940258922151 -0.34929604267397318 0 0.2064205348475347 -0.3397353775881507 0 0.18695789562762291 -0.33176471708703481 0 0.20457359191662389 -0.32305166573223781 0 0.2064205348475347 -0.3397353775881507 0 0.18695789562762291 -0.33176471708703481 0 0.20457359191662389 -0.32305166573223781 0 0.18948592557641589 -0.31574636020467339 0 0.18695789562762291 -0.33176471708703481 0 0.2085923184386152 -0.30701114228629311 0 0.20457359191662389 -0.32305166573223781 0 0.18948592557641589 -0.31574636020467339 0 0.18948592557641589 -0.31574636020467339 0 0.16959577495952491 -0.3197963749635766 0 0.1770129769203902 -0.30535665193074168 0 0.18948592557641589 -0.31574636020467339 0 0.18695789562762291 -0.33176471708703481 0 0.16959577495952491 -0.3197963749635766 0 0.18973940258922151 -0.34929604267397318 0 0.18695789562762291 -0.33176471708703481 0 0.17311450132028 -0.34623301251380528 0 0.18695789562762291 -0.33176471708703481 0 0.16959577495952491 -0.3197963749635766 0 0.17311450132028 -0.34623301251380528 0 0.16959577495952491 -0.3197963749635766 0 0.17311450132028 -0.34623301251380528 0 0.1613968493767752 -0.33336117095685058 0 0.16959577495952491 -0.3197963749635766 0 0.17311450132028 -0.34623301251380528 0 0.1613968493767752 -0.33336117095685058 0 0.17311450132028 -0.34623301251380528 0 0.156511293587241 -0.34851346173340592 0 0.1613968493767752 -0.33336117095685058 0 0.15525372721436881 -0.31558835456349382 0 0.15318239743714709 -0.32374855202542852 0 0.1613968493767752 -0.33336117095685058 0 0.15525372721436881 -0.31558835456349382 0 0.1613968493767752 -0.33336117095685058 0 0.16959577495952491 -0.3197963749635766 0 0.15525372721436881 -0.31558835456349382 0 0.18075138689458439 -0.36220584295203673 0 0.16732818357902929 -0.37360824803752529 0 0.18213057246060591 -0.38074624602169133 0 0.18973940258922151 -0.34929604267397318 0 0.18075138689458439 -0.36220584295203673 0 0.17311450132028 -0.34623301251380528 0 0.18075138689458439 -0.36220584295203673 0 0.17311450132028 -0.34623301251380528 0 0.16650360347246601 -0.35927322258992522 0 0.156511293587241 -0.34851346173340592 0 0.16650360347246601 -0.35927322258992522 0 0.15481265198119551 -0.36580554771285279 0 0.17311450132028 -0.34623301251380528 0 0.156511293587241 -0.34851346173340592 0 0.16650360347246601 -0.35927322258992522 0 0.16732818357902929 -0.37360824803752529 0 0.15481265198119551 -0.36580554771285279 0 0.14932313113035309 -0.38055236960979683 0 0.18075138689458439 -0.36220584295203673 0 0.16650360347246601 -0.35927322258992522 0 0.16732818357902929 -0.37360824803752529 0 0.16650360347246601 -0.35927322258992522 0 0.16732818357902929 -0.37360824803752529 0 0.15481265198119551 -0.36580554771285279 0 0.156511293587241 -0.34851346173340592 0 0.15481265198119551 -0.36580554771285279 0 0.1343813265877957 -0.36655647894117332 0 0.15481265198119551 -0.36580554771285279 0 0.1343813265877957 -0.36655647894117332 0 0.14932313113035309 -0.38055236960979683 0 0.156511293587241 -0.34851346173340592 0 0.13937477804762949 -0.34970604882952611 0 0.1343813265877957 -0.36655647894117332 0 0.156511293587241 -0.34851346173340592 0 0.13937477804762949 -0.34970604882952611 0 0.1485125517190537 -0.33971527582684219 0 0.156511293587241 -0.34851346173340592 0 0.1343813265877957 -0.36655647894117332 0 0.13937477804762949 -0.34970604882952611 0 0.12753577774158109 -0.35723144939643259 0 0.1343813265877957 -0.36655647894117332 0 0.13937477804762949 -0.34970604882952611 0 0.1312256460533191 -0.34688880491308849 0 0.13744217702709849 -0.33780852286981672 0 0.13937477804762949 -0.34970604882952611 0 0.1312256460533191 -0.34688880491308849 0 0.12753577774158109 -0.35723144939643259 0 0.1312256460533191 -0.34688880491308849 0 0.12753577774158109 -0.35723144939643259 0 0.1205498513969674 -0.34280919855657882 0 0.12753577774158109 -0.35723144939643259 0 0.1343813265877957 -0.36655647894117332 0 0.1164194778774393 -0.36846460229955258 0 0.14824135260092011 -0.31685750783675781 0 0.1478376605565242 -0.32918717474461179 0 0.13843842419252361 -0.32419865147451637 0 0.14824135260092011 -0.31685750783675781 0 0.13843842419252361 -0.32419865147451637 0 0.13824864400695269 -0.31561374980801349 0 0.14824135260092011 -0.31685750783675781 0 0.13824864400695269 -0.31561374980801349 0 0.13551968645263859 -0.30908445711996979 0 0.14824135260092011 -0.31685750783675781 0 0.15525372721436881 -0.31558835456349382 0 0.15318239743714709 -0.32374855202542852 0 0.14824135260092011 -0.31685750783675781 0 0.15318239743714709 -0.32374855202542852 0 0.1478376605565242 -0.32918717474461179 0 0.1613968493767752 -0.33336117095685058 0 0.15318239743714709 -0.32374855202542852 0 0.1478376605565242 -0.32918717474461179 0 0.1613968493767752 -0.33336117095685058 0 0.1485125517190537 -0.33971527582684219 0 0.1478376605565242 -0.32918717474461179 0 0.1613968493767752 -0.33336117095685058 0 0.156511293587241 -0.34851346173340592 0 0.1485125517190537 -0.33971527582684219 0 0.13937477804762949 -0.34970604882952611 0 0.1485125517190537 -0.33971527582684219 0 0.13744217702709849 -0.33780852286981672 0 0.1485125517190537 -0.33971527582684219 0 0.1478376605565242 -0.32918717474461179 0 0.13744217702709849 -0.33780852286981672 0 0.1478376605565242 -0.32918717474461179 0 0.13744217702709849 -0.33780852286981672 0 0.13843842419252361 -0.32419865147451637 0 0.1312256460533191 -0.34688880491308849 0 0.13744217702709849 -0.33780852286981672 0 0.1205498513969674 -0.34280919855657882 0 0.13744217702709849 -0.33780852286981672 0 0.12763385932923721 -0.32818683299039292 0 0.13843842419252361 -0.32419865147451637 0 0.13744217702709849 -0.33780852286981672 0 0.12763385932923721 -0.32818683299039292 0 0.1205498513969674 -0.34280919855657882 0 0.12763385932923721 -0.32818683299039292 0 0.1304157201778631 -0.31455018048044359 0 0.1196153766217003 -0.31834555168308359 0 0.12763385932923721 -0.32818683299039292 0 0.13843842419252361 -0.32419865147451637 0 0.1304157201778631 -0.31455018048044359 0 0.13824864400695269 -0.31561374980801349 0 0.1304157201778631 -0.31455018048044359 0 0.13551968645263859 -0.30908445711996979 0 0.13843842419252361 -0.32419865147451637 0 0.13824864400695269 -0.31561374980801349 0 0.1304157201778631 -0.31455018048044359 0 0.14824135260092011 -0.31685750783675781 0 0.13497665918743201 -0.29754995726766859 0 0.13551968645263859 -0.30908445711996979 0 0.1304157201778631 -0.31455018048044359 0 0.12566154821000311 -0.30243398926056081 0 0.13551968645263859 -0.30908445711996979 0 0.12566154821000311 -0.30243398926056081 0 0.13497665918743201 -0.29754995726766859 0 0.1215480224228756 -0.29147622864376582 0 0.12566154821000311 -0.30243398926056081 0 0.13497665918743201 -0.29754995726766859 0 0.13551968645263859 -0.30908445711996979 0 0.15525372721436881 -0.31558835456349382 0 0.14911060505196619 -0.29781553817013567 0 0.14824135260092011 -0.31685750783675781 0 0.15525372721436881 -0.31558835456349382 0 0.1465592649972581 -0.30086165709447088 0 0.15525372721436881 -0.31558835456349382 0 0.14911060505196619 -0.29781553817013567 0 0.16100537785956909 -0.30186500005210298 0 0.15525372721436881 -0.31558835456349382 0 0.1465592649972581 -0.30086165709447088 0 0.14911060505196619 -0.29781553817013567 0 0.14824135260092011 -0.31685750783675781 0 0.13497665918743201 -0.29754995726766859 0 0.1465592649972581 -0.30086165709447088 0 0.14824135260092011 -0.31685750783675781 0 0.13497665918743201 -0.29754995726766859 0 0.13497665918743201 -0.29754995726766859 0 0.1465592649972581 -0.30086165709447088 0 0.1469348393038139 -0.29442119309349379 0 0.1465592649972581 -0.30086165709447088 0 0.14911060505196619 -0.29781553817013567 0 0.1469348393038139 -0.29442119309349379 0 0.1465592649972581 -0.30086165709447088 0 0.14911060505196619 -0.29781553817013567 0 0.14911060505196619 -0.29781553817013567 0 0.14375092580598831 -0.28230931956538402 0 0.15239289526956881 -0.27941837432677941 0 0.14911060505196619 -0.29781553817013567 0 0.15239289526956881 -0.27941837432677941 0 0.1642623217004365 -0.27972546400152648 0 0.14911060505196619 -0.29781553817013567 0 0.1469348393038139 -0.29442119309349379 0 0.14375092580598831 -0.28230931956538402 0 0.14911060505196619 -0.29781553817013567 0 0.14375092580598831 -0.28230931956538402 0 0.13497665918743201 -0.29754995726766859 0 0.1217119657739448 -0.27824240669857869 0 0.13497665918743201 -0.29754995726766859 0 0.1217119657739448 -0.27824240669857869 0 0.1215480224228756 -0.29147622864376582 0 0.1469348393038139 -0.29442119309349379 0 0.14375092580598831 -0.28230931956538402 0 0.12869775419521359 -0.27345127867594482 0 0.1469348393038139 -0.29442119309349379 0 0.13664524524861971 -0.28832359302281763 0 0.12869775419521359 -0.27345127867594482 0 0.13497665918743201 -0.29754995726766859 0 0.13159579244609529 -0.28524757378206578 0 0.1217119657739448 -0.27824240669857869 0 0.1469348393038139 -0.29442119309349379 0 0.12869775419521359 -0.27345127867594482 0 0.13497665918743201 -0.29754995726766859 0 0.13664524524861971 -0.28832359302281763 0 0.13159579244609529 -0.28524757378206578 0 0.13497665918743201 -0.29754995726766859 0 0.1469348393038139 -0.29442119309349379 0 0.13664524524861971 -0.28832359302281763 0 0.13664524524861971 -0.28832359302281763 0 0.13159579244609529 -0.28524757378206578 0 0.12869775419521359 -0.27345127867594482 0 0.13159579244609529 -0.28524757378206578 0 0.12869775419521359 -0.27345127867594482 0 0.1217119657739448 -0.27824240669857869 0 0.12869775419521359 -0.27345127867594482 0 0.1217119657739448 -0.27824240669857869 0 0.12869775419521359 -0.27345127867594482 0 0.1216510438795569 -0.26534861800596082 0 0.12869775419521359 -0.27345127867594482 0 0.1304548186636536 -0.26425944353343528 0 0.1216510438795569 -0.26534861800596082 0 0.12869775419521359 -0.27345127867594482 0 0.1383912465600142 -0.26680310096063081 0 0.1304548186636536 -0.26425944353343528 0 0.12869775419521359 -0.27345127867594482 0 0.1383912465600142 -0.26680310096063081 0 0.14375092580598831 -0.28230931956538402 0 0.12869775419521359 -0.27345127867594482 0 0.1383912465600142 -0.26680310096063081 0 0.13307923001982941 -0.25143477649120521 0 0.1216510438795569 -0.26534861800596082 0 0.12629816317163689 -0.23799161899509089 0 0.1304548186636536 -0.26425944353343528 0 0.13307923001982941 -0.25143477649120521 0 0.1216510438795569 -0.26534861800596082 0 0.1383912465600142 -0.26680310096063081 0 0.13307923001982941 -0.25143477649120521 0 0.1383912465600142 -0.26680310096063081 0 0.1304548186636536 -0.26425944353343528 0 0.13307923001982941 -0.25143477649120521 0 0.1383912465600142 -0.26680310096063081 0 0.1574966032874438 -0.25369989707307561 0 0.14878385083484991 -0.269889688490911 0 0.15715392813969689 -0.26738715374205713 0 0.1574966032874438 -0.25369989707307561 0 0.1383912465600142 -0.26680310096063081 0 0.13307923001982941 -0.25143477649120521 0 0.1574966032874438 -0.25369989707307561 0 0.1383912465600142 -0.26680310096063081 0 0.14878385083484991 -0.269889688490911 0 0.1574966032874438 -0.25369989707307561 0 0.14375092580598831 -0.28230931956538402 0 0.14878385083484991 -0.269889688490911 0 0.15239289526956881 -0.27941837432677941 0 0.14375092580598831 -0.28230931956538402 0 0.1383912465600142 -0.26680310096063081 0 0.14375092580598831 -0.28230931956538402 0 0.1383912465600142 -0.26680310096063081 0 0.14878385083484991 -0.269889688490911 0 0.14878385083484991 -0.269889688490911 0 0.15239289526956881 -0.27941837432677941 0 0.15715392813969689 -0.26738715374205713 0 0.15715392813969689 -0.26738715374205713 0 0.1642623217004365 -0.27972546400152648 0 0.1617731483335649 -0.26102398870818072 0 0.15239289526956881 -0.27941837432677941 0 0.15715392813969689 -0.26738715374205713 0 0.1642623217004365 -0.27972546400152648 0 0.1642623217004365 -0.27972546400152648 0 0.1617731483335649 -0.26102398870818072 0 0.18152387782089699 -0.25911639126544889 0 0.1642623217004365 -0.27972546400152648 0 0.1617731483335649 -0.26102398870818072 0 0.1617731483335649 -0.26102398870818072 0 0.17660196001487369 -0.24059669318552079 0 0.16074166857342259 -0.25327435041196428 0 0.1617731483335649 -0.26102398870818072 0 0.17660196001487369 -0.24059669318552079 0 0.16074166857342259 -0.25327435041196428 0 0.1574966032874438 -0.25369989707307561 0 0.1617731483335649 -0.26102398870818072 0 0.16074166857342259 -0.25327435041196428 0 0.1617731483335649 -0.26102398870818072 0 0.15715392813969689 -0.26738715374205713 0 0.1574966032874438 -0.25369989707307561 0 0.1617731483335649 -0.26102398870818072 0 0.15715392813969689 -0.26738715374205713 0 0.1617731483335649 -0.26102398870818072 0 0.1617731483335649 -0.26102398870818072 0 0.18152387782089699 -0.25911639126544889 0 0.17660196001487369 -0.24059669318552079 0 0.18788263882716169 -0.25679145815736337 0 0.18152387782089699 -0.25911639126544889 0 0.17697984371296621 -0.27507559778535567 0 0.1642623217004365 -0.27972546400152648 0 0.18152387782089699 -0.25911639126544889 0 0.17697984371296621 -0.27507559778535567 0 0.19243964543688619 -0.27084220977607648 0 0.18788263882716169 -0.25679145815736337 0 0.17697984371296621 -0.27507559778535567 0 0.1642623217004365 -0.27972546400152648 0 0.18152387782089699 -0.25911639126544889 0 0.19243964543688619 -0.27084220977607648 0 0.17697984371296621 -0.27507559778535567 0 0.18195351203568819 -0.28910923805319949 0 0.18788263882716169 -0.25679145815736337 0 0.17697984371296621 -0.27507559778535567 0 0.19894192562774871 -0.28930386815784148 0 0.18195351203568819 -0.28910923805319949 0 0.1770129769203902 -0.30535665193074168 0 0.17697984371296621 -0.27507559778535567 0 0.18195351203568819 -0.28910923805319949 0 0.1660770485987704 -0.29335973741334792 0 0.18195351203568819 -0.28910923805319949 0 0.1770129769203902 -0.30535665193074168 0 0.1660770485987704 -0.29335973741334792 0 0.16959577495952491 -0.3197963749635766 0 0.1660770485987704 -0.29335973741334792 0 0.14911060505196619 -0.29781553817013567 0 0.16100537785956909 -0.30186500005210298 0 0.1660770485987704 -0.29335973741334792 0 0.16959577495952491 -0.3197963749635766 0 0.16100537785956909 -0.30186500005210298 0 0.1660770485987704 -0.29335973741334792 0 0.16959577495952491 -0.3197963749635766 0 0.15525372721436881 -0.31558835456349382 0 0.16100537785956909 -0.30186500005210298 0 0.16959577495952491 -0.3197963749635766 0 0.1770129769203902 -0.30535665193074168 0 0.1660770485987704 -0.29335973741334792 0 0.16100537785956909 -0.30186500005210298 0 0.1660770485987704 -0.29335973741334792 0 0.17697984371296621 -0.27507559778535567 0 0.1660770485987704 -0.29335973741334792 0 0.14911060505196619 -0.29781553817013567 0 0.1642623217004365 -0.27972546400152648 0 0.14911060505196619 -0.29781553817013567 0 0.1642623217004365 -0.27972546400152648 0 0.1660770485987704 -0.29335973741334792 0 0.1642623217004365 -0.27972546400152648 0 0.17697984371296621 -0.27507559778535567 0 0.1660770485987704 -0.29335973741334792 0 0.1642623217004365 -0.27972546400152648 0 0.1660770485987704 -0.29335973741334792 0 0.1994886509072569 -0.5 0 0.19423597600606349 -0.48322803238544781 0 0.2115038685958113 -0.48910130639053873 0 0.1994886509072569 -0.5 0 0.19423597600606349 -0.48322803238544781 0 0.17252487924041721 -0.5 0 0.2020659539159253 -0.46964857775004692 0 0.19423597600606349 -0.48322803238544781 0 0.1866985158824534 -0.46582595997398041 0 0.2020659539159253 -0.46964857775004692 0 0.19423597600606349 -0.48322803238544781 0 0.21046970366584311 -0.47887833558123349 0 0.19423597600606349 -0.48322803238544781 0 0.21046970366584311 -0.47887833558123349 0 0.2115038685958113 -0.48910130639053873 0 0.2020659539159253 -0.46964857775004692 0 0.21046970366584311 -0.47887833558123349 0 0.21843876457192449 -0.46964783290320122 0 0.21046970366584311 -0.47887833558123349 0 0.21843876457192449 -0.46964783290320122 0 0.22307137279884329 -0.48448875047673678 0 0.21046970366584311 -0.47887833558123349 0 0.2115038685958113 -0.48910130639053873 0 0.22307137279884329 -0.48448875047673678 0 0.1994886509072569 -0.5 0 0.2115038685958113 -0.48910130639053873 0 0.2229790252989734 -0.49596205835550622 0 0.1994886509072569 -0.5 0 0.2229790252989734 -0.49596205835550622 0 0.22645242257409681 -0.5 0 0.2229790252989734 -0.49596205835550622 0 0.23219312693684549 -0.48906882517204231 0 0.24763091986902461 -0.49223611575789677 0 0.2229790252989734 -0.49596205835550622 0 0.22645242257409681 -0.5 0 0.24763091986902461 -0.49223611575789677 0 0.2115038685958113 -0.48910130639053873 0 0.2229790252989734 -0.49596205835550622 0 0.22307137279884329 -0.48448875047673678 0 0.2229790252989734 -0.49596205835550622 0 0.22307137279884329 -0.48448875047673678 0 0.23219312693684549 -0.48906882517204231 0 0.22307137279884329 -0.48448875047673678 0 0.23219312693684549 -0.48906882517204231 0 0.23509118978054069 -0.48358837609802913 0 0.25341619424093648 -0.5 0 0.22645242257409681 -0.5 0 0.24763091986902461 -0.49223611575789677 0 0.2229790252989734 -0.49596205835550622 0 0.24763091986902461 -0.49223611575789677 0 0.23219312693684549 -0.48906882517204231 0 0.24763091986902461 -0.49223611575789677 0 0.23509118978054069 -0.48358837609802913 0 0.24763091986902461 -0.49223611575789677 0 0.24535942785631279 -0.47816084641428719 0 0.23509118978054069 -0.48358837609802913 0 0.24535942785631279 -0.47816084641428719 0 0.23177735528290291 -0.47279380550303668 0 0.23883600563845681 -0.45918583798105422 0 0.25547179674817921 -0.48129583905144002 0 0.24763091986902461 -0.49223611575789677 0 0.24535942785631279 -0.47816084641428719 0 0.24535942785631279 -0.47816084641428719 0 0.23509118978054069 -0.48358837609802913 0 0.23177735528290291 -0.47279380550303668 0 0.22307137279884329 -0.48448875047673678 0 0.23509118978054069 -0.48358837609802913 0 0.23177735528290291 -0.47279380550303668 0 0.21843876457192449 -0.46964783290320122 0 0.22307137279884329 -0.48448875047673678 0 0.23177735528290291 -0.47279380550303668 0 0.21843876457192449 -0.46964783290320122 0 0.22666713105088279 -0.45480012231869849 0 0.21161208171813681 -0.45896265156508281 0 0.23177735528290291 -0.47279380550303668 0 0.22666713105088279 -0.45480012231869849 0 0.23883600563845681 -0.45918583798105422 0 0.21843876457192449 -0.46964783290320122 0 0.23177735528290291 -0.47279380550303668 0 0.22666713105088279 -0.45480012231869849 0 0.22666713105088279 -0.45480012231869849 0 0.23883600563845681 -0.45918583798105422 0 0.23455790491571579 -0.45091202783205259 0 0.25661402482830381 -0.46627622087328607 0 0.23883600563845681 -0.45918583798105422 0 0.24094523521753189 -0.44404226858628248 0 0.25661402482830381 -0.46627622087328607 0 0.24094523521753189 -0.44404226858628248 0 0.25661402482830381 -0.46627622087328607 0 0.24535942785631279 -0.47816084641428719 0 0.23883600563845681 -0.45918583798105422 0 0.25055652634272252 -0.43500727358404162 0 0.25511771060706018 -0.44914440124838467 0 0.24094523521753189 -0.44404226858628248 0 0.23455790491571579 -0.45091202783205259 0 0.24094523521753189 -0.44404226858628248 0 0.23178324775599191 -0.44561988244217521 0 0.23883600563845681 -0.45918583798105422 0 0.23455790491571579 -0.45091202783205259 0 0.24094523521753189 -0.44404226858628248 0 0.23178324775599191 -0.44561988244217521 0 0.2246818433788236 -0.44273761810506679 0 0.22351502538222151 -0.43271658929810242 0 0.22666713105088279 -0.45480012231869849 0 0.23455790491571579 -0.45091202783205259 0 0.23178324775599191 -0.44561988244217521 0 0.22666713105088279 -0.45480012231869849 0 0.23178324775599191 -0.44561988244217521 0 0.2246818433788236 -0.44273761810506679 0 0.22666713105088279 -0.45480012231869849 0 0.2246818433788236 -0.44273761810506679 0 0.2164982624546154 -0.44065163917529793 0 0.2246818433788236 -0.44273761810506679 0 0.2164982624546154 -0.44065163917529793 0 0.22351502538222151 -0.43271658929810242 0 0.2164982624546154 -0.44065163917529793 0 0.21161208171813681 -0.45896265156508281 0 0.2164982624546154 -0.44065163917529793 0 0.20703485761851159 -0.44728056916450049 0 0.21161208171813681 -0.45896265156508281 0 0.22666713105088279 -0.45480012231869849 0 0.2164982624546154 -0.44065163917529793 0 0.21161208171813681 -0.45896265156508281 0 0.2164982624546154 -0.44065163917529793 0 0.20703485761851159 -0.44728056916450049 0 0.20284643745406181 -0.43749649751754299 0 0.20703485761851159 -0.44728056916450049 0 0.21161208171813681 -0.45896265156508281 0 0.19718264884723249 -0.4520114884000781 0 0.2020659539159253 -0.46964857775004692 0 0.21843876457192449 -0.46964783290320122 0 0.21161208171813681 -0.45896265156508281 0 0.2020659539159253 -0.46964857775004692 0 0.21161208171813681 -0.45896265156508281 0 0.19718264884723249 -0.4520114884000781 0 0.19718264884723249 -0.4520114884000781 0 0.18030320322362581 -0.44994646081668788 0 0.1866985158824534 -0.46582595997398041 0 0.2020659539159253 -0.46964857775004692 0 0.19718264884723249 -0.4520114884000781 0 0.1866985158824534 -0.46582595997398041 0 0.19718264884723249 -0.4520114884000781 0 0.19056462480476619 -0.4372130613046678 0 0.18030320322362581 -0.44994646081668788 0 0.19718264884723249 -0.4520114884000781 0 0.20284643745406181 -0.43749649751754299 0 0.19056462480476619 -0.4372130613046678 0 0.20703485761851159 -0.44728056916450049 0 0.19718264884723249 -0.4520114884000781 0 0.20284643745406181 -0.43749649751754299 0 0.2009381557839276 -0.42513707242685023 0 0.19056462480476619 -0.4372130613046678 0 0.18016681342343119 -0.42831328727138829 0 0.2009381557839276 -0.42513707242685023 0 0.1935463351267416 -0.42333533609237373 0 0.21037597688232759 -0.41820497566857601 0 0.2009381557839276 -0.42513707242685023 0 0.18016681342343119 -0.42831328727138829 0 0.2009381557839276 -0.42513707242685023 0 0.1935463351267416 -0.42333533609237373 0 0.18016681342343119 -0.42831328727138829 0 0.2009381557839276 -0.42513707242685023 0 0.20284643745406181 -0.43749649751754299 0 0.19056462480476619 -0.4372130613046678 0 0.1935463351267416 -0.42333533609237373 0 0.18957177006676759 -0.41155416557530239 0 0.18208318357215769 -0.41513112401732161 0 0.1935463351267416 -0.42333533609237373 0 0.19835790206249451 -0.40731840066172309 0 0.2064474394919826 -0.40957359772466262 0 0.1935463351267416 -0.42333533609237373 0 0.18957177006676759 -0.41155416557530239 0 0.19835790206249451 -0.40731840066172309 0 0.18957177006676759 -0.41155416557530239 0 0.19835790206249451 -0.40731840066172309 0 0.18429965950567681 -0.40043180152979141 0 0.1935463351267416 -0.42333533609237373 0 0.2064474394919826 -0.40957359772466262 0 0.21802011019095219 -0.41151160420974692 0 0.2009381557839276 -0.42513707242685023 0 0.21037597688232759 -0.41820497566857601 0 0.21517419014994149 -0.41973031595742238 0 0.1935463351267416 -0.42333533609237373 0 0.21037597688232759 -0.41820497566857601 0 0.21802011019095219 -0.41151160420974692 0 0.1935463351267416 -0.42333533609237373 0 0.21802011019095219 -0.41151160420974692 0 0.2064474394919826 -0.40957359772466262 0 0.21802011019095219 -0.41151160420974692 0 0.21539364713476919 -0.4077846632190652 0 0.21802011019095219 -0.41151160420974692 0 0.21631711298899101 -0.41480027094476041 0 0.21951421215198219 -0.41363172915485441 0 0.21802011019095219 -0.41151160420974692 0 0.21539364713476919 -0.4077846632190652 0 0.21037597688232759 -0.41820497566857601 0 0.21615237142163049 -0.41727799628674422 0 0.21517419014994149 -0.41973031595742238 0 0.21037597688232759 -0.41820497566857601 0 0.21615237142163049 -0.41727799628674422 0 0.21631711298899101 -0.41480027094476041 0 0.21037597688232759 -0.41820497566857601 0 0.21802011019095219 -0.41151160420974692 0 0.21631711298899101 -0.41480027094476041 0 0.21615237142163049 -0.41727799628674422 0 0.2186469869774503 -0.41776440782750141 0 0.21951421215198219 -0.41363172915485441 0 0.21615237142163049 -0.41727799628674422 0 0.21631711298899101 -0.41480027094476041 0 0.21951421215198219 -0.41363172915485441 0 0.21517419014994149 -0.41973031595742238 0 0.22138444319109429 -0.4223406267855131 0 0.21905272051500571 -0.42036355506973888 0 0.2186469869774503 -0.41776440782750141 0 0.21517419014994149 -0.41973031595742238 0 0.21905272051500571 -0.42036355506973888 0 0.21615237142163049 -0.41727799628674422 0 0.2186469869774503 -0.41776440782750141 0 0.21517419014994149 -0.41973031595742238 0 0.2009381557839276 -0.42513707242685023 0 0.21517419014994149 -0.41973031595742238 0 0.22138444319109429 -0.4223406267855131 0 0.2009381557839276 -0.42513707242685023 0 0.22138444319109429 -0.4223406267855131 0 0.2164982624546154 -0.44065163917529793 0 0.21033826167253239 -0.43128231304384651 0 0.22138444319109429 -0.4223406267855131 0 0.2009381557839276 -0.42513707242685023 0 0.21033826167253239 -0.43128231304384651 0 0.22138444319109429 -0.4223406267855131 0 0.2009381557839276 -0.42513707242685023 0 0.20284643745406181 -0.43749649751754299 0 0.21033826167253239 -0.43128231304384651 0 0.2164982624546154 -0.44065163917529793 0 0.20284643745406181 -0.43749649751754299 0 0.21033826167253239 -0.43128231304384651 0 0.23178324775599191 -0.44561988244217521 0 0.22138444319109429 -0.4223406267855131 0 0.22527644560675961 -0.42180831629927917 0 0.24094523521753189 -0.44404226858628248 0 0.23178324775599191 -0.44561988244217521 0 0.22527644560675961 -0.42180831629927917 0 0.24094523521753189 -0.44404226858628248 0 0.22527644560675961 -0.42180831629927917 0 0.2164982624546154 -0.44065163917529793 0 0.22138444319109429 -0.4223406267855131 0 0.23178324775599191 -0.44561988244217521 0 0.22138444319109429 -0.4223406267855131 0 0.2164982624546154 -0.44065163917529793 0 0.22351502538222151 -0.43271658929810242 0 0.22138444319109429 -0.4223406267855131 0 0.23178324775599191 -0.44561988244217521 0 0.22351502538222151 -0.43271658929810242 0 0.22138444319109429 -0.4223406267855131 0 0.22138444319109429 -0.4223406267855131 0 0.22527644560675961 -0.42180831629927917 0 0.24065233844580261 -0.43322986720253892 0 0.24289389136575629 -0.42780920866693861 0 0.22527644560675961 -0.42180831629927917 0 0.25303131495126879 -0.41801227343542441 0 0.24289389136575629 -0.42780920866693861 0 0.22527644560675961 -0.42180831629927917 0 0.25303131495126879 -0.41801227343542441 0 0.25055652634272252 -0.43500727358404162 0 0.24289389136575629 -0.42780920866693861 0 0.24094523521753189 -0.44404226858628248 0 0.24065233844580261 -0.43322986720253892 0 0.22527644560675961 -0.42180831629927917 0 0.25055652634272252 -0.43500727358404162 0 0.24094523521753189 -0.44404226858628248 0 0.24065233844580261 -0.43322986720253892 0 0.25055652634272252 -0.43500727358404162 0 0.24065233844580261 -0.43322986720253892 0 0.24289389136575629 -0.42780920866693861 0 0.25303131495126879 -0.41801227343542441 0 0.2432371236457922 -0.40912165209785029 0 0.23341636989301609 -0.41485958271769507 0 0.25303131495126879 -0.41801227343542441 0 0.22527644560675961 -0.42180831629927917 0 0.25303131495126879 -0.41801227343542441 0 0.23341636989301609 -0.41485958271769507 0 0.22527644560675961 -0.42180831629927917 0 0.25303131495126879 -0.41801227343542441 0 0.25114155707815061 -0.40719189012314011 0 0.2432371236457922 -0.40912165209785029 0 0.2432371236457922 -0.40912165209785029 0 0.23512405903149489 -0.4086052227153732 0 0.23341636989301609 -0.41485958271769507 0 0.23512405903149489 -0.4086052227153732 0 0.22752627534984041 -0.41312421068436428 0 0.22519966960105381 -0.40804302671086601 0 0.23512405903149489 -0.4086052227153732 0 0.22752627534984041 -0.41312421068436428 0 0.23341636989301609 -0.41485958271769507 0 0.23341636989301609 -0.41485958271769507 0 0.22696588919012481 -0.41683404474765751 0 0.22527644560675961 -0.42180831629927917 0 0.22752627534984041 -0.41312421068436428 0 0.23341636989301609 -0.41485958271769507 0 0.22696588919012481 -0.41683404474765751 0 0.22696588919012481 -0.41683404474765751 0 0.22527644560675961 -0.42180831629927917 0 0.22255642411759791 -0.41794861625147911 0 0.22138444319109429 -0.4223406267855131 0 0.22527644560675961 -0.42180831629927917 0 0.22198758100021279 -0.42008036166411261 0 0.22527644560675961 -0.42180831629927917 0 0.22255642411759791 -0.41794861625147911 0 0.22198758100021279 -0.42008036166411261 0 0.22527644560675961 -0.42180831629927917 0 0.22255642411759791 -0.41794861625147911 0 0.22752627534984041 -0.41312421068436428 0 0.22696588919012481 -0.41683404474765751 0 0.22255642411759791 -0.41794861625147911 0 0.22255642411759791 -0.41794861625147911 0 0.21951421215198219 -0.41363172915485441 0 0.22255642411759791 -0.41794861625147911 0 0.22198758100021279 -0.42008036166411261 0 0.21951421215198219 -0.41363172915485441 0 0.22198758100021279 -0.42008036166411261 0 0.21951421215198219 -0.41363172915485441 0 0.2186469869774503 -0.41776440782750141 0 0.22198758100021279 -0.42008036166411261 0 0.21951421215198219 -0.41363172915485441 0 0.22255642411759791 -0.41794861625147911 0 0.22198758100021279 -0.42008036166411261 0 0.2186469869774503 -0.41776440782750141 0 0.21905272051500571 -0.42036355506973888 0 0.22198758100021279 -0.42008036166411261 0 0.22138444319109429 -0.4223406267855131 0 0.22198758100021279 -0.42008036166411261 0 0.22138444319109429 -0.4223406267855131 0 0.21905272051500571 -0.42036355506973888 0 0.22198758100021279 -0.42008036166411261 0 0.22752627534984041 -0.41312421068436428 0 0.22255642411759791 -0.41794861625147911 0 0.22519966960105381 -0.40804302671086601 0 0.22255642411759791 -0.41794861625147911 0 0.22519966960105381 -0.40804302671086601 0 0.21951421215198219 -0.41363172915485441 0 0.22255642411759791 -0.41794861625147911 0 0.22519966960105381 -0.40804302671086601 0 0.22153365695531191 -0.40851464171658941 0 0.22569162298079651 -0.40619942637810857 0 0.22519966960105381 -0.40804302671086601 0 0.22153365695531191 -0.40851464171658941 0 0.22569162298079651 -0.40619942637810857 0 0.22519966960105381 -0.40804302671086601 0 0.22569162298079651 -0.40619942637810857 0 0.21802011019095219 -0.41151160420974692 0 0.22519966960105381 -0.40804302671086601 0 0.21951421215198219 -0.41363172915485441 0 0.21802011019095219 -0.41151160420974692 0 0.21951421215198219 -0.41363172915485441 0 0.21802011019095219 -0.41151160420974692 0 0.22519966960105381 -0.40804302671086601 0 0.21802011019095219 -0.41151160420974692 0 0.22519966960105381 -0.40804302671086601 0 0.22153365695531191 -0.40851464171658941 0 0.22153365695531191 -0.40851464171658941 0 0.22569162298079651 -0.40619942637810857 0 0.21002364154618691 -0.38888766310754808 0 0.22569162298079651 -0.40619942637810857 0 0.2310347099811618 -0.38617615308145331 0 0.21002364154618691 -0.38888766310754808 0 0.22519966960105381 -0.40804302671086601 0 0.22569162298079651 -0.40619942637810857 0 0.24624085666777179 -0.39787764136609022 0 0.22569162298079651 -0.40619942637810857 0 0.2310347099811618 -0.38617615308145331 0 0.2432371236457922 -0.40912165209785029 0 0.23512405903149489 -0.4086052227153732 0 0.24624085666777179 -0.39787764136609022 0 0.25072728554097401 -0.39225920906677919 0 0.22569162298079651 -0.40619942637810857 0 0.2310347099811618 -0.38617615308145331 0 0.22519966960105381 -0.40804302671086601 0 0.24624085666777179 -0.39787764136609022 0 0.25072728554097401 -0.39225920906677919 0 0.22569162298079651 -0.40619942637810857 0 0.23512405903149489 -0.4086052227153732 0 0.22519966960105381 -0.40804302671086601 0 0.24624085666777179 -0.39787764136609022 0 0.25072728554097401 -0.39225920906677919 0 0.22569162298079651 -0.40619942637810857 0 0.24624085666777179 -0.39787764136609022 0 0.25114155707815061 -0.40719189012314011 0 0.2432371236457922 -0.40912165209785029 0 0.24624085666777179 -0.39787764136609022 0 0.25072728554097401 -0.39225920906677919 0 0.24380606657216011 -0.37974840465794668 0 0.2310347099811618 -0.38617615308145331 0 0.23637779698152581 -0.36615287978479749 0 0.24380606657216011 -0.37974840465794668 0 0.2310347099811618 -0.38617615308145331 0 0.25339810722930878 -0.38087195501962939 0 0.25072728554097401 -0.39225920906677919 0 0.24380606657216011 -0.37974840465794668 0 0.2191939411925202 -0.37263181995564731 0 0.2310347099811618 -0.38617615308145331 0 0.21002364154618691 -0.38888766310754808 0 0.23637779698152581 -0.36615287978479749 0 0.2310347099811618 -0.38617615308145331 0 0.20145269425608561 -0.3665412632288384 0 0.21002364154618691 -0.38888766310754808 0 0.2191939411925202 -0.37263181995564731 0 0.20145269425608561 -0.3665412632288384 0 0.21002364154618691 -0.38888766310754808 0 0.21802011019095219 -0.41151160420974692 0 0.21002364154618691 -0.38888766310754808 0 0.21802011019095219 -0.41151160420974692 0 0.21539364713476919 -0.4077846632190652 0 0.21002364154618691 -0.38888766310754808 0 0.21802011019095219 -0.41151160420974692 0 0.22153365695531191 -0.40851464171658941 0 0.21002364154618691 -0.38888766310754808 0 0.21539364713476919 -0.4077846632190652 0 0.21002364154618691 -0.38888766310754808 0 0.20554990655200989 -0.40070588488352288 0 0.19835790206249451 -0.40731840066172309 0 0.2064474394919826 -0.40957359772466262 0 0.20554990655200989 -0.40070588488352288 0 0.2064474394919826 -0.40957359772466262 0 0.21539364713476919 -0.4077846632190652 0 0.20554990655200989 -0.40070588488352288 0 0.21002364154618691 -0.38888766310754808 0 0.20554990655200989 -0.40070588488352288 0 0.19684225432814351 -0.39135904992617437 0 0.19684225432814351 -0.39135904992617437 0 0.18213057246060591 -0.38074624602169133 0 0.18429965950567681 -0.40043180152979141 0 0.19835790206249451 -0.40731840066172309 0 0.19684225432814351 -0.39135904992617437 0 0.18429965950567681 -0.40043180152979141 0 0.19835790206249451 -0.40731840066172309 0 0.20554990655200989 -0.40070588488352288 0 0.19684225432814351 -0.39135904992617437 0 0.20145269425608561 -0.3665412632288384 0 0.21002364154618691 -0.38888766310754808 0 0.19684225432814351 -0.39135904992617437 0 0.20145269425608561 -0.3665412632288384 0 0.19684225432814351 -0.39135904992617437 0 0.18213057246060591 -0.38074624602169133 0 0.18213057246060591 -0.38074624602169133 0 0.18429965950567681 -0.40043180152979141 0 0.16592639845465429 -0.39053863128738647 0 0.18429965950567681 -0.40043180152979141 0 0.17069508789656651 -0.40509105823374641 0 0.16592639845465429 -0.39053863128738647 0 0.17069508789656651 -0.40509105823374641 0 0.16592639845465429 -0.39053863128738647 0 0.1509428975665861 -0.40329973028762017 0 0.16732818357902929 -0.37360824803752529 0 0.18213057246060591 -0.38074624602169133 0 0.16592639845465429 -0.39053863128738647 0 0.16732818357902929 -0.37360824803752529 0 0.16592639845465429 -0.39053863128738647 0 0.14932313113035309 -0.38055236960979683 0 0.14932313113035309 -0.38055236960979683 0 0.13113203394749609 -0.38634306477909652 0 0.1509428975665861 -0.40329973028762017 0 0.1343813265877957 -0.36655647894117332 0 0.14932313113035309 -0.38055236960979683 0 0.13113203394749609 -0.38634306477909652 0 0.1343813265877957 -0.36655647894117332 0 0.13113203394749609 -0.38634306477909652 0 0.11225135958835029 -0.38459949614894079 0 0.13113203394749609 -0.38634306477909652 0 0.1509428975665861 -0.40329973028762017 0 0.1275392518666742 -0.41040709911348211 0 0.13113203394749609 -0.38634306477909652 0 0.1509428975665861 -0.40329973028762017 0 0.16592639845465429 -0.39053863128738647 0 0.14932313113035309 -0.38055236960979683 0 0.1509428975665861 -0.40329973028762017 0 0.1509428975665861 -0.40329973028762017 0 0.1425289094007863 -0.41767982880022131 0 0.1707537611856762 -0.42025639579614399 0 0.1509428975665861 -0.40329973028762017 0 0.1425289094007863 -0.41767982880022131 0 0.1275392518666742 -0.41040709911348211 0 0.1425289094007863 -0.41767982880022131 0 0.1275392518666742 -0.41040709911348211 0 0.13236798474785899 -0.4320801020831036 0 0.1425289094007863 -0.41767982880022131 0 0.15271754546110339 -0.43086217022034662 0 0.1707537611856762 -0.42025639579614399 0 0.1425289094007863 -0.41767982880022131 0 0.13236798474785899 -0.4320801020831036 0 0.15271754546110339 -0.43086217022034662 0 0.15271754546110339 -0.43086217022034662 0 0.1654182915846685 -0.43286880866480387 0 0.1707537611856762 -0.42025639579614399 0 0.15271754546110339 -0.43086217022034662 0 0.1654182915846685 -0.43286880866480387 0 0.16403986999473821 -0.44403110754456671 0 0.1654182915846685 -0.43286880866480387 0 0.1707537611856762 -0.42025639579614399 0 0.17416198969715641 -0.43632556109815851 0 0.1509428975665861 -0.40329973028762017 0 0.1707537611856762 -0.42025639579614399 0 0.17069508789656651 -0.40509105823374641 0 0.1509428975665861 -0.40329973028762017 0 0.1707537611856762 -0.42025639579614399 0 0.1707537611856762 -0.42025639579614399 0 0.18208318357215769 -0.41513112401732161 0 0.18016681342343119 -0.42831328727138829 0 0.17069508789656651 -0.40509105823374641 0 0.1707537611856762 -0.42025639579614399 0 0.18208318357215769 -0.41513112401732161 0 0.18429965950567681 -0.40043180152979141 0 0.17069508789656651 -0.40509105823374641 0 0.18208318357215769 -0.41513112401732161 0 0.18957177006676759 -0.41155416557530239 0 0.18429965950567681 -0.40043180152979141 0 0.18208318357215769 -0.41513112401732161 0 0.1935463351267416 -0.42333533609237373 0 0.18208318357215769 -0.41513112401732161 0 0.18016681342343119 -0.42831328727138829 0 0.1707537611856762 -0.42025639579614399 0 0.18016681342343119 -0.42831328727138829 0 0.17416198969715641 -0.43632556109815851 0 0.19056462480476619 -0.4372130613046678 0 0.18016681342343119 -0.42831328727138829 0 0.17416198969715641 -0.43632556109815851 0 0.19056462480476619 -0.4372130613046678 0 0.18016681342343119 -0.42831328727138829 0 0.1707537611856762 -0.42025639579614399 0 0.18016681342343119 -0.42831328727138829 0 0.19056462480476619 -0.4372130613046678 0 0.17416198969715641 -0.43632556109815851 0 0.18030320322362581 -0.44994646081668788 0 0.17416198969715641 -0.43632556109815851 0 0.18030320322362581 -0.44994646081668788 0 0.16403986999473821 -0.44403110754456671 0 0.18030320322362581 -0.44994646081668788 0 0.1866985158824534 -0.46582595997398041 0 0.16915162383326071 -0.46171692760674482 0 0.16915162383326071 -0.46171692760674482 0 0.14679290329116479 -0.45327630519587869 0 0.16017499077284469 -0.47807968510701931 0 0.18030320322362581 -0.44994646081668788 0 0.16915162383326071 -0.46171692760674482 0 0.16403986999473821 -0.44403110754456671 0 0.16915162383326071 -0.46171692760674482 0 0.16403986999473821 -0.44403110754456671 0 0.14679290329116479 -0.45327630519587869 0 0.1654182915846685 -0.43286880866480387 0 0.17416198969715641 -0.43632556109815851 0 0.16403986999473821 -0.44403110754456671 0 0.13236798474785899 -0.4320801020831036 0 0.15271754546110339 -0.43086217022034662 0 0.14679290329116479 -0.45327630519587869 0 0.15271754546110339 -0.43086217022034662 0 0.16403986999473821 -0.44403110754456671 0 0.14679290329116479 -0.45327630519587869 0 0.13236798474785899 -0.4320801020831036 0 0.14679290329116479 -0.45327630519587869 0 0.1165120425055826 -0.45007748601683578 0 0.14679290329116479 -0.45327630519587869 0 0.13256631944061689 -0.47353199882060321 0 0.1165120425055826 -0.45007748601683578 0 0.14679290329116479 -0.45327630519587869 0 0.13256631944061689 -0.47353199882060321 0 0.16017499077284469 -0.47807968510701931 0 0.13256631944061689 -0.47353199882060321 0 0.16017499077284469 -0.47807968510701931 0 0.13256631944061689 -0.47353199882060321 0 0.14556110757357729 -0.5 0 0.16017499077284469 -0.47807968510701931 0 0.13256631944061689 -0.47353199882060321 0 0.14556110757357729 -0.5 0 0.1185973359067375 -0.5 0 0.14556110757357729 -0.5 0 0.16017499077284469 -0.47807968510701931 0 0.17252487924041721 -0.5 0 0.16017499077284469 -0.47807968510701931 0 0.17681095780232109 -0.47878492341120249 0 0.17252487924041721 -0.5 0 0.16915162383326071 -0.46171692760674482 0 0.16017499077284469 -0.47807968510701931 0 0.17681095780232109 -0.47878492341120249 0 0.1866985158824534 -0.46582595997398041 0 0.16915162383326071 -0.46171692760674482 0 0.17681095780232109 -0.47878492341120249 0 0.19423597600606349 -0.48322803238544781 0 0.1866985158824534 -0.46582595997398041 0 0.17681095780232109 -0.47878492341120249 0 0.19423597600606349 -0.48322803238544781 0 0.17681095780232109 -0.47878492341120249 0 0.17252487924041721 -0.5 0 0.064669792573057938 -0.5 0 0.073482986649123075 -0.48354322286074469 0 0.083266912202788812 -0.4916864643988722 0 0.064669792573057938 -0.5 0 0.073482986649123075 -0.48354322286074469 0 0.057503398884302372 -0.48180981277180962 0 0.073482986649123075 -0.48354322286074469 0 0.077348976776161121 -0.46443662624777088 0 0.057503398884302372 -0.48180981277180962 0 0.085815385158856478 -0.48017034412798792 0 0.10495764810838901 -0.46898431253418699 0 0.077348976776161121 -0.46443662624777088 0 0.073482986649123075 -0.48354322286074469 0 0.085815385158856478 -0.48017034412798792 0 0.077348976776161121 -0.46443662624777088 0 0.085815385158856478 -0.48017034412798792 0 0.077348976776161121 -0.46443662624777088 0 0.085815385158856478 -0.48017034412798792 0 0.094281793541551945 -0.49590406200820469 0 0.098503794595809796 -0.48257565346437808 0 0.085815385158856478 -0.48017034412798792 0 0.083266912202788812 -0.4916864643988722 0 0.094281793541551945 -0.49590406200820469 0 0.064669792573057938 -0.5 0 0.083266912202788812 -0.4916864643988722 0 0.091633564239897658 -0.5 0 0.085815385158856478 -0.48017034412798792 0 0.094281793541551945 -0.49590406200820469 0 0.073482986649123075 -0.48354322286074469 0 0.085815385158856478 -0.48017034412798792 0 0.083266912202788812 -0.4916864643988722 0 0.083266912202788812 -0.4916864643988722 0 0.091633564239897658 -0.5 0 0.094281793541551945 -0.49590406200820469 0 0.091633564239897658 -0.5 0 0.094281793541551945 -0.49590406200820469 0 0.1185973359067375 -0.5 0 0.094281793541551945 -0.49590406200820469 0 0.1089603515744418 -0.48524389518713251 0 0.1185973359067375 -0.5 0 0.094281793541551945 -0.49590406200820469 0 0.1089603515744418 -0.48524389518713251 0 0.098503794595809796 -0.48257565346437808 0 0.13256631944061689 -0.47353199882060321 0 0.1089603515744418 -0.48524389518713251 0 0.1185973359067375 -0.5 0 0.13256631944061689 -0.47353199882060321 0 0.1089603515744418 -0.48524389518713251 0 0.10495764810838901 -0.46898431253418699 0 0.13256631944061689 -0.47353199882060321 0 0.10495764810838901 -0.46898431253418699 0 0.085815385158856478 -0.48017034412798792 0 0.10495764810838901 -0.46898431253418699 0 0.098503794595809796 -0.48257565346437808 0 0.1089603515744418 -0.48524389518713251 0 0.10495764810838901 -0.46898431253418699 0 0.098503794595809796 -0.48257565346437808 0 0.10495764810838901 -0.46898431253418699 0 0.095521759526218553 -0.45477485806521839 0 0.1165120425055826 -0.45007748601683578 0 0.13256631944061689 -0.47353199882060321 0 0.10495764810838901 -0.46898431253418699 0 0.1165120425055826 -0.45007748601683578 0 0.095521759526218553 -0.45477485806521839 0 0.1165120425055826 -0.45007748601683578 0 0.096374452647536371 -0.44083359108276088 0 0.1165120425055826 -0.45007748601683578 0 0.096374452647536371 -0.44083359108276088 0 0.1127808571991455 -0.4296543799334604 0 0.096374452647536371 -0.44083359108276088 0 0.082415677593423609 -0.44954227444453743 0 0.081565946661028801 -0.43646236999440441 0 0.095521759526218553 -0.45477485806521839 0 0.096374452647536371 -0.44083359108276088 0 0.082415677593423609 -0.44954227444453743 0 0.10495764810838901 -0.46898431253418699 0 0.095521759526218553 -0.45477485806521839 0 0.077348976776161121 -0.46443662624777088 0 0.10495764810838901 -0.46898431253418699 0 0.077348976776161121 -0.46443662624777088 0 0.095521759526218553 -0.45477485806521839 0 0.082415677593423609 -0.44954227444453743 0 0.077348976776161121 -0.46443662624777088 0 0.077348976776161121 -0.46443662624777088 0 0.051242482520751517 -0.46013637780469779 0 0.077348976776161121 -0.46443662624777088 0 0.067388181241293699 -0.44592578437432112 0 0.057552540075833457 -0.4492743474086181 0 0.082415677593423609 -0.44954227444453743 0 0.077348976776161121 -0.46443662624777088 0 0.067388181241293699 -0.44592578437432112 0 0.077348976776161121 -0.46443662624777088 0 0.067388181241293699 -0.44592578437432112 0 0.067388181241293699 -0.44592578437432112 0 0.070672480071486549 -0.43138793844979301 0 0.081565946661028801 -0.43646236999440441 0 0.082415677593423609 -0.44954227444453743 0 0.067388181241293699 -0.44592578437432112 0 0.081565946661028801 -0.43646236999440441 0 0.067388181241293699 -0.44592578437432112 0 0.070672480071486549 -0.43138793844979301 0 0.057427385706426387 -0.42741494250087131 0 0.070672480071486549 -0.43138793844979301 0 0.069453759390988398 -0.42132800350128169 0 0.081058420200321543 -0.42205729375234818 0 0.070672480071486549 -0.43138793844979301 0 0.081058420200321543 -0.42205729375234818 0 0.081565946661028801 -0.43646236999440441 0 0.070672480071486549 -0.43138793844979301 0 0.069453759390988398 -0.42132800350128169 0 0.057427385706426387 -0.42741494250087131 0 0.069453759390988398 -0.42132800350128169 0 0.063197636832914461 -0.41168556435856762 0 0.057427385706426387 -0.42741494250087131 0 0.069453759390988398 -0.42132800350128169 0 0.063197636832914461 -0.41168556435856762 0 0.07537104025945629 -0.41127886957325749 0 0.063197636832914461 -0.41168556435856762 0 0.07537104025945629 -0.41127886957325749 0 0.065904144164286402 -0.40073968962640599 0 0.069453759390988398 -0.42132800350128169 0 0.07537104025945629 -0.41127886957325749 0 0.081058420200321543 -0.42205729375234818 0 0.087592263100537152 -0.41333200467089393 0 0.103276441771791 -0.41222420610713378 0 0.080323285112314208 -0.39783767840101419 0 0.07537104025945629 -0.41127886957325749 0 0.087592263100537152 -0.41333200467089393 0 0.081058420200321543 -0.42205729375234818 0 0.07537104025945629 -0.41127886957325749 0 0.087592263100537152 -0.41333200467089393 0 0.080323285112314208 -0.39783767840101419 0 0.087592263100537152 -0.41333200467089393 0 0.081058420200321543 -0.42205729375234818 0 0.094382988918007435 -0.42570981921973872 0 0.081058420200321543 -0.42205729375234818 0 0.081565946661028801 -0.43646236999440441 0 0.094382988918007435 -0.42570981921973872 0 0.096374452647536371 -0.44083359108276088 0 0.081565946661028801 -0.43646236999440441 0 0.094382988918007435 -0.42570981921973872 0 0.096374452647536371 -0.44083359108276088 0 0.094382988918007435 -0.42570981921973872 0 0.1127808571991455 -0.4296543799334604 0 0.094382988918007435 -0.42570981921973872 0 0.1127808571991455 -0.4296543799334604 0 0.103276441771791 -0.41222420610713378 0 0.1275392518666742 -0.41040709911348211 0 0.13236798474785899 -0.4320801020831036 0 0.1127808571991455 -0.4296543799334604 0 0.13236798474785899 -0.4320801020831036 0 0.1165120425055826 -0.45007748601683578 0 0.1127808571991455 -0.4296543799334604 0 0.1275392518666742 -0.41040709911348211 0 0.1127808571991455 -0.4296543799334604 0 0.103276441771791 -0.41222420610713378 0 0.1275392518666742 -0.41040709911348211 0 0.103276441771791 -0.41222420610713378 0 0.1146079743113428 -0.40063540382647722 0 0.087592263100537152 -0.41333200467089393 0 0.094382988918007435 -0.42570981921973872 0 0.103276441771791 -0.41222420610713378 0 0.11225135958835029 -0.38459949614894079 0 0.090121392588904878 -0.40264251335670831 0 0.103276441771791 -0.41222420610713378 0 0.1146079743113428 -0.40063540382647722 0 0.090121392588904878 -0.40264251335670831 0 0.1146079743113428 -0.40063540382647722 0 0.11225135958835029 -0.38459949614894079 0 0.090121392588904878 -0.40264251335670831 0 0.11225135958835029 -0.38459949614894079 0 0.090046346877513533 -0.39022311475335431 0 0.090121392588904878 -0.40264251335670831 0 0.13113203394749609 -0.38634306477909652 0 0.1275392518666742 -0.41040709911348211 0 0.1146079743113428 -0.40063540382647722 0 0.13113203394749609 -0.38634306477909652 0 0.1146079743113428 -0.40063540382647722 0 0.11225135958835029 -0.38459949614894079 0 0.11225135958835029 -0.38459949614894079 0 0.1164194778774393 -0.36846460229955258 0 0.10535563716808841 -0.37291171108179039 0 0.1343813265877957 -0.36655647894117332 0 0.11225135958835029 -0.38459949614894079 0 0.11225135958835029 -0.38459949614894079 0 0.094532604022814132 -0.38062266971243042 0 0.090046346877513533 -0.39022311475335431 0 0.11225135958835029 -0.38459949614894079 0 0.094532604022814132 -0.38062266971243042 0 0.10535563716808841 -0.37291171108179039 0 0.090046346877513533 -0.39022311475335431 0 0.080323285112314208 -0.39783767840101419 0 0.075348087539126807 -0.38027170932982612 0 0.094532604022814132 -0.38062266971243042 0 0.090046346877513533 -0.39022311475335431 0 0.075348087539126807 -0.38027170932982612 0 0.103276441771791 -0.41222420610713378 0 0.080323285112314208 -0.39783767840101419 0 0.103276441771791 -0.41222420610713378 0 0.090121392588904878 -0.40264251335670831 0 0.080323285112314208 -0.39783767840101419 0 0.090046346877513533 -0.39022311475335431 0 0.090121392588904878 -0.40264251335670831 0 0.080323285112314208 -0.39783767840101419 0 0.080323285112314208 -0.39783767840101419 0 0.057370128452837461 -0.38345115069489472 0 0.080323285112314208 -0.39783767840101419 0 0.065904144164286402 -0.40073968962640599 0 0.057370128452837461 -0.38345115069489472 0 0.07537104025945629 -0.41127886957325749 0 0.080323285112314208 -0.39783767840101419 0 0.065904144164286402 -0.40073968962640599 0 0.080323285112314208 -0.39783767840101419 0 0.075348087539126807 -0.38027170932982612 0 0.057370128452837461 -0.38345115069489472 0 0.075348087539126807 -0.38027170932982612 0 0.057370128452837461 -0.38345115069489472 0 0.054790370134846618 -0.36863202799171441 0 0.057370128452837461 -0.38345115069489472 0 0.053258630163909623 -0.39944518510429639 0 0.03648623183049516 -0.38634923032409763 0 0.065904144164286402 -0.40073968962640599 0 0.057370128452837461 -0.38345115069489472 0 0.053258630163909623 -0.39944518510429639 0 0.063197636832914461 -0.41168556435856762 0 0.065904144164286402 -0.40073968962640599 0 0.053258630163909623 -0.39944518510429639 0 0.037116576613720427 -0.4033599238575078 0 0.03648623183049516 -0.38634923032409763 0 0.024027326783822269 -0.40013115343717409 0 0.053258630163909623 -0.39944518510429639 0 0.037116576613720427 -0.4033599238575078 0 0.0484010307177948 -0.41220862853282919 0 0.053258630163909623 -0.39944518510429639 0 0.037116576613720427 -0.4033599238575078 0 0.03648623183049516 -0.38634923032409763 0 0.057370128452837461 -0.38345115069489472 0 0.03648623183049516 -0.38634923032409763 0 0.034416971793360729 -0.36906462298877513 0 0.057370128452837461 -0.38345115069489472 0 0.034416971793360729 -0.36906462298877513 0 0.03648623183049516 -0.38634923032409763 0 0.026928145752174171 -0.3780649163897768 0 0.034416971793360729 -0.36906462298877513 0 0.03648623183049516 -0.38634923032409763 0 0.026928145752174171 -0.3780649163897768 0 0.019877023345726368 -0.38645355421610189 0 0.026928145752174171 -0.3780649163897768 0 0.019877023345726368 -0.38645355421610189 0 0.01751032442041971 -0.37165764980072052 0 0.019877023345726368 -0.38645355421610189 0 0.0071643725519175668 -0.38188275708451119 0 0.01751032442041971 -0.37165764980072052 0 0.019877023345726368 -0.38645355421610189 0 0.0071643725519175668 -0.38188275708451119 0 0.0122958935085859 -0.39410727258189449 0 -0.0015159538051878281 -0.39394525353661852 0 0.0071643725519175668 -0.38188275708451119 0 0.0122958935085859 -0.39410727258189449 0 -0.0075572719349759621 -0.37649869444358169 0 0.0071643725519175668 -0.38188275708451119 0 0.0035412142629109009 -0.36697260963372241 0 -0.0015159538051878281 -0.39394525353661852 0 -0.0019778635458290168 -0.39713890466688878 0 0.0063834234806573811 -0.41675765137015403 0 -0.0015159538051878281 -0.39394525353661852 0 0.0063834234806573811 -0.41675765137015403 0 -0.0015159538051878281 -0.39394525353661852 0 0.013747007998759541 -0.40827574342650191 0 -0.0015159538051878281 -0.39394525353661852 0 0.0122958935085859 -0.39410727258189449 0 0.013747007998759541 -0.40827574342650191 0 0.03648623183049516 -0.38634923032409763 0 0.019877023345726368 -0.38645355421610189 0 0.024027326783822269 -0.40013115343717409 0 0.0122958935085859 -0.39410727258189449 0 0.024027326783822269 -0.40013115343717409 0 0.013747007998759541 -0.40827574342650191 0 0.019877023345726368 -0.38645355421610189 0 0.0122958935085859 -0.39410727258189449 0 0.024027326783822269 -0.40013115343717409 0 0.0063834234806573811 -0.41675765137015403 0 0.013747007998759541 -0.40827574342650191 0 0.029009969802707081 -0.42260623331638503 0 0.024027326783822269 -0.40013115343717409 0 0.013747007998759541 -0.40827574342650191 0 0.029009969802707081 -0.42260623331638503 0 0.037116576613720427 -0.4033599238575078 0 0.024027326783822269 -0.40013115343717409 0 0.029009969802707081 -0.42260623331638503 0 0.013747007998759541 -0.40827574342650191 0 0.029009969802707081 -0.42260623331638503 0 -0.0015159538051878281 -0.39394525353661852 0 0.0063834234806573811 -0.41675765137015403 0 0.013747007998759541 -0.40827574342650191 0 -0.0067188233582789816 -0.40739092672384841 0 0.0063834234806573811 -0.41675765137015403 0 0.0031016059069773122 -0.4294988458358488 0 0.0063834234806573811 -0.41675765137015403 0 0.014282800766502259 -0.43957004920368958 0 0.0063834234806573811 -0.41675765137015403 0 0.0031016059069773122 -0.4294988458358488 0 0.014282800766502259 -0.43957004920368958 0 0.029009969802707081 -0.42260623331638503 0 0.030798294916812938 -0.44344304005463281 0 0.014282800766502259 -0.43957004920368958 0 0.0063834234806573811 -0.41675765137015403 0 0.029009969802707081 -0.42260623331638503 0 0.014282800766502259 -0.43957004920368958 0 0.029009969802707081 -0.42260623331638503 0 0.044272931606654659 -0.43693672320626831 0 0.030798294916812938 -0.44344304005463281 0 0.029009969802707081 -0.42260623331638503 0 0.044272931606654659 -0.43693672320626831 0 0.029009969802707081 -0.42260623331638503 0 0.044272931606654659 -0.43693672320626831 0 0.044901460116357698 -0.42467534496416393 0 0.037116576613720427 -0.4033599238575078 0 0.029009969802707081 -0.42260623331638503 0 0.0484010307177948 -0.41220862853282919 0 0.029009969802707081 -0.42260623331638503 0 0.044901460116357698 -0.42467534496416393 0 0.0484010307177948 -0.41220862853282919 0 0.044901460116357698 -0.42467534496416393 0 0.0484010307177948 -0.41220862853282919 0 0.057427385706426387 -0.42741494250087131 0 0.063197636832914461 -0.41168556435856762 0 0.0484010307177948 -0.41220862853282919 0 0.057427385706426387 -0.42741494250087131 0 0.063197636832914461 -0.41168556435856762 0 0.053258630163909623 -0.39944518510429639 0 0.0484010307177948 -0.41220862853282919 0 0.067388181241293699 -0.44592578437432112 0 0.057427385706426387 -0.42741494250087131 0 0.044272931606654659 -0.43693672320626831 0 0.057427385706426387 -0.42741494250087131 0 0.054308803392388673 -0.44054641482204898 0 0.044272931606654659 -0.43693672320626831 0 0.044901460116357698 -0.42467534496416393 0 0.057427385706426387 -0.42741494250087131 0 0.067388181241293699 -0.44592578437432112 0 0.057427385706426387 -0.42741494250087131 0 0.054308803392388673 -0.44054641482204898 0 0.054308803392388673 -0.44054641482204898 0 0.057552540075833457 -0.4492743474086181 0 0.042871795413709279 -0.44755901876274728 0 0.044272931606654659 -0.43693672320626831 0 0.054308803392388673 -0.44054641482204898 0 0.042871795413709279 -0.44755901876274728 0 0.067388181241293699 -0.44592578437432112 0 0.054308803392388673 -0.44054641482204898 0 0.057552540075833457 -0.4492743474086181 0 0.057552540075833457 -0.4492743474086181 0 0.040507314002733323 -0.47156233619926391 0 0.057552540075833457 -0.4492743474086181 0 0.042871795413709279 -0.44755901876274728 0 0.040507314002733323 -0.47156233619926391 0 0.057552540075833457 -0.4492743474086181 0 0.051242482520751517 -0.46013637780469779 0 0.040507314002733323 -0.47156233619926391 0 0.077348976776161121 -0.46443662624777088 0 0.051242482520751517 -0.46013637780469779 0 0.051900068573295231 -0.47151025794443652 0 0.077348976776161121 -0.46443662624777088 0 0.057552540075833457 -0.4492743474086181 0 0.051242482520751517 -0.46013637780469779 0 0.051242482520751517 -0.46013637780469779 0 0.040507314002733323 -0.47156233619926391 0 0.051900068573295231 -0.47151025794443652 0 0.034089895596400903 -0.4562367105134672 0 0.042871795413709279 -0.44755901876274728 0 0.040507314002733323 -0.47156233619926391 0 0.042871795413709279 -0.44755901876274728 0 0.040507314002733323 -0.47156233619926391 0 0.034089895596400903 -0.4562367105134672 0 0.022182178052347099 -0.46238244703722498 0 0.040507314002733323 -0.47156233619926391 0 0.034089895596400903 -0.4562367105134672 0 0.042871795413709279 -0.44755901876274728 0 0.030798294916812938 -0.44344304005463281 0 0.044272931606654659 -0.43693672320626831 0 0.042871795413709279 -0.44755901876274728 0 0.030798294916812938 -0.44344304005463281 0 0.014282800766502259 -0.43957004920368958 0 0.022182178052347099 -0.46238244703722498 0 0.030798294916812938 -0.44344304005463281 0 0.014282800766502259 -0.43957004920368958 0 0.022182178052347099 -0.46238244703722498 0 0.014282800766502259 -0.43957004920368958 0 0.012922035172233601 -0.45160676494784918 0 0.022182178052347099 -0.46238244703722498 0 0.0031016059069773122 -0.4294988458358488 0 0.012922035172233601 -0.45160676494784918 0 -0.00085677679244291777 -0.44417084653599809 0 0.0031016059069773122 -0.4294988458358488 0 0.012922035172233601 -0.45160676494784918 0 0.0031016059069773122 -0.4294988458358488 0 0.014282800766502259 -0.43957004920368958 0 0.012922035172233601 -0.45160676494784918 0 -0.00085677679244291777 -0.44417084653599809 0 -0.00039121293316641458 -0.45646904567698232 0 0.012922035172233601 -0.45160676494784918 0 -0.00039121293316641458 -0.45646904567698232 0 -0.001756890738855816 -0.47423604232798888 0 0.0096642726156979334 -0.46444223232668352 0 -0.00039121293316641458 -0.45646904567698232 0 0.012922035172233601 -0.45160676494784918 0 0.0096642726156979334 -0.46444223232668352 0 0.012922035172233601 -0.45160676494784918 0 0.0096642726156979334 -0.46444223232668352 0 0.022182178052347099 -0.46238244703722498 0 0.034089895596400903 -0.4562367105134672 0 0.030798294916812938 -0.44344304005463281 0 0.022182178052347099 -0.46238244703722498 0 0.0096642726156979334 -0.46444223232668352 0 0.022182178052347099 -0.46238244703722498 0 0.0153652535259312 -0.47751686164337209 0 0.022182178052347099 -0.46238244703722498 0 0.030081555338192859 -0.48519484487076031 0 0.040507314002733323 -0.47156233619926391 0 0.022182178052347099 -0.46238244703722498 0 0.030081555338192859 -0.48519484487076031 0 0.022182178052347099 -0.46238244703722498 0 0.0153652535259312 -0.47751686164337209 0 0.030081555338192859 -0.48519484487076031 0 -0.001756890738855816 -0.47423604232798888 0 0.0096642726156979334 -0.46444223232668352 0 0.0153652535259312 -0.47751686164337209 0 -0.001756890738855816 -0.47423604232798888 0 0.0153652535259312 -0.47751686164337209 0 0.0055322331112882912 -0.48922459921452538 0 0.0153652535259312 -0.47751686164337209 0 0.0055322331112882912 -0.48922459921452538 0 0.018758989691036041 -0.49999999999999989 0 -0.0085657209220548203 -0.5 0 0.0055322331112882912 -0.48922459921452538 0 0.018758989691036041 -0.49999999999999989 0 0.018758989691036041 -0.49999999999999989 0 0.030081555338192859 -0.48519484487076031 0 0.03520821966319844 -0.49999999999998213 0 0.0153652535259312 -0.47751686164337209 0 0.018758989691036041 -0.49999999999999989 0 0.030081555338192859 -0.48519484487076031 0 0.018758989691036041 -0.49999999999999989 0 0.030081555338192859 -0.48519484487076031 0 0.030081555338192859 -0.48519484487076031 0 0.03520821966319844 -0.49999999999998213 0 0.037706020906218218 -0.50000000000000056 0 0.037706020906218218 -0.50000000000000056 0 0.040507314002733323 -0.47156233619926391 0 0.030081555338192859 -0.48519484487076031 0 0.03520821966319844 -0.49999999999998213 0 0.037706020906218218 -0.50000000000000056 0 0.040507314002733323 -0.47156233619926391 0 0.057503398884302372 -0.48180981277180962 0 0.030081555338192859 -0.48519484487076031 0 0.037706020906218218 -0.50000000000000056 0 0.040507314002733323 -0.47156233619926391 0 0.030081555338192859 -0.48519484487076031 0 0.040507314002733323 -0.47156233619926391 0 0.040507314002733323 -0.47156233619926391 0 0.057503398884302372 -0.48180981277180962 0 0.051900068573295231 -0.47151025794443652 0 0.077348976776161121 -0.46443662624777088 0 0.057503398884302372 -0.48180981277180962 0 0.051900068573295231 -0.47151025794443652 0 0.064669792573057938 -0.5 0 0.037706020906218218 -0.50000000000000056 0 0.057503398884302372 -0.48180981277180962 0 0.088841248054252309 -0.28754563057147142 0 0.08925946722801012 -0.30923058791549812 0 0.074452550344005067 -0.30256438433946481 0 0.08925946722801012 -0.30923058791549812 0 0.074452550344005067 -0.30256438433946481 0 0.074298928207023579 -0.31943810892174929 0 0.074452550344005067 -0.30256438433946481 0 0.074298928207023579 -0.31943810892174929 0 0.056927943826482377 -0.30860284715570968 0 0.074452550344005067 -0.30256438433946481 0 0.062935164404257019 -0.28800474713289559 0 0.056927943826482377 -0.30860284715570968 0 0.088841248054252309 -0.28754563057147142 0 0.062935164404257019 -0.28800474713289559 0 0.076267738980467875 -0.27175239557403241 0 0.088841248054252309 -0.28754563057147142 0 0.074452550344005067 -0.30256438433946481 0 0.062935164404257019 -0.28800474713289559 0 0.062935164404257019 -0.28800474713289559 0 0.076267738980467875 -0.27175239557403241 0 0.061800805684101831 -0.26335922054748051 0 0.061800805684101831 -0.26335922054748051 0 0.054694275298176727 -0.23988253662446871 0 0.073355428807057935 -0.2470476318814433 0 0.076267738980467875 -0.27175239557403241 0 0.061800805684101831 -0.26335922054748051 0 0.073355428807057935 -0.2470476318814433 0 0.091706975807796659 -0.26314261310895559 0 0.094572703561341426 -0.23873959564643979 0 0.076267738980467875 -0.27175239557403241 0 0.091706975807796659 -0.26314261310895559 0 0.073355428807057935 -0.2470476318814433 0 0.088841248054252309 -0.28754563057147142 0 0.091706975807796659 -0.26314261310895559 0 0.088841248054252309 -0.28754563057147142 0 0.076267738980467875 -0.27175239557403241 0 0.091706975807796659 -0.26314261310895559 0 0.088841248054252309 -0.28754563057147142 0 0.1017388855570915 -0.26880134509430298 0 0.10617772108193491 -0.27942947757764119 0 0.1017388855570915 -0.26880134509430298 0 0.10617772108193491 -0.27942947757764119 0 0.10919393787671119 -0.26002167221818628 0 0.10617772108193491 -0.27942947757764119 0 0.10919393787671119 -0.26002167221818628 0 0.088841248054252309 -0.28754563057147142 0 0.091706975807796659 -0.26314261310895559 0 0.1017388855570915 -0.26880134509430298 0 0.10919393787671119 -0.26002167221818628 0 0.110380179969193 -0.25238881383743428 0 0.094572703561341426 -0.23873959564643979 0 0.091706975807796659 -0.26314261310895559 0 0.1017388855570915 -0.26880134509430298 0 0.10919393787671119 -0.26002167221818628 0 0.091706975807796659 -0.26314261310895559 0 0.10919393787671119 -0.26002167221818628 0 0.094572703561341426 -0.23873959564643979 0 0.1216510438795569 -0.26534861800596082 0 0.12629816317163689 -0.23799161899509089 0 0.110380179969193 -0.25238881383743428 0 0.1216510438795569 -0.26534861800596082 0 0.12629816317163689 -0.23799161899509089 0 0.10919393787671119 -0.26002167221818628 0 0.110380179969193 -0.25238881383743428 0 0.10919393787671119 -0.26002167221818628 0 0.110380179969193 -0.25238881383743428 0 0.1216510438795569 -0.26534861800596082 0 0.110380179969193 -0.25238881383743428 0 0.1216510438795569 -0.26534861800596082 0 0.10919393787671119 -0.26002167221818628 0 0.11285594205942399 -0.27621036752166178 0 0.1199070558997665 -0.2756152529768921 0 0.10617772108193491 -0.27942947757764119 0 0.10919393787671119 -0.26002167221818628 0 0.11285594205942399 -0.27621036752166178 0 0.10617772108193491 -0.27942947757764119 0 0.11285594205942399 -0.27621036752166178 0 0.11181881576460539 -0.28502751746682842 0 0.11285594205942399 -0.27621036752166178 0 0.1192698027901965 -0.27936668081689109 0 0.11181881576460539 -0.28502751746682842 0 0.10919393787671119 -0.26002167221818628 0 0.1199070558997665 -0.2756152529768921 0 0.10919393787671119 -0.26002167221818628 0 0.1216510438795569 -0.26534861800596082 0 0.1199070558997665 -0.2756152529768921 0 0.12869775419521359 -0.27345127867594482 0 0.1216510438795569 -0.26534861800596082 0 0.1199070558997665 -0.2756152529768921 0 0.1216510438795569 -0.26534861800596082 0 0.1199070558997665 -0.2756152529768921 0 0.1192698027901965 -0.27936668081689109 0 0.1217119657739448 -0.27824240669857869 0 0.11181881576460539 -0.28502751746682842 0 0.12869775419521359 -0.27345127867594482 0 0.1199070558997665 -0.2756152529768921 0 0.1217119657739448 -0.27824240669857869 0 0.11285594205942399 -0.27621036752166178 0 0.1199070558997665 -0.2756152529768921 0 0.1192698027901965 -0.27936668081689109 0 0.1199070558997665 -0.2756152529768921 0 0.1217119657739448 -0.27824240669857869 0 0.1199070558997665 -0.2756152529768921 0 0.1192698027901965 -0.27936668081689109 0 0.1199070558997665 -0.2756152529768921 0 0.1192698027901965 -0.27936668081689109 0 0.1217119657739448 -0.27824240669857869 0 0.1217119657739448 -0.27824240669857869 0 0.1215480224228756 -0.29147622864376582 0 0.11181881576460539 -0.28502751746682842 0 0.12566154821000311 -0.30243398926056081 0 0.1215480224228756 -0.29147622864376582 0 0.1141427982532429 -0.29590201854204251 0 0.1215480224228756 -0.29147622864376582 0 0.1141427982532429 -0.29590201854204251 0 0.11181881576460539 -0.28502751746682842 0 0.1141427982532429 -0.29590201854204251 0 0.11181881576460539 -0.28502751746682842 0 0.1031615042871617 -0.29883728293709649 0 0.1217119657739448 -0.27824240669857869 0 0.11181881576460539 -0.28502751746682842 0 0.10617772108193491 -0.27942947757764119 0 0.11181881576460539 -0.28502751746682842 0 0.1031615042871617 -0.29883728293709649 0 0.088841248054252309 -0.28754563057147142 0 0.10617772108193491 -0.27942947757764119 0 0.1031615042871617 -0.29883728293709649 0 0.10617772108193491 -0.27942947757764119 0 0.1031615042871617 -0.29883728293709649 0 0.088841248054252309 -0.28754563057147142 0 0.08925946722801012 -0.30923058791549812 0 0.1031615042871617 -0.29883728293709649 0 0.1031615042871617 -0.29883728293709649 0 0.1173664027659666 -0.30604109350947462 0 0.1056722698941675 -0.31783682442199118 0 0.08925946722801012 -0.30923058791549812 0 0.1031615042871617 -0.29883728293709649 0 0.1056722698941675 -0.31783682442199118 0 0.1141427982532429 -0.29590201854204251 0 0.1031615042871617 -0.29883728293709649 0 0.1173664027659666 -0.30604109350947462 0 0.12566154821000311 -0.30243398926056081 0 0.1141427982532429 -0.29590201854204251 0 0.1173664027659666 -0.30604109350947462 0 0.1304157201778631 -0.31455018048044359 0 0.12566154821000311 -0.30243398926056081 0 0.1173664027659666 -0.30604109350947462 0 0.1304157201778631 -0.31455018048044359 0 0.1173664027659666 -0.30604109350947462 0 0.1196153766217003 -0.31834555168308359 0 0.1173664027659666 -0.30604109350947462 0 0.1196153766217003 -0.31834555168308359 0 0.1056722698941675 -0.31783682442199118 0 0.1196153766217003 -0.31834555168308359 0 0.1158473901860272 -0.32904281754962578 0 0.1056722698941675 -0.31783682442199118 0 0.12763385932923721 -0.32818683299039292 0 0.1196153766217003 -0.31834555168308359 0 0.1158473901860272 -0.32904281754962578 0 0.12763385932923721 -0.32818683299039292 0 0.1205498513969674 -0.34280919855657882 0 0.1158473901860272 -0.32904281754962578 0 0.1205498513969674 -0.34280919855657882 0 0.1158473901860272 -0.32904281754962578 0 0.1035710803367742 -0.33854656298411828 0 0.1158473901860272 -0.32904281754962578 0 0.1035710803367742 -0.33854656298411828 0 0.1056722698941675 -0.31783682442199118 0 0.08925946722801012 -0.30923058791549812 0 0.1056722698941675 -0.31783682442199118 0 0.091046253812183883 -0.32530781583322849 0 0.1035710803367742 -0.33854656298411828 0 0.1056722698941675 -0.31783682442199118 0 0.091046253812183883 -0.32530781583322849 0 0.12753577774158109 -0.35723144939643259 0 0.1164194778774393 -0.36846460229955258 0 0.098219107183749849 -0.35796007616623798 0 0.1343813265877957 -0.36655647894117332 0 0.11225135958835029 -0.38459949614894079 0 0.1164194778774393 -0.36846460229955258 0 0.12753577774158109 -0.35723144939643259 0 0.1205498513969674 -0.34280919855657882 0 0.098219107183749849 -0.35796007616623798 0 0.12753577774158109 -0.35723144939643259 0 0.098219107183749849 -0.35796007616623798 0 0.1205498513969674 -0.34280919855657882 0 0.1035710803367742 -0.33854656298411828 0 0.098219107183749849 -0.35796007616623798 0 0.1035710803367742 -0.33854656298411828 0 0.098219107183749849 -0.35796007616623798 0 0.082429523394943957 -0.34148699492278561 0 0.1164194778774393 -0.36846460229955258 0 0.098219107183749849 -0.35796007616623798 0 0.10535563716808841 -0.37291171108179039 0 0.094532604022814132 -0.38062266971243042 0 0.098219107183749849 -0.35796007616623798 0 0.10535563716808841 -0.37291171108179039 0 0.075348087539126807 -0.38027170932982612 0 0.098219107183749849 -0.35796007616623798 0 0.068902436625918551 -0.35868870293604349 0 0.094532604022814132 -0.38062266971243042 0 0.075348087539126807 -0.38027170932982612 0 0.098219107183749849 -0.35796007616623798 0 0.098219107183749849 -0.35796007616623798 0 0.068902436625918551 -0.35868870293604349 0 0.098219107183749849 -0.35796007616623798 0 0.068902436625918551 -0.35868870293604349 0 0.082429523394943957 -0.34148699492278561 0 0.068902436625918551 -0.35868870293604349 0 0.082429523394943957 -0.34148699492278561 0 0.058669042170628252 -0.34288247773910829 0 0.075348087539126807 -0.38027170932982612 0 0.068902436625918551 -0.35868870293604349 0 0.054790370134846618 -0.36863202799171441 0 0.08925946722801012 -0.30923058791549812 0 0.091046253812183883 -0.32530781583322849 0 0.074298928207023579 -0.31943810892174929 0 0.091046253812183883 -0.32530781583322849 0 0.082429523394943957 -0.34148699492278561 0 0.074298928207023579 -0.31943810892174929 0 0.1035710803367742 -0.33854656298411828 0 0.091046253812183883 -0.32530781583322849 0 0.082429523394943957 -0.34148699492278561 0 0.082429523394943957 -0.34148699492278561 0 0.074298928207023579 -0.31943810892174929 0 0.058669042170628252 -0.34288247773910829 0 0.074298928207023579 -0.31943810892174929 0 0.050538430793637713 -0.32830905795228038 0 0.056927943826482377 -0.30860284715570968 0 0.074298928207023579 -0.31943810892174929 0 0.050538430793637713 -0.32830905795228038 0 0.050538430793637713 -0.32830905795228038 0 0.041059604151233588 -0.31309427197840728 0 0.056927943826482377 -0.30860284715570968 0 0.050538430793637713 -0.32830905795228038 0 0.058669042170628252 -0.34288247773910829 0 0.040628219749842973 -0.34430896590540427 0 0.074298928207023579 -0.31943810892174929 0 0.050538430793637713 -0.32830905795228038 0 0.058669042170628252 -0.34288247773910829 0 0.050538430793637713 -0.32830905795228038 0 0.03096342670624504 -0.32111712144304833 0 0.02677793338025182 -0.33718000698281142 0 0.050538430793637713 -0.32830905795228038 0 0.040628219749842973 -0.34430896590540427 0 0.02677793338025182 -0.33718000698281142 0 0.050538430793637713 -0.32830905795228038 0 0.02677793338025182 -0.33718000698281142 0 0.041059604151233588 -0.31309427197840728 0 0.03096342670624504 -0.32111712144304833 0 0.0219646249896089 -0.30476809359963369 0 0.050538430793637713 -0.32830905795228038 0 0.041059604151233588 -0.31309427197840728 0 0.03096342670624504 -0.32111712144304833 0 0.068902436625918551 -0.35868870293604349 0 0.054790370134846618 -0.36863202799171441 0 0.039585766068087128 -0.35941732970584889 0 0.057370128452837461 -0.38345115069489472 0 0.054790370134846618 -0.36863202799171441 0 0.034416971793360729 -0.36906462298877513 0 0.068902436625918551 -0.35868870293604349 0 0.039585766068087128 -0.35941732970584889 0 0.068902436625918551 -0.35868870293604349 0 0.058669042170628252 -0.34288247773910829 0 0.039585766068087128 -0.35941732970584889 0 0.058669042170628252 -0.34288247773910829 0 0.040628219749842973 -0.34430896590540427 0 0.039585766068087128 -0.35941732970584889 0 0.040628219749842973 -0.34430896590540427 0 0.02939036459314508 -0.35140357960924867 0 0.02677793338025182 -0.33718000698281142 0 0.040628219749842973 -0.34430896590540427 0 0.039585766068087128 -0.35941732970584889 0 0.02939036459314508 -0.35140357960924867 0 0.039585766068087128 -0.35941732970584889 0 0.028714229397119231 -0.35864090689663197 0 0.02939036459314508 -0.35140357960924867 0 0.054790370134846618 -0.36863202799171441 0 0.039585766068087128 -0.35941732970584889 0 0.034416971793360729 -0.36906462298877513 0 0.039585766068087128 -0.35941732970584889 0 0.034416971793360729 -0.36906462298877513 0 0.028714229397119231 -0.35864090689663197 0 0.034416971793360729 -0.36906462298877513 0 0.01751032442041971 -0.37165764980072052 0 0.011463815133884 -0.35467809528265548 0 0.026928145752174171 -0.3780649163897768 0 0.034416971793360729 -0.36906462298877513 0 0.01751032442041971 -0.37165764980072052 0 0.034416971793360729 -0.36906462298877513 0 0.028714229397119231 -0.35864090689663197 0 0.011463815133884 -0.35467809528265548 0 0.034416971793360729 -0.36906462298877513 0 0.011463815133884 -0.35467809528265548 0 0.02939036459314508 -0.35140357960924867 0 0.011463815133884 -0.35467809528265548 0 0.02677793338025182 -0.33718000698281142 0 0.028714229397119231 -0.35864090689663197 0 0.02939036459314508 -0.35140357960924867 0 0.011463815133884 -0.35467809528265548 0 0.0024528653955408351 -0.34538775859553839 0 0.011463815133884 -0.35467809528265548 0 0.02677793338025182 -0.33718000698281142 0 0.0024528653955408351 -0.34538775859553839 0 0.001105968824724096 -0.3566884490700663 0 0.011463815133884 -0.35467809528265548 0 0.01751032442041971 -0.37165764980072052 0 0.011463815133884 -0.35467809528265548 0 0.0035412142629109009 -0.36697260963372241 0 0.001105968824724096 -0.3566884490700663 0 0.011463815133884 -0.35467809528265548 0 0.0035412142629109009 -0.36697260963372241 0 0.0071643725519175668 -0.38188275708451119 0 0.01751032442041971 -0.37165764980072052 0 0.0035412142629109009 -0.36697260963372241 0 0.03096342670624504 -0.32111712144304833 0 0.015877006255510279 -0.32223201669941293 0 0.0086824183207449973 -0.3400846283967997 0 0.03096342670624504 -0.32111712144304833 0 0.015877006255510279 -0.32223201669941293 0 0.0219646249896089 -0.30476809359963369 0 0.03096342670624504 -0.32111712144304833 0 0.0086824183207449973 -0.3400846283967997 0 0.03096342670624504 -0.32111712144304833 0 0.02677793338025182 -0.33718000698281142 0 0.0086824183207449973 -0.3400846283967997 0 0.0024528653955408351 -0.34538775859553839 0 0.02677793338025182 -0.33718000698281142 0 0.0086824183207449973 -0.3400846283967997 0 -0.0077483855274109387 -0.34116956604877502 0 0.0024528653955408351 -0.34538775859553839 0 0.0086824183207449973 -0.3400846283967997 0 0.015877006255510279 -0.32223201669941293 0 0.0086824183207449973 -0.3400846283967997 0 0.0070093699560254009 -0.32769731074853747 0 0.0024528653955408351 -0.34538775859553839 0 0.02677793338025182 -0.33718000698281142 0 0.0024528653955408351 -0.34538775859553839 0 0.0086824183207449973 -0.3400846283967997 0 -0.0044447892489900718 -0.32969051038175518 0 0.0086824183207449973 -0.3400846283967997 0 0.0070093699560254009 -0.32769731074853747 0 -0.0044447892489900718 -0.32969051038175518 0 0.0070093699560254009 -0.32769731074853747 0 0.0058723819768978468 -0.31694601211133538 0 0.015877006255510279 -0.32223201669941293 0 0.0058723819768978468 -0.31694601211133538 0 0.0219646249896089 -0.30476809359963369 0 0.015877006255510279 -0.32223201669941293 0 0.0070093699560254009 -0.32769731074853747 0 0.0058723819768978468 -0.31694601211133538 0 0.0058723819768978468 -0.31694601211133538 0 0.00031641118386317669 -0.3042045703593983 0 0.0219646249896089 -0.30476809359963369 0 0.00031641118386317669 -0.3042045703593983 0 0.0075055536791457074 -0.29233204768325283 0 0.0219646249896089 -0.30476809359963369 0 -0.0069447964901112672 -0.28563677671735072 0 0.0075055536791457074 -0.29233204768325283 0 0.0071700150999407094 -0.27189152047923321 0 0.0075055536791457074 -0.29233204768325283 0 0.017892289068430978 -0.28296126998593019 0 0.0071700150999407094 -0.27189152047923321 0 -0.0069447964901112672 -0.28563677671735072 0 0.00031641118386317669 -0.3042045703593983 0 0.0075055536791457074 -0.29233204768325283 0 0.017892289068430978 -0.28296126998593019 0 0.038875738718588529 -0.29752351937858962 0 0.03152599439290274 -0.27577596607295279 0 0.017892289068430978 -0.28296126998593019 0 0.0219646249896089 -0.30476809359963369 0 0.038875738718588529 -0.29752351937858962 0 0.0075055536791457074 -0.29233204768325283 0 0.017892289068430978 -0.28296126998593019 0 0.0219646249896089 -0.30476809359963369 0 0.041059604151233588 -0.31309427197840728 0 0.038875738718588529 -0.29752351937858962 0 0.056927943826482377 -0.30860284715570968 0 0.041059604151233588 -0.31309427197840728 0 0.0219646249896089 -0.30476809359963369 0 0.038875738718588529 -0.29752351937858962 0 0.038875738718588529 -0.29752351937858962 0 0.047540759087191103 -0.2803327611346671 0 0.03152599439290274 -0.27577596607295279 0 0.038875738718588529 -0.29752351937858962 0 0.03152599439290274 -0.27577596607295279 0 0.062935164404257019 -0.28800474713289559 0 0.038875738718588529 -0.29752351937858962 0 0.047540759087191103 -0.2803327611346671 0 0.062935164404257019 -0.28800474713289559 0 0.038875738718588529 -0.29752351937858962 0 0.056927943826482377 -0.30860284715570968 0 0.061800805684101831 -0.26335922054748051 0 0.042893672707619721 -0.25029392088765812 0 0.054694275298176727 -0.23988253662446871 0 0.061800805684101831 -0.26335922054748051 0 0.045072132210446487 -0.26584961867390428 0 0.042893672707619721 -0.25029392088765812 0 0.061800805684101831 -0.26335922054748051 0 0.042893672707619721 -0.25029392088765812 0 0.061800805684101831 -0.26335922054748051 0 0.047540759087191103 -0.2803327611346671 0 0.045072132210446487 -0.26584961867390428 0 0.062935164404257019 -0.28800474713289559 0 0.061800805684101831 -0.26335922054748051 0 0.047540759087191103 -0.2803327611346671 0 0.047540759087191103 -0.2803327611346671 0 0.045072132210446487 -0.26584961867390428 0 0.03152599439290274 -0.27577596607295279 0 0.045072132210446487 -0.26584961867390428 0 0.03152599439290274 -0.27577596607295279 0 0.032296795585815427 -0.25825762710925798 0 0.045072132210446487 -0.26584961867390428 0 0.032296795585815427 -0.25825762710925798 0 0.042893672707619721 -0.25029392088765812 0 0.03152599439290274 -0.27577596607295279 0 0.02417625006721693 -0.25402841276731608 0 0.01859067246521982 -0.26637988400692902 0 0.03152599439290274 -0.27577596607295279 0 0.032296795585815427 -0.25825762710925798 0 0.02417625006721693 -0.25402841276731608 0 0.03152599439290274 -0.27577596607295279 0 0.02417625006721693 -0.25402841276731608 0 0.02417625006721693 -0.25402841276731608 0 0.01859067246521982 -0.26637988400692902 0 0.01472545987435829 -0.25385091769452922 0 0.02417625006721693 -0.25402841276731608 0 0.01472545987435829 -0.25385091769452922 0 0.01496555629420095 -0.24481968116939309 0 0.017892289068430978 -0.28296126998593019 0 0.03152599439290274 -0.27577596607295279 0 0.01859067246521982 -0.26637988400692902 0 0.017892289068430978 -0.28296126998593019 0 0.01859067246521982 -0.26637988400692902 0 0.0071700150999407094 -0.27189152047923321 0 0.01859067246521982 -0.26637988400692902 0 0.0071700150999407094 -0.27189152047923321 0 0.006752191916760482 -0.25939899553165929 0 -0.0063989791616554503 -0.26667991422344189 0 0.0071700150999407094 -0.27189152047923321 0 0.006752191916760482 -0.25939899553165929 0 0.01472545987435829 -0.25385091769452922 0 0.006752191916760482 -0.25939899553165929 0 0.0057768166891493111 -0.24666274859870019 0 0.01859067246521982 -0.26637988400692902 0 0.01472545987435829 -0.25385091769452922 0 0.006752191916760482 -0.25939899553165929 0 -0.00368050083723665 -0.25337368755914491 0 0.006752191916760482 -0.25939899553165929 0 0.0057768166891493111 -0.24666274859870019 0 0.01472545987435829 -0.25385091769452922 0 0.0057768166891493111 -0.24666274859870019 0 0.01496555629420095 -0.24481968116939309 0 0.0057768166891493111 -0.24666274859870019 0 0.01496555629420095 -0.24481968116939309 0 0.009298115431778017 -0.23852775356654851 0 0.01496555629420095 -0.24481968116939309 0 0.009298115431778017 -0.23852775356654851 0 0.01682650574153215 -0.2322808594616789 0 0.0057768166891493111 -0.24666274859870019 0 0.009298115431778017 -0.23852775356654851 0 0.0023950332764032349 -0.23684412936952151 0 0.009298115431778017 -0.23852775356654851 0 0.0023950332764032349 -0.23684412936952151 0 0.0065266651576054574 -0.2320313492334484 0 0.01682650574153215 -0.2322808594616789 0 0.014415620519557649 -0.2130095213696887 0 0.0102979620918083 -0.21296320095016699 0 0.01682650574153215 -0.2322808594616789 0 0.0102979620918083 -0.21296320095016699 0 -0.0037859090678201679 -0.21803716759513511 0 0.01682650574153215 -0.2322808594616789 0 0.0102979620918083 -0.21296320095016699 0 0.0065266651576054574 -0.2320313492334484 0 0.00048648352289240582 -0.22285620972316481 0 0.01682650574153215 -0.2322808594616789 0 -0.0037859090678201679 -0.21803716759513511 0 0.00048648352289240582 -0.22285620972316481 0 0.01682650574153215 -0.2322808594616789 0 -2.7250177233395171e-05 -0.2298702989953533 0 0.0065266651576054574 -0.2320313492334484 0 0.00048648352289240582 -0.22285620972316481 0 -0.0037859090678201679 -0.21803716759513511 0 0.01682650574153215 -0.2322808594616789 0 -2.7250177233395171e-05 -0.2298702989953533 0 0.0023950332764032349 -0.23684412936952151 0 0.0065266651576054574 -0.2320313492334484 0 0.009298115431778017 -0.23852775356654851 0 0.0065266651576054574 -0.2320313492334484 0 0.01682650574153215 -0.2322808594616789 0 0.028026784272390928 -0.2253903284795723 0 0.023986539731139438 -0.237228621227833 0 0.039917031278054051 -0.23302410620693281 0 0.023986539731139438 -0.237228621227833 0 0.014415620519557649 -0.2130095213696887 0 0.028026784272390928 -0.2253903284795723 0 0.023986539731139438 -0.237228621227833 0 0.014415620519557649 -0.2130095213696887 0 0.028026784272390928 -0.2253903284795723 0 0.014415620519557649 -0.2130095213696887 0 0.0337879455608101 -0.21829906511383559 0 0.01682650574153215 -0.2322808594616789 0 0.023986539731139438 -0.237228621227833 0 0.014415620519557649 -0.2130095213696887 0 0.032296795585815427 -0.25825762710925798 0 0.02417625006721693 -0.25402841276731608 0 0.023986539731139438 -0.237228621227833 0 0.02417625006721693 -0.25402841276731608 0 0.01496555629420095 -0.24481968116939309 0 0.01682650574153215 -0.2322808594616789 0 0.032296795585815427 -0.25825762710925798 0 0.023986539731139438 -0.237228621227833 0 0.02417625006721693 -0.25402841276731608 0 0.01682650574153215 -0.2322808594616789 0 0.023986539731139438 -0.237228621227833 0 0.02417625006721693 -0.25402841276731608 0 0.01682650574153215 -0.2322808594616789 0 0.01682650574153215 -0.2322808594616789 0 0.023986539731139438 -0.237228621227833 0 0.0048447013079721286 -0.18879042151154579 0 0.014415620519557649 -0.2130095213696887 0 0.0048447013079721286 -0.18879042151154579 0 0.0037694184420872042 -0.19364554243865401 0 0.014415620519557649 -0.2130095213696887 0 0.0037694184420872042 -0.19364554243865401 0 0.003339012976851909 -0.19558891068873779 0 0.0102979620918083 -0.21296320095016699 0 0.0048447013079721286 -0.18879042151154579 0 0.014415620519557649 -0.2130095213696887 0 0.020316237143062809 -0.1933553786962933 0 -0.00081075560289291249 -0.18009301941494149 0 0.0048447013079721286 -0.18879042151154579 0 0.0037694184420872042 -0.19364554243865401 0 0.0048447013079721286 -0.18879042151154579 0 0.0037694184420872042 -0.19364554243865401 0 0.0037694184420872042 -0.19364554243865401 0 0.003339012976851909 -0.19558891068873779 0 -0.003630438674382177 -0.19797922234589849 0 0.003339012976851909 -0.19558891068873779 0 0.001691091907484308 -0.20325462213238549 0 -0.003630438674382177 -0.19797922234589849 0 0.0037694184420872042 -0.19364554243865401 0 0.003339012976851909 -0.19558891068873779 0 0.003339012976851909 -0.19558891068873779 0 0.001691091907484308 -0.20325462213238549 0 0.0102979620918083 -0.21296320095016699 0 0.0037694184420872042 -0.19364554243865401 0 0.0102979620918083 -0.21296320095016699 0 0.0037694184420872042 -0.19364554243865401 0 0.014415620519557649 -0.2130095213696887 0 0.0102979620918083 -0.21296320095016699 0 -0.003242168764340803 -0.2064871545447389 0 0.001691091907484308 -0.20325462213238549 0 0.0102979620918083 -0.21296320095016699 0 -0.0037859090678201679 -0.21803716759513511 0 -0.003242168764340803 -0.2064871545447389 0 0.0102979620918083 -0.21296320095016699 0 0.014415620519557649 -0.2130095213696887 0 0.033463822190299607 -0.20143408271977931 0 0.0337879455608101 -0.21829906511383559 0 0.020316237143062809 -0.1933553786962933 0 0.033463822190299607 -0.20143408271977931 0 0.03082115865331839 -0.18357243204218529 0 0.014415620519557649 -0.2130095213696887 0 0.020316237143062809 -0.1933553786962933 0 0.033463822190299607 -0.20143408271977931 0 0.033463822190299607 -0.20143408271977931 0 0.045842701811148683 -0.1869926903090659 0 0.03082115865331839 -0.18357243204218529 0 0.033463822190299607 -0.20143408271977931 0 0.047198878952829738 -0.20096965170932291 0 0.045842701811148683 -0.1869926903090659 0 0.033463822190299607 -0.20143408271977931 0 0.042690715276097198 -0.21048078979593091 0 0.0337879455608101 -0.21829906511383559 0 0.033463822190299607 -0.20143408271977931 0 0.042690715276097198 -0.21048078979593091 0 0.047198878952829738 -0.20096965170932291 0 0.042690715276097198 -0.21048078979593091 0 0.0337879455608101 -0.21829906511383559 0 0.045801328849237488 -0.221536765992107 0 0.053201600827309098 -0.21016438344460961 0 0.063926614450801292 -0.2124202196295234 0 0.062682219869886646 -0.19232109901391339 0 0.042690715276097198 -0.21048078979593091 0 0.053201600827309098 -0.21016438344460961 0 0.045801328849237488 -0.221536765992107 0 0.053201600827309098 -0.21016438344460961 0 0.045801328849237488 -0.221536765992107 0 0.057906575837822792 -0.2213594740201047 0 0.053201600827309098 -0.21016438344460961 0 0.057906575837822792 -0.2213594740201047 0 0.063926614450801292 -0.2124202196295234 0 0.042690715276097198 -0.21048078979593091 0 0.053201600827309098 -0.21016438344460961 0 0.047198878952829738 -0.20096965170932291 0 0.047198878952829738 -0.20096965170932291 0 0.062682219869886646 -0.19232109901391339 0 0.045842701811148683 -0.1869926903090659 0 0.053201600827309098 -0.21016438344460961 0 0.047198878952829738 -0.20096965170932291 0 0.062682219869886646 -0.19232109901391339 0 0.042893672707619721 -0.25029392088765812 0 0.023986539731139438 -0.237228621227833 0 0.032296795585815427 -0.25825762710925798 0 0.042893672707619721 -0.25029392088765812 0 0.023986539731139438 -0.237228621227833 0 0.042893672707619721 -0.25029392088765812 0 0.039917031278054051 -0.23302410620693281 0 0.054694275298176727 -0.23988253662446871 0 0.042893672707619721 -0.25029392088765812 0 0.023986539731139438 -0.237228621227833 0 0.039917031278054051 -0.23302410620693281 0 0.028026784272390928 -0.2253903284795723 0 0.0337879455608101 -0.21829906511383559 0 0.039917031278054051 -0.23302410620693281 0 0.0337879455608101 -0.21829906511383559 0 0.045801328849237488 -0.221536765992107 0 0.039917031278054051 -0.23302410620693281 0 0.045801328849237488 -0.221536765992107 0 0.039917031278054051 -0.23302410620693281 0 0.05255612438286586 -0.22926844999383819 0 0.039917031278054051 -0.23302410620693281 0 0.05255612438286586 -0.22926844999383819 0 0.054694275298176727 -0.23988253662446871 0 0.045801328849237488 -0.221536765992107 0 0.05255612438286586 -0.22926844999383819 0 0.057906575837822792 -0.2213594740201047 0 0.05255612438286586 -0.22926844999383819 0 0.054694275298176727 -0.23988253662446871 0 0.06446141065103822 -0.23053936712557779 0 0.05255612438286586 -0.22926844999383819 0 0.057906575837822792 -0.2213594740201047 0 0.06446141065103822 -0.23053936712557779 0 0.054694275298176727 -0.23988253662446871 0 0.073355428807057935 -0.2470476318814433 0 0.06446141065103822 -0.23053936712557779 0 0.073355428807057935 -0.2470476318814433 0 0.076546738645812074 -0.2309195086123752 0 0.06446141065103822 -0.23053936712557779 0 0.091706975807796659 -0.26314261310895559 0 0.073355428807057935 -0.2470476318814433 0 0.094572703561341426 -0.23873959564643979 0 0.073355428807057935 -0.2470476318814433 0 0.076546738645812074 -0.2309195086123752 0 0.094572703561341426 -0.23873959564643979 0 0.079764488481322421 -0.2171853574456008 0 0.094572703561341426 -0.23873959564643979 0 0.095041080245392581 -0.23475114824916399 0 0.079764488481322421 -0.2171853574456008 0 0.095041080245392581 -0.23475114824916399 0 0.079764488481322421 -0.2171853574456008 0 0.094572703561341426 -0.23873959564643979 0 0.076546738645812074 -0.2309195086123752 0 0.079764488481322421 -0.2171853574456008 0 0.094572703561341426 -0.23873959564643979 0 0.079764488481322421 -0.2171853574456008 0 0.089335051211168845 -0.21543057274668689 0 0.095041080245392581 -0.23475114824916399 0 0.070579661728299686 -0.22108559096281469 0 0.076546738645812074 -0.2309195086123752 0 0.079764488481322421 -0.2171853574456008 0 0.070579661728299686 -0.22108559096281469 0 0.076546738645812074 -0.2309195086123752 0 0.06446141065103822 -0.23053936712557779 0 0.057906575837822792 -0.2213594740201047 0 0.070579661728299686 -0.22108559096281469 0 0.06446141065103822 -0.23053936712557779 0 0.063926614450801292 -0.2124202196295234 0 0.062682219869886646 -0.19232109901391339 0 0.079764488481322421 -0.2171853574456008 0 0.070579661728299686 -0.22108559096281469 0 0.063926614450801292 -0.2124202196295234 0 0.079764488481322421 -0.2171853574456008 0 0.057906575837822792 -0.2213594740201047 0 0.070579661728299686 -0.22108559096281469 0 0.063926614450801292 -0.2124202196295234 0 0.062682219869886646 -0.19232109901391339 0 0.079764488481322421 -0.2171853574456008 0 0.062682219869886646 -0.19232109901391339 0 0.077978514039925742 -0.1955378737273043 0 0.079764488481322421 -0.2171853574456008 0 0.062682219869886646 -0.19232109901391339 0 0.077978514039925742 -0.1955378737273043 0 0.070098979012229556 -0.1747051148573284 0 0.086179228895686549 -0.20317818686841541 0 0.083050178899954016 -0.1816099499617341 0 0.086370710885636581 -0.20641501988028041 0 0.099007416483352692 -0.18467662584972411 0 0.086370710885636581 -0.20641501988028041 0 0.086179228895686549 -0.20317818686841541 0 0.099007416483352692 -0.18467662584972411 0 0.077978514039925742 -0.1955378737273043 0 0.086179228895686549 -0.20317818686841541 0 0.083050178899954016 -0.1816099499617341 0 0.086179228895686549 -0.20317818686841541 0 0.099007416483352692 -0.18467662584972411 0 0.083050178899954016 -0.1816099499617341 0 0.077978514039925742 -0.1955378737273043 0 0.086370710885636581 -0.20641501988028041 0 0.086179228895686549 -0.20317818686841541 0 0.077978514039925742 -0.1955378737273043 0 0.079764488481322421 -0.2171853574456008 0 0.086370710885636581 -0.20641501988028041 0 0.079764488481322421 -0.2171853574456008 0 0.086370710885636581 -0.20641501988028041 0 0.089335051211168845 -0.21543057274668689 0 0.086370710885636581 -0.20641501988028041 0 0.089335051211168845 -0.21543057274668689 0 0.098760338318595431 -0.20307991932808461 0 0.098760338318595431 -0.20307991932808461 0 0.096900709281993569 -0.2189155337886243 0 0.089335051211168845 -0.21543057274668689 0 0.098760338318595431 -0.20307991932808461 0 0.096900709281993569 -0.2189155337886243 0 0.10772936883607651 -0.2088709579612493 0 0.098760338318595431 -0.20307991932808461 0 0.096900709281993569 -0.2189155337886243 0 0.10772936883607651 -0.2088709579612493 0 0.1146927493013031 -0.22463964595872479 0 0.096900709281993569 -0.2189155337886243 0 0.098760338318595431 -0.20307991932808461 0 0.1070492909387311 -0.19398789945508271 0 0.099007416483352692 -0.18467662584972411 0 0.086370710885636581 -0.20641501988028041 0 0.098760338318595431 -0.20307991932808461 0 0.099007416483352692 -0.18467662584972411 0 0.10772936883607651 -0.2088709579612493 0 0.098760338318595431 -0.20307991932808461 0 0.1070492909387311 -0.19398789945508271 0 0.1070492909387311 -0.19398789945508271 0 0.1190053186334129 -0.19689047808001531 0 0.1120048072204176 -0.18152690908105909 0 0.10772936883607651 -0.2088709579612493 0 0.1070492909387311 -0.19398789945508271 0 0.1190053186334129 -0.19689047808001531 0 0.1190053186334129 -0.19689047808001531 0 0.1146927493013031 -0.22463964595872479 0 0.13094528246371709 -0.21063461998422089 0 0.10772936883607651 -0.2088709579612493 0 0.1190053186334129 -0.19689047808001531 0 0.1146927493013031 -0.22463964595872479 0 0.1190053186334129 -0.19689047808001531 0 0.1146927493013031 -0.22463964595872479 0 0.1146927493013031 -0.22463964595872479 0 0.12629816317163689 -0.23799161899509089 0 0.13094528246371709 -0.21063461998422089 0 0.110380179969193 -0.25238881383743428 0 0.1146927493013031 -0.22463964595872479 0 0.12629816317163689 -0.23799161899509089 0 0.110380179969193 -0.25238881383743428 0 0.1146927493013031 -0.22463964595872479 0 0.110380179969193 -0.25238881383743428 0 0.1146927493013031 -0.22463964595872479 0 0.095041080245392581 -0.23475114824916399 0 0.10919393787671119 -0.26002167221818628 0 0.094572703561341426 -0.23873959564643979 0 0.110380179969193 -0.25238881383743428 0 0.095041080245392581 -0.23475114824916399 0 0.110380179969193 -0.25238881383743428 0 0.094572703561341426 -0.23873959564643979 0 0.095041080245392581 -0.23475114824916399 0 0.094572703561341426 -0.23873959564643979 0 0.095041080245392581 -0.23475114824916399 0 0.095041080245392581 -0.23475114824916399 0 0.096900709281993569 -0.2189155337886243 0 0.089335051211168845 -0.21543057274668689 0 0.095041080245392581 -0.23475114824916399 0 0.096900709281993569 -0.2189155337886243 0 0.1146927493013031 -0.22463964595872479 0 0.095041080245392581 -0.23475114824916399 0 0.096900709281993569 -0.2189155337886243 0 0.10912736289249809 -0.14956684811215959 0 0.1000480485165005 -0.1542926658723687 0 0.10053645329363819 -0.13983665696849079 0 0.10912736289249809 -0.14956684811215959 0 0.1000480485165005 -0.1542926658723687 0 0.1116441220810688 -0.16293823181916769 0 0.1000480485165005 -0.1542926658723687 0 0.10053645329363819 -0.13983665696849079 0 0.088071136933161931 -0.1480285294017277 0 0.10053645329363819 -0.13983665696849079 0 0.087190185965280123 -0.125918119762925 0 0.1005301852280989 -0.1186869448293786 0 0.10053645329363819 -0.13983665696849079 0 0.1127857124475064 -0.1339502721789467 0 0.1005301852280989 -0.1186869448293786 0 0.10053645329363819 -0.13983665696849079 0 0.1127857124475064 -0.1339502721789467 0 0.1242808276787848 -0.14119983778861131 0 0.1127857124475064 -0.1339502721789467 0 0.1232567505869934 -0.1304402152193046 0 0.1204366334910684 -0.11458969706532871 0 0.10053645329363819 -0.13983665696849079 0 0.1242808276787848 -0.14119983778861131 0 0.1127857124475064 -0.1339502721789467 0 0.1232567505869934 -0.1304402152193046 0 0.1242808276787848 -0.14119983778861131 0 0.10912736289249809 -0.14956684811215959 0 0.1242808276787848 -0.14119983778861131 0 0.1116441220810688 -0.16293823181916769 0 0.10912736289249809 -0.14956684811215959 0 0.10053645329363819 -0.13983665696849079 0 0.1242808276787848 -0.14119983778861131 0 0.1242808276787848 -0.14119983778861131 0 0.1116441220810688 -0.16293823181916769 0 0.1233178879655227 -0.16914131020130571 0 0.1116441220810688 -0.16293823181916769 0 0.1120048072204176 -0.18152690908105909 0 0.1242808276787848 -0.14119983778861131 0 0.1233178879655227 -0.16914131020130571 0 0.1116441220810688 -0.16293823181916769 0 0.1190053186334129 -0.19689047808001531 0 0.1233178879655227 -0.16914131020130571 0 0.1120048072204176 -0.18152690908105909 0 0.1190053186334129 -0.19689047808001531 0 0.1233178879655227 -0.16914131020130571 0 0.1116441220810688 -0.16293823181916769 0 0.1120048072204176 -0.18152690908105909 0 0.099007416483352692 -0.18467662584972411 0 0.1116441220810688 -0.16293823181916769 0 0.099007416483352692 -0.18467662584972411 0 0.1070492909387311 -0.19398789945508271 0 0.1120048072204176 -0.18152690908105909 0 0.099007416483352692 -0.18467662584972411 0 0.1000480485165005 -0.1542926658723687 0 0.1116441220810688 -0.16293823181916769 0 0.095195640017623942 -0.16791870214178159 0 0.1116441220810688 -0.16293823181916769 0 0.099007416483352692 -0.18467662584972411 0 0.095195640017623942 -0.16791870214178159 0 0.1000480485165005 -0.1542926658723687 0 0.095195640017623942 -0.16791870214178159 0 0.07992112890422147 -0.16004171305505269 0 0.07992112890422147 -0.16004171305505269 0 0.083050178899954016 -0.1816099499617341 0 0.095195640017623942 -0.16791870214178159 0 0.07992112890422147 -0.16004171305505269 0 0.083050178899954016 -0.1816099499617341 0 0.099007416483352692 -0.18467662584972411 0 0.095195640017623942 -0.16791870214178159 0 0.083050178899954016 -0.1816099499617341 0 0.07992112890422147 -0.16004171305505269 0 0.083050178899954016 -0.1816099499617341 0 0.070098979012229556 -0.1747051148573284 0 0.077978514039925742 -0.1955378737273043 0 0.083050178899954016 -0.1816099499617341 0 0.070098979012229556 -0.1747051148573284 0 0.07992112890422147 -0.16004171305505269 0 0.070098979012229556 -0.1747051148573284 0 0.063153193631723337 -0.15350516145880491 0 0.070098979012229556 -0.1747051148573284 0 0.063153193631723337 -0.15350516145880491 0 0.054467971060053938 -0.17046485751943349 0 0.063153193631723337 -0.15350516145880491 0 0.076792078908491518 -0.13847347614837091 0 0.053614154914722649 -0.1371428156337568 0 0.07992112890422147 -0.16004171305505269 0 0.063153193631723337 -0.15350516145880491 0 0.076792078908491518 -0.13847347614837091 0 0.07992112890422147 -0.16004171305505269 0 0.076792078908491518 -0.13847347614837091 0 0.07992112890422147 -0.16004171305505269 0 0.088071136933161931 -0.1480285294017277 0 0.076792078908491518 -0.13847347614837091 0 0.10053645329363819 -0.13983665696849079 0 0.088071136933161931 -0.1480285294017277 0 0.076792078908491518 -0.13847347614837091 0 0.1000480485165005 -0.1542926658723687 0 0.07992112890422147 -0.16004171305505269 0 0.088071136933161931 -0.1480285294017277 0 0.087190185965280123 -0.125918119762925 0 0.076792078908491518 -0.13847347614837091 0 0.074411331828355326 -0.12206321836749801 0 0.10053645329363819 -0.13983665696849079 0 0.076792078908491518 -0.13847347614837091 0 0.10053645329363819 -0.13983665696849079 0 0.087190185965280123 -0.125918119762925 0 0.076792078908491518 -0.13847347614837091 0 0.076792078908491518 -0.13847347614837091 0 0.053614154914722649 -0.1371428156337568 0 0.074411331828355326 -0.12206321836749801 0 0.076792078908491518 -0.13847347614837091 0 0.074411331828355326 -0.12206321836749801 0 0.076792078908491518 -0.13847347614837091 0 0.053614154914722649 -0.1371428156337568 0 0.053614154914722649 -0.1371428156337568 0 0.058190044123433003 -0.1182809824343158 0 0.074411331828355326 -0.12206321836749801 0 0.053614154914722649 -0.1371428156337568 0 0.058190044123433003 -0.1182809824343158 0 0.044634177015720658 -0.121730150081427 0 0.063153193631723337 -0.15350516145880491 0 0.053614154914722649 -0.1371428156337568 0 0.042663144954146977 -0.15176300505795029 0 0.042663144954146977 -0.15176300505795029 0 0.033494773925408748 -0.13573274574826649 0 0.027755093245754439 -0.14774306046624611 0 0.053614154914722649 -0.1371428156337568 0 0.042663144954146977 -0.15176300505795029 0 0.033494773925408748 -0.13573274574826649 0 0.042663144954146977 -0.15176300505795029 0 0.02995266338704607 -0.15797792878173339 0 0.027755093245754439 -0.14774306046624611 0 0.053614154914722649 -0.1371428156337568 0 0.033494773925408748 -0.13573274574826649 0 0.044634177015720658 -0.121730150081427 0 0.033494773925408748 -0.13573274574826649 0 0.044634177015720658 -0.121730150081427 0 0.032864304160176647 -0.1230061487930927 0 0.062682219869886646 -0.19232109901391339 0 0.054467971060053938 -0.17046485751943349 0 0.045842701811148683 -0.1869926903090659 0 0.062682219869886646 -0.19232109901391339 0 0.070098979012229556 -0.1747051148573284 0 0.054467971060053938 -0.17046485751943349 0 0.063153193631723337 -0.15350516145880491 0 0.042663144954146977 -0.15176300505795029 0 0.054467971060053938 -0.17046485751943349 0 0.042663144954146977 -0.15176300505795029 0 0.037777169769078883 -0.1698990592451177 0 0.02995266338704607 -0.15797792878173339 0 0.042663144954146977 -0.15176300505795029 0 0.054467971060053938 -0.17046485751943349 0 0.037777169769078883 -0.1698990592451177 0 0.054467971060053938 -0.17046485751943349 0 0.037777169769078883 -0.1698990592451177 0 0.045842701811148683 -0.1869926903090659 0 0.037777169769078883 -0.1698990592451177 0 0.045842701811148683 -0.1869926903090659 0 0.03082115865331839 -0.18357243204218529 0 0.020316237143062809 -0.1933553786962933 0 0.018035883044165028 -0.1799704358382678 0 0.03082115865331839 -0.18357243204218529 0 0.037777169769078883 -0.1698990592451177 0 0.03082115865331839 -0.18357243204218529 0 0.02291537874875927 -0.168623441760338 0 0.018035883044165028 -0.1799704358382678 0 0.03082115865331839 -0.18357243204218529 0 0.02291537874875927 -0.168623441760338 0 0.018035883044165028 -0.1799704358382678 0 0.02291537874875927 -0.168623441760338 0 0.0098611223504359666 -0.16614025981433439 0 0.037777169769078883 -0.1698990592451177 0 0.02291537874875927 -0.168623441760338 0 0.02995266338704607 -0.15797792878173339 0 0.02291537874875927 -0.168623441760338 0 0.02995266338704607 -0.15797792878173339 0 0.020693708916995131 -0.15646112995526451 0 0.02291537874875927 -0.168623441760338 0 0.020693708916995131 -0.15646112995526451 0 0.0098611223504359666 -0.16614025981433439 0 -0.0041202026161358679 -0.16610483629692269 0 0.0098611223504359666 -0.16614025981433439 0 0.00087706121465781501 -0.15101584360234341 0 -0.0041202026161358679 -0.16610483629692269 0 0.0048447013079721286 -0.18879042151154579 0 0.0098611223504359666 -0.16614025981433439 0 0.0048447013079721286 -0.18879042151154579 0 0.018035883044165028 -0.1799704358382678 0 0.0098611223504359666 -0.16614025981433439 0 -0.0041202026161358679 -0.16610483629692269 0 0.0048447013079721286 -0.18879042151154579 0 0.0048447013079721286 -0.18879042151154579 0 0.0098611223504359666 -0.16614025981433439 0 -0.00081075560289291249 -0.18009301941494149 0 0.0037694184420872042 -0.19364554243865401 0 0.0048447013079721286 -0.18879042151154579 0 0.020316237143062809 -0.1933553786962933 0 0.018035883044165028 -0.1799704358382678 0 0.033494773925408748 -0.13573274574826649 0 0.01487754339290139 -0.14349009811712329 0 0.019893964435366809 -0.1208399364199122 0 0.01487754339290139 -0.14349009811712329 0 0.019893964435366809 -0.1208399364199122 0 0.033494773925408748 -0.13573274574826649 0 0.019893964435366809 -0.1208399364199122 0 0.032864304160176647 -0.1230061487930927 0 0.033494773925408748 -0.13573274574826649 0 0.027755093245754439 -0.14774306046624611 0 0.01487754339290139 -0.14349009811712329 0 0.02995266338704607 -0.15797792878173339 0 0.020693708916995131 -0.15646112995526451 0 0.027755093245754439 -0.14774306046624611 0 0.020693708916995131 -0.15646112995526451 0 0.027755093245754439 -0.14774306046624611 0 0.01487754339290139 -0.14349009811712329 0 0.020693708916995131 -0.15646112995526451 0 0.0098611223504359666 -0.16614025981433439 0 0.01487754339290139 -0.14349009811712329 0 0.0098611223504359666 -0.16614025981433439 0 0.01487754339290139 -0.14349009811712329 0 0.0098611223504359666 -0.16614025981433439 0 0.01487754339290139 -0.14349009811712329 0 0.00087706121465781501 -0.15101584360234341 0 -0.0013770698620868551 -0.13723339320632019 0 0.00087706121465781501 -0.15101584360234341 0 0.0062625114863385659 -0.14087044396738099 0 0.01487754339290139 -0.14349009811712329 0 0.00087706121465781501 -0.15101584360234341 0 0.0062625114863385659 -0.14087044396738099 0 -0.0013770698620868551 -0.13723339320632019 0 0.0062625114863385659 -0.14087044396738099 0 0.01067251119988191 -0.13174244094373699 0 0.01487754339290139 -0.14349009811712329 0 0.01067251119988191 -0.13174244094373699 0 0.019893964435366809 -0.1208399364199122 0 0.01487754339290139 -0.14349009811712329 0 0.0062625114863385659 -0.14087044396738099 0 0.01067251119988191 -0.13174244094373699 0 -0.001032237097351958 -0.12600845422236731 0 -0.0013770698620868551 -0.13723339320632019 0 0.01067251119988191 -0.13174244094373699 0 -3.9213425708454218e-05 -0.11342232087091821 0 -0.001032237097351958 -0.12600845422236731 0 0.01067251119988191 -0.13174244094373699 0 0.01067251119988191 -0.13174244094373699 0 0.019893964435366809 -0.1208399364199122 0 0.01262142490491849 -0.1022245905738612 0 0.01067251119988191 -0.13174244094373699 0 0.01262142490491849 -0.1022245905738612 0 -3.9213425708454218e-05 -0.11342232087091821 0 0.01067251119988191 -0.13174244094373699 0 0.01262142490491849 -0.1022245905738612 0 0.019893964435366809 -0.1208399364199122 0 0.024910385477832201 -0.098189774722701267 0 0.019893964435366809 -0.1208399364199122 0 0.024910385477832201 -0.098189774722701267 0 0.03548832894955771 -0.11241309793852571 0 0.019893964435366809 -0.1208399364199122 0 0.032864304160176647 -0.1230061487930927 0 0.03548832894955771 -0.11241309793852571 0 0.019893964435366809 -0.1208399364199122 0 0.024910385477832201 -0.098189774722701267 0 0.01262142490491849 -0.1022245905738612 0 0.024910385477832201 -0.098189774722701267 0 0.01262142490491849 -0.1022245905738612 0 0.027976688530554791 -0.082106269215096297 0 -3.9213425708454218e-05 -0.11342232087091821 0 0.01262142490491849 -0.1022245905738612 0 0.0011414087804533441 -0.1004826700100202 0 0.01262142490491849 -0.1022245905738612 0 0.0011414087804533441 -0.1004826700100202 0 0.001299515704678544 -0.086653798805751595 0 0.01262142490491849 -0.1022245905738612 0 0.001299515704678544 -0.086653798805751595 0 0.014570338609954631 -0.072706740203985182 0 0.01262142490491849 -0.1022245905738612 0 0.014570338609954631 -0.072706740203985182 0 -0.01179734475313645 -0.0672691826140355 0 0.001299515704678544 -0.086653798805751595 0 0.014570338609954631 -0.072706740203985182 0 -0.01179734475313645 -0.0672691826140355 0 0.014570338609954631 -0.072706740203985182 0 0.014570338609954631 -0.072706740203985182 0 0.027976688530554791 -0.082106269215096297 0 0.044007901642658581 -0.078777370000850333 0 0.014570338609954631 -0.072706740203985182 0 0.044007901642658581 -0.078777370000850333 0 0.014570338609954631 -0.072706740203985182 0 0.045009670328786333 -0.070415063253793264 0 0.03077342196011984 -0.056666260540822723 0 0.01262142490491849 -0.1022245905738612 0 0.014570338609954631 -0.072706740203985182 0 0.027976688530554791 -0.082106269215096297 0 0.024910385477832201 -0.098189774722701267 0 0.027976688530554791 -0.082106269215096297 0 0.037310237186613943 -0.091823667599089498 0 0.027976688530554791 -0.082106269215096297 0 0.038280226256671997 -0.085248455398252723 0 0.044007901642658581 -0.078777370000850333 0 0.027976688530554791 -0.082106269215096297 0 0.037310237186613943 -0.091823667599089498 0 0.038280226256671997 -0.085248455398252723 0 0.038280226256671997 -0.085248455398252723 0 0.044007901642658581 -0.078777370000850333 0 0.04382607766686071 -0.088286514777974723 0 0.037310237186613943 -0.091823667599089498 0 0.04382607766686071 -0.088286514777974723 0 0.045330910227649172 -0.095634511634168806 0 0.037310237186613943 -0.091823667599089498 0 0.038280226256671997 -0.085248455398252723 0 0.04382607766686071 -0.088286514777974723 0 0.014570338609954631 -0.072706740203985182 0 0.044007901642658581 -0.078777370000850333 0 0.045009670328786333 -0.070415063253793264 0 0.045009670328786333 -0.070415063253793264 0 0.03077342196011984 -0.056666260540822723 0 0.044007901642658581 -0.078777370000850333 0 0.052138184082363988 -0.065391103396265277 0 0.06597107904927571 -0.068246918006435509 0 0.044007901642658581 -0.078777370000850333 0 0.073445464675363378 -0.084847999797712362 0 0.06597107904927571 -0.068246918006435509 0 0.045009670328786333 -0.070415063253793264 0 0.052138184082363988 -0.065391103396265277 0 0.044725350410868919 -0.059555219490673689 0 0.044007901642658581 -0.078777370000850333 0 0.045009670328786333 -0.070415063253793264 0 0.052138184082363988 -0.065391103396265277 0 0.052138184082363988 -0.065391103396265277 0 0.060086532191056759 -0.056919675338558809 0 0.06597107904927571 -0.068246918006435509 0 0.044007901642658581 -0.078777370000850333 0 0.053488133239616542 -0.090558259141097899 0 0.073445464675363378 -0.084847999797712362 0 0.044007901642658581 -0.078777370000850333 0 0.073445464675363378 -0.084847999797712362 0 0.04382607766686071 -0.088286514777974723 0 0.053488133239616542 -0.090558259141097899 0 0.045330910227649172 -0.095634511634168806 0 0.044007901642658581 -0.078777370000850333 0 0.04382607766686071 -0.088286514777974723 0 0.053488133239616542 -0.090558259141097899 0 0.053488133239616542 -0.090558259141097899 0 0.051848377231874292 -0.1055907353277359 0 0.066442179626492029 -0.104877992761161 0 0.053488133239616542 -0.090558259141097899 0 0.051848377231874292 -0.1055907353277359 0 0.045330910227649172 -0.095634511634168806 0 0.051848377231874292 -0.1055907353277359 0 0.058190044123433003 -0.1182809824343158 0 0.066442179626492029 -0.104877992761161 0 0.051848377231874292 -0.1055907353277359 0 0.058190044123433003 -0.1182809824343158 0 0.044634177015720658 -0.121730150081427 0 0.051848377231874292 -0.1055907353277359 0 0.044634177015720658 -0.121730150081427 0 0.03548832894955771 -0.11241309793852571 0 0.044634177015720658 -0.121730150081427 0 0.032864304160176647 -0.1230061487930927 0 0.03548832894955771 -0.11241309793852571 0 0.051848377231874292 -0.1055907353277359 0 0.03548832894955771 -0.11241309793852571 0 0.040181725813280389 -0.101913381324946 0 0.024910385477832201 -0.098189774722701267 0 0.03548832894955771 -0.11241309793852571 0 0.040181725813280389 -0.101913381324946 0 0.024910385477832201 -0.098189774722701267 0 0.037310237186613943 -0.091823667599089498 0 0.040181725813280389 -0.101913381324946 0 0.037310237186613943 -0.091823667599089498 0 0.045330910227649172 -0.095634511634168806 0 0.040181725813280389 -0.101913381324946 0 0.051848377231874292 -0.1055907353277359 0 0.045330910227649172 -0.095634511634168806 0 0.040181725813280389 -0.101913381324946 0 0.01620101191740685 -0.005863954678361951 0 0.01897977349908089 -0.0059223366993240243 0 0.017627044619874299 -0.026410493021598279 0 0.01961088504268934 0.0036363503081079051 0 0.01897977349908089 -0.0059223366993240243 0 0.044873334150910438 -0.0064663626462446496 0 0.02924851791195112 -0.01559747658398725 0 0.01897977349908089 -0.0059223366993240243 0 0.044873334150910438 -0.0064663626462446496 0 0.01961088504268934 0.0036363503081079051 0 0.01897977349908089 -0.0059223366993240243 0 0.01620101191740685 -0.005863954678361951 0 0.01897977349908089 -0.0059223366993240243 0 0.013660132337261601 -0.00098361484742467715 0 0.01961088504268934 0.0036363503081079051 0 0.01897977349908089 -0.0059223366993240243 0 0.013660132337261601 -0.00098361484742467715 0 0.01620101191740685 -0.005863954678361951 0 0.01897977349908089 -0.0059223366993240243 0 0.01620101191740685 -0.005863954678361951 0 0.013660132337261601 -0.00098361484742467715 0 0.011631299832560791 -0.0040748149572228448 0 0.01620101191740685 -0.005863954678361951 0 0.0086927237787187001 -0.0076866814712522203 0 0.011631299832560791 -0.0040748149572228448 0 0.0086927237787187001 -0.0076866814712522203 0 0.011631299832560791 -0.0040748149572228448 0 0.0079713312968560067 -0.00176500883185253 0 0.013660132337261601 -0.00098361484742467715 0 0.011631299832560791 -0.0040748149572228448 0 0.0079713312968560067 -0.00176500883185253 0 -0.001512727700102235 -0.0051413579262706288 0 0.0086927237787187001 -0.0076866814712522203 0 0.0079713312968560067 -0.00176500883185253 0 -0.001512727700102235 -0.0051413579262706288 0 0.0086927237787187001 -0.0076866814712522203 0 0.0069150557203328591 -0.01602128171007006 0 0.01620101191740685 -0.005863954678361951 0 0.0086927237787187001 -0.0076866814712522203 0 0.0069150557203328591 -0.01602128171007006 0 0.0069150557203328591 -0.01602128171007006 0 0.0019964281064309948 -0.028874583905178532 0 0.017627044619874299 -0.026410493021598279 0 0.01620101191740685 -0.005863954678361951 0 0.0069150557203328591 -0.01602128171007006 0 0.017627044619874299 -0.026410493021598279 0 0.0019964281064309948 -0.028874583905178532 0 0.017627044619874299 -0.026410493021598279 0 0.017627044619874299 -0.026410493021598279 0 0.031743473237520053 -0.038725337652929327 0 0.035513919377938047 -0.023590713968782359 0 0.02924851791195112 -0.01559747658398725 0 0.01897977349908089 -0.0059223366993240243 0 0.017627044619874299 -0.026410493021598279 0 0.02924851791195112 -0.01559747658398725 0 0.017627044619874299 -0.026410493021598279 0 0.035513919377938047 -0.023590713968782359 0 0.017627044619874299 -0.026410493021598279 0 0.035513919377938047 -0.023590713968782359 0 0.01897977349908089 -0.0059223366993240243 0 0.017627044619874299 -0.026410493021598279 0 0.017627044619874299 -0.026410493021598279 0 0.016537173591452389 -0.04291745782785325 0 0.016537173591452389 -0.04291745782785325 0 0.03077342196011984 -0.056666260540822723 0 0.031743473237520053 -0.038725337652929327 0 0.017627044619874299 -0.026410493021598279 0 0.016537173591452389 -0.04291745782785325 0 0.031743473237520053 -0.038725337652929327 0 0.0019964281064309948 -0.028874583905178532 0 0.017627044619874299 -0.026410493021598279 0 0.016537173591452389 -0.04291745782785325 0 0.0019964281064309948 -0.028874583905178532 0 0.016537173591452389 -0.04291745782785325 0 -0.0034815090737861992 -0.048909686183370257 0 0.0019964281064309948 -0.028874583905178532 0 0.016537173591452389 -0.04291745782785325 0 -0.0034815090737861992 -0.048909686183370257 0 0.014570338609954631 -0.072706740203985182 0 0.016537173591452389 -0.04291745782785325 0 0.014570338609954631 -0.072706740203985182 0 0.016537173591452389 -0.04291745782785325 0 0.014570338609954631 -0.072706740203985182 0 0.016537173591452389 -0.04291745782785325 0 0.03077342196011984 -0.056666260540822723 0 0.016537173591452389 -0.04291745782785325 0 0.03077342196011984 -0.056666260540822723 0 0.03077342196011984 -0.056666260540822723 0 0.04406885675934695 -0.049490713676163492 0 0.031743473237520053 -0.038725337652929327 0 0.04406885675934695 -0.049490713676163492 0 0.044725350410868919 -0.059555219490673689 0 0.051636618923727513 -0.055812956586323743 0 0.03077342196011984 -0.056666260540822723 0 0.04406885675934695 -0.049490713676163492 0 0.044725350410868919 -0.059555219490673689 0 0.045009670328786333 -0.070415063253793264 0 0.03077342196011984 -0.056666260540822723 0 0.044725350410868919 -0.059555219490673689 0 0.052138184082363988 -0.065391103396265277 0 0.051636618923727513 -0.055812956586323743 0 0.060086532191056759 -0.056919675338558809 0 0.052138184082363988 -0.065391103396265277 0 0.044725350410868919 -0.059555219490673689 0 0.051636618923727513 -0.055812956586323743 0 0.060086532191056759 -0.056919675338558809 0 0.054942894042352627 -0.047505658410766649 0 0.065061576595261419 -0.047936255629070307 0 0.051636618923727513 -0.055812956586323743 0 0.060086532191056759 -0.056919675338558809 0 0.054942894042352627 -0.047505658410766649 0 0.04406885675934695 -0.049490713676163492 0 0.051636618923727513 -0.055812956586323743 0 0.054942894042352627 -0.047505658410766649 0 0.054942894042352627 -0.047505658410766649 0 0.060723676270108953 -0.039265858679977728 0 0.048080103514614198 -0.035608490554505823 0 0.04406885675934695 -0.049490713676163492 0 0.054942894042352627 -0.047505658410766649 0 0.048080103514614198 -0.035608490554505823 0 0.054942894042352627 -0.047505658410766649 0 0.060723676270108953 -0.039265858679977728 0 0.065061576595261419 -0.047936255629070307 0 0.060723676270108953 -0.039265858679977728 0 0.058146766499644911 -0.030535695524282921 0 0.067051713870754134 -0.033296695395918792 0 0.060723676270108953 -0.039265858679977728 0 0.048080103514614198 -0.035608490554505823 0 0.058146766499644911 -0.030535695524282921 0 0.04406885675934695 -0.049490713676163492 0 0.048080103514614198 -0.035608490554505823 0 0.031743473237520053 -0.038725337652929327 0 0.048080103514614198 -0.035608490554505823 0 0.031743473237520053 -0.038725337652929327 0 0.035513919377938047 -0.023590713968782359 0 0.035513919377938047 -0.023590713968782359 0 0.053400794136002273 -0.020770934915969319 0 0.044873334150910438 -0.0064663626462446496 0 0.048080103514614198 -0.035608490554505823 0 0.035513919377938047 -0.023590713968782359 0 0.053400794136002273 -0.020770934915969319 0 0.035513919377938047 -0.023590713968782359 0 0.053400794136002273 -0.020770934915969319 0 0.048080103514614198 -0.035608490554505823 0 0.058146766499644911 -0.030535695524282921 0 0.053400794136002273 -0.020770934915969319 0 0.058146766499644911 -0.030535695524282921 0 0.053400794136002273 -0.020770934915969319 0 0.067234251816264051 -0.02593743282758296 0 0.057745946190224183 0.001898109140009354 0 0.044873334150910438 -0.0064663626462446496 0 0.072691673245487184 -0.0070508283545811876 0 0.044873334150910438 -0.0064663626462446496 0 0.069030844051445342 -0.016127199058878539 0 0.053400794136002273 -0.020770934915969319 0 0.044873334150910438 -0.0064663626462446496 0 0.069030844051445342 -0.016127199058878539 0 0.044873334150910438 -0.0064663626462446496 0 0.072691673245487184 -0.0070508283545811876 0 0.069030844051445342 -0.016127199058878539 0 0.044873334150910438 -0.0064663626462446496 0 0.072691673245487184 -0.0070508283545811876 0 0.01897977349908089 -0.0059223366993240243 0 0.044873334150910438 -0.0064663626462446496 0 0.02924851791195112 -0.01559747658398725 0 0.035513919377938047 -0.023590713968782359 0 0.044873334150910438 -0.0064663626462446496 0 0.01961088504268934 0.0036363503081079051 0 0.044873334150910438 -0.0064663626462446496 0 0.093341217572086521 -0.01529677513752243 0 0.072691673245487184 -0.0070508283545811876 0 0.082912375158499932 -0.01644966567633737 0 0.089359132644354328 -0.001804303285622382 0 0.072691673245487184 -0.0070508283545811876 0 0.10051001234006381 -0.0076352940629173284 0 0.093341217572086521 -0.01529677513752243 0 0.072691673245487184 -0.0070508283545811876 0 0.10051001234006381 -0.0076352940629173284 0 0.072691673245487184 -0.0070508283545811876 0 0.10051001234006381 -0.0076352940629173284 0 0.084129674216321226 0.0019910490799615529 0 0.089359132644354328 -0.001804303285622382 0 0.072691673245487184 -0.0070508283545811876 0 0.077943423036168427 0.00064813052460827719 0 0.084129674216321226 0.0019910490799615529 0 0.072691673245487184 -0.0070508283545811876 0 0.06785690118007047 0.001541904395658605 0 0.077943423036168427 0.00064813052460827719 0 0.072691673245487184 -0.0070508283545811876 0 0.057745946190224183 0.001898109140009354 0 0.06785690118007047 0.001541904395658605 0 0.072691673245487184 -0.0070508283545811876 0 0.072691673245487184 -0.0070508283545811876 0 0.069030844051445342 -0.016127199058878539 0 0.082912375158499932 -0.01644966567633737 0 0.053400794136002273 -0.020770934915969319 0 0.069030844051445342 -0.016127199058878539 0 0.067234251816264051 -0.02593743282758296 0 0.069030844051445342 -0.016127199058878539 0 0.067234251816264051 -0.02593743282758296 0 0.080435517436250825 -0.022563152333149809 0 0.058146766499644911 -0.030535695524282921 0 0.067234251816264051 -0.02593743282758296 0 0.067051713870754134 -0.033296695395918792 0 0.067234251816264051 -0.02593743282758296 0 0.076539188884636747 -0.032789447810744249 0 0.067051713870754134 -0.033296695395918792 0 0.067234251816264051 -0.02593743282758296 0 0.080435517436250825 -0.022563152333149809 0 0.076539188884636747 -0.032789447810744249 0 0.069030844051445342 -0.016127199058878539 0 0.093188353951980107 -0.02578803547151284 0 0.080435517436250825 -0.022563152333149809 0 0.088596984341141799 -0.034568913322296932 0 0.076539188884636747 -0.032789447810744249 0 0.069030844051445342 -0.016127199058878539 0 0.082912375158499932 -0.01644966567633737 0 0.093188353951980107 -0.02578803547151284 0 0.069030844051445342 -0.016127199058878539 0 0.080435517436250825 -0.022563152333149809 0 0.093188353951980107 -0.02578803547151284 0 0.093341217572086521 -0.01529677513752243 0 0.082912375158499932 -0.01644966567633737 0 0.093188353951980107 -0.02578803547151284 0 0.080435517436250825 -0.022563152333149809 0 0.093188353951980107 -0.02578803547151284 0 0.080435517436250825 -0.022563152333149809 0 0.093188353951980107 -0.02578803547151284 0 0.088596984341141799 -0.034568913322296932 0 0.093188353951980107 -0.02578803547151284 0 0.088596984341141799 -0.034568913322296932 0 0.099086462097617678 -0.033911178969503179 0 0.088596984341141799 -0.034568913322296932 0 0.090049920066160208 -0.044765573457085442 0 0.080991894970131345 -0.040982603337094081 0 0.088596984341141799 -0.034568913322296932 0 0.090049920066160208 -0.044765573457085442 0 0.098269556141807546 -0.042784502051215277 0 0.090049920066160208 -0.044765573457085442 0 0.080991894970131345 -0.040982603337094081 0 0.076566564848546376 -0.053080417602820527 0 0.088596984341141799 -0.034568913322296932 0 0.080991894970131345 -0.040982603337094081 0 0.076539188884636747 -0.032789447810744249 0 0.080991894970131345 -0.040982603337094081 0 0.076539188884636747 -0.032789447810744249 0 0.071138990560107723 -0.040719943518765143 0 0.076539188884636747 -0.032789447810744249 0 0.067051713870754134 -0.033296695395918792 0 0.071138990560107723 -0.040719943518765143 0 0.060723676270108953 -0.039265858679977728 0 0.067051713870754134 -0.033296695395918792 0 0.071138990560107723 -0.040719943518765143 0 0.060723676270108953 -0.039265858679977728 0 0.071138990560107723 -0.040719943518765143 0 0.065061576595261419 -0.047936255629070307 0 0.080991894970131345 -0.040982603337094081 0 0.071138990560107723 -0.040719943518765143 0 0.076566564848546376 -0.053080417602820527 0 0.060086532191056759 -0.056919675338558809 0 0.076566564848546376 -0.053080417602820527 0 0.065061576595261419 -0.047936255629070307 0 0.060086532191056759 -0.056919675338558809 0 0.076566564848546376 -0.053080417602820527 0 0.06597107904927571 -0.068246918006435509 0 0.071138990560107723 -0.040719943518765143 0 0.076566564848546376 -0.053080417602820527 0 0.065061576595261419 -0.047936255629070307 0 0.090049920066160208 -0.044765573457085442 0 0.076566564848546376 -0.053080417602820527 0 0.09321287231739675 -0.055439752479539008 0 0.076566564848546376 -0.053080417602820527 0 0.09321287231739675 -0.055439752479539008 0 0.086393332310987794 -0.069919428166578229 0 0.09321287231739675 -0.055439752479539008 0 0.1040994108154657 -0.052616059468415792 0 0.1062809852672765 -0.066982851518387648 0 0.090049920066160208 -0.044765573457085442 0 0.09321287231739675 -0.055439752479539008 0 0.098269556141807546 -0.042784502051215277 0 0.09321287231739675 -0.055439752479539008 0 0.1040994108154657 -0.052616059468415792 0 0.098269556141807546 -0.042784502051215277 0 0.1040994108154657 -0.052616059468415792 0 0.11423266487093379 -0.054620539539163328 0 0.108500975479914 -0.043252651753773713 0 0.1040994108154657 -0.052616059468415792 0 0.11423266487093379 -0.054620539539163328 0 0.1062809852672765 -0.066982851518387648 0 0.11423266487093379 -0.054620539539163328 0 0.1062809852672765 -0.066982851518387648 0 0.1230356126977307 -0.063836101017439834 0 0.11423266487093379 -0.054620539539163328 0 0.1230356126977307 -0.063836101017439834 0 0.12629659349330241 -0.051203577688934 0 0.11423266487093379 -0.054620539539163328 0 0.1187476952086513 -0.043330431164904523 0 0.12629659349330241 -0.051203577688934 0 0.11423266487093379 -0.054620539539163328 0 0.1187476952086513 -0.043330431164904523 0 0.108500975479914 -0.043252651753773713 0 0.1155848749014519 -0.0314515725739343 0 0.111910618978312 -0.033275261615187943 0 0.13063288400464379 -0.04076248775886309 0 0.1187476952086513 -0.043330431164904523 0 0.111910618978312 -0.033275261615187943 0 0.13063288400464379 -0.04076248775886309 0 0.1121715033875044 -0.039282207771399472 0 0.1187476952086513 -0.043330431164904523 0 0.108500975479914 -0.043252651753773713 0 0.111910618978312 -0.033275261615187943 0 0.13063288400464379 -0.04076248775886309 0 0.1121715033875044 -0.039282207771399472 0 0.1094916354917293 -0.037611439408685762 0 0.108500975479914 -0.043252651753773713 0 0.1121715033875044 -0.039282207771399472 0 0.1187476952086513 -0.043330431164904523 0 0.111910618978312 -0.033275261615187943 0 0.1121715033875044 -0.039282207771399472 0 0.1094916354917293 -0.037611439408685762 0 0.111910618978312 -0.033275261615187943 0 0.111910618978312 -0.033275261615187943 0 0.1051386675027028 -0.037014123624493439 0 0.099086462097617678 -0.033911178969503179 0 0.1094916354917293 -0.037611439408685762 0 0.111910618978312 -0.033275261615187943 0 0.1051386675027028 -0.037014123624493439 0 0.1051386675027028 -0.037014123624493439 0 0.108500975479914 -0.043252651753773713 0 0.098269556141807546 -0.042784502051215277 0 0.1040994108154657 -0.052616059468415792 0 0.108500975479914 -0.043252651753773713 0 0.098269556141807546 -0.042784502051215277 0 0.1094916354917293 -0.037611439408685762 0 0.1051386675027028 -0.037014123624493439 0 0.108500975479914 -0.043252651753773713 0 0.088596984341141799 -0.034568913322296932 0 0.098269556141807546 -0.042784502051215277 0 0.099086462097617678 -0.033911178969503179 0 0.1051386675027028 -0.037014123624493439 0 0.098269556141807546 -0.042784502051215277 0 0.099086462097617678 -0.033911178969503179 0 0.093188353951980107 -0.02578803547151284 0 0.111910618978312 -0.033275261615187943 0 0.093188353951980107 -0.02578803547151284 0 0.1155848749014519 -0.0314515725739343 0 0.1053264495221815 -0.018428955283299669 0 0.093188353951980107 -0.02578803547151284 0 0.1155848749014519 -0.0314515725739343 0 0.093188353951980107 -0.02578803547151284 0 0.111910618978312 -0.033275261615187943 0 0.099086462097617678 -0.033911178969503179 0 0.093188353951980107 -0.02578803547151284 0 0.1155848749014519 -0.0314515725739343 0 0.111910618978312 -0.033275261615187943 0 0.093341217572086521 -0.01529677513752243 0 0.093188353951980107 -0.02578803547151284 0 0.1053264495221815 -0.018428955283299669 0 0.1162917284828737 -0.018917419837376489 0 0.12099230233569511 -0.0076438222115242128 0 0.12880516403761089 -0.026287206120285001 0 0.1155848749014519 -0.0314515725739343 0 0.1162917284828737 -0.018917419837376489 0 0.12880516403761089 -0.026287206120285001 0 0.1155848749014519 -0.0314515725739343 0 0.1053264495221815 -0.018428955283299669 0 0.1162917284828737 -0.018917419837376489 0 0.1001060251130647 0.0054739366344950186 0 0.12099230233569511 -0.0076438222115242128 0 0.1053264495221815 -0.018428955283299669 0 0.1162917284828737 -0.018917419837376489 0 0.1086453035587758 -0.0094303109521247427 0 0.1001060251130647 0.0054739366344950186 0 0.12099230233569511 -0.0076438222115242128 0 0.1086453035587758 -0.0094303109521247427 0 0.1162917284828737 -0.018917419837376489 0 0.12099230233569511 -0.0076438222115242128 0 0.1086453035587758 -0.0094303109521247427 0 0.1001060251130647 0.0054739366344950186 0 0.1086453035587758 -0.0094303109521247427 0 0.10051001234006381 -0.0076352940629173284 0 0.1053264495221815 -0.018428955283299669 0 0.1086453035587758 -0.0094303109521247427 0 0.10051001234006381 -0.0076352940629173284 0 0.093341217572086521 -0.01529677513752243 0 0.1053264495221815 -0.018428955283299669 0 0.10051001234006381 -0.0076352940629173284 0 0.1001060251130647 0.0054739366344950186 0 0.089359132644354328 -0.001804303285622382 0 0.10051001234006381 -0.0076352940629173284 0 0.084150395838609643 -0.1078854841855415 0 0.073445464675363378 -0.084847999797712362 0 0.10288302770806811 -0.090918629594574391 0 0.087190185965280123 -0.125918119762925 0 0.084150395838609643 -0.1078854841855415 0 0.1005301852280989 -0.1186869448293786 0 0.087190185965280123 -0.125918119762925 0 0.084150395838609643 -0.1078854841855415 0 0.074411331828355326 -0.12206321836749801 0 0.084150395838609643 -0.1078854841855415 0 0.074411331828355326 -0.12206321836749801 0 0.066442179626492029 -0.104877992761161 0 0.058190044123433003 -0.1182809824343158 0 0.074411331828355326 -0.12206321836749801 0 0.066442179626492029 -0.104877992761161 0 0.084150395838609643 -0.1078854841855415 0 0.066442179626492029 -0.104877992761161 0 0.073445464675363378 -0.084847999797712362 0 0.053488133239616542 -0.090558259141097899 0 0.066442179626492029 -0.104877992761161 0 0.073445464675363378 -0.084847999797712362 0 0.073445464675363378 -0.084847999797712362 0 0.06597107904927571 -0.068246918006435509 0 0.086393332310987794 -0.069919428166578229 0 0.076566564848546376 -0.053080417602820527 0 0.06597107904927571 -0.068246918006435509 0 0.086393332310987794 -0.069919428166578229 0 0.073445464675363378 -0.084847999797712362 0 0.10288302770806811 -0.090918629594574391 0 0.073445464675363378 -0.084847999797712362 0 0.086393332310987794 -0.069919428166578229 0 0.10288302770806811 -0.090918629594574391 0 0.09321287231739675 -0.055439752479539008 0 0.086393332310987794 -0.069919428166578229 0 0.1062809852672765 -0.066982851518387648 0 0.086393332310987794 -0.069919428166578229 0 0.10288302770806811 -0.090918629594574391 0 0.1062809852672765 -0.066982851518387648 0 0.1062809852672765 -0.066982851518387648 0 0.1230356126977307 -0.063836101017439834 0 0.1218509512382029 -0.079832352704623202 0 0.10288302770806811 -0.090918629594574391 0 0.1062809852672765 -0.066982851518387648 0 0.1218509512382029 -0.079832352704623202 0 0.10288302770806811 -0.090918629594574391 0 0.1218509512382029 -0.079832352704623202 0 0.1323205907407729 -0.096989259391436392 0 0.10288302770806811 -0.090918629594574391 0 0.1204366334910684 -0.11458969706532871 0 0.1323205907407729 -0.096989259391436392 0 0.10288302770806811 -0.090918629594574391 0 0.1323205907407729 -0.096989259391436392 0 0.10288302770806811 -0.090918629594574391 0 0.1005301852280989 -0.1186869448293786 0 0.1204366334910684 -0.11458969706532871 0 0.084150395838609643 -0.1078854841855415 0 0.10288302770806811 -0.090918629594574391 0 0.1005301852280989 -0.1186869448293786 0 0.1127857124475064 -0.1339502721789467 0 0.1005301852280989 -0.1186869448293786 0 0.1204366334910684 -0.11458969706532871 0 0.1232567505869934 -0.1304402152193046 0 0.1204366334910684 -0.11458969706532871 0 0.1306570999542464 -0.1219172518989441 0 0.1204366334910684 -0.11458969706532871 0 0.1306570999542464 -0.1219172518989441 0 0.13921430273599911 -0.1117248800560196 0 0.1306570999542464 -0.1219172518989441 0 0.13921430273599911 -0.1117248800560196 0 0.15089903572043001 -0.12206830273609059 0 0.13921430273599911 -0.1117248800560196 0 0.15089903572043001 -0.12206830273609059 0 0.1617581537734776 -0.10305988918829841 0 0.13921430273599911 -0.1117248800560196 0 0.1323205907407729 -0.096989259391436392 0 0.1617581537734776 -0.10305988918829841 0 0.1323205907407729 -0.096989259391436392 0 0.15569564125717791 -0.087386572034546944 0 0.1617581537734776 -0.10305988918829841 0 0.1323205907407729 -0.096989259391436392 0 0.1617581537734776 -0.10305988918829841 0 0.1204366334910684 -0.11458969706532871 0 0.13921430273599911 -0.1117248800560196 0 0.1323205907407729 -0.096989259391436392 0 0.1218509512382029 -0.079832352704623202 0 0.1323205907407729 -0.096989259391436392 0 0.138535063686792 -0.081790363999744931 0 0.1218509512382029 -0.079832352704623202 0 0.138535063686792 -0.081790363999744931 0 0.1352540066800263 -0.070808032965003667 0 0.1230356126977307 -0.063836101017439834 0 0.1218509512382029 -0.079832352704623202 0 0.1352540066800263 -0.070808032965003667 0 0.1230356126977307 -0.063836101017439834 0 0.1352540066800263 -0.070808032965003667 0 0.13624333327007471 -0.057314466824286453 0 0.138535063686792 -0.081790363999744931 0 0.1352540066800263 -0.070808032965003667 0 0.14755412851778019 -0.073935602903114489 0 0.1352540066800263 -0.070808032965003667 0 0.13624333327007471 -0.057314466824286453 0 0.1465778942704504 -0.062484784213405052 0 0.14755412851778019 -0.073935602903114489 0 0.15569564125717791 -0.087386572034546944 0 0.16472175238112449 -0.059281341708267182 0 0.14755412851778019 -0.073935602903114489 0 0.1465778942704504 -0.062484784213405052 0 0.16472175238112449 -0.059281341708267182 0 0.1352540066800263 -0.070808032965003667 0 0.14755412851778019 -0.073935602903114489 0 0.1465778942704504 -0.062484784213405052 0 0.1323205907407729 -0.096989259391436392 0 0.138535063686792 -0.081790363999744931 0 0.15569564125717791 -0.087386572034546944 0 0.138535063686792 -0.081790363999744931 0 0.14755412851778019 -0.073935602903114489 0 0.15569564125717791 -0.087386572034546944 0 0.15569564125717791 -0.087386572034546944 0 0.170008727048647 -0.09060646598873523 0 0.1617581537734776 -0.10305988918829841 0 0.15569564125717791 -0.087386572034546944 0 0.170008727048647 -0.09060646598873523 0 0.17126682048254571 -0.076409693361986955 0 0.15569564125717791 -0.087386572034546944 0 0.17126682048254571 -0.076409693361986955 0 0.16472175238112449 -0.059281341708267182 0 0.15569564125717791 -0.087386572034546944 0 0.16472175238112449 -0.059281341708267182 0 0.17126682048254571 -0.076409693361986955 0 0.18265413992086571 -0.063209171797065242 0 0.18347981951830081 -0.081224605947527853 0 0.17126682048254571 -0.076409693361986955 0 0.18265413992086571 -0.063209171797065242 0 0.16472175238112449 -0.059281341708267182 0 0.170008727048647 -0.09060646598873523 0 0.18347981951830081 -0.081224605947527853 0 0.18105389156354509 -0.1001164543967946 0 0.170008727048647 -0.09060646598873523 0 0.17126682048254571 -0.076409693361986955 0 0.18347981951830081 -0.081224605947527853 0 0.18105389156354509 -0.1001164543967946 0 0.18117976340425249 -0.1196349958770024 0 0.1617581537734776 -0.10305988918829841 0 0.18105389156354509 -0.1001164543967946 0 0.18117976340425249 -0.1196349958770024 0 0.19804855879643121 -0.1116310472679948 0 0.18117976340425249 -0.1196349958770024 0 0.1617581537734776 -0.10305988918829841 0 0.16613174880043041 -0.12802153277750519 0 0.15089903572043001 -0.12206830273609059 0 0.1617581537734776 -0.10305988918829841 0 0.16613174880043041 -0.12802153277750519 0 0.170008727048647 -0.09060646598873523 0 0.18105389156354509 -0.1001164543967946 0 0.1617581537734776 -0.10305988918829841 0 0.15576031611683741 -0.0031135672654528379 0 0.1418785795583247 -0.02076158105754471 0 0.16463899084453079 -0.016523126177867709 0 0.15576031611683741 -0.0031135672654528379 0 0.1383395857447301 -0.0021895860680983272 0 0.1418785795583247 -0.02076158105754471 0 0.12099230233569511 -0.0076438222115242128 0 0.1418785795583247 -0.02076158105754471 0 0.12099230233569511 -0.0076438222115242128 0 0.1383395857447301 -0.0021895860680983272 0 0.1418785795583247 -0.02076158105754471 0 0.12099230233569511 -0.0076438222115242128 0 0.12880516403761089 -0.026287206120285001 0 0.1418785795583247 -0.02076158105754471 0 0.12880516403761089 -0.026287206120285001 0 0.13702479147036489 -0.028920422127857479 0 0.1418785795583247 -0.02076158105754471 0 0.12880516403761089 -0.026287206120285001 0 0.13702479147036489 -0.028920422127857479 0 0.1379813958509237 -0.037115109676355729 0 0.13702479147036489 -0.028920422127857479 0 0.14175621289780491 -0.030024756865932731 0 0.1418785795583247 -0.02076158105754471 0 0.1418785795583247 -0.02076158105754471 0 0.14924508780806159 -0.032851540300987123 0 0.1627648567809544 -0.033879339903565238 0 0.14175621289780491 -0.030024756865932731 0 0.1418785795583247 -0.02076158105754471 0 0.14924508780806159 -0.032851540300987123 0 0.1418785795583247 -0.02076158105754471 0 0.1627648567809544 -0.033879339903565238 0 0.1379813958509237 -0.037115109676355729 0 0.16037791680039551 -0.042778646778777137 0 0.1379813958509237 -0.037115109676355729 0 0.14935514903097569 -0.048249713902538252 0 0.16037791680039551 -0.042778646778777137 0 0.14924508780806159 -0.032851540300987123 0 0.1379813958509237 -0.037115109676355729 0 0.16037791680039551 -0.042778646778777137 0 0.14175621289780491 -0.030024756865932731 0 0.14924508780806159 -0.032851540300987123 0 0.1379813958509237 -0.037115109676355729 0 0.13063288400464379 -0.04076248775886309 0 0.13563198994974909 -0.049382561543655452 0 0.14935514903097569 -0.048249713902538252 0 0.13702479147036489 -0.028920422127857479 0 0.14175621289780491 -0.030024756865932731 0 0.1379813958509237 -0.037115109676355729 0 0.1155848749014519 -0.0314515725739343 0 0.12880516403761089 -0.026287206120285001 0 0.1379813958509237 -0.037115109676355729 0 0.1379813958509237 -0.037115109676355729 0 0.13063288400464379 -0.04076248775886309 0 0.14935514903097569 -0.048249713902538252 0 0.1155848749014519 -0.0314515725739343 0 0.1379813958509237 -0.037115109676355729 0 0.13063288400464379 -0.04076248775886309 0 0.1155848749014519 -0.0314515725739343 0 0.1379813958509237 -0.037115109676355729 0 0.13063288400464379 -0.04076248775886309 0 0.14935514903097569 -0.048249713902538252 0 0.1187476952086513 -0.043330431164904523 0 0.13063288400464379 -0.04076248775886309 0 0.12629659349330241 -0.051203577688934 0 0.13563198994974909 -0.049382561543655452 0 0.13624333327007471 -0.057314466824286453 0 0.14935514903097569 -0.048249713902538252 0 0.13063288400464379 -0.04076248775886309 0 0.13563198994974909 -0.049382561543655452 0 0.12629659349330241 -0.051203577688934 0 0.13563198994974909 -0.049382561543655452 0 0.12629659349330241 -0.051203577688934 0 0.13624333327007471 -0.057314466824286453 0 0.1230356126977307 -0.063836101017439834 0 0.12629659349330241 -0.051203577688934 0 0.13624333327007471 -0.057314466824286453 0 0.1465778942704504 -0.062484784213405052 0 0.14935514903097569 -0.048249713902538252 0 0.16472175238112449 -0.059281341708267182 0 0.13624333327007471 -0.057314466824286453 0 0.1465778942704504 -0.062484784213405052 0 0.14935514903097569 -0.048249713902538252 0 0.14935514903097569 -0.048249713902538252 0 0.16472175238112449 -0.059281341708267182 0 0.16037791680039551 -0.042778646778777137 0 0.18265413992086571 -0.063209171797065242 0 0.16472175238112449 -0.059281341708267182 0 0.17721723597264649 -0.048119666857815428 0 0.18265413992086571 -0.063209171797065242 0 0.1872012439579154 -0.050495101891165663 0 0.17721723597264649 -0.048119666857815428 0 0.17721723597264649 -0.048119666857815428 0 0.18232954346238989 -0.03944288021488971 0 0.17374786350507129 -0.03117611138198732 0 0.16472175238112449 -0.059281341708267182 0 0.17721723597264649 -0.048119666857815428 0 0.17374786350507129 -0.03117611138198732 0 0.1872012439579154 -0.050495101891165663 0 0.18232954346238989 -0.03944288021488971 0 0.18974557171305609 -0.039197820185349598 0 0.1872012439579154 -0.050495101891165663 0 0.17721723597264649 -0.048119666857815428 0 0.18232954346238989 -0.03944288021488971 0 0.18232954346238989 -0.03944288021488971 0 0.17374786350507129 -0.03117611138198732 0 0.18792482954308889 -0.031030272314535982 0 0.18232954346238989 -0.03944288021488971 0 0.18792482954308889 -0.031030272314535982 0 0.18974557171305609 -0.039197820185349598 0 0.16472175238112449 -0.059281341708267182 0 0.17374786350507129 -0.03117611138198732 0 0.16037791680039551 -0.042778646778777137 0 0.1627648567809544 -0.033879339903565238 0 0.17374786350507129 -0.03117611138198732 0 0.16472175238112449 -0.059281341708267182 0 0.16037791680039551 -0.042778646778777137 0 0.17374786350507129 -0.03117611138198732 0 0.14924508780806159 -0.032851540300987123 0 0.16037791680039551 -0.042778646778777137 0 0.1627648567809544 -0.033879339903565238 0 0.1418785795583247 -0.02076158105754471 0 0.1627648567809544 -0.033879339903565238 0 0.16662636630948741 -0.025905187780742508 0 0.1418785795583247 -0.02076158105754471 0 0.16463899084453079 -0.016523126177867709 0 0.16662636630948741 -0.025905187780742508 0 0.1627648567809544 -0.033879339903565238 0 0.16662636630948741 -0.025905187780742508 0 0.17374786350507129 -0.03117611138198732 0 0.16463899084453079 -0.016523126177867709 0 0.16662636630948741 -0.025905187780742508 0 0.17374786350507129 -0.03117611138198732 0 0.16463899084453079 -0.016523126177867709 0 0.17374786350507129 -0.03117611138198732 0 0.18277397462901801 -0.003070881055707454 0 0.17374786350507129 -0.03117611138198732 0 0.18661503547493849 -0.020213840946792339 0 0.18277397462901801 -0.003070881055707454 0 0.17374786350507129 -0.03117611138198732 0 0.18277397462901801 -0.003070881055707454 0 0.17374786350507129 -0.03117611138198732 0 0.18661503547493849 -0.020213840946792339 0 0.18792482954308889 -0.031030272314535982 0 0.16463899084453079 -0.016523126177867709 0 0.18277397462901801 -0.003070881055707454 0 0.1692383706313218 -0.0029367958741170052 0 0.15576031611683741 -0.0031135672654528379 0 0.16463899084453079 -0.016523126177867709 0 0.1692383706313218 -0.0029367958741170052 0 0.21641397312626279 0.0016274957474366101 0 0.2124127348350375 -0.010721438541432159 0 0.22145249104330941 -0.0062056516354621859 0 0.21641397312626279 0.0016274957474366101 0 0.2124127348350375 -0.010721438541432159 0 0.20607483203477139 -3.5438949451973201e-05 0 0.2124127348350375 -0.010721438541432159 0 0.20237768692611061 -0.0092756276077179973 0 0.20450668936656241 -0.016621933374531651 0 0.2124127348350375 -0.010721438541432159 0 0.20607483203477139 -3.5438949451973201e-05 0 0.20237768692611061 -0.0092756276077179973 0 0.18661503547493849 -0.020213840946792339 0 0.18277397462901801 -0.003070881055707454 0 0.19494229688671941 -0.012840184605972549 0 0.20607483203477139 -3.5438949451973201e-05 0 0.1968784915338824 -0.0032127247611820108 0 0.20237768692611061 -0.0092756276077179973 0 0.18277397462901801 -0.003070881055707454 0 0.1968784915338824 -0.0032127247611820108 0 0.19494229688671941 -0.012840184605972549 0 0.1968784915338824 -0.0032127247611820108 0 0.19494229688671941 -0.012840184605972549 0 0.20237768692611061 -0.0092756276077179973 0 0.19494229688671941 -0.012840184605972549 0 0.20237768692611061 -0.0092756276077179973 0 0.20450668936656241 -0.016621933374531651 0 0.19494229688671941 -0.012840184605972549 0 0.1986355422042804 -0.02366689082583863 0 0.20450668936656241 -0.016621933374531651 0 0.18661503547493849 -0.020213840946792339 0 0.19494229688671941 -0.012840184605972549 0 0.1986355422042804 -0.02366689082583863 0 0.18661503547493849 -0.020213840946792339 0 0.18792482954308889 -0.031030272314535982 0 0.1986355422042804 -0.02366689082583863 0 0.18792482954308889 -0.031030272314535982 0 0.1986355422042804 -0.02366689082583863 0 0.20035579015766289 -0.0341761546817336 0 0.1986355422042804 -0.02366689082583863 0 0.21236190727371909 -0.023434678707727589 0 0.20035579015766289 -0.0341761546817336 0 0.21236190727371909 -0.023434678707727589 0 0.21325127535602431 -0.034981661637147998 0 0.20035579015766289 -0.0341761546817336 0 0.1986355422042804 -0.02366689082583863 0 0.20450668936656241 -0.016621933374531651 0 0.21236190727371909 -0.023434678707727589 0 0.2124127348350375 -0.010721438541432159 0 0.20450668936656241 -0.016621933374531651 0 0.21236190727371909 -0.023434678707727589 0 0.2124127348350375 -0.010721438541432159 0 0.21236190727371909 -0.023434678707727589 0 0.22270366035609471 -0.014406103866121791 0 0.21236190727371909 -0.023434678707727589 0 0.21325127535602431 -0.034981661637147998 0 0.22338632524053381 -0.031615707309332337 0 0.21325127535602431 -0.034981661637147998 0 0.20719699954713439 -0.043703917571327022 0 0.22313855182560111 -0.04688114134729407 0 0.21325127535602431 -0.034981661637147998 0 0.20719699954713439 -0.043703917571327022 0 0.20035579015766289 -0.0341761546817336 0 0.18792482954308889 -0.031030272314535982 0 0.20035579015766289 -0.0341761546817336 0 0.18974557171305609 -0.039197820185349598 0 0.1872012439579154 -0.050495101891165663 0 0.18974557171305609 -0.039197820185349598 0 0.1970872797675628 -0.04431634318481182 0 0.20719699954713439 -0.043703917571327022 0 0.20035579015766289 -0.0341761546817336 0 0.1970872797675628 -0.04431634318481182 0 0.20035579015766289 -0.0341761546817336 0 0.18974557171305609 -0.039197820185349598 0 0.1970872797675628 -0.04431634318481182 0 0.20719699954713439 -0.043703917571327022 0 0.1970872797675628 -0.04431634318481182 0 0.1983617508783691 -0.054582964905123342 0 0.18265413992086571 -0.063209171797065242 0 0.1872012439579154 -0.050495101891165663 0 0.1983617508783691 -0.054582964905123342 0 0.1872012439579154 -0.050495101891165663 0 0.1970872797675628 -0.04431634318481182 0 0.1983617508783691 -0.054582964905123342 0 0.20719699954713439 -0.043703917571327022 0 0.1983617508783691 -0.054582964905123342 0 0.21305653649432049 -0.060612641229596448 0 0.20719699954713439 -0.043703917571327022 0 0.21305653649432049 -0.060612641229596448 0 0.22313855182560111 -0.04688114134729407 0 0.21305653649432049 -0.060612641229596448 0 0.22313855182560111 -0.04688114134729407 0 0.23128904129147659 -0.068719023116612335 0 0.22313855182560111 -0.04688114134729407 0 0.23697767947362269 -0.052383735573807128 0 0.23128904129147659 -0.068719023116612335 0 0.25203211719755469 -0.064864740168063206 0 0.23697767947362269 -0.052383735573807128 0 0.23128904129147659 -0.068719023116612335 0 0.25203211719755469 -0.064864740168063206 0 0.25000706599388611 -0.051970212916489379 0 0.23697767947362269 -0.052383735573807128 0 0.25000706599388611 -0.051970212916489379 0 0.25057940684032642 -0.039708976576940939 0 0.23697767947362269 -0.052383735573807128 0 0.25057940684032642 -0.039708976576940939 0 0.23697767947362269 -0.052383735573807128 0 0.2341133090130586 -0.038273198807539641 0 0.25057940684032642 -0.039708976576940939 0 0.2341133090130586 -0.038273198807539641 0 0.2397842340106007 -0.02772285238779167 0 0.25057940684032642 -0.039708976576940939 0 0.2397842340106007 -0.02772285238779167 0 0.24807984005970191 -0.028253642934939888 0 0.2341133090130586 -0.038273198807539641 0 0.23125314063493141 -0.028270207708141058 0 0.2397842340106007 -0.02772285238779167 0 0.2341133090130586 -0.038273198807539641 0 0.22338632524053381 -0.031615707309332337 0 0.23125314063493141 -0.028270207708141058 0 0.22313855182560111 -0.04688114134729407 0 0.2341133090130586 -0.038273198807539641 0 0.22338632524053381 -0.031615707309332337 0 0.22313855182560111 -0.04688114134729407 0 0.23697767947362269 -0.052383735573807128 0 0.2341133090130586 -0.038273198807539641 0 0.21325127535602431 -0.034981661637147998 0 0.22313855182560111 -0.04688114134729407 0 0.22338632524053381 -0.031615707309332337 0 0.21236190727371909 -0.023434678707727589 0 0.22338632524053381 -0.031615707309332337 0 0.2245611559324758 -0.022950762927601929 0 0.22338632524053381 -0.031615707309332337 0 0.2245611559324758 -0.022950762927601929 0 0.23125314063493141 -0.028270207708141058 0 0.2245611559324758 -0.022950762927601929 0 0.23175336187214621 -0.020080036691759371 0 0.22270366035609471 -0.014406103866121791 0 0.21236190727371909 -0.023434678707727589 0 0.2245611559324758 -0.022950762927601929 0 0.22270366035609471 -0.014406103866121791 0 0.23175336187214621 -0.020080036691759371 0 0.23929534332247451 -0.01779829999263639 0 0.23101493684282351 -0.01098437103982372 0 0.23175336187214621 -0.020080036691759371 0 0.23125314063493141 -0.028270207708141058 0 0.2397842340106007 -0.02772285238779167 0 0.2245611559324758 -0.022950762927601929 0 0.23175336187214621 -0.020080036691759371 0 0.23125314063493141 -0.028270207708141058 0 0.2397842340106007 -0.02772285238779167 0 0.24807984005970191 -0.028253642934939888 0 0.2465187985406741 -0.02114865632870299 0 0.2550806638953147 -0.025735556707865509 0 0.24807984005970191 -0.028253642934939888 0 0.2465187985406741 -0.02114865632870299 0 0.2465187985406741 -0.02114865632870299 0 0.23929534332247451 -0.01779829999263639 0 0.24633606395767821 -0.012292533897267661 0 0.25179701251938408 -0.017694226939863441 0 0.2465187985406741 -0.02114865632870299 0 0.24633606395767821 -0.012292533897267661 0 0.23175336187214621 -0.020080036691759371 0 0.2397842340106007 -0.02772285238779167 0 0.23929534332247451 -0.01779829999263639 0 0.2397842340106007 -0.02772285238779167 0 0.2465187985406741 -0.02114865632870299 0 0.23929534332247451 -0.01779829999263639 0 0.23929534332247451 -0.01779829999263639 0 0.23961623316352029 -0.010535604923312489 0 0.23101493684282351 -0.01098437103982372 0 0.23929534332247451 -0.01779829999263639 0 0.23961623316352029 -0.010535604923312489 0 0.24633606395767821 -0.012292533897267661 0 0.23961623316352029 -0.010535604923312489 0 0.24633606395767821 -0.012292533897267661 0 0.24435127403383339 -0.0061107394433980323 0 0.25120190602382952 -0.0052095755072275214 0 0.24633606395767821 -0.012292533897267661 0 0.24435127403383339 -0.0061107394433980323 0 0.24717639833345989 6.4481204013932397e-05 0 0.24435127403383339 -0.0061107394433980323 0 0.23812321768071351 -0.0016894971423481739 0 0.24717639833345989 6.4481204013932397e-05 0 0.25120190602382952 -0.0052095755072275214 0 0.24435127403383339 -0.0061107394433980323 0 0.23961623316352029 -0.010535604923312489 0 0.23812321768071351 -0.0016894971423481739 0 0.23101493684282351 -0.01098437103982372 0 0.23961623316352029 -0.010535604923312489 0 0.24435127403383339 -0.0061107394433980323 0 0.23812321768071351 -0.0016894971423481739 0 0.22731638315620431 0.0017916248146374911 0 0.23101493684282351 -0.01098437103982372 0 0.22145249104330941 -0.0062056516354621859 0 0.22731638315620431 0.0017916248146374911 0 0.23812321768071351 -0.0016894971423481739 0 0.23101493684282351 -0.01098437103982372 0 0.23175336187214621 -0.020080036691759371 0 0.23101493684282351 -0.01098437103982372 0 0.22270366035609471 -0.014406103866121791 0 0.23101493684282351 -0.01098437103982372 0 0.22270366035609471 -0.014406103866121791 0 0.22145249104330941 -0.0062056516354621859 0 0.2124127348350375 -0.010721438541432159 0 0.22270366035609471 -0.014406103866121791 0 0.22145249104330941 -0.0062056516354621859 0 0.22731638315620431 0.0017916248146374911 0 0.21641397312626279 0.0016274957474366101 0 0.22145249104330941 -0.0062056516354621859 0 0.20424669569066989 -0.093010712511760157 0 0.23095809472586509 -0.094903297564178341 0 0.21905942397718861 -0.11487809005607499 0 0.19804855879643121 -0.1116310472679948 0 0.20424669569066989 -0.093010712511760157 0 0.21905942397718861 -0.11487809005607499 0 0.19804855879643121 -0.1116310472679948 0 0.21905942397718861 -0.11487809005607499 0 0.20470301934649979 -0.13051498349834209 0 0.18117976340425249 -0.1196349958770024 0 0.19804855879643121 -0.1116310472679948 0 0.20470301934649979 -0.13051498349834209 0 0.18105389156354509 -0.1001164543967946 0 0.19804855879643121 -0.1116310472679948 0 0.20424669569066989 -0.093010712511760157 0 0.18347981951830081 -0.081224605947527853 0 0.19992615683143489 -0.072569187140887476 0 0.20424669569066989 -0.093010712511760157 0 0.18347981951830081 -0.081224605947527853 0 0.18105389156354509 -0.1001164543967946 0 0.20424669569066989 -0.093010712511760157 0 0.18265413992086571 -0.063209171797065242 0 0.18347981951830081 -0.081224605947527853 0 0.19992615683143489 -0.072569187140887476 0 0.18265413992086571 -0.063209171797065242 0 0.1983617508783691 -0.054582964905123342 0 0.19992615683143489 -0.072569187140887476 0 0.21305653649432049 -0.060612641229596448 0 0.19992615683143489 -0.072569187140887476 0 0.2156535154995646 -0.077681492123032048 0 0.1983617508783691 -0.054582964905123342 0 0.21305653649432049 -0.060612641229596448 0 0.19992615683143489 -0.072569187140887476 0 0.2156535154995646 -0.077681492123032048 0 0.20424669569066989 -0.093010712511760157 0 0.23095809472586509 -0.094903297564178341 0 0.19992615683143489 -0.072569187140887476 0 0.2156535154995646 -0.077681492123032048 0 0.20424669569066989 -0.093010712511760157 0 0.2156535154995646 -0.077681492123032048 0 0.23128904129147659 -0.068719023116612335 0 0.23095809472586509 -0.094903297564178341 0 0.21305653649432049 -0.060612641229596448 0 0.2156535154995646 -0.077681492123032048 0 0.23128904129147659 -0.068719023116612335 0 0.25203211719755469 -0.064864740168063206 0 0.23128904129147659 -0.068719023116612335 0 0.24720679382380811 -0.083706113810315161 0 0.23128904129147659 -0.068719023116612335 0 0.24720679382380811 -0.083706113810315161 0 0.23095809472586509 -0.094903297564178341 0 0.25248068696964349 -0.10451247860643401 0 0.23095809472586509 -0.094903297564178341 0 0.24073824683074749 -0.11898309597363541 0 0.25248068696964349 -0.10451247860643401 0 0.24720679382380811 -0.083706113810315161 0 0.23095809472586509 -0.094903297564178341 0 0.23095809472586509 -0.094903297564178341 0 0.21905942397718861 -0.11487809005607499 0 0.24073824683074749 -0.11898309597363541 0 0.21905942397718861 -0.11487809005607499 0 0.24073824683074749 -0.11898309597363541 0 0.228339489367056 -0.13603105781785901 0 0.25297455976986188 -0.13670752837950159 0 0.2461275228407423 -0.14899868001382041 0 0.228339489367056 -0.13603105781785901 0 0.25297455976986188 -0.13670752837950159 0 0.24073824683074749 -0.11898309597363541 0 0.228339489367056 -0.13603105781785901 0 0.2461275228407423 -0.14899868001382041 0 0.22371765673075619 -0.15755341882589449 0 0.228339489367056 -0.13603105781785901 0 0.20989406078965001 -0.14769326198551 0 0.22371765673075619 -0.15755341882589449 0 0.2461275228407423 -0.14899868001382041 0 0.228339489367056 -0.13603105781785901 0 0.22371765673075619 -0.15755341882589449 0 0.21905942397718861 -0.11487809005607499 0 0.228339489367056 -0.13603105781785901 0 0.20470301934649979 -0.13051498349834209 0 0.228339489367056 -0.13603105781785901 0 0.20470301934649979 -0.13051498349834209 0 0.20989406078965001 -0.14769326198551 0 0.20470301934649979 -0.13051498349834209 0 0.20989406078965001 -0.14769326198551 0 0.19140234788316829 -0.14825869214748591 0 0.20989406078965001 -0.14769326198551 0 0.19140234788316829 -0.14825869214748591 0 0.20130779062077001 -0.16610815763796871 0 0.18117976340425249 -0.1196349958770024 0 0.20470301934649979 -0.13051498349834209 0 0.19140234788316829 -0.14825869214748591 0 0.20130779062077001 -0.16610815763796871 0 0.21209924517184561 -0.19169772880878011 0 0.19124100147729961 -0.18939310784996261 0 0.20130779062077001 -0.16610815763796871 0 0.19124100147729961 -0.18939310784996261 0 0.17889792451078379 -0.17466289645004279 0 0.20130779062077001 -0.16610815763796871 0 0.17889792451078379 -0.17466289645004279 0 0.19140234788316829 -0.14825869214748591 0 0.20130779062077001 -0.16610815763796871 0 0.17889792451078379 -0.17466289645004279 0 0.20130779062077001 -0.16610815763796871 0 0.22340943526861329 -0.17649741424432741 0 0.22371765673075619 -0.15755341882589449 0 0.20989406078965001 -0.14769326198551 0 0.20130779062077001 -0.16610815763796871 0 0.22371765673075619 -0.15755341882589449 0 0.20130779062077001 -0.16610815763796871 0 0.22371765673075619 -0.15755341882589449 0 0.20130779062077001 -0.16610815763796871 0 0.22340943526861329 -0.17649741424432741 0 0.21209924517184561 -0.19169772880878011 0 0.22340943526861329 -0.17649741424432741 0 0.24368847620589321 -0.17005331356982009 0 0.23371033073555489 -0.19680947082035069 0 0.22340943526861329 -0.17649741424432741 0 0.22371765673075619 -0.15755341882589449 0 0.24368847620589321 -0.17005331356982009 0 0.2461275228407423 -0.14899868001382041 0 0.22371765673075619 -0.15755341882589449 0 0.24368847620589321 -0.17005331356982009 0 0.2593630558311944 -0.15522840324506251 0 0.2461275228407423 -0.14899868001382041 0 0.24368847620589321 -0.17005331356982009 0 0.25763777960625811 -0.1905340692105793 0 0.24368847620589321 -0.17005331356982009 0 0.23371033073555489 -0.19680947082035069 0 0.25763777960625811 -0.1905340692105793 0 0.24621464331876661 -0.21430126791017801 0 0.23371033073555489 -0.19680947082035069 0 0.24621464331876661 -0.21430126791017801 0 0.2315908603181053 -0.21381136247675281 0 0.23371033073555489 -0.19680947082035069 0 0.24621464331876661 -0.21430126791017801 0 0.2315908603181053 -0.21381136247675281 0 0.23548395107769551 -0.22336724572734509 0 0.23371033073555489 -0.19680947082035069 0 0.2176511443524026 -0.21598299943752619 0 0.23371033073555489 -0.19680947082035069 0 0.21130221668779819 -0.2068890715702239 0 0.2176511443524026 -0.21598299943752619 0 0.2315908603181053 -0.21381136247675281 0 0.23371033073555489 -0.19680947082035069 0 0.2176511443524026 -0.21598299943752619 0 0.2315908603181053 -0.21381136247675281 0 0.23548395107769551 -0.22336724572734509 0 0.22409439849438709 -0.21896820190110461 0 0.2315908603181053 -0.21381136247675281 0 0.22409439849438709 -0.21896820190110461 0 0.2176511443524026 -0.21598299943752619 0 0.22340943526861329 -0.17649741424432741 0 0.23371033073555489 -0.19680947082035069 0 0.21209924517184561 -0.19169772880878011 0 0.23371033073555489 -0.19680947082035069 0 0.21209924517184561 -0.19169772880878011 0 0.21130221668779819 -0.2068890715702239 0 0.24621464331876661 -0.21430126791017801 0 0.24630189157149271 -0.23862719373273489 0 0.23548395107769551 -0.22336724572734509 0 0.22409439849438709 -0.21896820190110461 0 0.21785392573041409 -0.23641888406417749 0 0.2176511443524026 -0.21598299943752619 0 0.24630189157149271 -0.23862719373273489 0 0.23548395107769551 -0.22336724572734509 0 0.21785392573041409 -0.23641888406417749 0 0.22409439849438709 -0.21896820190110461 0 0.21785392573041409 -0.23641888406417749 0 0.23548395107769551 -0.22336724572734509 0 0.22409439849438709 -0.21896820190110461 0 0.21785392573041409 -0.23641888406417749 0 0.22539995833197279 -0.25439694151812092 0 0.24630189157149271 -0.23862719373273489 0 0.21785392573041409 -0.23641888406417749 0 0.24630189157149271 -0.23862719373273489 0 0.21785392573041409 -0.23641888406417749 0 0.2011585879306918 -0.25009629578211662 0 0.21785392573041409 -0.23641888406417749 0 0.20159195796925031 -0.2351565280547018 0 0.21785392573041409 -0.23641888406417749 0 0.20159195796925031 -0.2351565280547018 0 0.20839792567908169 -0.26286137611100968 0 0.21785392573041409 -0.23641888406417749 0 0.20839792567908169 -0.26286137611100968 0 0.2011585879306918 -0.25009629578211662 0 0.21785392573041409 -0.23641888406417749 0 0.20159195796925031 -0.2351565280547018 0 0.2176511443524026 -0.21598299943752619 0 0.20512216916870521 -0.2278805250815514 0 0.20159195796925031 -0.2351565280547018 0 0.2176511443524026 -0.21598299943752619 0 0.21785392573041409 -0.23641888406417749 0 0.20159195796925031 -0.2351565280547018 0 0.2176511443524026 -0.21598299943752619 0 0.20512216916870521 -0.2278805250815514 0 0.20159195796925031 -0.2351565280547018 0 0.20512216916870521 -0.2278805250815514 0 0.20030767657713899 -0.22213255022427639 0 0.20711053644147431 -0.21610162008186751 0 0.20512216916870521 -0.2278805250815514 0 0.2176511443524026 -0.21598299943752619 0 0.20711053644147431 -0.21610162008186751 0 0.20030767657713899 -0.22213255022427639 0 0.18843438840053089 -0.22429703839327381 0 0.19478163809190921 -0.2284030752495009 0 0.18843438840053089 -0.22429703839327381 0 0.19478163809190921 -0.2284030752495009 0 0.18684633826248009 -0.23357069629916619 0 0.19478163809190921 -0.2284030752495009 0 0.1965713687692737 -0.2323596290916792 0 0.18684633826248009 -0.23357069629916619 0 0.20512216916870521 -0.2278805250815514 0 0.20030767657713899 -0.22213255022427639 0 0.20093119683563099 -0.23027237288877769 0 0.20030767657713899 -0.22213255022427639 0 0.19478163809190921 -0.2284030752495009 0 0.20093119683563099 -0.23027237288877769 0 0.1965713687692737 -0.2323596290916792 0 0.20093119683563099 -0.23027237288877769 0 0.19965478479677759 -0.23319614450000781 0 0.19478163809190921 -0.2284030752495009 0 0.1965713687692737 -0.2323596290916792 0 0.20093119683563099 -0.23027237288877769 0 0.20093119683563099 -0.23027237288877769 0 0.19965478479677759 -0.23319614450000781 0 0.20159195796925031 -0.2351565280547018 0 0.1965713687692737 -0.2323596290916792 0 0.19965478479677759 -0.23319614450000781 0 0.20159195796925031 -0.2351565280547018 0 0.20512216916870521 -0.2278805250815514 0 0.20093119683563099 -0.23027237288877769 0 0.20159195796925031 -0.2351565280547018 0 0.18788263882716169 -0.25679145815736337 0 0.2011585879306918 -0.25009629578211662 0 0.198785433941357 -0.2385073185293709 0 0.18788263882716169 -0.25679145815736337 0 0.198785433941357 -0.2385073185293709 0 0.18152387782089699 -0.25911639126544889 0 0.198785433941357 -0.2385073185293709 0 0.2011585879306918 -0.25009629578211662 0 0.20159195796925031 -0.2351565280547018 0 0.198785433941357 -0.2385073185293709 0 0.20159195796925031 -0.2351565280547018 0 0.198785433941357 -0.2385073185293709 0 0.1965713687692737 -0.2323596290916792 0 0.20159195796925031 -0.2351565280547018 0 0.198785433941357 -0.2385073185293709 0 0.1965713687692737 -0.2323596290916792 0 0.198785433941357 -0.2385073185293709 0 0.18684633826248009 -0.23357069629916619 0 0.21209924517184561 -0.19169772880878011 0 0.21130221668779819 -0.2068890715702239 0 0.2002668167861883 -0.2079973836010269 0 0.21209924517184561 -0.19169772880878011 0 0.2002668167861883 -0.2079973836010269 0 0.21130221668779819 -0.2068890715702239 0 0.2176511443524026 -0.21598299943752619 0 0.20711053644147431 -0.21610162008186751 0 0.21130221668779819 -0.2068890715702239 0 0.20711053644147431 -0.21610162008186751 0 0.2002668167861883 -0.2079973836010269 0 0.18843438840053089 -0.22429703839327381 0 0.2002668167861883 -0.2079973836010269 0 0.180016103686264 -0.2162986932733435 0 0.20030767657713899 -0.22213255022427639 0 0.18843438840053089 -0.22429703839327381 0 0.2002668167861883 -0.2079973836010269 0 0.18843438840053089 -0.22429703839327381 0 0.2002668167861883 -0.2079973836010269 0 0.20030767657713899 -0.22213255022427639 0 0.20711053644147431 -0.21610162008186751 0 0.2002668167861883 -0.2079973836010269 0 0.21209924517184561 -0.19169772880878011 0 0.2002668167861883 -0.2079973836010269 0 0.19124100147729961 -0.18939310784996261 0 0.2002668167861883 -0.2079973836010269 0 0.19124100147729961 -0.18939310784996261 0 0.1800858015089348 -0.20404122918650869 0 0.19124100147729961 -0.18939310784996261 0 0.17300839484359959 -0.19032515620154181 0 0.1800858015089348 -0.20404122918650869 0 0.17300839484359959 -0.19032515620154181 0 0.1800858015089348 -0.20404122918650869 0 0.16511688276789979 -0.2037422734579345 0 0.2002668167861883 -0.2079973836010269 0 0.1800858015089348 -0.20404122918650869 0 0.180016103686264 -0.2162986932733435 0 0.180016103686264 -0.2162986932733435 0 0.17158712606925181 -0.21317965921763191 0 0.17245955861392881 -0.22544357065373899 0 0.1800858015089348 -0.20404122918650869 0 0.180016103686264 -0.2162986932733435 0 0.17158712606925181 -0.21317965921763191 0 0.1800858015089348 -0.20404122918650869 0 0.16511688276789979 -0.2037422734579345 0 0.17158712606925181 -0.21317965921763191 0 0.16511688276789979 -0.2037422734579345 0 0.1602572837692316 -0.2163725295166338 0 0.14923355453419229 -0.2049748746529709 0 0.16511688276789979 -0.2037422734579345 0 0.17158712606925181 -0.21317965921763191 0 0.1602572837692316 -0.2163725295166338 0 0.17158712606925181 -0.21317965921763191 0 0.1602572837692316 -0.2163725295166338 0 0.17245955861392881 -0.22544357065373899 0 0.16511688276789979 -0.2037422734579345 0 0.1580161072334256 -0.19051013192350971 0 0.14923355453419229 -0.2049748746529709 0 0.17300839484359959 -0.19032515620154181 0 0.16511688276789979 -0.2037422734579345 0 0.1580161072334256 -0.19051013192350971 0 0.198785433941357 -0.2385073185293709 0 0.17660196001487369 -0.24059669318552079 0 0.18684633826248009 -0.23357069629916619 0 0.18152387782089699 -0.25911639126544889 0 0.198785433941357 -0.2385073185293709 0 0.17660196001487369 -0.24059669318552079 0 0.17660196001487369 -0.24059669318552079 0 0.18684633826248009 -0.23357069629916619 0 0.18843438840053089 -0.22429703839327381 0 0.17660196001487369 -0.24059669318552079 0 0.18843438840053089 -0.22429703839327381 0 0.17660196001487369 -0.24059669318552079 0 0.17245955861392881 -0.22544357065373899 0 0.18843438840053089 -0.22429703839327381 0 0.180016103686264 -0.2162986932733435 0 0.17245955861392881 -0.22544357065373899 0 0.18843438840053089 -0.22429703839327381 0 0.17660196001487369 -0.24059669318552079 0 0.18684633826248009 -0.23357069629916619 0 0.1602572837692316 -0.2163725295166338 0 0.17245955861392881 -0.22544357065373899 0 0.1565386742983306 -0.23081333914389149 0 0.17245955861392881 -0.22544357065373899 0 0.1565386742983306 -0.23081333914389149 0 0.16577419905364421 -0.23763837501405671 0 0.1574966032874438 -0.25369989707307561 0 0.1565386742983306 -0.23081333914389149 0 0.16577419905364421 -0.23763837501405671 0 0.16074166857342259 -0.25327435041196428 0 0.1574966032874438 -0.25369989707307561 0 0.17660196001487369 -0.24059669318552079 0 0.1574966032874438 -0.25369989707307561 0 0.17660196001487369 -0.24059669318552079 0 0.1574966032874438 -0.25369989707307561 0 0.17660196001487369 -0.24059669318552079 0 0.16577419905364421 -0.23763837501405671 0 0.17660196001487369 -0.24059669318552079 0 0.17245955861392881 -0.22544357065373899 0 0.16577419905364421 -0.23763837501405671 0 0.13307923001982941 -0.25143477649120521 0 0.1574966032874438 -0.25369989707307561 0 0.14601890215067431 -0.2422933982639863 0 0.1574966032874438 -0.25369989707307561 0 0.1565386742983306 -0.23081333914389149 0 0.14601890215067431 -0.2422933982639863 0 0.14601890215067431 -0.2422933982639863 0 0.1429593770560329 -0.22674864940972381 0 0.13708891809954329 -0.2396171107900015 0 0.1565386742983306 -0.23081333914389149 0 0.14601890215067431 -0.2422933982639863 0 0.1429593770560329 -0.22674864940972381 0 0.1565386742983306 -0.23081333914389149 0 0.1429593770560329 -0.22674864940972381 0 0.1484190403351289 -0.21651349676145201 0 0.1602572837692316 -0.2163725295166338 0 0.1565386742983306 -0.23081333914389149 0 0.1484190403351289 -0.21651349676145201 0 0.1429593770560329 -0.22674864940972381 0 0.12629816317163689 -0.23799161899509089 0 0.13094528246371709 -0.21063461998422089 0 0.12629816317163689 -0.23799161899509089 0 0.13094528246371709 -0.21063461998422089 0 0.1429593770560329 -0.22674864940972381 0 0.13708891809954329 -0.2396171107900015 0 0.12629816317163689 -0.23799161899509089 0 0.13307923001982941 -0.25143477649120521 0 0.13708891809954329 -0.2396171107900015 0 0.12629816317163689 -0.23799161899509089 0 0.13307923001982941 -0.25143477649120521 0 0.14601890215067431 -0.2422933982639863 0 0.13708891809954329 -0.2396171107900015 0 0.1447355385180974 -0.1926706049944433 0 0.14923355453419229 -0.2049748746529709 0 0.13094528246371709 -0.21063461998422089 0 0.1580161072334256 -0.19051013192350971 0 0.1447355385180974 -0.1926706049944433 0 0.14923355453419229 -0.2049748746529709 0 0.14923355453419229 -0.2049748746529709 0 0.1484190403351289 -0.21651349676145201 0 0.13094528246371709 -0.21063461998422089 0 0.1429593770560329 -0.22674864940972381 0 0.1484190403351289 -0.21651349676145201 0 0.13094528246371709 -0.21063461998422089 0 0.1602572837692316 -0.2163725295166338 0 0.14923355453419229 -0.2049748746529709 0 0.1484190403351289 -0.21651349676145201 0 0.1447355385180974 -0.1926706049944433 0 0.13094528246371709 -0.21063461998422089 0 0.13559240175579729 -0.18327762097335101 0 0.13094528246371709 -0.21063461998422089 0 0.13559240175579729 -0.18327762097335101 0 0.1190053186334129 -0.19689047808001531 0 0.13094528246371709 -0.21063461998422089 0 0.13559240175579729 -0.18327762097335101 0 0.1190053186334129 -0.19689047808001531 0 0.1233178879655227 -0.16914131020130571 0 0.13559240175579729 -0.18327762097335101 0 0.1233178879655227 -0.16914131020130571 0 0.13559240175579729 -0.18327762097335101 0 0.136681100487822 -0.17063515695626749 0 0.1580161072334256 -0.19051013192350971 0 0.1447355385180974 -0.1926706049944433 0 0.1498903466033549 -0.17395577743816421 0 0.1447355385180974 -0.1926706049944433 0 0.13559240175579729 -0.18327762097335101 0 0.1498903466033549 -0.17395577743816421 0 0.13559240175579729 -0.18327762097335101 0 0.1498903466033549 -0.17395577743816421 0 0.136681100487822 -0.17063515695626749 0 0.1498903466033549 -0.17395577743816421 0 0.15410569600938631 -0.15673255941578301 0 0.13913183779343499 -0.1578048223199392 0 0.1498903466033549 -0.17395577743816421 0 0.13913183779343499 -0.1578048223199392 0 0.136681100487822 -0.17063515695626749 0 0.1233178879655227 -0.16914131020130571 0 0.13913183779343499 -0.1578048223199392 0 0.136681100487822 -0.17063515695626749 0 0.1233178879655227 -0.16914131020130571 0 0.13913183779343499 -0.1578048223199392 0 0.1276304572976372 -0.14139214232259689 0 0.1276304572976372 -0.14139214232259689 0 0.15064362674143381 -0.14271334416548909 0 0.13913183779343499 -0.1578048223199392 0 0.1276304572976372 -0.14139214232259689 0 0.15064362674143381 -0.14271334416548909 0 0.1242808276787848 -0.14119983778861131 0 0.1233178879655227 -0.16914131020130571 0 0.1276304572976372 -0.14139214232259689 0 0.1233178879655227 -0.16914131020130571 0 0.1276304572976372 -0.14139214232259689 0 0.1242808276787848 -0.14119983778861131 0 0.1276304572976372 -0.14139214232259689 0 0.1232567505869934 -0.1304402152193046 0 0.1306570999542464 -0.1219172518989441 0 0.1276304572976372 -0.14139214232259689 0 0.1306570999542464 -0.1219172518989441 0 0.1276304572976372 -0.14139214232259689 0 0.1306570999542464 -0.1219172518989441 0 0.1276304572976372 -0.14139214232259689 0 0.13995755492843681 -0.13202276028078019 0 0.1276304572976372 -0.14139214232259689 0 0.13995755492843681 -0.13202276028078019 0 0.15064362674143381 -0.14271334416548909 0 0.1306570999542464 -0.1219172518989441 0 0.15089903572043001 -0.12206830273609059 0 0.13995755492843681 -0.13202276028078019 0 0.1232567505869934 -0.1304402152193046 0 0.1242808276787848 -0.14119983778861131 0 0.1276304572976372 -0.14139214232259689 0 0.15089903572043001 -0.12206830273609059 0 0.15064362674143381 -0.14271334416548909 0 0.16613174880043041 -0.12802153277750519 0 0.15089903572043001 -0.12206830273609059 0 0.13995755492843681 -0.13202276028078019 0 0.15064362674143381 -0.14271334416548909 0 0.15410569600938631 -0.15673255941578301 0 0.13913183779343499 -0.1578048223199392 0 0.15064362674143381 -0.14271334416548909 0 0.15410569600938631 -0.15673255941578301 0 0.17365679618523039 -0.14403454600838081 0 0.1672409944588979 -0.16089502563472269 0 0.15064362674143381 -0.14271334416548909 0 0.17365679618523039 -0.14403454600838081 0 0.15410569600938631 -0.15673255941578301 0 0.15064362674143381 -0.14271334416548909 0 0.17365679618523039 -0.14403454600838081 0 0.15064362674143381 -0.14271334416548909 0 0.16613174880043041 -0.12802153277750519 0 0.17365679618523039 -0.14403454600838081 0 0.18117976340425249 -0.1196349958770024 0 0.19140234788316829 -0.14825869214748591 0 0.17365679618523039 -0.14403454600838081 0 0.18117976340425249 -0.1196349958770024 0 0.16613174880043041 -0.12802153277750519 0 0.17365679618523039 -0.14403454600838081 0 0.19140234788316829 -0.14825869214748591 0 0.17365679618523039 -0.14403454600838081 0 0.1672409944588979 -0.16089502563472269 0 0.19140234788316829 -0.14825869214748591 0 0.17889792451078379 -0.17466289645004279 0 0.1672409944588979 -0.16089502563472269 0 0.19124100147729961 -0.18939310784996261 0 0.17300839484359959 -0.19032515620154181 0 0.17889792451078379 -0.17466289645004279 0 0.17300839484359959 -0.19032515620154181 0 0.17889792451078379 -0.17466289645004279 0 0.16520558153951009 -0.17850736919008101 0 0.1580161072334256 -0.19051013192350971 0 0.1498903466033549 -0.17395577743816421 0 0.16520558153951009 -0.17850736919008101 0 0.17300839484359959 -0.19032515620154181 0 0.1580161072334256 -0.19051013192350971 0 0.16520558153951009 -0.17850736919008101 0 0.1498903466033549 -0.17395577743816421 0 0.16520558153951009 -0.17850736919008101 0 0.1672409944588979 -0.16089502563472269 0 0.17889792451078379 -0.17466289645004279 0 0.16520558153951009 -0.17850736919008101 0 0.1672409944588979 -0.16089502563472269 0 0.1498903466033549 -0.17395577743816421 0 0.15410569600938631 -0.15673255941578301 0 0.1672409944588979 -0.16089502563472269 0 
</DataArray>
</Points>
<Cells>
<DataArray type="UInt32" Name="connectivity" format="ascii">
0 1 2 3 4 5 6 7 8 9 10 11 12 13 14 15 16 17 18 19 20 21 22 23 24 25 26 27 28 29 30 31 32 33 34 35 36 37 38 39 40 41 42 43 44 45 46 47 48 49 50 51 52 53 54 55 56 57 58 59 60 61 62 63 64 65 66 67 68 69 70 71 72 73 74 75 76 77 78 79 80 81 82 83 84 85 86 87 88 89 90 91 92 93 94 95 96 97 98 99 100 101 102 103 104 105 106 107 108 109 110 111 112 113 114 115 116 117 118 119 120 121 122 123 124 125 126 127 128 129 130 131 132 133 134 135 136 137 138 139 140 141 142 143 144 145 146 147 148 149 150 151 152 153 154 155 156 157 158 159 160 161 162 163 164 165 166 167 168 169 170 171 172 173 174 175 176 177 178 179 180 181 182 183 184 185 186 187 188 189 190 191 192 193 194 195 196 197 198 199 200 201 202 203 204 205 206 207 208 209 210 211 212 213 214 215 216 217 218 219 220 221 222 223 224 225 226 227 228 229 230 231 232 233 234 235 236 237 238 239 240 241 242 243 244 245 246 247 248 249 250 251 252 253 254 255 256 257 258 259 260 261 262 263 264 265 266 267 268 269 270 271 272 273 274 275 276 277 278 279 280 281 282 283 284 285 286 287 288 289 290 291 292 293 294 295 296 297 298 299 300 301 302 303 304 305 306 307 308 309 310 311 312 313 314 315 316 317 318 319 320 321 322 323 324 325 326 327 328 329 330 331 332 333 334 335 336 337 338 339 340 341 342 343 344 345 346 347 348 349 350 351 352 353 354 355 356 357 358 359 360 361 362 363 364 365 366 367 368 369 370 371 372 373 374 375 376 377 378 379 380 381 382 383 384 385 386 387 388 389 390 391 392 393 394 395 396 397 398 399 400 401 402 403 404 405 406 407 408 409 410 411 412 413 414 415 416 417 418 419 420 421 422 423 424 425 426 427 428 429 430 431 432 433 434 435 436 437 438 439 440 441 442 443 444 445 446 447 448 449 450 451 452 453 454 455 456 457 458 459 460 461 462 463 464 465 466 467 468 469 470 471 472 473 474 475 476 477 478 479 480 481 482 483 484 485 486 487 488 489 490 491 492 493 494 495 496 497 498 499 500 501 502 503 504 505 506 507 508 509 510 511 512 513 514 515 516 517 518 519 520 521 522 523 524 525 526 527 528 529 530 531 532 533 534 535 536 537 538 539 540 541 542 543 544 545 546 547 548 549 550 551 552 553 554 555 556 557 558 559 560 561 562 563 564 565 566 567 568 569 570 571 572 573 574 575 576 577 578 579 580 581 582 583 584 585 586 587 588 589 590 591 592 593 594 595 596 597 598 599 600 601 602 603 604 605 606 607 608 609 610 611 612 613 614 615 616 617 618 619 620 621 622 623 624 625 626 627 628 629 630 631 632 633 634 635 636 637 638 639 640 641 642 643 644 645 646 647 648 649 650 651 652 653 654 655 656 657 658 659 660 661 662 663 664 665 666 667 668 669 670 671 672 673 674 675 676 677 678 679 680 681 682 683 684 685 686 687 688 689 690 691 692 693 694 695 696 697 698 699 700 701 702 703 704 705 706 707 708 709 710 711 712 713 714 715 716 717 718 719 720 721 722 723 724 725 726 727 728 729 730 731 732 733 734 735 736 737 738 739 740 741 742 743 744 745 746 747 748 749 750 751 752 753 754 755 756 757 758 759 760 761 762 763 764 765 766 767 768 769 770 771 772 773 774 775 776 777 778 779 780 781 782 783 784 785 786 787 788 789 790 791 792 793 794 795 796 797 798 799 800 801 802 803 804 805 806 807 808 809 810 811 812 813 814 815 816 817 818 819 820 821 822 823 824 825 826 827 828 829 830 831 832 833 834 835 836 837 838 839 840 841 842 843 844 845 846 847 848 849 850 851 852 853 854 855 856 857 858 859 860 861 862 863 864 865 866 867 868 869 870 871 872 873 874 875 876 877 878 879 880 881 882 883 884 885 886 887 888 889 890 891 892 893 894 895 896 897 898 899 900 901 902 903 904 905 906 907 908 909 910 911 912 913 914 915 916 917 918 919 920 921 922 923 924 925 926 927 928 929 930 931 932 933 934 935 936 937 938 939 940 941 942 943 944 945 946 947 948 949 950 951 952 953 954 955 956 957 958 959 960 961 962 963 964 965 966 967 968 969 970 971 972 973 974 975 976 977 978 979 980 981 982 983 984 985 986 987 988 989 990 991 992 993 994 995 996 997 998 999 1000 1001 1002 1003 1004 1005 1006 1007 1008 1009 1010 1011 1012 1013 1014 1015 1016 1017 1018 1019 1020 1021 1022 1023 1024 1025 1026 1027 1028 1029 1030 1031 1032 1033 1034 1035 1036 1037 1038 1039 1040 1041 1042 1043 1044 1045 1046 1047 1048 1049 1050 1051 1052 1053 1054 1055 1056 1057 1058 1059 1060 1061 1062 1063 1064 1065 1066 1067 1068 1069 1070 1071 1072 1073 1074 1075 1076 1077 1078 1079 1080 1081 1082 1083 1084 1085 1086 1087 1088 1089 1090 1091 1092 1093 1094 1095 1096 1097 1098 1099 1100 1101 1102 1103 1104 1105 1106 1107 1108 1109 1110 1111 1112 1113 1114 1115 1116 1117 1118 1119 1120 1121 1122 1123 1124 1125 1126 1127 1128 1129 1130 1131 1132 1133 1134 1135 1136 1137 1138 1139 1140 1141 1142 1143 1144 1145 1146 1147 1148 1149 1150 1151 1152 1153 1154 1155 1156 1157 1158 1159 1160 1161 1162 1163 1164 1165 1166 1167 1168 1169 1170 1171 1172 1173 1174 1175 1176 1177 1178 1179 1180 1181 1182 1183 1184 1185 1186 1187 1188 1189 1190 1191 1192 1193 1194 1195 1196 1197 1198 1199 1200 1201 1202 1203 1204 1205 1206 1207 1208 1209 1210 1211 1212 1213 1214 1215 1216 1217 1218 1219 1220 1221 1222 1223 1224 1225 1226 1227 1228 1229 1230 1231 1232 1233 1234 1235 1236 1237 1238 1239 1240 1241 1242 1243 1244 1245 1246 1247 1248 1249 1250 1251 1252 1253 1254 1255 1256 1257 1258 1259 1260 1261 1262 1263 1264 1265 1266 1267 1268 1269 1270 1271 1272 1273 1274 1275 1276 1277 1278 1279 1280 1281 1282 1283 1284 1285 1286 1287 1288 1289 1290 1291 1292 1293 1294 1295 1296 1297 1298 1299 1300 1301 1302 1303 1304 1305 1306 1307 1308 1309 1310 1311 1312 1313 1314 1315 1316 1317 1318 1319 1320 1321 1322 1323 1324 1325 1326 1327 1328 1329 1330 1331 1332 1333 1334 1335 1336 1337 1338 1339 1340 1341 1342 1343 1344 1345 1346 1347 1348 1349 1350 1351 1352 1353 1354 1355 1356 1357 1358 1359 1360 1361 1362 1363 1364 1365 1366 1367 1368 1369 1370 1371 1372 1373 1374 1375 1376 1377 1378 1379 1380 1381 1382 1383 1384 1385 1386 1387 1388 1389 1390 1391 1392 1393 1394 1395 1396 1397 1398 1399 1400 1401 1402 1403 1404 1405 1406 1407 1408 1409 1410 1411 1412 1413 1414 1415 1416 1417 1418 1419 1420 1421 1422 1423 1424 1425 1426 1427 1428 1429 1430 1431 1432 1433 1434 1435 1436 1437 1438 1439 1440 1441 1442 1443 1444 1445 1446 1447 1448 1449 1450 1451 1452 1453 1454 1455 1456 1457 1458 1459 1460 1461 1462 1463 1464 1465 1466 1467 1468 1469 1470 1471 1472 1473 1474 1475 1476 1477 1478 1479 1480 1481 1482 1483 1484 1485 1486 1487 1488 1489 1490 1491 1492 1493 1494 1495 1496 1497 1498 1499 1500 1501 1502 1503 1504 1505 1506 1507 1508 1509 1510 1511 1512 1513 1514 1515 1516 1517 1518 1519 1520 1521 1522 1523 1524 1525 1526 1527 1528 1529 1530 1531 1532 1533 1534 1535 1536 1537 1538 1539 1540 1541 1542 1543 1544 1545 1546 1547 1548 1549 1550 1551 1552 1553 1554 1555 1556 1557 1558 1559 1560 1561 1562 1563 1564 1565 1566 1567 1568 1569 1570 1571 1572 1573 1574 1575 1576 1577 1578 1579 1580 1581 1582 1583 1584 1585 1586 1587 1588 1589 1590 1591 1592 1593 1594 1595 1596 1597 1598 1599 1600 1601 1602 1603 1604 1605 1606 1607 1608 1609 1610 1611 1612 1613 1614 1615 1616 1617 1618 1619 1620 1621 1622 1623 1624 1625 1626 1627 1628 1629 1630 1631 1632 1633 1634 1635 1636 1637 1638 1639 1640 1641 1642 1643 1644 1645 1646 1647 1648 1649 1650 1651 1652 1653 1654 1655 1656 1657 1658 1659 1660 1661 1662 1663 1664 1665 1666 1667 1668 1669 1670 1671 1672 1673 1674 1675 1676 1677 1678 1679 1680 1681 1682 1683 1684 1685 1686 1687 1688 1689 1690 1691 1692 1693 1694 1695 1696 1697 1698 1699 1700 1701 1702 1703 1704 1705 1706 1707 1708 1709 1710 1711 1712 1713 1714 1715 1716 1717 1718 1719 1720 1721 1722 1723 1724 1725 1726 1727 1728 1729 1730 1731 1732 1733 1734 1735 1736 1737 1738 1739 1740 1741 1742 1743 1744 1745 1746 1747 1748 1749 1750 1751 1752 1753 1754 1755 1756 1757 1758 1759 1760 1761 1762 1763 1764 1765 1766 1767 1768 1769 1770 1771 1772 1773 1774 1775 1776 1777 1778 1779 1780 1781 1782 1783 1784 1785 1786 1787 1788 1789 1790 1791 1792 1793 1794 1795 1796 1797 1798 1799 1800 1801 1802 1803 1804 1805 1806 1807 1808 1809 1810 1811 1812 1813 1814 1815 1816 1817 1818 1819 1820 1821 1822 1823 1824 1825 1826 1827 1828 1829 1830 1831 1832 1833 1834 1835 1836 1837 1838 1839 1840 1841 1842 1843 1844 1845 1846 1847 1848 1849 1850 1851 1852 1853 1854 1855 1856 1857 1858 1859 1860 1861 1862 1863 1864 1865 1866 1867 1868 1869 1870 1871 1872 1873 1874 1875 1876 1877 1878 1879 1880 1881 1882 1883 1884 1885 1886 1887 1888 1889 1890 1891 1892 1893 1894 1895 1896 1897 1898 1899 1900 1901 1902 1903 1904 1905 1906 1907 1908 1909 1910 1911 1912 1913 1914 1915 1916 1917 1918 1919 1920 1921 1922 1923 1924 1925 1926 1927 1928 1929 1930 1931 1932 1933 1934 1935 1936 1937 1938 1939 1940 1941 1942 1943 1944 1945 1946 1947 1948 1949 1950 1951 1952 1953 1954 1955 1956 1957 1958 1959 1960 1961 1962 1963 1964 1965 1966 1967 1968 1969 1970 1971 1972 1973 1974 1975 1976 1977 1978 1979 1980 1981 1982 1983 1984 1985 1986 1987 1988 1989 1990 1991 1992 1993 1994 1995 1996 1997 1998 1999 2000 2001 2002 2003 2004 2005 2006 2007 2008 2009 2010 2011 2012 2013 2014 2015 2016 2017 2018 2019 2020 2021 2022 2023 2024 2025 2026 2027 2028 2029 2030 2031 2032 2033 2034 2035 2036 2037 2038 2039 2040 2041 2042 2043 2044 2045 2046 2047 2048 2049 2050 2051 2052 2053 2054 2055 2056 2057 2058 2059 2060 2061 2062 2063 2064 2065 2066 2067 2068 2069 2070 2071 2072 2073 2074 2075 2076 2077 2078 2079 2080 2081 2082 2083 2084 2085 2086 2087 2088 2089 2090 2091 2092 2093 2094 2095 2096 2097 2098 2099 2100 2101 2102 2103 2104 2105 2106 2107 2108 2109 2110 2111 2112 2113 2114 2115 2116 2117 2118 2119 2120 2121 2122 2123 2124 2125 2126 2127 2128 2129 2130 2131 2132 2133 2134 2135 2136 2137 2138 2139 2140 2141 2142 2143 2144 2145 2146 2147 2148 2149 2150 2151 2152 2153 2154 2155 2156 2157 2158 2159 2160 2161 2162 2163 2164 2165 2166 2167 2168 2169 2170 2171 2172 2173 2174 2175 2176 2177 2178 2179 2180 2181 2182 2183 2184 2185 2186 2187 2188 2189 2190 2191 2192 2193 2194 2195 2196 2197 2198 2199 2200 2201 2202 2203 2204 2205 2206 2207 2208 2209 2210 2211 2212 2213 2214 2215 2216 2217 2218 2219 2220 2221 2222 2223 2224 2225 2226 2227 2228 2229 2230 2231 2232 2233 2234 2235 2236 2237 2238 2239 2240 2241 2242 2243 2244 2245 2246 2247 2248 2249 2250 2251 2252 2253 2254 2255 2256 2257 2258 2259 2260 2261 2262 2263 2264 2265 2266 2267 2268 2269 2270 2271 2272 2273 2274 2275 2276 2277 2278 2279 2280 2281 2282 2283 2284 2285 2286 2287 2288 2289 2290 2291 2292 2293 2294 2295 2296 2297 2298 2299 2300 2301 2302 2303 2304 2305 2306 2307 2308 2309 2310 2311 2312 2313 2314 2315 2316 2317 2318 2319 2320 2321 2322 2323 2324 2325 2326 2327 2328 2329 2330 2331 2332 2333 2334 2335 2336 2337 2338 2339 2340 2341 2342 2343 2344 2345 2346 2347 2348 2349 2350 2351 2352 2353 2354 2355 2356 2357 2358 2359 2360 2361 2362 2363 2364 2365 2366 2367 2368 2369 2370 2371 2372 2373 2374 2375 2376 2377 2378 2379 2380 2381 2382 2383 2384 2385 2386 2387 2388 2389 2390 2391 2392 2393 2394 2395 2396 2397 2398 2399 2400 2401 2402 2403 2404 2405 2406 2407 2408 2409 2410 2411 2412 2413 2414 2415 2416 2417 2418 2419 2420 2421 2422 2423 2424 2425 2426 2427 2428 2429 2430 2431 2432 2433 2434 2435 2436 2437 2438 2439 2440 2441 2442 2443 2444 2445 2446 2447 2448 2449 2450 2451 2452 2453 2454 2455 2456 2457 2458 2459 2460 2461 2462 2463 2464 2465 2466 2467 2468 2469 2470 2471 2472 2473 2474 2475 2476 2477 2478 2479 2480 2481 2482 2483 2484 2485 2486 2487 2488 2489 2490 2491 2492 2493 2494 2495 2496 2497 2498 2499 2500 2501 2502 2503 2504 2505 2506 2507 2508 2509 2510 2511 2512 2513 2514 2515 2516 2517 2518 2519 2520 2521 2522 2523 2524 2525 2526 2527 2528 2529 2530 2531 2532 2533 2534 2535 2536 2537 2538 2539 2540 2541 2542 2543 2544 2545 2546 2547 2548 2549 2550 2551 2552 2553 2554 2555 2556 2557 2558 2559 2560 2561 2562 2563 2564 2565 2566 2567 2568 2569 2570 2571 2572 2573 2574 2575 2576 2577 2578 2579 2580 2581 2582 2583 2584 2585 2586 2587 2588 2589 2590 2591 2592 2593 2594 2595 2596 2597 2598 2599 2600 2601 2602 2603 2604 2605 2606 2607 2608 2609 2610 2611 2612 2613 2614 2615 2616 2617 2618 2619 2620 2621 2622 2623 2624 2625 2626 2627 2628 2629 2630 2631 2632 2633 2634 2635 2636 2637 2638 2639 2640 2641 2642 2643 2644 2645 2646 2647 2648 2649 2650 2651 2652 2653 2654 2655 2656 2657 2658 2659 2660 2661 2662 2663 2664 2665 2666 2667 2668 2669 2670 2671 2672 2673 2674 2675 2676 2677 2678 2679 2680 2681 2682 2683 2684 2685 2686 2687 2688 2689 2690 2691 2692 2693 2694 2695 2696 2697 2698 2699 2700 2701 2702 2703 2704 2705 2706 2707 2708 2709 2710 2711 2712 2713 2714 2715 2716 2717 2718 2719 2720 2721 2722 2723 2724 2725 2726 2727 2728 2729 2730 2731 2732 2733 2734 2735 2736 2737 2738 2739 2740 2741 2742 2743 2744 2745 2746 2747 2748 2749 2750 2751 2752 2753 2754 2755 2756 2757 2758 2759 2760 2761 2762 2763 2764 2765 2766 2767 2768 2769 2770 2771 2772 2773 2774 2775 2776 2777 2778 2779 2780 2781 2782 2783 2784 2785 2786 2787 2788 2789 2790 2791 2792 2793 2794 2795 2796 2797 2798 2799 2800 2801 2802 2803 2804 2805 2806 2807 2808 2809 2810 2811 2812 2813 2814 2815 2816 2817 2818 2819 2820 2821 2822 2823 2824 2825 2826 2827 2828 2829 2830 2831 2832 2833 2834 2835 2836 2837 2838 2839 2840 2841 2842 2843 2844 2845 2846 2847 2848 2849 2850 2851 2852 2853 2854 2855 2856 2857 2858 2859 2860 2861 2862 2863 2864 2865 2866 2867 2868 2869 2870 2871 2872 2873 2874 2875 2876 2877 2878 2879 2880 2881 2882 2883 2884 2885 2886 2887 2888 2889 2890 2891 2892 2893 2894 2895 2896 2897 2898 2899 2900 2901 2902 2903 2904 2905 2906 2907 2908 2909 2910 2911 2912 2913 2914 2915 2916 2917 2918 2919 2920 2921 2922 2923 2924 2925 2926 2927 2928 2929 2930 2931 2932 2933 2934 2935 2936 2937 2938 2939 2940 2941 2942 2943 2944 2945 2946 2947 2948 2949 2950 2951 2952 2953 2954 2955 2956 2957 2958 2959 2960 2961 2962 2963 2964 2965 2966 2967 2968 2969 2970 2971 2972 2973 2974 2975 2976 2977 2978 2979 2980 2981 2982 2983 2984 2985 2986 2987 2988 2989 2990 2991 2992 2993 2994 2995 2996 2997 2998 2999 3000 3001 3002 3003 3004 3005 3006 3007 3008 3009 3010 3011 3012 3013 3014 3015 3016 3017 3018 3019 3020 3021 3022 3023 3024 3025 3026 3027 3028 3029 3030 3031 3032 3033 3034 3035 3036 3037 3038 3039 3040 3041 3042 3043 3044 3045 3046 3047 3048 3049 3050 3051 3052 3053 3054 3055 3056 3057 3058 3059 3060 3061 3062 3063 3064 3065 3066 3067 3068 3069 3070 3071 3072 3073 3074 3075 3076 3077 3078 3079 3080 3081 3082 3083 3084 3085 3086 3087 3088 3089 3090 3091 3092 3093 3094 3095 3096 3097 3098 3099 3100 3101 3102 3103 3104 3105 3106 3107 3108 3109 3110 3111 3112 3113 3114 3115 3116 3117 3118 3119 3120 3121 3122 3123 3124 3125 3126 3127 3128 3129 3130 3131 3132 3133 3134 3135 3136 3137 3138 3139 3140 3141 3142 3143 3144 3145 3146 3147 3148 3149 3150 3151 3152 3153 3154 3155 3156 3157 3158 3159 3160 3161 3162 3163 3164 3165 3166 3167 3168 3169 3170 3171 3172 3173 3174 3175 3176 3177 3178 3179 3180 3181 3182 3183 3184 3185 3186 3187 3188 3189 3190 3191 3192 3193 3194 3195 3196 3197 3198 3199 3200 3201 3202 3203 3204 3205 3206 3207 3208 3209 3210 3211 3212 3213 3214 3215 3216 3217 3218 3219 3220 3221 3222 3223 3224 3225 3226 3227 3228 3229 3230 3231 3232 3233 3234 3235 3236 3237 3238 3239 3240 3241 3242 3243 3244 3245 3246 3247 3248 3249 3250 3251 3252 3253 3254 3255 3256 3257 3258 3259 3260 3261 3262 3263 3264 3265 3266 3267 3268 3269 3270 3271 3272 3273 3274 3275 3276 3277 3278 3279 3280 3281 3282 3283 3284 3285 3286 3287 3288 3289 3290 3291 3292 3293 3294 3295 3296 3297 3298 3299 3300 3301 3302 3303 3304 3305 3306 3307 3308 3309 3310 3311 3312 3313 3314 3315 3316 3317 3318 3319 3320 3321 3322 3323 3324 3325 3326 3327 3328 3329 3330 3331 3332 3333 3334 3335 3336 3337 3338 3339 3340 3341 3342 3343 3344 3345 3346 3347 3348 3349 3350 3351 3352 3353 3354 3355 3356 3357 3358 3359 3360 3361 3362 3363 3364 3365 3366 3367 3368 3369 3370 3371 3372 3373 3374 3375 3376 3377 3378 3379 3380 3381 3382 3383 3384 3385 3386 3387 3388 3389 3390 3391 3392 3393 3394 3395 3396 3397 3398 3399 3400 3401 3402 3403 3404 3405 3406 3407 3408 3409 3410 3411 3412 3413 3414 3415 3416 3417 3418 3419 3420 3421 3422 3423 3424 3425 3426 3427 3428 3429 3430 3431 3432 3433 3434 3435 3436 3437 3438 3439 3440 3441 3442 3443 3444 3445 3446 3447 3448 3449 3450 3451 3452 3453 3454 3455 3456 3457 3458 3459 3460 3461 3462 3463 3464 3465 3466 3467 3468 3469 3470 3471 3472 3473 3474 3475 3476 3477 3478 3479 3480 3481 3482 3483 3484 3485 3486 3487 3488 3489 3490 3491 3492 3493 3494 3495 3496 3497 3498 3499 3500 3501 3502 3503 3504 3505 3506 3507 3508 3509 3510 3511 3512 3513 3514 3515 3516 3517 3518 3519 3520 3521 3522 3523 3524 3525 3526 3527 3528 3529 3530 3531 3532 3533 3534 3535 3536 3537 3538 3539 3540 3541 3542 3543 3544 3545 3546 3547 3548 3549 3550 3551 3552 3553 3554 3555 3556 3557 3558 3559 3560 3561 3562 3563 3564 3565 3566 3567 3568 3569 3570 3571 3572 3573 3574 3575 3576 3577 3578 3579 3580 3581 3582 3583 3584 3585 3586 3587 3588 3589 3590 3591 3592 3593 3594 3595 3596 3597 3598 3599 3600 3601 3602 3603 3604 3605 3606 3607 3608 3609 3610 3611 3612 3613 3614 3615 3616 3617 3618 3619 3620 3621 3622 3623 3624 3625 3626 3627 3628 3629 3630 3631 3632 3633 3634 3635 3636 3637 3638 3639 3640 3641 3642 3643 3644 3645 3646 3647 3648 3649 3650 3651 3652 3653 3654 3655 3656 3657 3658 3659 3660 3661 3662 3663 3664 3665 3666 3667 3668 3669 3670 3671 3672 3673 3674 3675 3676 3677 3678 3679 3680 3681 3682 3683 3684 3685 3686 3687 3688 3689 3690 3691 3692 3693 3694 3695 3696 3697 3698 3699 3700 3701 3702 3703 3704 3705 3706 3707 3708 3709 3710 3711 3712 3713 3714 3715 3716 3717 3718 3719 3720 3721 3722 3723 3724 3725 3726 3727 3728 3729 3730 3731 3732 3733 3734 3735 3736 3737 3738 3739 3740 3741 3742 3743 3744 3745 3746 3747 3748 3749 3750 3751 3752 3753 3754 3755 3756 3757 3758 3759 3760 3761 3762 3763 3764 3765 3766 3767 3768 3769 3770 3771 3772 3773 3774 3775 3776 3777 3778 3779 3780 3781 3782 3783 3784 3785 3786 3787 3788 3789 3790 3791 3792 3793 3794 3795 3796 3797 3798 3799 3800 3801 3802 3803 3804 3805 3806 3807 3808 3809 3810 3811 3812 3813 3814 3815 3816 3817 3818 3819 3820 3821 3822 3823 3824 3825 3826 3827 3828 3829 3830 3831 3832 3833 3834 3835 3836 3837 3838 3839 3840 3841 3842 3843 3844 3845 3846 3847 3848 3849 3850 3851 3852 3853 3854 3855 3856 3857 3858 3859 3860 3861 3862 3863 3864 3865 3866 3867 3868 3869 3870 3871 3872 3873 3874 3875 3876 3877 3878 3879 3880 3881 3882 3883 3884 3885 3886 3887 3888 3889 3890 3891 3892 3893 3894 3895 3896 3897 3898 3899 3900 3901 3902 3903 3904 3905 3906 3907 3908 3909 3910 3911 3912 3913 3914 3915 3916 3917 3918 3919 3920 3921 3922 3923 3924 3925 3926 3927 3928 3929 3930 3931 3932 3933 3934 3935 3936 3937 3938 3939 3940 3941 3942 3943 3944 3945 3946 3947 3948 3949 3950 3951 3952 3953 3954 3955 3956 3957 3958 3959 3960 3961 3962 3963 3964 3965 3966 3967 3968 3969 3970 3971 3972 3973 3974 3975 3976 3977 3978 3979 3980 3981 3982 3983 3984 3985 3986 3987 3988 3989 3990 3991 3992 3993 3994 3995 3996 3997 3998 3999 4000 4001 4002 4003 4004 4005 4006 4007 4008 4009 4010 4011 4012 4013 4014 4015 4016 4017 4018 4019 4020 4021 4022 4023 4024 4025 4026 4027 4028 4029 4030 4031 4032 4033 4034 4035 4036 4037 4038 4039 4040 4041 4042 4043 4044 4045 4046 4047 4048 4049 4050 4051 4052 4053 4054 4055 4056 4057 4058 4059 4060 4061 4062 4063 4064 4065 4066 4067 4068 4069 4070 4071 4072 4073 4074 4075 4076 4077 4078 4079 4080 4081 4082 4083 4084 4085 4086 4087 4088 4089 4090 4091 4092 4093 4094 4095 4096 4097 4098 4099 4100 4101 4102 4103 4104 4105 4106 4107 4108 4109 4110 4111 4112 4113 4114 4115 4116 4117 4118 4119 4120 4121 4122 4123 4124 4125 4126 4127 4128 4129 4130 4131 4132 4133 4134 4135 4136 4137 4138 4139 4140 4141 4142 4143 4144 4145 4146 4147 4148 4149 4150 4151 4152 4153 4154 4155 4156 4157 4158 4159 4160 4161 4162 4163 4164 4165 4166 4167 4168 4169 4170 4171 4172 4173 4174 4175 4176 4177 4178 4179 4180 4181 4182 4183 4184 4185 4186 4187 4188 4189 4190 4191 4192 4193 4194 4195 4196 4197 4198 4199 4200 4201 4202 4203 4204 4205 4206 4207 4208 4209 4210 4211 4212 4213 4214 4215 4216 4217 4218 4219 4220 4221 4222 4223 4224 4225 4226 4227 4228 4229 4230 4231 4232 4233 4234 4235 4236 4237 4238 4239 4240 4241 4242 4243 4244 4245 4246 4247 4248 4249 4250 4251 4252 4253 4254 4255 4256 4257 4258 4259 4260 4261 4262 4263 4264 4265 4266 4267 4268 4269 4270 4271 4272 4273 4274 4275 4276 4277 4278 4279 4280 4281 4282 4283 4284 4285 4286 4287 4288 4289 4290 4291 4292 4293 4294 4295 4296 4297 4298 4299 4300 4301 4302 4303 4304 4305 4306 4307 4308 4309 4310 4311 4312 4313 4314 4315 4316 4317 4318 4319 4320 4321 4322 4323 4324 4325 4326 4327 4328 4329 4330 4331 4332 4333 4334 4335 4336 4337 4338 4339 4340 4341 4342 4343 4344 4345 4346 4347 4348 4349 4350 4351 4352 4353 4354 4355 4356 4357 4358 4359 4360 4361 4362 4363 4364 4365 4366 4367 4368 4369 4370 4371 4372 4373 4374 4375 4376 4377 4378 4379 4380 4381 4382 4383 4384 4385 4386 4387 4388 4389 4390 4391 4392 4393 4394 4395 4396 4397 4398 4399 4400 4401 4402 4403 4404 4405 4406 4407 4408 4409 4410 4411 4412 4413 4414 4415 4416 4417 4418 4419 4420 4421 4422 4423 4424 4425 4426 4427 4428 4429 4430 4431 4432 4433 4434 4435 4436 4437 4438 4439 4440 4441 4442 4443 4444 4445 4446 4447 4448 4449 4450 4451 4452 4453 4454 4455 4456 4457 4458 4459 4460 4461 4462 4463 4464 4465 4466 4467 4468 4469 4470 4471 4472 4473 4474 4475 4476 4477 4478 4479 4480 4481 4482 4483 4484 4485 4486 4487 4488 4489 4490 4491 4492 4493 4494 4495 4496 4497 4498 4499 4500 4501 4502 4503 4504 4505 4506 4507 4508 4509 4510 4511 4512 4513 4514 4515 4516 4517 4518 4519 4520 4521 4522 4523 4524 4525 4526 4527 4528 4529 4530 4531 4532 4533 4534 4535 4536 4537 4538 4539 4540 4541 4542 4543 4544 4545 4546 4547 4548 4549 4550 4551 4552 4553 4554 4555 4556 4557 4558 4559 4560 4561 4562 4563 4564 4565 4566 4567 4568 4569 4570 4571 4572 4573 4574 4575 4576 4577 4578 4579 4580 4581 4582 4583 4584 4585 4586 4587 4588 4589 4590 4591 4592 4593 4594 4595 4596 4597 4598 4599 4600 4601 4602 4603 4604 4605 4606 4607 4608 4609 4610 4611 4612 4613 4614 4615 4616 4617 4618 4619 4620 4621 4622 4623 4624 4625 4626 4627 4628 4629 4630 4631 4632 4633 4634 4635 4636 4637 4638 4639 4640 4641 4642 4643 4644 4645 4646 4647 4648 4649 4650 4651 4652 4653 4654 4655 4656 4657 4658 4659 4660 4661 4662 4663 4664 4665 4666 4667 4668 4669 4670 4671 4672 4673 4674 4675 4676 4677 4678 4679 4680 4681 4682 4683 4684 4685 4686 4687 4688 4689 4690 4691 4692 4693 4694 4695 4696 4697 4698 4699 4700 4701 4702 4703 4704 4705 4706 4707 4708 4709 4710 4711 4712 4713 4714 4715 4716 4717 4718 4719 4720 4721 4722 4723 4724 4725 4726 4727 4728 4729 4730 4731 4732 4733 4734 4735 4736 4737 4738 4739 4740 4741 4742 4743 4744 4745 4746 4747 4748 4749 4750 4751 4752 4753 4754 4755 4756 4757 4758 4759 4760 4761 4762 4763 4764 4765 4766 4767 4768 4769 4770 4771 4772 4773 4774 4775 4776 4777 4778 4779 4780 4781 4782 4783 4784 4785 4786 4787 4788 4789 4790 4791 4792 4793 4794 4795 4796 4797 4798 4799 4800 4801 4802 4803 4804 4805 4806 4807 4808 4809 4810 4811 4812 4813 4814 4815 4816 4817 4818 4819 4820 4821 4822 4823 4824 4825 4826 4827 4828 4829 4830 4831 4832 4833 4834 4835 4836 4837 4838 4839 4840 4841 4842 4843 4844 4845 4846 4847 4848 4849 4850 4851 4852 4853 4854 4855 4856 4857 4858 4859 4860 4861 4862 4863 4864 4865 4866 4867 4868 4869 4870 4871 4872 4873 4874 4875 4876 4877 4878 4879 4880 4881 4882 4883 4884 4885 4886 4887 4888 4889 4890 4891 4892 4893 4894 4895 4896 4897 4898 4899 4900 4901 4902 4903 4904 4905 4906 4907 4908 4909 4910 4911 4912 4913 4914 4915 4916 4917 4918 4919 4920 4921 4922 4923 4924 4925 4926 4927 4928 4929 4930 4931 4932 4933 4934 4935 4936 4937 4938 4939 4940 4941 4942 4943 4944 4945 4946 4947 4948 4949 4950 4951 4952 4953 4954 4955 4956 4957 4958 4959 4960 4961 4962 4963 4964 4965 4966 4967 4968 4969 4970 4971 4972 4973 4974 4975 4976 4977 4978 4979 4980 4981 4982 4983 4984 4985 4986 4987 4988 4989 4990 4991 4992 4993 4994 4995 4996 4997 4998 4999 5000 5001 5002 5003 5004 5005 5006 5007 5008 5009 5010 5011 5012 5013 5014 5015 5016 5017 5018 5019 5020 5021 5022 5023 5024 5025 5026 5027 5028 5029 5030 5031 5032 5033 5034 5035 5036 5037 5038 5039 5040 5041 5042 5043 5044 5045 5046 5047 5048 5049 5050 5051 5052 5053 5054 5055 5056 5057 5058 5059 5060 5061 5062 5063 5064 5065 5066 5067 5068 5069 5070 5071 5072 5073 5074 5075 5076 5077 5078 5079 5080 5081 5082 5083 5084 5085 5086 5087 5088 5089 5090 5091 5092 5093 5094 5095 5096 5097 5098 5099 5100 5101 5102 5103 5104 5105 5106 5107 5108 5109 5110 5111 5112 5113 5114 5115 5116 5117 5118 5119 5120 5121 5122 5123 5124 5125 5126 5127 5128 5129 5130 5131 5132 5133 5134 5135 5136 5137 5138 5139 5140 5141 5142 5143 5144 5145 5146 5147 5148 5149 5150 5151 5152 5153 5154 5155 5156 5157 5158 5159 5160 5161 5162 5163 5164 5165 5166 5167 5168 5169 5170 5171 5172 5173 5174 5175 5176 5177 5178 5179 5180 5181 5182 5183 5184 5185 5186 5187 5188 5189 5190 5191 5192 5193 5194 5195 5196 5197 5198 5199 5200 5201 5202 5203 5204 5205 5206 5207 5208 5209 5210 5211 5212 5213 5214 5215 5216 5217 5218 5219 5220 5221 5222 5223 5224 5225 5226 5227 5228 5229 5230 5231 5232 5233 5234 5235 5236 5237 5238 5239 5240 5241 5242 5243 5244 5245 5246 5247 5248 5249 5250 5251 5252 5253 5254 5255 5256 5257 5258 5259 5260 5261 5262 5263 5264 5265 5266 5267 5268 5269 5270 5271 5272 5273 5274 5275 5276 5277 5278 5279 5280 5281 5282 5283 5284 5285 5286 5287 5288 5289 5290 5291 5292 5293 5294 5295 5296 5297 5298 5299 5300 5301 5302 5303 5304 5305 5306 5307 5308 5309 5310 5311 5312 5313 5314 5315 5316 5317 5318 5319 5320 5321 5322 5323 5324 5325 5326 5327 5328 5329 5330 5331 5332 5333 5334 5335 5336 5337 5338 5339 5340 5341 5342 5343 5344 5345 5346 5347 5348 5349 5350 5351 5352 5353 5354 5355 5356 5357 5358 5359 5360 5361 5362 5363 5364 5365 5366 5367 5368 5369 5370 5371 5372 5373 5374 5375 5376 5377 5378 5379 5380 5381 5382 5383 5384 5385 5386 5387 5388 5389 5390 5391 5392 5393 5394 5395 5396 5397 5398 5399 5400 5401 5402 5403 5404 5405 5406 5407 5408 5409 5410 5411 5412 5413 5414 5415 5416 5417 5418 5419 5420 5421 5422 5423 5424 5425 5426 5427 5428 5429 5430 5431 5432 5433 5434 5435 5436 5437 5438 5439 5440 5441 5442 5443 5444 5445 5446 5447 5448 5449 5450 5451 5452 5453 5454 5455 5456 5457 5458 5459 5460 5461 5462 5463 5464 5465 5466 5467 5468 5469 5470 5471 5472 5473 5474 5475 5476 5477 5478 5479 5480 5481 5482 5483 5484 5485 5486 5487 5488 5489 5490 5491 5492 5493 5494 5495 5496 5497 5498 5499 5500 5501 5502 5503 5504 5505 5506 5507 5508 5509 5510 5511 5512 5513 5514 5515 5516 5517 5518 5519 5520 5521 5522 5523 5524 5525 5526 5527 5528 5529 5530 5531 5532 5533 5534 5535 5536 5537 5538 5539 5540 5541 5542 5543 5544 5545 5546 5547 5548 5549 5550 5551 5552 5553 5554 5555 5556 5557 5558 5559 5560 5561 5562 5563 5564 5565 5566 5567 5568 5569 5570 5571 5572 5573 5574 5575 5576 5577 5578 5579 5580 5581 5582 5583 5584 5585 5586 5587 5588 5589 5590 5591 5592 5593 5594 5595 5596 5597 5598 5599 5600 5601 5602 5603 5604 5605 5606 5607 5608 5609 5610 5611 5612 5613 5614 5615 5616 5617 5618 5619 5620 5621 5622 5623 5624 5625 5626 5627 5628 5629 5630 5631 5632 5633 5634 5635 5636 5637 5638 5639 5640 5641 5642 5643 5644 5645 5646 5647 5648 5649 5650 5651 5652 5653 5654 5655 5656 5657 5658 5659 5660 5661 5662 5663 5664 5665 5666 5667 5668 5669 5670 5671 5672 5673 5674 5675 5676 5677 5678 5679 5680 5681 5682 5683 5684 5685 5686 5687 5688 5689 5690 5691 5692 5693 5694 5695 5696 5697 5698 5699 5700 5701 5702 5703 5704 5705 5706 5707 5708 5709 5710 5711 5712 5713 5714 5715 5716 5717 5718 5719 5720 5721 5722 5723 5724 5725 5726 5727 5728 5729 5730 5731 5732 5733 5734 5735 5736 5737 5738 5739 5740 5741 5742 5743 5744 5745 5746 5747 5748 5749 5750 5751 5752 5753 5754 5755 5756 5757 5758 5759 5760 5761 5762 5763 5764 5765 5766 5767 5768 5769 5770 5771 5772 5773 5774 5775 5776 5777 5778 5779 5780 5781 5782 5783 5784 5785 5786 5787 5788 5789 5790 5791 5792 5793 5794 5795 5796 5797 5798 5799 5800 5801 5802 5803 5804 5805 5806 5807 5808 5809 5810 5811 5812 5813 5814 5815 5816 5817 5818 5819 5820 5821 5822 5823 5824 5825 5826 5827 5828 5829 5830 5831 5832 5833 5834 5835 5836 5837 5838 5839 5840 5841 5842 5843 5844 5845 5846 5847 5848 5849 5850 5851 5852 5853 5854 5855 5856 5857 5858 5859 5860 5861 5862 5863 5864 5865 5866 5867 5868 5869 5870 5871 5872 5873 5874 5875 5876 5877 5878 5879 5880 5881 5882 5883 5884 5885 5886 5887 5888 5889 5890 5891 5892 5893 5894 5895 5896 5897 5898 5899 5900 5901 5902 5903 5904 5905 5906 5907 5908 5909 5910 5911 5912 5913 5914 5915 5916 5917 5918 5919 5920 5921 5922 5923 5924 5925 5926 5927 5928 5929 5930 5931 5932 5933 5934 5935 5936 5937 5938 5939 5940 5941 5942 5943 5944 5945 5946 5947 5948 5949 5950 5951 5952 5953 5954 5955 5956 5957 5958 5959 5960 5961 5962 5963 5964 5965 5966 5967 5968 5969 5970 5971 5972 5973 5974 5975 5976 5977 5978 5979 5980 5981 5982 5983 5984 5985 5986 5987 5988 5989 5990 5991 5992 5993 5994 5995 5996 5997 5998 5999 6000 6001 6002 6003 6004 6005 6006 6007 6008 6009 6010 6011 6012 6013 6014 6015 6016 6017 6018 6019 6020 6021 6022 6023 6024 6025 6026 6027 6028 6029 6030 6031 6032 6033 6034 6035 6036 6037 6038 6039 6040 6041 6042 6043 6044 6045 6046 6047 6048 6049 6050 6051 6052 6053 6054 6055 6056 6057 6058 6059 6060 6061 6062 6063 6064 6065 6066 6067 6068 6069 6070 6071 6072 6073 6074 6075 6076 6077 6078 6079 6080 6081 6082 6083 6084 6085 6086 6087 6088 6089 6090 6091 6092 6093 6094 6095 6096 6097 6098 6099 6100 6101 6102 6103 6104 6105 6106 6107 6108 6109 6110 6111 6112 6113 6114 6115 6116 6117 6118 6119 6120 6121 6122 6123 6124 6125 6126 6127 6128 6129 6130 6131 6132 6133 6134 6135 6136 6137 6138 6139 6140 6141 6142 6143 6144 6145 6146 6147 6148 6149 6150 6151 6152 6153 6154 6155 6156 6157 6158 6159 6160 6161 6162 6163 6164 6165 6166 6167 6168 6169 6170 6171 6172 6173 6174 6175 6176 6177 6178 6179 6180 6181 6182 6183 6184 6185 6186 6187 6188 6189 6190 6191 6192 6193 6194 6195 6196 6197 6198 6199 6200 6201 6202 6203 6204 6205 6206 6207 6208 6209 6210 6211 6212 6213 6214 6215 6216 6217 6218 6219 6220 6221 6222 6223 6224 6225 6226 6227 6228 6229 6230 6231 6232 6233 6234 6235 6236 6237 6238 6239 6240 6241 6242 6243 6244 6245 6246 6247 6248 6249 6250 6251 6252 6253 6254 6255 6256 6257 6258 6259 6260 6261 6262 6263 6264 6265 6266 6267 6268 6269 6270 6271 6272 6273 6274 6275 6276 6277 6278 6279 6280 6281 6282 6283 6284 6285 6286 6287 6288 6289 6290 6291 6292 6293 6294 6295 6296 6297 6298 6299 6300 6301 6302 6303 6304 6305 6306 6307 6308 6309 6310 6311 6312 6313 6314 6315 6316 6317 6318 6319 6320 6321 6322 6323 6324 6325 6326 6327 6328 6329 6330 6331 6332 6333 6334 6335 6336 6337 6338 6339 6340 6341 6342 6343 6344 6345 6346 6347 6348 6349 6350 6351 6352 6353 6354 6355 6356 6357 6358 6359 6360 6361 6362 6363 6364 6365 6366 6367 6368 6369 6370 6371 6372 6373 6374 6375 6376 6377 6378 6379 6380 6381 6382 6383 6384 6385 6386 6387 6388 6389 6390 6391 6392 6393 6394 6395 6396 6397 6398 6399 6400 6401 6402 6403 6404 6405 6406 6407 6408 6409 6410 6411 6412 6413 6414 6415 6416 6417 6418 6419 6420 6421 6422 6423 6424 6425 6426 6427 6428 6429 6430 6431 6432 6433 6434 6435 6436 6437 6438 6439 6440 6441 6442 6443 6444 6445 6446 6447 6448 6449 6450 6451 6452 6453 6454 6455 6456 6457 6458 6459 6460 6461 6462 6463 6464 6465 6466 6467 6468 6469 6470 6471 6472 6473 6474 6475 6476 6477 6478 6479 6480 6481 6482 6483 6484 6485 6486 6487 6488 6489 6490 6491 6492 6493 6494 6495 6496 6497 6498 6499 6500 6501 6502 6503 6504 6505 6506 6507 6508 6509 6510 6511 6512 6513 6514 6515 6516 6517 6518 6519 6520 6521 6522 6523 6524 6525 6526 6527 6528 6529 6530 6531 6532 6533 6534 6535 6536 6537 6538 6539 6540 6541 6542 6543 6544 6545 6546 6547 6548 6549 6550 6551 6552 6553 6554 6555 6556 6557 6558 6559 6560 6561 6562 6563 6564 6565 6566 6567 6568 6569 6570 6571 6572 6573 6574 6575 6576 6577 6578 6579 6580 6581 6582 6583 6584 6585 6586 6587 6588 6589 6590 6591 6592 6593 6594 6595 6596 6597 6598 6599 6600 6601 6602 6603 6604 6605 6606 6607 6608 6609 6610 6611 6612 6613 6614 6615 6616 6617 6618 6619 6620 6621 6622 6623 6624 6625 6626 6627 6628 6629 6630 6631 6632 6633 6634 6635 6636 6637 6638 6639 6640 6641 6642 6643 6644 6645 6646 6647 6648 6649 6650 6651 6652 6653 6654 6655 6656 6657 6658 6659 6660 6661 6662 6663 6664 6665 6666 6667 6668 6669 6670 6671 6672 6673 6674 6675 6676 6677 6678 6679 6680 6681 6682 6683 6684 6685 6686 6687 6688 6689 6690 6691 6692 6693 6694 6695 6696 6697 6698 6699 6700 6701 6702 6703 6704 6705 6706 6707 6708 6709 6710 6711 6712 6713 6714 6715 6716 6717 6718 6719 6720 6721 6722 6723 6724 6725 6726 6727 6728 6729 6730 6731 6732 6733 6734 6735 6736 6737 6738 6739 6740 6741 6742 6743 6744 6745 6746 6747 6748 6749 6750 6751 6752 6753 6754 6755 6756 6757 6758 6759 6760 6761 6762 6763 6764 6765 6766 6767 6768 6769 6770 6771 6772 6773 6774 6775 6776 6777 6778 6779 6780 6781 6782 6783 6784 6785 6786 6787 6788 6789 6790 6791 6792 6793 6794 6795 6796 6797 6798 6799 6800 6801 6802 6803 6804 6805 6806 6807 6808 6809 6810 6811 6812 6813 6814 6815 6816 6817 6818 6819 6820 6821 6822 6823 6824 6825 6826 6827 6828 6829 6830 6831 6832 6833 6834 6835 6836 6837 6838 6839 6840 6841 6842 6843 6844 6845 6846 6847 6848 6849 6850 6851 6852 6853 6854 6855 6856 6857 6858 6859 6860 6861 6862 6863 6864 6865 6866 6867 6868 6869 6870 6871 6872 6873 6874 6875 6876 6877 6878 6879 6880 6881 6882 6883 6884 6885 6886 6887 6888 6889 6890 6891 6892 6893 6894 6895 6896 6897 6898 6899 6900 6901 6902 6903 6904 6905 6906 6907 6908 6909 6910 6911 6912 6913 6914 6915 6916 6917 6918 6919 6920 6921 6922 6923 6924 6925 6926 6927 6928 6929 6930 6931 6932 6933 6934 6935 6936 6937 6938 6939 6940 6941 6942 6943 6944 6945 6946 6947 6948 6949 6950 6951 6952 6953 6954 6955 6956 6957 6958 6959 6960 6961 6962 6963 6964 6965 6966 6967 6968 6969 6970 6971 6972 6973 6974 6975 6976 6977 6978 6979 6980 6981 6982 6983 6984 6985 6986 6987 6988 6989 6990 6991 6992 6993 6994 6995 6996 6997 6998 6999 7000 7001 7002 7003 7004 7005 7006 7007 7008 7009 7010 7011 7012 7013 7014 7015 7016 7017 7018 7019 7020 7021 7022 7023 7024 7025 7026 7027 7028 7029 7030 7031 7032 7033 7034 7035 7036 7037 7038 7039 7040 7041 7042 7043 7044 7045 7046 7047 7048 7049 7050 7051 7052 7053 7054 7055 7056 7057 7058 7059 7060 7061 7062 7063 7064 7065 7066 7067 7068 7069 7070 7071 7072 7073 7074 7075 7076 7077 7078 7079 7080 7081 7082 7083 7084 7085 7086 7087 7088 7089 7090 7091 7092 7093 7094 7095 7096 7097 7098 7099 7100 7101 7102 7103 7104 7105 7106 7107 7108 7109 7110 7111 7112 7113 7114 7115 7116 7117 7118 7119 7120 7121 7122 7123 7124 7125 7126 7127 7128 7129 7130 7131 7132 7133 7134 7135 7136 7137 7138 7139 7140 7141 7142 7143 7144 7145 7146 7147 7148 7149 7150 7151 7152 7153 7154 7155 7156 7157 7158 7159 7160 7161 7162 7163 7164 7165 7166 7167 7168 7169 7170 7171 7172 7173 7174 7175 7176 7177 7178 7179 7180 7181 7182 7183 7184 7185 7186 7187 7188 7189 7190 7191 7192 7193 7194 7195 7196 7197 7198 7199 7200 7201 7202 7203 7204 7205 7206 7207 7208 7209 7210 7211 7212 7213 7214 7215 7216 7217 7218 7219 7220 7221 7222 7223 7224 7225 7226 7227 7228 7229 7230 7231 7232 7233 7234 7235 7236 7237 7238 7239 7240 7241 7242 7243 7244 7245 7246 7247 7248 7249 7250 7251 7252 7253 7254 7255 7256 7257 7258 7259 7260 7261 7262 7263 7264 7265 7266 7267 7268 7269 7270 7271 7272 7273 7274 7275 7276 7277 7278 7279 7280 7281 7282 7283 7284 7285 7286 7287 7288 7289 7290 7291 7292 7293 7294 7295 7296 7297 7298 7299 7300 7301 7302 7303 7304 7305 7306 7307 7308 7309 7310 7311 7312 7313 7314 7315 7316 7317 7318 7319 7320 7321 7322 7323 7324 7325 7326 7327 7328 7329 7330 7331 7332 7333 7334 7335 7336 7337 7338 7339 7340 7341 7342 7343 7344 7345 7346 7347 7348 7349 7350 7351 7352 7353 7354 7355 7356 7357 7358 7359 7360 7361 7362 7363 7364 7365 7366 7367 7368 7369 7370 7371 7372 7373 7374 7375 7376 7377 7378 7379 7380 7381 7382 7383 7384 7385 7386 7387 7388 7389 7390 7391 7392 7393 7394 7395 7396 7397 7398 7399 7400 7401 7402 7403 7404 7405 7406 7407 7408 7409 7410 7411 7412 7413 7414 7415 7416 7417 7418 7419 7420 7421 7422 7423 7424 7425 7426 7427 7428 7429 7430 7431 7432 7433 7434 7435 7436 7437 7438 7439 7440 7441 7442 7443 7444 7445 7446 7447 7448 7449 7450 7451 7452 7453 7454 7455 7456 7457 7458 7459 7460 7461 7462 7463 7464 7465 7466 7467 7468 7469 7470 7471 7472 7473 7474 7475 7476 7477 7478 7479 7480 7481 7482 7483 7484 7485 7486 7487 7488 7489 7490 7491 7492 7493 7494 7495 7496 7497 7498 7499 7500 7501 7502 7503 7504 7505 7506 7507 7508 7509 7510 7511 7512 7513 7514 7515 7516 7517 7518 7519 7520 7521 7522 7523 7524 7525 7526 7527 7528 7529 7530 7531 7532 7533 7534 7535 7536 7537 7538 7539 7540 7541 7542 7543 7544 7545 7546 7547 7548 7549 7550 7551 7552 7553 7554 7555 7556 7557 7558 7559 7560 7561 7562 7563 7564 7565 7566 7567 7568 7569 7570 7571 7572 7573 7574 7575 7576 7577 7578 7579 7580 7581 7582 7583 7584 7585 7586 7587 7588 7589 7590 7591 7592 7593 7594 7595 7596 7597 7598 7599 7600 7601 7602 7603 7604 7605 7606 7607 7608 7609 7610 7611 7612 7613 7614 7615 7616 7617 7618 7619 7620 7621 7622 7623 7624 7625 7626 7627 7628 7629 7630 7631 7632 7633 7634 7635 7636 7637 7638 7639 7640 7641 7642 7643 7644 7645 7646 7647 7648 7649 7650 7651 7652 7653 7654 7655 7656 7657 7658 7659 7660 7661 7662 7663 7664 7665 7666 7667 7668 7669 7670 7671 7672 7673 7674 7675 7676 7677 7678 7679 7680 7681 7682 7683 7684 7685 7686 7687 7688 7689 7690 7691 7692 7693 7694 7695 7696 7697 7698 7699 7700 7701 7702 7703 7704 7705 7706 7707 7708 7709 7710 7711 7712 7713 7714 7715 7716 7717 7718 7719 7720 7721 7722 7723 7724 7725 7726 7727 7728 7729 7730 7731 7732 7733 7734 7735 7736 7737 7738 7739 7740 7741 7742 7743 7744 7745 7746 7747 7748 7749 7750 7751 7752 7753 7754 7755 7756 7757 7758 7759 7760 7761 7762 7763 7764 7765 7766 7767 7768 7769 7770 7771 7772 7773 7774 7775 7776 7777 7778 7779 7780 7781 7782 7783 7784 7785 7786 7787 7788 7789 7790 7791 7792 7793 7794 7795 7796 7797 7798 7799 7800 7801 7802 7803 7804 7805 7806 7807 7808 7809 7810 7811 7812 7813 7814 7815 7816 7817 7818 7819 7820 7821 7822 7823 7824 7825 7826 7827 7828 7829 7830 7831 7832 7833 7834 7835 7836 7837 7838 7839 7840 7841 7842 7843 7844 7845 7846 7847 7848 7849 7850 7851 7852 7853 7854 7855 7856 7857 7858 7859 7860 7861 7862 7863 7864 7865 7866 7867 7868 7869 7870 7871 7872 7873 7874 7875 7876 7877 7878 7879 7880 7881 7882 7883 7884 7885 7886 7887 7888 7889 7890 7891 7892 7893 7894 7895 7896 7897 7898 7899 7900 7901 7902 7903 7904 7905 7906 7907 7908 7909 7910 7911 7912 7913 7914 7915 7916 7917 7918 7919 7920 7921 7922 7923 7924 7925 7926 7927 7928 7929 7930 7931 7932 7933 7934 7935 7936 7937 7938 7939 7940 7941 7942 7943 7944 7945 7946 7947 7948 7949 7950 7951 7952 7953 7954 7955 7956 7957 7958 7959 7960 7961 7962 7963 7964 7965 7966 7967 7968 7969 7970 7971 7972 7973 7974 7975 7976 7977 7978 7979 7980 7981 7982 7983 7984 7985 7986 7987 7988 7989 7990 7991 7992 7993 7994 7995 7996 7997 7998 7999 8000 8001 8002 8003 8004 8005 8006 8007 8008 8009 8010 8011 8012 8013 8014 8015 8016 8017 8018 8019 8020 8021 8022 8023 8024 8025 8026 8027 8028 8029 8030 8031 8032 8033 8034 8035 8036 8037 8038 8039 8040 8041 8042 8043 8044 8045 8046 8047 8048 8049 8050 8051 8052 8053 8054 8055 8056 8057 8058 8059 8060 8061 8062 8063 8064 8065 8066 8067 8068 8069 8070 8071 8072 8073 8074 8075 8076 8077 8078 8079 8080 8081 8082 8083 8084 8085 8086 8087 8088 8089 8090 8091 8092 8093 8094 8095 8096 8097 8098 8099 8100 8101 8102 8103 8104 8105 8106 8107 8108 8109 8110 8111 8112 8113 8114 8115 8116 8117 8118 8119 8120 8121 8122 8123 8124 8125 8126 8127 8128 8129 8130 8131 8132 8133 8134 8135 8136 8137 8138 8139 8140 8141 8142 8143 8144 8145 8146 8147 8148 8149 8150 8151 8152 8153 8154 8155 8156 8157 8158 8159 8160 8161 8162 8163 8164 8165 8166 8167 8168 8169 8170 8171 8172 8173 8174 8175 8176 8177 8178 8179 8180 8181 8182 8183 8184 8185 8186 8187 8188 8189 8190 8191 8192 8193 8194 8195 8196 8197 8198 8199 8200 8201 8202 8203 8204 8205 8206 8207 8208 8209 8210 8211 8212 8213 8214 8215 8216 8217 8218 8219 8220 8221 8222 8223 8224 8225 8226 8227 8228 8229 8230 8231 8232 8233 8234 8235 8236 8237 8238 8239 8240 8241 8242 8243 8244 8245 8246 8247 8248 8249 8250 8251 8252 8253 8254 8255 8256 8257 8258 8259 8260 8261 8262 8263 8264 8265 8266 8267 8268 8269 8270 8271 8272 8273 8274 8275 8276 8277 8278 8279 8280 8281 8282 8283 8284 8285 8286 8287 8288 8289 8290 8291 8292 8293 8294 8295 8296 8297 8298 8299 8300 8301 8302 8303 8304 8305 8306 8307 8308 8309 8310 8311 8312 8313 8314 8315 8316 8317 8318 8319 8320 8321 8322 8323 8324 8325 8326 8327 8328 8329 8330 8331 8332 8333 8334 8335 8336 8337 8338 8339 8340 8341 8342 8343 8344 8345 8346 8347 8348 8349 8350 8351 8352 8353 8354 8355 8356 8357 8358 8359 8360 8361 8362 8363 8364 8365 8366 8367 8368 8369 8370 8371 8372 8373 8374 8375 8376 8377 8378 8379 8380 8381 8382 8383 8384 8385 8386 8387 8388 8389 8390 8391 8392 8393 8394 8395 8396 8397 8398 8399 8400 8401 8402 8403 8404 8405 8406 8407 8408 8409 8410 8411 8412 8413 8414 8415 8416 8417 8418 8419 8420 8421 8422 8423 8424 8425 8426 8427 8428 8429 8430 8431 8432 8433 8434 8435 8436 8437 8438 8439 8440 8441 8442 8443 8444 8445 8446 8447 8448 8449 8450 8451 8452 8453 8454 8455 8456 8457 8458 8459 8460 8461 8462 8463 8464 8465 8466 8467 8468 8469 8470 8471 8472 8473 8474 8475 8476 8477 8478 8479 8480 8481 8482 8483 8484 8485 8486 8487 8488 8489 8490 8491 8492 8493 8494 8495 8496 8497 8498 8499 8500 8501 8502 8503 8504 8505 8506 8507 8508 8509 8510 8511 8512 8513 8514 8515 8516 8517 8518 8519 8520 8521 8522 8523 8524 8525 8526 8527 8528 8529 8530 8531 8532 8533 8534 8535 8536 8537 8538 8539 8540 8541 8542 8543 8544 8545 8546 8547 8548 8549 8550 8551 8552 8553 8554 8555 8556 8557 8558 8559 8560 8561 8562 8563 8564 8565 8566 8567 8568 8569 8570 8571 8572 8573 8574 8575 8576 8577 8578 8579 8580 8581 8582 8583 8584 8585 8586 8587 8588 8589 8590 8591 8592 8593 8594 8595 8596 8597 8598 8599 8600 8601 8602 8603 8604 8605 8606 8607 8608 8609 8610 8611 8612 8613 8614 8615 8616 8617 8618 8619 8620 8621 8622 8623 8624 8625 8626 8627 8628 8629 8630 8631 8632 8633 8634 8635 8636 8637 8638 8639 8640 8641 8642 8643 8644 8645 8646 8647 8648 8649 8650 8651 8652 8653 8654 8655 8656 8657 8658 8659 8660 8661 8662 8663 8664 8665 8666 8667 8668 8669 8670 8671 8672 8673 8674 8675 8676 8677 8678 8679 8680 8681 8682 8683 8684 8685 8686 8687 8688 8689 8690 8691 8692 8693 8694 8695 8696 8697 8698 8699 8700 8701 8702 8703 8704 8705 8706 8707 8708 8709 8710 8711 8712 8713 8714 8715 8716 8717 8718 8719 8720 8721 8722 8723 8724 8725 8726 8727 8728 8729 8730 8731 8732 8733 8734 8735 8736 8737 8738 8739 8740 8741 8742 8743 8744 8745 8746 8747 8748 8749 8750 8751 8752 8753 8754 8755 8756 8757 8758 8759 8760 8761 8762 8763 8764 8765 8766 8767 8768 8769 8770 8771 8772 8773 8774 8775 8776 8777 8778 8779 8780 8781 8782 8783 8784 8785 8786 8787 8788 8789 8790 8791 8792 8793 8794 8795 8796 8797 8798 8799 8800 8801 8802 8803 8804 8805 8806 8807 8808 8809 8810 8811 8812 8813 8814 8815 8816 8817 8818 8819 8820 8821 8822 8823 8824 8825 8826 8827 8828 8829 8830 8831 8832 8833 8834 8835 8836 8837 8838 8839 8840 8841 8842 8843 8844 8845 8846 8847 8848 8849 8850 8851 8852 8853 8854 8855 8856 8857 8858 8859 8860 8861 8862 8863 8864 8865 8866 8867 8868 8869 8870 8871 8872 8873 8874 8875 8876 8877 8878 8879 8880 8881 8882 8883 8884 8885 8886 8887 8888 8889 8890 8891 8892 8893 8894 8895 8896 8897 8898 8899 8900 8901 8902 8903 8904 8905 8906 8907 8908 8909 8910 8911 8912 8913 8914 8915 8916 8917 8918 8919 8920 8921 8922 8923 8924 8925 8926 8927 8928 8929 8930 8931 8932 8933 8934 8935 8936 8937 8938 8939 8940 8941 8942 8943 8944 8945 8946 8947 8948 8949 8950 8951 8952 8953 8954 8955 8956 8957 8958 8959 8960 8961 8962 8963 8964 8965 8966 8967 8968 8969 8970 8971 8972 8973 8974 8975 8976 8977 8978 8979 8980 8981 8982 8983 8984 8985 8986 8987 8988 8989 8990 8991 8992 8993 8994 8995 8996 8997 8998 8999 9000 9001 9002 9003 9004 9005 9006 9007 9008 9009 9010 9011 9012 9013 9014 9015 9016 9017 9018 9019 9020 9021 9022 9023 9024 9025 9026 9027 9028 9029 9030 9031 9032 9033 9034 9035 9036 9037 9038 9039 9040 9041 9042 9043 9044 9045 9046 9047 9048 9049 9050 9051 9052 9053 9054 9055 9056 9057 9058 9059 9060 9061 9062 9063 9064 9065 9066 9067 9068 9069 9070 9071 9072 9073 9074 9075 9076 9077 9078 9079 9080 9081 9082 9083 9084 9085 9086 9087 9088 9089 9090 9091 9092 9093 9094 9095 9096 9097 9098 9099 9100 9101 9102 9103 9104 9105 9106 9107 9108 9109 9110 9111 9112 9113 9114 9115 9116 9117 9118 9119 9120 9121 9122 9123 9124 9125 9126 9127 9128 9129 9130 9131 9132 9133 9134 9135 9136 9137 9138 9139 9140 9141 9142 9143 9144 9145 9146 9147 9148 9149 9150 9151 9152 9153 9154 9155 9156 9157 9158 9159 9160 9161 9162 9163 9164 9165 9166 9167 9168 9169 9170 9171 9172 9173 9174 9175 9176 9177 9178 9179 9180 9181 9182 9183 9184 9185 9186 9187 9188 9189 9190 9191 9192 9193 9194 9195 9196 9197 9198 9199 9200 9201 9202 9203 9204 9205 9206 9207 9208 9209 9210 9211 9212 9213 9214 9215 9216 9217 9218 9219 9220 9221 9222 9223 9224 9225 9226 9227 9228 9229 9230 9231 9232 9233 9234 9235 9236 9237 9238 9239 9240 9241 9242 9243 9244 9245 9246 9247 9248 9249 9250 9251 9252 9253 9254 9255 9256 9257 9258 9259 9260 9261 9262 9263 9264 9265 9266 9267 9268 9269 9270 9271 9272 9273 9274 9275 9276 9277 9278 9279 9280 9281 9282 9283 9284 9285 9286 9287 9288 9289 9290 9291 9292 9293 9294 9295 9296 9297 9298 9299 9300 9301 9302 9303 9304 9305 9306 9307 9308 9309 9310 9311 9312 9313 9314 9315 9316 9317 9318 9319 9320 9321 9322 9323 9324 9325 9326 9327 9328 9329 9330 9331 9332 9333 9334 9335 9336 9337 9338 9339 9340 9341 9342 9343 9344 9345 9346 9347 9348 9349 9350 9351 9352 9353 9354 9355 9356 9357 9358 9359 9360 9361 9362 9363 9364 9365 9366 9367 9368 9369 9370 9371 9372 9373 9374 9375 9376 9377 9378 9379 9380 9381 9382 9383 9384 9385 9386 9387 9388 9389 9390 9391 9392 9393 9394 9395 9396 9397 9398 9399 9400 9401 9402 9403 9404 9405 9406 9407 9408 9409 9410 9411 9412 9413 9414 9415 9416 9417 9418 9419 9420 9421 9422 9423 9424 9425 9426 9427 9428 9429 9430 9431 9432 9433 9434 9435 9436 9437 9438 9439 9440 9441 9442 9443 9444 9445 9446 9447 9448 9449 9450 9451 9452 9453 9454 9455 9456 9457 9458 9459 9460 9461 9462 9463 9464 9465 9466 9467 9468 9469 9470 9471 9472 9473 9474 9475 9476 9477 9478 9479 9480 9481 9482 9483 9484 9485 9486 9487 9488 9489 9490 9491 9492 9493 9494 9495 9496 9497 9498 9499 9500 9501 9502 9503 9504 9505 9506 9507 9508 9509 9510 9511 9512 9513 9514 9515 9516 9517 9518 9519 9520 9521 9522 9523 9524 9525 9526 9527 9528 9529 9530 9531 9532 9533 9534 9535 9536 9537 9538 9539 9540 9541 9542 9543 9544 9545 9546 9547 9548 9549 9550 9551 9552 9553 9554 9555 9556 9557 9558 9559 9560 9561 9562 9563 9564 9565 9566 9567 9568 9569 9570 9571 9572 9573 9574 9575 9576 9577 9578 9579 9580 9581 9582 9583 9584 9585 9586 9587 9588 9589 9590 9591 9592 9593 9594 9595 9596 9597 9598 9599 9600 9601 9602 9603 9604 9605 9606 9607 9608 9609 9610 9611 9612 9613 9614 9615 9616 9617 9618 9619 9620 9621 9622 9623 9624 9625 9626 9627 9628 9629 9630 9631 9632 9633 9634 9635 9636 9637 9638 9639 9640 9641 9642 9643 9644 9645 9646 9647 9648 9649 9650 9651 9652 9653 9654 9655 9656 9657 9658 9659 9660 9661 9662 9663 9664 9665 9666 9667 9668 9669 9670 9671 9672 9673 9674 9675 9676 9677 9678 9679 9680 9681 9682 9683 9684 9685 9686 9687 9688 9689 9690 9691 9692 9693 9694 9695 9696 9697 9698 9699 9700 9701 9702 9703 9704 9705 9706 9707 9708 9709 9710 9711 9712 9713 9714 9715 9716 9717 9718 9719 9720 9721 9722 9723 9724 9725 9726 9727 9728 9729 9730 9731 9732 9733 9734 9735 9736 9737 9738 9739 9740 9741 9742 9743 9744 9745 9746 9747 9748 9749 9750 9751 9752 9753 9754 9755 9756 9757 9758 9759 9760 9761 9762 9763 9764 9765 9766 9767 9768 9769 9770 9771 9772 9773 9774 9775 9776 9777 9778 9779 9780 9781 9782 9783 9784 9785 9786 9787 9788 9789 9790 9791 9792 9793 9794 9795 9796 9797 9798 9799 9800 9801 9802 9803 9804 9805 9806 9807 9808 9809 9810 9811 9812 9813 9814 9815 9816 9817 9818 9819 9820 9821 9822 9823 9824 9825 9826 9827 9828 9829 9830 9831 9832 9833 9834 9835 9836 9837 9838 9839 9840 9841 9842 9843 9844 9845 9846 9847 9848 9849 9850 9851 9852 9853 9854 9855 9856 9857 9858 9859 9860 9861 9862 9863 9864 9865 9866 9867 9868 9869 9870 9871 9872 9873 9874 9875 9876 9877 9878 9879 9880 9881 9882 9883 9884 9885 9886 9887 9888 9889 9890 9891 9892 9893 9894 9895 9896 9897 9898 9899 9900 9901 9902 9903 9904 9905 9906 9907 9908 9909 9910 9911 9912 9913 9914 9915 9916 9917 9918 9919 9920 9921 9922 9923 9924 9925 9926 9927 9928 9929 9930 9931 9932 9933 9934 9935 9936 9937 9938 9939 9940 9941 9942 9943 9944 9945 9946 9947 9948 9949 9950 9951 9952 9953 9954 9955 9956 9957 9958 9959 9960 9961 9962 9963 9964 9965 9966 9967 9968 9969 9970 9971 9972 9973 9974 9975 9976 9977 9978 9979 9980 9981 9982 9983 9984 9985 9986 9987 9988 9989 9990 9991 9992 9993 9994 9995 9996 9997 9998 9999 10000 10001 10002 10003 10004 10005 10006 10007 10008 10009 10010 10011 10012 10013 10014 10015 10016 10017 10018 10019 10020 10021 10022 10023 10024 10025 10026 10027 10028 10029 10030 10031 10032 10033 10034 10035 10036 10037 10038 10039 10040 10041 10042 10043 10044 10045 10046 10047 10048 10049 10050 10051 10052 10053 10054 10055 10056 10057 10058 10059 10060 10061 10062 10063 10064 10065 10066 10067 10068 10069 10070 10071 10072 10073 10074 10075 10076 10077 10078 10079 10080 10081 10082 10083 10084 10085 10086 10087 10088 10089 10090 10091 10092 10093 10094 10095 10096 10097 10098 10099 10100 10101 10102 10103 10104 10105 10106 10107 10108 10109 10110 10111 10112 10113 10114 10115 10116 10117 10118 10119 10120 10121 10122 10123 10124 10125 10126 10127 10128 10129 10130 10131 10132 10133 10134 10135 10136 10137 10138 10139 10140 10141 10142 10143 10144 10145 10146 10147 10148 10149 10150 10151 10152 10153 10154 10155 10156 10157 10158 10159 10160 10161 10162 10163 10164 10165 10166 10167 10168 10169 10170 10171 10172 10173 10174 10175 10176 10177 10178 10179 10180 10181 10182 10183 10184 10185 10186 10187 10188 10189 10190 10191 10192 10193 10194 10195 10196 10197 10198 10199 10200 10201 10202 10203 10204 10205 10206 10207 10208 10209 10210 10211 10212 10213 10214 10215 10216 10217 10218 10219 10220 10221 10222 10223 10224 10225 10226 10227 10228 10229 10230 10231 10232 10233 10234 10235 10236 10237 10238 10239 10240 10241 10242 10243 10244 10245 10246 10247 10248 10249 10250 10251 10252 10253 10254 10255 10256 10257 10258 10259 10260 10261 10262 10263 10264 10265 10266 10267 10268 10269 10270 10271 10272 10273 10274 10275 10276 10277 10278 10279 10280 10281 10282 10283 10284 10285 10286 10287 10288 10289 10290 10291 10292 10293 10294 10295 10296 10297 10298 10299 10300 10301 10302 10303 10304 10305 10306 10307 10308 10309 10310 10311 10312 10313 10314 10315 10316 10317 10318 10319 10320 10321 10322 10323 10324 10325 10326 10327 10328 10329 10330 10331 10332 10333 10334 10335 10336 10337 10338 10339 10340 10341 10342 10343 10344 10345 10346 10347 10348 10349 10350 10351 10352 10353 10354 10355 10356 10357 10358 10359 10360 10361 10362 10363 10364 10365 10366 10367 10368 10369 10370 10371 10372 10373 10374 10375 10376 10377 10378 10379 10380 10381 10382 10383 10384 10385 10386 10387 10388 10389 10390 10391 10392 10393 10394 10395 10396 10397 10398 10399 10400 10401 10402 10403 10404 10405 10406 10407 10408 10409 10410 10411 10412 10413 10414 10415 10416 10417 10418 10419 10420 10421 10422 10423 10424 10425 10426 10427 10428 10429 10430 10431 10432 10433 10434 10435 10436 10437 10438 10439 10440 10441 10442 10443 10444 10445 10446 10447 10448 10449 10450 10451 10452 10453 10454 10455 10456 10457 10458 10459 10460 10461 10462 10463 10464 10465 10466 10467 10468 10469 10470 10471 10472 10473 10474 10475 10476 10477 10478 10479 10480 10481 10482 10483 10484 10485 10486 10487 10488 10489 10490 10491 10492 10493 10494 10495 10496 10497 10498 10499 10500 10501 10502 10503 10504 10505 10506 10507 10508 10509 10510 10511 10512 10513 10514 10515 10516 10517 10518 10519 10520 10521 10522 10523 10524 10525 10526 10527 10528 10529 10530 10531 10532 10533 10534 10535 10536 10537 10538 10539 10540 10541 10542 10543 10544 10545 10546 10547 10548 10549 10550 10551 10552 10553 10554 10555 10556 10557 10558 10559 10560 10561 10562 10563 10564 10565 10566 10567 10568 10569 10570 10571 10572 10573 10574 10575 10576 10577 10578 10579 10580 10581 10582 10583 10584 10585 10586 10587 10588 10589 10590 10591 10592 10593 10594 10595 10596 10597 10598 10599 10600 10601 10602 10603 10604 10605 10606 10607 10608 10609 10610 10611 10612 10613 10614 10615 10616 10617 10618 10619 10620 10621 10622 10623 10624 10625 10626 10627 10628 10629 10630 10631 10632 10633 10634 10635 10636 10637 10638 10639 10640 10641 10642 10643 10644 10645 10646 10647 10648 10649 10650 10651 10652 10653 10654 10655 10656 10657 10658 10659 10660 10661 10662 10663 10664 10665 10666 10667 10668 10669 10670 10671 10672 10673 10674 10675 10676 10677 10678 10679 10680 10681 10682 10683 10684 10685 10686 10687 10688 10689 10690 10691 10692 10693 10694 10695 10696 10697 10698 10699 10700 10701 10702 10703 10704 10705 10706 10707 10708 10709 10710 10711 10712 10713 10714 10715 10716 10717 10718 10719 10720 10721 10722 10723 10724 10725 10726 10727 10728 10729 10730 10731 10732 10733 10734 10735 10736 10737 10738 10739 10740 10741 10742 10743 10744 10745 10746 10747 10748 10749 10750 10751 10752 10753 10754 10755 10756 10757 10758 10759 10760 10761 10762 10763 10764 10765 10766 10767 10768 10769 10770 10771 10772 10773 10774 10775 10776 10777 10778 10779 10780 10781 10782 10783 10784 10785 10786 10787 10788 10789 10790 10791 10792 10793 10794 10795 10796 10797 10798 10799 10800 10801 10802 10803 10804 10805 10806 10807 10808 10809 10810 10811 10812 10813 10814 10815 10816 10817 10818 10819 10820 10821 10822 10823 10824 10825 10826 10827 10828 10829 10830 10831 10832 10833 10834 10835 10836 10837 10838 10839 10840 10841 10842 10843 10844 10845 10846 10847 10848 10849 10850 10851 10852 10853 10854 10855 10856 10857 10858 10859 10860 10861 10862 10863 10864 10865 10866 10867 10868 10869 10870 10871 10872 10873 10874 10875 10876 10877 10878 10879 10880 10881 10882 10883 10884 10885 10886 10887 10888 10889 10890 10891 10892 10893 10894 10895 10896 10897 10898 10899 10900 10901 10902 10903 10904 10905 10906 10907 10908 10909 10910 10911 10912 10913 10914 10915 10916 10917 10918 10919 10920 10921 10922 10923 10924 10925 10926 10927 10928 10929 10930 10931 10932 10933 10934 10935 10936 10937 10938 10939 10940 10941 10942 10943 10944 10945 10946 10947 10948 10949 10950 10951 10952 10953 10954 10955 10956 10957 10958 10959 10960 10961 10962 10963 10964 10965 10966 10967 10968 10969 10970 10971 10972 10973 10974 10975 10976 10977 10978 10979 10980 10981 10982 10983 10984 10985 10986 10987 10988 10989 10990 10991 10992 10993 10994 10995 10996 10997 10998 10999 11000 11001 11002 11003 11004 11005 11006 11007 11008 11009 11010 11011 11012 11013 11014 11015 11016 11017 11018 11019 11020 11021 11022 11023 11024 11025 11026 11027 11028 11029 11030 11031 11032 11033 11034 11035 11036 11037 11038 11039 11040 11041 11042 11043 11044 11045 11046 11047 11048 11049 11050 11051 11052 11053 11054 11055 11056 11057 11058 11059 11060 11061 11062 11063 11064 11065 11066 11067 11068 11069 11070 11071 11072 11073 11074 11075 11076 11077 11078 11079 11080 11081 11082 11083 11084 11085 11086 11087 11088 11089 11090 11091 11092 11093 11094 11095 11096 11097 11098 11099 11100 11101 11102 11103 11104 11105 11106 11107 11108 11109 11110 11111 11112 11113 11114 11115 11116 11117 11118 11119 11120 11121 11122 11123 11124 11125 11126 11127 11128 11129 11130 11131 11132 11133 11134 11135 11136 11137 11138 11139 11140 11141 11142 11143 11144 11145 11146 11147 11148 11149 11150 11151 11152 11153 11154 11155 11156 11157 11158 11159 11160 11161 11162 11163 11164 11165 11166 11167 11168 11169 11170 11171 11172 11173 11174 11175 11176 11177 11178 11179 11180 11181 11182 11183 11184 11185 11186 11187 11188 11189 11190 11191 11192 11193 11194 11195 11196 11197 11198 11199 11200 11201 11202 11203 11204 11205 11206 11207 11208 11209 11210 11211 11212 11213 11214 11215 11216 11217 11218 11219 11220 11221 11222 11223 11224 11225 11226 11227 11228 11229 11230 11231 11232 11233 11234 11235 11236 11237 11238 11239 11240 11241 11242 11243 11244 11245 11246 11247 11248 11249 11250 11251 11252 11253 11254 11255 11256 11257 11258 11259 11260 11261 11262 11263 11264 11265 11266 11267 11268 11269 11270 11271 11272 11273 11274 11275 11276 11277 11278 11279 11280 11281 11282 11283 11284 11285 11286 11287 11288 11289 11290 11291 11292 11293 11294 11295 11296 11297 11298 11299 11300 11301 11302 11303 11304 11305 11306 11307 11308 11309 11310 11311 11312 11313 11314 11315 11316 11317 11318 11319 11320 11321 11322 11323 11324 11325 11326 11327 11328 11329 11330 11331 11332 11333 11334 11335 11336 11337 11338 11339 11340 11341 11342 11343 11344 11345 11346 11347 11348 11349 11350 11351 11352 11353 11354 11355 11356 11357 11358 11359 11360 11361 11362 11363 11364 11365 11366 11367 11368 11369 11370 11371 11372 11373 11374 11375 11376 11377 11378 11379 11380 11381 11382 11383 11384 11385 11386 11387 11388 11389 11390 11391 11392 11393 11394 11395 11396 11397 11398 11399 11400 11401 11402 11403 11404 11405 11406 11407 11408 11409 11410 11411 11412 11413 11414 11415 11416 11417 11418 11419 11420 11421 11422 11423 11424 11425 11426 11427 11428 11429 11430 11431 11432 11433 11434 11435 11436 11437 11438 11439 11440 11441 11442 11443 11444 11445 11446 11447 11448 11449 11450 11451 11452 11453 11454 11455 11456 11457 11458 11459 11460 11461 11462 11463 11464 11465 11466 11467 11468 11469 11470 11471 11472 11473 11474 11475 11476 11477 11478 11479 11480 11481 11482 11483 11484 11485 11486 11487 11488 11489 11490 11491 11492 11493 11494 11495 11496 11497 11498 11499 11500 11501 11502 11503 11504 11505 11506 11507 11508 11509 11510 11511 11512 11513 11514 11515 11516 11517 11518 11519 11520 11521 11522 11523 11524 11525 11526 11527 11528 11529 11530 11531 11532 11533 11534 11535 11536 11537 11538 11539 11540 11541 11542 11543 11544 11545 11546 11547 11548 11549 11550 11551 11552 11553 11554 11555 11556 11557 11558 11559 11560 11561 11562 11563 11564 11565 11566 11567 11568 11569 11570 11571 11572 11573 11574 11575 11576 11577 11578 11579 11580 11581 11582 11583 11584 11585 11586 11587 11588 11589 11590 11591 11592 11593 11594 11595 11596 11597 11598 11599 11600 11601 11602 11603 11604 11605 11606 11607 11608 11609 11610 11611 11612 11613 11614 11615 11616 11617 11618 11619 11620 11621 11622 11623 11624 11625 11626 11627 11628 11629 11630 11631 11632 11633 11634 11635 11636 11637 11638 11639 11640 11641 11642 11643 11644 11645 11646 11647 11648 11649 11650 11651 11652 11653 11654 11655 11656 11657 11658 11659 11660 11661 11662 11663 11664 11665 11666 11667 11668 11669 11670 11671 11672 11673 11674 11675 11676 11677 11678 11679 11680 11681 11682 11683 11684 11685 11686 11687 11688 11689 11690 11691 11692 11693 11694 11695 11696 11697 11698 11699 11700 11701 11702 11703 11704 11705 11706 11707 11708 11709 11710 11711 11712 11713 11714 11715 11716 11717 11718 11719 11720 11721 11722 11723 11724 11725 11726 11727 11728 11729 11730 11731 11732 11733 11734 11735 11736 11737 11738 11739 11740 11741 11742 11743 11744 11745 11746 11747 11748 11749 11750 11751 11752 11753 11754 11755 11756 11757 11758 11759 11760 11761 11762 11763 11764 11765 11766 11767 11768 11769 11770 11771 11772 11773 11774 11775 11776 11777 11778 11779 11780 11781 11782 11783 11784 11785 11786 11787 11788 11789 11790 11791 11792 11793 11794 11795 11796 11797 11798 11799 11800 11801 11802 11803 11804 11805 11806 11807 11808 11809 11810 11811 11812 11813 11814 11815 11816 11817 11818 11819 11820 11821 11822 11823 11824 11825 11826 11827 11828 11829 11830 11831 11832 11833 11834 11835 11836 11837 11838 11839 11840 11841 11842 11843 11844 11845 11846 11847 11848 11849 11850 11851 11852 11853 11854 11855 11856 11857 11858 11859 11860 11861 11862 11863 11864 11865 11866 11867 11868 11869 11870 11871 11872 11873 11874 11875 11876 11877 11878 11879 11880 11881 11882 11883 11884 11885 11886 11887 11888 11889 11890 11891 11892 11893 11894 11895 11896 11897 11898 11899 11900 11901 11902 11903 11904 11905 11906 11907 11908 11909 11910 11911 11912 11913 11914 11915 11916 11917 11918 11919 11920 11921 11922 11923 11924 11925 11926 11927 11928 11929 11930 11931 11932 11933 11934 11935 11936 11937 11938 11939 11940 11941 11942 11943 11944 11945 11946 11947 11948 11949 11950 11951 11952 11953 11954 11955 11956 11957 11958 11959 11960 11961 11962 11963 11964 11965 11966 11967 11968 11969 11970 11971 11972 11973 11974 11975 11976 11977 11978 11979 11980 11981 11982 11983 11984 11985 11986 11987 11988 11989 11990 11991 11992 11993 11994 11995 11996 11997 11998 11999 12000 12001 12002 12003 12004 12005 12006 12007 12008 12009 12010 12011 12012 12013 12014 12015 12016 12017 12018 12019 12020 12021 12022 12023 12024 12025 12026 12027 12028 12029 12030 12031 12032 12033 12034 12035 12036 12037 12038 12039 12040 12041 12042 12043 12044 12045 12046 12047 12048 12049 12050 12051 12052 12053 12054 12055 12056 12057 12058 12059 12060 12061 12062 12063 12064 12065 12066 12067 12068 12069 12070 12071 12072 12073 12074 12075 12076 12077 12078 12079 12080 12081 12082 12083 12084 12085 12086 12087 12088 12089 12090 12091 12092 12093 12094 12095 12096 12097 12098 12099 12100 12101 12102 12103 12104 12105 12106 12107 12108 12109 12110 12111 12112 12113 12114 12115 12116 12117 12118 12119 12120 12121 12122 12123 12124 12125 12126 12127 12128 12129 12130 12131 12132 12133 12134 12135 12136 12137 12138 12139 12140 12141 12142 12143 12144 12145 12146 12147 12148 12149 12150 12151 12152 12153 12154 12155 12156 12157 12158 12159 12160 12161 12162 12163 12164 12165 12166 12167 12168 12169 12170 12171 12172 12173 12174 12175 12176 12177 12178 12179 12180 12181 12182 12183 12184 12185 12186 12187 12188 12189 12190 12191 12192 12193 12194 12195 12196 12197 12198 12199 12200 12201 12202 12203 12204 12205 12206 12207 12208 12209 12210 12211 12212 12213 12214 12215 12216 12217 12218 12219 12220 12221 12222 12223 12224 12225 12226 12227 12228 12229 12230 12231 12232 12233 12234 12235 12236 12237 12238 12239 12240 12241 12242 12243 12244 12245 12246 12247 12248 12249 12250 12251 12252 12253 12254 12255 12256 12257 12258 12259 12260 12261 12262 12263 12264 12265 12266 12267 12268 12269 12270 12271 12272 12273 12274 12275 12276 12277 12278 12279 12280 12281 12282 12283 12284 12285 12286 12287 12288 12289 12290 12291 12292 12293 12294 12295 12296 12297 12298 12299 12300 12301 12302 12303 12304 12305 12306 12307 12308 12309 12310 12311 12312 12313 12314 12315 12316 12317 12318 12319 12320 12321 12322 12323 12324 12325 12326 12327 12328 12329 12330 12331 12332 12333 12334 12335 12336 12337 12338 12339 12340 12341 12342 12343 12344 12345 12346 12347 12348 12349 12350 12351 12352 12353 12354 12355 12356 12357 12358 12359 12360 12361 12362 12363 12364 12365 12366 12367 12368 12369 12370 12371 12372 12373 12374 12375 12376 12377 12378 12379 12380 12381 12382 12383 12384 12385 12386 12387 12388 12389 12390 12391 12392 12393 12394 12395 12396 12397 12398 12399 12400 12401 12402 12403 12404 12405 12406 12407 12408 12409 12410 12411 12412 12413 12414 12415 12416 12417 12418 12419 12420 12421 12422 12423 12424 12425 12426 12427 12428 12429 12430 12431 12432 12433 12434 12435 12436 12437 12438 12439 12440 12441 12442 12443 12444 12445 12446 12447 12448 12449 12450 12451 12452 12453 12454 12455 12456 12457 12458 12459 12460 12461 12462 12463 12464 12465 12466 12467 12468 12469 12470 12471 12472 12473 12474 12475 12476 12477 12478 12479 12480 12481 12482 12483 12484 12485 12486 12487 12488 12489 12490 12491 12492 12493 12494 12495 12496 12497 12498 12499 12500 12501 12502 12503 12504 12505 12506 12507 12508 12509 12510 12511 12512 12513 12514 12515 12516 12517 12518 12519 12520 12521 12522 12523 12524 12525 12526 12527 12528 12529 12530 12531 12532 12533 12534 12535 12536 12537 12538 12539 12540 12541 12542 12543 12544 12545 12546 12547 12548 12549 12550 12551 12552 12553 12554 12555 12556 12557 12558 12559 12560 12561 12562 12563 12564 12565 12566 12567 12568 12569 12570 12571 12572 12573 12574 12575 12576 12577 12578 12579 12580 12581 12582 12583 12584 12585 12586 12587 12588 12589 12590 12591 12592 12593 12594 12595 12596 12597 12598 12599 12600 12601 12602 12603 12604 12605 12606 12607 12608 12609 12610 12611 12612 12613 12614 12615 12616 12617 12618 12619 12620 12621 12622 12623 12624 12625 12626 12627 12628 12629 12630 12631 12632 12633 12634 12635 12636 12637 12638 12639 12640 12641 12642 12643 12644 12645 12646 12647 12648 12649 12650 12651 12652 12653 12654 12655 12656 12657 12658 12659 12660 12661 12662 12663 12664 12665 12666 12667 12668 12669 12670 12671 12672 12673 12674 12675 12676 12677 12678 12679 12680 12681 12682 12683 12684 12685 12686 12687 12688 12689 12690 12691 12692 12693 12694 12695 12696 12697 12698 12699 12700 12701 12702 12703 12704 12705 12706 12707 12708 12709 12710 12711 12712 12713 12714 12715 12716 12717 12718 12719 12720 12721 12722 12723 12724 12725 12726 12727 12728 12729 12730 12731 12732 12733 12734 12735 12736 12737 12738 12739 12740 12741 12742 12743 12744 12745 12746 12747 12748 12749 12750 12751 12752 12753 12754 12755 12756 12757 12758 12759 12760 12761 12762 12763 12764 12765 12766 12767 12768 12769 12770 12771 12772 12773 12774 12775 12776 12777 12778 12779 12780 12781 12782 12783 12784 12785 12786 12787 12788 12789 12790 12791 12792 12793 12794 12795 12796 12797 12798 12799 12800 12801 12802 12803 12804 12805 12806 12807 12808 12809 12810 12811 12812 12813 12814 12815 12816 12817 12818 12819 12820 12821 12822 12823 12824 12825 12826 12827 12828 12829 12830 12831 12832 12833 12834 12835 12836 12837 12838 12839 12840 12841 12842 12843 12844 12845 12846 12847 12848 12849 12850 12851 12852 12853 12854 12855 12856 12857 12858 12859 12860 12861 12862 12863 12864 12865 12866 12867 12868 12869 12870 12871 12872 12873 12874 12875 12876 12877 12878 12879 12880 12881 12882 12883 12884 12885 12886 12887 12888 12889 12890 12891 12892 12893 12894 12895 12896 12897 12898 12899 12900 12901 12902 12903 12904 12905 12906 12907 12908 12909 12910 12911 12912 12913 12914 12915 12916 12917 12918 12919 12920 12921 12922 12923 12924 12925 12926 12927 12928 12929 12930 12931 12932 12933 12934 12935 12936 12937 12938 12939 12940 12941 12942 12943 12944 12945 12946 12947 12948 12949 12950 12951 12952 12953 12954 12955 12956 12957 12958 12959 12960 12961 12962 12963 12964 12965 12966 12967 12968 12969 12970 12971 12972 12973 12974 12975 12976 12977 12978 12979 12980 12981 12982 12983 12984 12985 12986 12987 12988 12989 12990 12991 12992 12993 12994 12995 12996 12997 12998 12999 13000 13001 13002 13003 13004 13005 13006 13007 13008 13009 13010 13011 13012 13013 13014 13015 13016 13017 13018 13019 13020 13021 13022 13023 13024 13025 13026 13027 13028 13029 13030 13031 13032 13033 13034 13035 13036 13037 13038 13039 13040 13041 13042 13043 13044 13045 13046 13047 13048 13049 13050 13051 13052 13053 13054 13055 13056 13057 13058 13059 13060 13061 13062 13063 13064 13065 13066 13067 13068 13069 13070 13071 13072 13073 13074 13075 13076 13077 13078 13079 13080 13081 13082 13083 13084 13085 13086 13087 13088 13089 13090 13091 13092 13093 13094 13095 13096 13097 13098 13099 13100 13101 13102 13103 13104 13105 13106 13107 13108 13109 13110 13111 13112 13113 13114 13115 13116 13117 13118 13119 13120 13121 13122 13123 13124 13125 13126 13127 13128 13129 13130 13131 13132 13133 13134 13135 13136 13137 13138 13139 13140 13141 13142 13143 13144 13145 13146 13147 13148 13149 13150 13151 13152 13153 13154 13155 13156 13157 13158 13159 13160 13161 13162 13163 13164 13165 13166 13167 13168 13169 13170 13171 13172 13173 13174 13175 13176 13177 13178 13179 13180 13181 13182 13183 13184 13185 13186 13187 13188 13189 13190 13191 13192 13193 13194 13195 13196 13197 13198 13199 13200 13201 13202 13203 13204 13205 13206 13207 13208 13209 13210 13211 13212 13213 13214 13215 13216 13217 13218 13219 13220 13221 13222 13223 13224 13225 13226 13227 13228 13229 13230 13231 13232 13233 13234 13235 13236 13237 13238 13239 13240 13241 13242 13243 13244 13245 13246 13247 13248 13249 13250 13251 13252 13253 13254 13255 13256 13257 13258 13259 13260 13261 13262 13263 13264 13265 13266 13267 13268 13269 13270 13271 13272 13273 13274 13275 13276 13277 13278 13279 13280 13281 13282 13283 13284 13285 13286 13287 13288 13289 13290 13291 13292 13293 13294 13295 13296 13297 13298 13299 13300 13301 13302 13303 13304 13305 13306 13307 13308 13309 13310 13311 13312 13313 13314 13315 13316 13317 13318 13319 13320 13321 13322 13323 13324 13325 13326 13327 13328 13329 13330 13331 13332 13333 13334 13335 13336 13337 13338 13339 13340 13341 13342 13343 13344 13345 13346 13347 13348 13349 13350 13351 13352 13353 13354 13355 13356 13357 13358 13359 13360 13361 13362 13363 13364 13365 13366 13367 13368 13369 13370 13371 13372 13373 13374 13375 13376 13377 13378 13379 13380 13381 13382 13383 13384 13385 13386 13387 13388 13389 13390 13391 13392 13393 13394 13395 13396 13397 13398 13399 13400 13401 13402 13403 13404 13405 13406 13407 13408 13409 13410 13411 13412 13413 13414 13415 13416 13417 13418 13419 13420 13421 13422 13423 13424 13425 13426 13427 13428 13429 13430 13431 13432 13433 13434 13435 13436 13437 13438 13439 13440 13441 13442 13443 13444 13445 13446 13447 13448 13449 13450 13451 13452 13453 13454 13455 13456 13457 13458 13459 13460 13461 13462 13463 13464 13465 13466 13467 13468 13469 13470 13471 13472 13473 13474 13475 13476 13477 13478 13479 13480 13481 13482 13483 13484 13485 13486 13487 13488 13489 13490 13491 13492 13493 13494 13495 13496 13497 13498 13499 13500 13501 13502 13503 13504 13505 13506 13507 13508 13509 13510 13511 13512 13513 13514 13515 13516 13517 13518 13519 13520 13521 13522 13523 13524 13525 13526 13527 13528 13529 13530 13531 13532 13533 13534 13535 13536 13537 13538 13539 13540 13541 13542 13543 13544 13545 13546 13547 13548 13549 13550 13551 13552 13553 13554 13555 13556 13557 13558 13559 13560 13561 13562 13563 13564 13565 13566 13567 13568 13569 13570 13571 13572 13573 13574 13575 13576 13577 13578 13579 13580 13581 13582 13583 13584 13585 13586 13587 13588 13589 13590 13591 13592 13593 13594 13595 13596 13597 13598 13599 13600 13601 13602 13603 13604 13605 13606 13607 13608 13609 13610 13611 13612 13613 13614 13615 13616 13617 13618 13619 13620 13621 13622 13623 13624 13625 13626 13627 13628 13629 13630 13631 13632 13633 13634 13635 13636 13637 13638 13639 13640 13641 13642 13643 13644 13645 13646 13647 13648 13649 13650 13651 13652 13653 13654 13655 13656 13657 13658 13659 13660 13661 13662 13663 13664 13665 13666 13667 13668 13669 13670 13671 13672 13673 13674 13675 13676 13677 13678 13679 13680 13681 13682 13683 13684 13685 13686 13687 13688 13689 13690 13691 13692 13693 13694 13695 13696 13697 13698 13699 13700 13701 13702 13703 13704 13705 13706 13707 13708 13709 13710 13711 13712 13713 13714 13715 13716 13717 13718 13719 13720 13721 13722 13723 13724 13725 13726 13727 13728 13729 13730 13731 13732 13733 13734 13735 13736 13737 13738 13739 13740 13741 13742 13743 13744 13745 13746 13747 13748 13749 13750 13751 13752 13753 13754 13755 13756 13757 13758 13759 13760 13761 13762 13763 13764 13765 13766 13767 13768 13769 13770 13771 13772 13773 13774 13775 13776 13777 13778 13779 13780 13781 13782 13783 13784 13785 13786 13787 13788 13789 13790 13791 13792 13793 13794 13795 13796 13797 13798 13799 13800 13801 13802 13803 13804 13805 13806 13807 13808 13809 13810 13811 13812 13813 13814 13815 13816 13817 13818 13819 13820 13821 13822 13823 13824 13825 13826 13827 13828 13829 13830 13831 13832 13833 13834 13835 13836 13837 13838 13839 13840 13841 13842 13843 13844 13845 13846 13847 13848 13849 13850 13851 13852 13853 13854 13855 13856 13857 13858 13859 13860 13861 13862 13863 13864 13865 13866 13867 13868 13869 13870 13871 13872 13873 13874 13875 13876 13877 13878 13879 13880 13881 13882 13883 13884 13885 13886 13887 13888 13889 13890 13891 13892 13893 13894 13895 13896 13897 13898 13899 13900 13901 13902 13903 13904 13905 13906 13907 13908 13909 13910 13911 13912 13913 13914 13915 13916 13917 13918 13919 13920 13921 13922 13923 13924 13925 13926 13927 13928 13929 13930 13931 13932 13933 13934 13935 13936 13937 13938 13939 13940 13941 13942 13943 13944 13945 13946 13947 13948 13949 13950 13951 13952 13953 13954 13955 13956 13957 13958 13959 13960 13961 13962 13963 13964 13965 13966 13967 13968 13969 13970 13971 13972 13973 13974 13975 13976 13977 13978 13979 13980 13981 13982 13983 13984 13985 13986 13987 13988 13989 13990 13991 13992 13993 13994 13995 13996 13997 13998 13999 14000 14001 14002 14003 14004 14005 14006 14007 14008 14009 14010 14011 14012 14013 14014 14015 14016 14017 14018 14019 14020 14021 14022 14023 14024 14025 14026 14027 14028 14029 14030 14031 14032 14033 14034 14035 14036 14037 14038 14039 14040 14041 14042 14043 14044 14045 14046 14047 14048 14049 14050 14051 14052 14053 14054 14055 14056 14057 14058 14059 14060 14061 14062 14063 14064 14065 14066 14067 14068 14069 14070 14071 14072 14073 14074 14075 14076 14077 14078 14079 14080 14081 14082 14083 14084 14085 14086 14087 14088 14089 14090 14091 14092 14093 14094 14095 14096 14097 14098 14099 14100 14101 14102 14103 14104 14105 14106 14107 14108 14109 14110 14111 14112 14113 14114 14115 14116 14117 14118 14119 14120 14121 14122 14123 14124 14125 14126 14127 14128 14129 14130 14131 14132 14133 14134 14135 14136 14137 14138 14139 14140 14141 14142 14143 14144 14145 14146 14147 14148 14149 14150 14151 14152 14153 14154 14155 14156 14157 14158 14159 14160 14161 14162 14163 14164 14165 14166 14167 14168 14169 14170 14171 14172 14173 14174 14175 14176 14177 14178 14179 14180 14181 14182 14183 14184 14185 14186 14187 14188 14189 14190 14191 14192 14193 14194 14195 14196 14197 14198 14199 14200 14201 14202 14203 14204 14205 14206 14207 14208 14209 14210 14211 14212 14213 14214 14215 14216 14217 14218 14219 14220 14221 14222 14223 14224 14225 14226 14227 14228 14229 14230 14231 14232 14233 14234 14235 14236 14237 14238 14239 14240 14241 14242 14243 14244 14245 14246 14247 14248 14249 14250 14251 14252 14253 14254 14255 14256 14257 14258 14259 14260 14261 14262 14263 14264 14265 14266 14267 14268 14269 14270 14271 14272 14273 14274 14275 14276 14277 14278 14279 14280 14281 14282 14283 14284 14285 14286 14287 14288 14289 14290 14291 14292 14293 14294 14295 14296 14297 14298 14299 14300 14301 14302 14303 14304 14305 14306 14307 14308 14309 14310 14311 14312 14313 14314 14315 14316 14317 14318 14319 14320 14321 14322 14323 14324 14325 14326 14327 14328 14329 14330 14331 14332 14333 14334 14335 14336 14337 14338 14339 14340 14341 14342 14343 14344 14345 14346 14347 14348 14349 14350 14351 14352 14353 14354 14355 14356 14357 14358 14359 14360 14361 14362 14363 14364 14365 14366 14367 14368 14369 14370 14371 14372 14373 14374 14375 14376 14377 14378 14379 14380 14381 14382 14383 14384 14385 14386 14387 14388 14389 14390 14391 14392 14393 14394 14395 14396 14397 14398 14399 14400 14401 14402 14403 14404 14405 14406 14407 14408 14409 14410 14411 14412 14413 14414 14415 14416 14417 14418 14419 14420 14421 14422 14423 14424 14425 14426 14427 14428 14429 14430 14431 14432 14433 14434 14435 14436 14437 14438 14439 14440 14441 14442 14443 14444 14445 14446 14447 14448 14449 14450 14451 14452 14453 14454 14455 14456 14457 14458 14459 14460 14461 14462 14463 14464 14465 14466 14467 14468 14469 14470 14471 14472 14473 14474 14475 14476 14477 14478 14479 14480 14481 14482 14483 14484 14485 14486 14487 14488 14489 14490 14491 14492 14493 14494 14495 14496 14497 14498 14499 14500 14501 14502 14503 14504 14505 14506 14507 14508 14509 14510 14511 14512 14513 14514 14515 14516 14517 14518 14519 14520 14521 14522 14523 14524 14525 14526 14527 14528 14529 14530 14531 14532 14533 14534 14535 14536 14537 14538 14539 14540 14541 14542 14543 14544 14545 14546 14547 14548 14549 14550 14551 14552 14553 14554 14555 14556 14557 14558 14559 14560 14561 14562 14563 14564 14565 14566 14567 14568 14569 14570 14571 14572 14573 14574 14575 14576 14577 14578 14579 14580 14581 14582 14583 14584 14585 14586 14587 14588 14589 14590 14591 14592 14593 14594 14595 14596 14597 14598 14599 14600 14601 14602 14603 14604 14605 14606 14607 14608 14609 14610 14611 14612 14613 14614 14615 14616 14617 14618 14619 14620 14621 14622 14623 14624 14625 14626 14627 14628 14629 14630 14631 14632 14633 14634 14635 14636 14637 14638 14639 14640 14641 14642 14643 14644 14645 14646 14647 14648 14649 14650 14651 14652 14653 14654 14655 14656 14657 14658 14659 14660 14661 14662 14663 14664 14665 14666 14667 14668 14669 14670 14671 14672 14673 14674 14675 14676 14677 14678 14679 14680 14681 14682 14683 14684 14685 14686 14687 14688 14689 14690 14691 14692 14693 14694 14695 14696 14697 14698 14699 14700 14701 14702 14703 14704 14705 14706 14707 14708 14709 14710 14711 14712 14713 14714 14715 14716 14717 14718 14719 14720 14721 14722 14723 14724 14725 14726 14727 14728 14729 14730 14731 14732 14733 14734 14735 14736 14737 14738 14739 14740 14741 14742 14743 14744 14745 14746 14747 14748 14749 14750 14751 14752 14753 14754 14755 14756 14757 14758 14759 14760 14761 14762 14763 14764 14765 14766 14767 14768 14769 14770 14771 14772 14773 14774 14775 14776 14777 14778 14779 14780 14781 14782 14783 14784 14785 14786 14787 14788 14789 14790 14791 14792 14793 14794 14795 14796 14797 14798 14799 14800 14801 14802 14803 14804 14805 14806 14807 14808 14809 14810 14811 14812 14813 14814 14815 14816 14817 14818 14819 14820 14821 14822 14823 14824 14825 14826 14827 14828 14829 14830 14831 14832 14833 14834 14835 14836 14837 14838 14839 14840 14841 14842 14843 14844 14845 14846 14847 14848 14849 14850 14851 14852 14853 14854 14855 14856 14857 14858 14859 14860 14861 14862 14863 14864 14865 14866 14867 14868 14869 14870 14871 14872 14873 14874 14875 14876 14877 14878 14879 14880 14881 14882 14883 14884 14885 14886 14887 14888 14889 14890 14891 14892 14893 14894 14895 14896 14897 14898 14899 14900 14901 14902 14903 14904 14905 14906 14907 14908 14909 14910 14911 14912 14913 14914 14915 14916 14917 14918 14919 14920 14921 14922 14923 14924 14925 14926 14927 14928 14929 14930 14931 14932 14933 14934 14935 14936 14937 14938 14939 14940 14941 14942 14943 14944 14945 14946 14947 14948 14949 14950 14951 14952 14953 14954 14955 14956 14957 14958 14959 14960 14961 14962 14963 14964 14965 14966 14967 14968 14969 14970 14971 14972 14973 14974 14975 14976 14977 14978 14979 14980 14981 14982 14983 14984 14985 14986 14987 14988 14989 14990 14991 14992 14993 14994 14995 14996 14997 14998 14999 15000 15001 15002 15003 15004 15005 15006 15007 15008 15009 15010 15011 15012 15013 15014 15015 15016 15017 15018 15019 15020 15021 15022 15023 15024 15025 15026 15027 15028 15029 15030 15031 15032 15033 15034 15035 15036 15037 15038 15039 15040 15041 15042 15043 15044 15045 15046 15047 15048 15049 15050 15051 15052 15053 15054 15055 15056 15057 15058 15059 15060 15061 15062 15063 15064 15065 15066 15067 15068 15069 15070 15071 15072 15073 15074 15075 15076 15077 15078 15079 15080 15081 15082 15083 15084 15085 15086 15087 15088 15089 15090 15091 15092 15093 15094 15095 15096 15097 15098 15099 15100 15101 15102 15103 15104 15105 15106 15107 15108 15109 15110 15111 15112 15113 15114 15115 15116 15117 15118 15119 15120 15121 15122 15123 15124 15125 15126 15127 15128 15129 15130 15131 15132 15133 15134 15135 15136 15137 15138 15139 15140 15141 15142 15143 15144 15145 15146 15147 15148 15149 15150 15151 15152 15153 15154 15155 15156 15157 15158 15159 15160 15161 15162 15163 15164 15165 15166 15167 15168 15169 15170 15171 15172 15173 15174 15175 15176 15177 15178 15179 15180 15181 15182 15183 15184 15185 15186 15187 15188 15189 15190 15191 15192 15193 15194 15195 15196 15197 15198 15199 15200 15201 15202 15203 15204 15205 15206 15207 15208 15209 15210 15211 15212 15213 15214 15215 15216 15217 15218 15219 15220 15221 15222 15223 15224 15225 15226 15227 15228 15229 15230 15231 15232 15233 15234 15235 15236 15237 15238 15239 15240 15241 15242 15243 15244 15245 15246 15247 15248 15249 15250 15251 15252 15253 15254 15255 15256 15257 15258 15259 15260 15261 15262 15263 15264 15265 15266 15267 15268 15269 15270 15271 15272 15273 15274 15275 15276 15277 15278 15279 15280 15281 15282 15283 15284 15285 15286 15287 15288 15289 15290 15291 15292 15293 15294 15295 15296 15297 15298 15299 15300 15301 15302 15303 15304 15305 15306 15307 15308 15309 15310 15311 15312 15313 15314 15315 15316 15317 15318 15319 15320 15321 15322 15323 15324 15325 15326 15327 15328 15329 15330 15331 15332 15333 15334 15335 15336 15337 15338 15339 15340 15341 15342 15343 15344 15345 15346 15347 15348 15349 15350 15351 15352 15353 15354 15355 15356 15357 15358 15359 15360 15361 15362 15363 15364 15365 15366 15367 15368 15369 15370 15371 15372 15373 15374 15375 15376 15377 15378 15379 15380 15381 15382 15383 15384 15385 15386 15387 15388 15389 15390 15391 15392 15393 15394 15395 15396 15397 15398 15399 15400 15401 15402 15403 15404 15405 15406 15407 15408 15409 15410 15411 15412 15413 15414 15415 15416 15417 15418 15419 15420 15421 15422 15423 15424 15425 15426 15427 15428 15429 15430 15431 15432 15433 15434 15435 15436 15437 15438 15439 15440 15441 15442 15443 15444 15445 15446 15447 15448 15449 15450 15451 15452 15453 15454 15455 15456 15457 15458 15459 15460 15461 15462 15463 15464 15465 15466 15467 15468 15469 15470 15471 15472 15473 15474 15475 15476 15477 15478 15479 15480 15481 15482 15483 15484 15485 15486 15487 15488 15489 15490 15491 15492 15493 15494 15495 15496 15497 15498 15499 15500 15501 15502 15503 15504 15505 15506 15507 15508 15509 15510 15511 15512 15513 15514 15515 15516 15517 15518 15519 15520 15521 15522 15523 15524 15525 15526 15527 15528 15529 15530 15531 15532 15533 15534 15535 15536 15537 15538 15539 15540 15541 15542 15543 15544 15545 15546 15547 15548 15549 15550 15551 15552 15553 15554 15555 15556 15557 15558 15559 15560 15561 15562 15563 15564 15565 15566 15567 15568 15569 15570 15571 15572 15573 15574 15575 15576 15577 15578 15579 15580 15581 15582 15583 15584 15585 15586 15587 15588 15589 15590 15591 15592 15593 15594 15595 15596 15597 15598 15599 15600 15601 15602 15603 15604 15605 15606 15607 15608 15609 15610 15611 15612 15613 15614 15615 15616 15617 15618 15619 15620 15621 15622 15623 15624 15625 15626 15627 15628 15629 15630 15631 15632 15633 15634 15635 15636 15637 15638 15639 15640 15641 15642 15643 15644 15645 15646 15647 15648 15649 15650 15651 15652 15653 15654 15655 15656 15657 15658 15659 15660 15661 15662 15663 15664 15665 15666 15667 15668 15669 15670 15671 15672 15673 15674 15675 15676 15677 15678 15679 15680 15681 15682 15683 15684 15685 15686 15687 15688 15689 15690 15691 15692 15693 15694 15695 15696 15697 15698 15699 15700 15701 15702 15703 15704 15705 15706 15707 15708 15709 15710 15711 15712 15713 15714 15715 15716 15717 15718 15719 15720 15721 15722 15723 15724 15725 15726 15727 15728 15729 15730 15731 15732 15733 15734 15735 15736 15737 15738 15739 15740 15741 15742 15743 15744 15745 15746 15747 15748 15749 15750 15751 15752 15753 15754 15755 15756 15757 15758 15759 15760 15761 15762 15763 15764 15765 15766 15767 15768 15769 15770 15771 15772 15773 15774 15775 15776 15777 15778 15779 15780 15781 15782 15783 15784 15785 15786 15787 15788 15789 15790 15791 15792 15793 15794 15795 15796 15797 15798 15799 15800 15801 15802 15803 15804 15805 15806 15807 15808 15809 15810 15811 15812 15813 15814 15815 15816 15817 15818 15819 15820 15821 15822 15823 15824 15825 15826 15827 15828 15829 15830 15831 15832 15833 15834 15835 15836 15837 15838 15839 15840 15841 15842 15843 15844 15845 15846 15847 15848 15849 15850 15851 15852 15853 15854 15855 15856 15857 15858 15859 15860 15861 15862 15863 15864 15865 15866 15867 15868 15869 15870 15871 15872 15873 15874 15875 15876 15877 15878 15879 15880 15881 15882 15883 15884 15885 15886 15887 15888 15889 15890 15891 15892 15893 15894 15895 15896 15897 15898 15899 15900 15901 15902 15903 15904 15905 15906 15907 15908 15909 15910 15911 15912 15913 15914 15915 15916 15917 15918 15919 15920 15921 15922 15923 15924 15925 15926 15927 15928 15929 15930 15931 15932 15933 15934 15935 15936 15937 15938 15939 15940 15941 15942 15943 15944 15945 15946 15947 15948 15949 15950 15951 15952 15953 15954 15955 15956 15957 15958 15959 15960 15961 15962 15963 15964 15965 15966 15967 15968 15969 15970 15971 15972 15973 15974 15975 15976 15977 15978 15979 15980 15981 15982 15983 15984 15985 15986 15987 15988 15989 15990 15991 15992 15993 15994 15995 15996 15997 15998 15999 16000 16001 16002 16003 16004 16005 16006 16007 16008 16009 16010 16011 16012 16013 16014 16015 16016 16017 16018 16019 16020 16021 16022 16023 16024 16025 16026 16027 16028 16029 16030 16031 16032 16033 16034 16035 16036 16037 16038 16039 16040 16041 16042 16043 16044 16045 16046 16047 16048 16049 16050 16051 16052 16053 16054 16055 16056 16057 16058 16059 16060 16061 16062 16063 16064 16065 16066 16067 16068 16069 16070 16071 16072 16073 16074 16075 16076 16077 16078 16079 16080 16081 16082 16083 16084 16085 16086 16087 16088 16089 16090 16091 16092 16093 16094 16095 16096 16097 16098 16099 16100 16101 16102 16103 16104 16105 16106 16107 16108 16109 16110 16111 16112 16113 16114 16115 16116 16117 16118 16119 16120 16121 16122 16123 16124 16125 16126 16127 16128 16129 16130 16131 16132 16133 16134 16135 16136 16137 16138 16139 16140 16141 16142 16143 16144 16145 16146 16147 16148 16149 16150 16151 16152 16153 16154 16155 16156 16157 16158 16159 16160 16161 16162 16163 16164 16165 16166 16167 16168 16169 16170 16171 16172 16173 16174 16175 16176 16177 16178 16179 16180 16181 16182 16183 16184 16185 16186 16187 16188 16189 16190 16191 16192 16193 16194 16195 16196 16197 16198 16199 16200 16201 16202 16203 16204 16205 16206 16207 16208 16209 16210 16211 16212 16213 16214 16215 16216 16217 16218 16219 16220 16221 16222 16223 16224 16225 16226 16227 16228 16229 16230 16231 16232 16233 16234 16235 16236 16237 16238 16239 16240 16241 16242 16243 16244 16245 16246 16247 16248 16249 16250 16251 16252 16253 16254 16255 16256 16257 16258 16259 16260 16261 16262 16263 16264 16265 16266 16267 16268 16269 16270 16271 16272 16273 16274 16275 16276 16277 16278 16279 16280 16281 16282 16283 16284 16285 16286 16287 16288 16289 16290 16291 16292 16293 16294 16295 16296 16297 16298 16299 16300 16301 16302 16303 16304 16305 16306 16307 16308 16309 16310 16311 16312 16313 16314 16315 16316 16317 16318 16319 16320 16321 16322 16323 16324 16325 16326 16327 16328 16329 16330 16331 16332 16333 16334 16335 16336 16337 16338 16339 16340 16341 16342 16343 16344 16345 16346 16347 16348 16349 16350 16351 16352 16353 16354 16355 16356 16357 16358 16359 16360 16361 16362 16363 16364 16365 16366 16367 16368 16369 16370 16371 16372 16373 16374 16375 16376 16377 16378 16379 16380 16381 16382 16383 16384 16385 16386 16387 16388 16389 16390 16391 16392 16393 16394 16395 16396 16397 16398 16399 16400 16401 16402 16403 16404 16405 16406 16407 16408 16409 16410 16411 16412 16413 16414 16415 16416 16417 16418 16419 16420 16421 16422 16423 16424 16425 16426 16427 16428 16429 16430 16431 16432 16433 16434 16435 16436 16437 16438 16439 16440 16441 16442 16443 16444 16445 16446 16447 16448 16449 16450 16451 16452 16453 16454 16455 16456 16457 16458 16459 16460 16461 16462 16463 16464 16465 16466 16467 16468 16469 16470 16471 16472 16473 16474 16475 16476 16477 16478 16479 16480 16481 16482 16483 16484 16485 16486 16487 16488 16489 16490 16491 16492 16493 16494 16495 16496 16497 16498 16499 16500 16501 16502 16503 16504 16505 16506 16507 16508 16509 16510 16511 16512 16513 16514 16515 16516 16517 16518 16519 16520 16521 16522 16523 16524 16525 16526 16527 16528 16529 16530 16531 16532 16533 16534 16535 16536 16537 16538 16539 16540 16541 16542 16543 16544 16545 16546 16547 16548 16549 16550 16551 16552 16553 16554 16555 16556 16557 16558 16559 16560 16561 16562 16563 16564 16565 16566 16567 16568 16569 16570 16571 16572 16573 16574 16575 16576 16577 16578 16579 16580 16581 16582 16583 16584 16585 16586 16587 16588 16589 16590 16591 16592 16593 16594 16595 16596 16597 16598 16599 16600 16601 16602 16603 16604 16605 16606 16607 16608 16609 16610 16611 16612 16613 16614 16615 16616 16617 16618 16619 16620 16621 16622 16623 16624 16625 16626 16627 16628 16629 16630 16631 16632 16633 16634 16635 16636 16637 16638 16639 16640 16641 16642 16643 16644 16645 16646 16647 16648 16649 16650 16651 16652 16653 16654 16655 16656 16657 16658 16659 16660 16661 16662 16663 16664 16665 16666 16667 16668 16669 16670 16671 16672 16673 16674 16675 16676 16677 16678 16679 16680 16681 16682 16683 16684 16685 16686 16687 16688 16689 16690 16691 16692 16693 16694 16695 16696 16697 16698 16699 16700 16701 16702 16703 16704 16705 16706 16707 16708 16709 16710 16711 16712 16713 16714 16715 16716 16717 16718 16719 16720 16721 16722 16723 16724 16725 16726 16727 16728 16729 16730 16731 16732 16733 16734 16735 16736 16737 16738 16739 16740 16741 16742 16743 16744 16745 16746 16747 16748 16749 16750 16751 16752 16753 16754 16755 16756 16757 16758 16759 16760 16761 16762 16763 16764 16765 16766 16767 16768 16769 16770 16771 16772 16773 16774 16775 16776 16777 16778 16779 16780 16781 16782 16783 16784 16785 16786 16787 16788 16789 16790 16791 16792 16793 16794 16795 16796 16797 16798 16799 16800 16801 16802 16803 16804 16805 16806 16807 16808 16809 16810 16811 16812 16813 16814 16815 16816 16817 16818 16819 16820 16821 16822 16823 16824 16825 16826 16827 16828 16829 16830 16831 16832 16833 16834 16835 16836 16837 16838 16839 16840 16841 16842 16843 16844 16845 16846 16847 16848 16849 16850 16851 16852 16853 16854 16855 16856 16857 16858 16859 16860 16861 16862 16863 16864 16865 16866 16867 16868 16869 16870 16871 16872 16873 16874 16875 16876 16877 16878 16879 16880 16881 16882 16883 16884 16885 16886 16887 16888 16889 16890 16891 16892 16893 16894 16895 16896 16897 16898 16899 16900 16901 16902 16903 16904 16905 16906 16907 16908 16909 16910 16911 16912 16913 16914 16915 16916 16917 16918 16919 16920 16921 16922 16923 16924 16925 16926 16927 16928 16929 16930 16931 16932 16933 16934 16935 16936 16937 16938 16939 16940 16941 16942 16943 16944 16945 16946 16947 16948 16949 16950 16951 16952 16953 16954 16955 16956 16957 16958 16959 16960 16961 16962 16963 16964 16965 16966 16967 16968 16969 16970 16971 16972 16973 16974 16975 16976 16977 16978 16979 16980 16981 16982 16983 16984 16985 16986 16987 16988 16989 16990 16991 16992 16993 16994 16995 16996 16997 16998 16999 17000 17001 17002 17003 17004 17005 17006 17007 17008 17009 17010 17011 17012 17013 17014 17015 17016 17017 17018 17019 17020 17021 17022 17023 17024 17025 17026 17027 17028 17029 17030 17031 17032 17033 17034 17035 17036 17037 17038 17039 17040 17041 17042 17043 17044 17045 17046 17047 17048 17049 17050 17051 17052 17053 17054 17055 17056 17057 17058 17059 17060 17061 17062 17063 17064 17065 17066 17067 17068 17069 17070 17071 17072 17073 17074 17075 17076 17077 17078 17079 17080 17081 17082 17083 17084 17085 17086 17087 17088 17089 17090 17091 17092 17093 17094 17095 17096 17097 17098 17099 17100 17101 17102 17103 17104 17105 17106 17107 17108 17109 17110 17111 17112 17113 17114 17115 17116 17117 17118 17119 17120 17121 17122 17123 17124 17125 17126 17127 17128 17129 17130 17131 17132 17133 17134 17135 17136 17137 17138 17139 17140 17141 17142 17143 17144 17145 17146 17147 17148 17149 17150 17151 17152 17153 17154 17155 17156 17157 17158 17159 17160 17161 17162 17163 17164 17165 17166 17167 17168 17169 17170 17171 17172 17173 17174 17175 17176 17177 17178 17179 17180 17181 17182 17183 17184 17185 17186 17187 17188 17189 17190 17191 17192 17193 17194 17195 17196 17197 17198 17199 17200 17201 17202 17203 17204 17205 17206 17207 17208 17209 17210 17211 17212 17213 17214 17215 17216 17217 17218 17219 17220 17221 17222 17223 17224 17225 17226 17227 17228 17229 17230 17231 17232 17233 17234 17235 17236 17237 17238 17239 17240 17241 17242 17243 17244 17245 17246 17247 17248 17249 17250 17251 17252 17253 17254 17255 17256 17257 17258 17259 17260 17261 17262 17263 17264 17265 17266 17267 17268 17269 17270 17271 17272 17273 17274 17275 17276 17277 17278 17279 17280 17281 17282 17283 17284 17285 17286 17287 17288 17289 17290 17291 17292 17293 17294 17295 17296 17297 17298 17299 17300 17301 17302 17303 17304 17305 17306 17307 17308 17309 17310 17311 17312 17313 17314 17315 17316 17317 17318 17319 17320 17321 17322 17323 17324 17325 17326 17327 17328 17329 17330 17331 17332 17333 17334 17335 17336 17337 17338 17339 17340 17341 17342 17343 17344 17345 17346 17347 17348 17349 17350 17351 17352 17353 17354 17355 17356 17357 17358 17359 17360 17361 17362 17363 17364 17365 17366 17367 17368 17369 17370 17371 17372 17373 17374 17375 17376 17377 17378 17379 17380 17381 17382 17383 17384 17385 17386 17387 17388 17389 17390 17391 17392 17393 17394 17395 17396 17397 17398 17399 17400 17401 17402 17403 17404 17405 17406 17407 17408 17409 17410 17411 17412 17413 17414 17415 17416 17417 17418 17419 17420 17421 17422 17423 17424 17425 17426 17427 17428 17429 17430 17431 17432 17433 17434 17435 17436 17437 17438 17439 17440 17441 17442 17443 17444 17445 17446 17447 17448 17449 17450 17451 17452 17453 17454 17455 17456 17457 17458 17459 17460 17461 17462 17463 17464 17465 17466 17467 17468 17469 17470 17471 17472 17473 17474 17475 17476 17477 17478 17479 17480 17481 17482 17483 17484 17485 17486 17487 17488 17489 17490 17491 17492 17493 17494 17495 17496 17497 17498 17499 17500 17501 17502 17503 17504 17505 17506 17507 17508 17509 17510 17511 17512 17513 17514 17515 17516 17517 17518 17519 17520 17521 17522 17523 17524 17525 17526 17527 17528 17529 17530 17531 17532 17533 17534 17535 17536 17537 17538 17539 17540 17541 17542 17543 17544 17545 17546 17547 17548 17549 17550 17551 17552 17553 17554 17555 17556 17557 17558 17559 17560 17561 17562 17563 17564 17565 17566 17567 17568 17569 17570 17571 17572 17573 17574 17575 17576 17577 17578 17579 17580 17581 17582 17583 17584 17585 17586 17587 17588 17589 17590 17591 17592 17593 17594 17595 17596 17597 17598 17599 17600 17601 17602 17603 17604 17605 17606 17607 17608 17609 17610 17611 17612 17613 17614 17615 17616 17617 17618 17619 17620 17621 17622 17623 17624 17625 17626 17627 17628 17629 17630 17631 17632 17633 17634 17635 17636 17637 17638 17639 17640 17641 17642 17643 17644 17645 17646 17647 17648 17649 17650 17651 17652 17653 17654 17655 17656 17657 17658 17659 17660 17661 17662 17663 17664 17665 17666 17667 17668 17669 17670 17671 17672 17673 17674 17675 17676 17677 17678 17679 17680 17681 17682 17683 17684 17685 17686 17687 17688 17689 17690 17691 17692 17693 17694 17695 17696 17697 17698 17699 17700 17701 17702 17703 17704 17705 17706 17707 17708 17709 17710 17711 17712 17713 17714 17715 17716 17717 17718 17719 17720 17721 17722 17723 17724 17725 17726 17727 17728 17729 17730 17731 17732 17733 17734 17735 17736 17737 17738 17739 17740 17741 17742 17743 17744 17745 17746 17747 17748 17749 17750 17751 17752 17753 17754 17755 17756 17757 17758 17759 17760 17761 17762 17763 17764 17765 17766 17767 17768 17769 17770 17771 17772 17773 17774 17775 17776 17777 17778 17779 17780 17781 17782 17783 17784 17785 17786 17787 17788 17789 17790 17791 17792 17793 17794 17795 17796 17797 17798 17799 17800 17801 17802 17803 17804 17805 17806 17807 17808 17809 17810 17811 17812 17813 17814 17815 17816 17817 17818 17819 17820 17821 17822 17823 17824 17825 17826 17827 17828 17829 17830 17831 17832 17833 17834 17835 17836 17837 17838 17839 17840 17841 17842 17843 17844 17845 17846 17847 17848 17849 17850 17851 17852 17853 17854 17855 17856 17857 17858 17859 17860 17861 17862 17863 17864 17865 17866 17867 17868 17869 17870 17871 17872 17873 17874 17875 17876 17877 17878 17879 17880 17881 17882 17883 17884 17885 17886 17887 17888 17889 17890 17891 17892 17893 17894 17895 17896 17897 17898 17899 17900 17901 17902 17903 17904 17905 17906 17907 17908 17909 17910 17911 17912 17913 17914 17915 17916 17917 17918 17919 17920 17921 17922 17923 17924 17925 17926 17927 17928 17929 17930 17931 17932 17933 17934 17935 17936 17937 17938 17939 17940 17941 17942 17943 17944 17945 17946 17947 17948 17949 17950 17951 17952 17953 17954 17955 17956 17957 17958 17959 17960 17961 17962 17963 17964 17965 17966 17967 17968 17969 17970 17971 17972 17973 17974 17975 17976 17977 17978 17979 17980 17981 17982 17983 17984 17985 17986 17987 17988 17989 17990 17991 17992 17993 17994 17995 17996 17997 17998 17999 18000 18001 18002 18003 18004 18005 18006 18007 18008 18009 18010 18011 18012 18013 18014 18015 18016 18017 18018 18019 18020 18021 18022 18023 18024 18025 18026 18027 18028 18029 18030 18031 18032 18033 18034 18035 18036 18037 18038 18039 18040 18041 18042 18043 18044 18045 18046 18047 18048 18049 18050 18051 18052 18053 18054 18055 18056 18057 18058 18059 18060 18061 18062 18063 18064 18065 18066 18067 18068 18069 18070 18071 18072 18073 18074 18075 18076 18077 18078 18079 18080 18081 18082 18083 18084 18085 18086 18087 18088 18089 18090 18091 18092 18093 18094 18095 18096 18097 18098 18099 18100 18101 18102 18103 18104 18105 18106 18107 18108 18109 18110 18111 18112 18113 18114 18115 18116 18117 18118 18119 18120 18121 18122 18123 18124 18125 18126 18127 18128 18129 18130 18131 18132 18133 18134 18135 18136 18137 18138 18139 18140 18141 18142 18143 18144 18145 18146 18147 18148 18149 18150 18151 18152 18153 18154 18155 18156 18157 18158 18159 18160 18161 18162 18163 18164 18165 18166 18167 18168 18169 18170 18171 18172 18173 18174 18175 18176 18177 18178 18179 18180 18181 18182 18183 18184 18185 18186 18187 18188 18189 18190 18191 18192 18193 18194 18195 18196 18197 18198 18199 18200 18201 18202 18203 18204 18205 18206 18207 18208 18209 18210 18211 18212 18213 18214 18215 18216 18217 18218 18219 18220 18221 18222 18223 18224 18225 18226 18227 18228 18229 18230 18231 18232 18233 18234 18235 18236 18237 18238 18239 18240 18241 18242 18243 18244 18245 18246 18247 18248 18249 18250 18251 18252 18253 18254 18255 18256 18257 18258 18259 18260 18261 18262 18263 18264 18265 18266 18267 18268 18269 18270 18271 18272 18273 18274 18275 18276 18277 18278 18279 18280 18281 18282 18283 18284 18285 18286 18287 18288 18289 18290 18291 18292 18293 18294 18295 18296 18297 18298 18299 18300 18301 18302 18303 18304 18305 18306 18307 18308 18309 18310 18311 18312 18313 18314 18315 18316 18317 18318 18319 18320 18321 18322 18323 18324 18325 18326 18327 18328 18329 18330 18331 18332 18333 18334 18335 18336 18337 18338 18339 18340 18341 18342 18343 18344 18345 18346 18347 18348 18349 18350 18351 18352 18353 18354 18355 18356 18357 18358 18359 18360 18361 18362 18363 18364 18365 18366 18367 18368 18369 18370 18371 18372 18373 18374 18375 18376 18377 18378 18379 18380 18381 18382 18383 18384 18385 18386 18387 18388 18389 18390 18391 18392 18393 18394 18395 18396 18397 18398 18399 18400 18401 18402 18403 18404 18405 18406 18407 18408 18409 18410 18411 18412 18413 18414 18415 18416 18417 18418 18419 18420 18421 18422 18423 18424 18425 18426 18427 18428 18429 18430 18431 18432 18433 18434 18435 18436 18437 18438 18439 18440 18441 18442 18443 18444 18445 18446 18447 18448 18449 18450 18451 18452 18453 18454 18455 18456 18457 18458 18459 18460 18461 18462 18463 18464 18465 18466 18467 18468 18469 18470 18471 18472 18473 18474 18475 18476 18477 18478 18479 18480 18481 18482 18483 18484 18485 18486 18487 18488 18489 18490 18491 18492 18493 18494 18495 18496 18497 18498 18499 18500 18501 18502 18503 18504 18505 18506 18507 18508 18509 18510 18511 18512 18513 18514 18515 18516 18517 18518 18519 18520 18521 18522 18523 18524 18525 18526 18527 18528 18529 18530 18531 18532 18533 18534 18535 18536 18537 18538 18539 18540 18541 18542 18543 18544 18545 18546 18547 18548 18549 18550 18551 18552 18553 18554 18555 18556 18557 18558 18559 18560 18561 18562 18563 18564 18565 18566 18567 18568 18569 18570 18571 18572 18573 18574 18575 18576 18577 18578 18579 18580 18581 18582 18583 18584 18585 18586 18587 18588 18589 18590 18591 18592 18593 18594 18595 18596 18597 18598 18599 18600 18601 18602 18603 18604 18605 18606 18607 18608 18609 18610 18611 18612 18613 18614 18615 18616 18617 18618 18619 18620 18621 18622 18623 18624 18625 18626 18627 18628 18629 18630 18631 18632 18633 18634 18635 18636 18637 18638 18639 18640 18641 18642 18643 18644 18645 18646 18647 18648 18649 18650 18651 18652 18653 18654 18655 18656 18657 18658 18659 18660 18661 18662 18663 18664 18665 18666 18667 18668 18669 18670 18671 18672 18673 18674 18675 18676 18677 18678 18679 18680 18681 18682 18683 18684 18685 18686 18687 18688 18689 18690 18691 18692 18693 18694 18695 18696 18697 18698 18699 18700 18701 18702 18703 18704 18705 18706 18707 18708 18709 18710 18711 18712 18713 18714 18715 18716 18717 18718 18719 18720 18721 18722 18723 18724 18725 18726 18727 18728 18729 18730 18731 18732 18733 18734 18735 18736 18737 18738 18739 18740 18741 18742 18743 18744 18745 18746 18747 18748 18749 18750 18751 18752 18753 18754 18755 18756 18757 18758 18759 18760 18761 18762 18763 18764 18765 18766 18767 18768 18769 18770 18771 18772 18773 18774 18775 18776 18777 18778 18779 18780 18781 18782 18783 18784 18785 18786 18787 18788 18789 18790 18791 18792 18793 18794 18795 18796 18797 18798 18799 18800 18801 18802 18803 18804 18805 18806 18807 18808 18809 18810 18811 18812 18813 18814 18815 18816 18817 18818 18819 18820 18821 18822 18823 18824 18825 18826 18827 18828 18829 18830 18831 18832 18833 18834 18835 18836 18837 18838 18839 18840 18841 18842 18843 18844 18845 18846 18847 18848 18849 18850 18851 18852 18853 18854 18855 18856 18857 18858 18859 18860 18861 18862 18863 18864 18865 18866 18867 18868 18869 18870 18871 18872 18873 18874 18875 18876 18877 18878 18879 18880 18881 18882 18883 18884 18885 18886 18887 18888 18889 18890 18891 18892 18893 18894 18895 18896 18897 18898 18899 18900 18901 18902 18903 18904 18905 18906 18907 18908 18909 18910 18911 18912 18913 18914 18915 18916 18917 18918 18919 18920 18921 18922 18923 18924 18925 18926 18927 18928 18929 18930 18931 18932 18933 18934 18935 18936 18937 18938 18939 18940 18941 18942 18943 18944 18945 18946 18947 18948 18949 18950 18951 18952 18953 18954 18955 18956 18957 18958 18959 18960 18961 18962 18963 18964 18965 18966 18967 18968 18969 18970 18971 18972 18973 18974 18975 18976 18977 18978 18979 18980 18981 18982 18983 18984 18985 18986 18987 18988 18989 18990 18991 18992 18993 18994 18995 18996 18997 18998 18999 19000 19001 19002 19003 19004 19005 19006 19007 19008 19009 19010 19011 19012 19013 19014 19015 19016 19017 19018 19019 19020 19021 19022 19023 19024 19025 19026 19027 19028 19029 19030 19031 19032 19033 19034 19035 19036 19037 19038 19039 19040 19041 19042 19043 19044 19045 19046 19047 19048 19049 19050 19051 19052 19053 19054 19055 19056 19057 19058 19059 19060 19061 19062 19063 19064 19065 19066 19067 19068 19069 19070 19071 19072 19073 19074 19075 19076 19077 19078 19079 19080 19081 19082 19083 19084 19085 19086 19087 19088 19089 19090 19091 19092 19093 19094 19095 19096 19097 19098 19099 19100 19101 19102 19103 19104 19105 19106 19107 19108 19109 19110 19111 19112 19113 19114 19115 19116 19117 19118 19119 19120 19121 19122 19123 19124 19125 19126 19127 19128 19129 19130 19131 19132 19133 19134 19135 19136 19137 19138 19139 19140 19141 19142 19143 19144 19145 19146 19147 19148 19149 19150 19151 19152 19153 19154 19155 19156 19157 19158 19159 19160 19161 19162 19163 19164 19165 19166 19167 19168 19169 19170 19171 19172 19173 19174 19175 19176 19177 19178 19179 19180 19181 19182 19183 19184 19185 19186 19187 19188 19189 19190 19191 19192 19193 19194 19195 19196 19197 19198 19199 19200 19201 19202 19203 19204 19205 19206 19207 19208 19209 19210 19211 19212 19213 19214 19215 19216 19217 19218 19219 19220 19221 19222 19223 19224 19225 19226 19227 19228 19229 19230 19231 19232 19233 19234 19235 19236 19237 19238 19239 19240 19241 19242 19243 19244 19245 19246 19247 19248 19249 19250 19251 19252 19253 19254 19255 19256 19257 19258 19259 19260 19261 19262 19263 19264 19265 19266 19267 19268 19269 19270 19271 19272 19273 19274 19275 19276 19277 19278 19279 19280 19281 19282 19283 19284 19285 19286 19287 19288 19289 19290 19291 19292 19293 19294 19295 19296 19297 19298 19299 19300 19301 19302 19303 19304 19305 19306 19307 19308 19309 19310 19311 19312 19313 19314 19315 19316 19317 19318 19319 19320 19321 19322 19323 19324 19325 19326 19327 19328 19329 19330 19331 19332 19333 19334 19335 19336 19337 19338 19339 19340 19341 19342 19343 19344 19345 19346 19347 19348 19349 19350 19351 19352 19353 19354 19355 19356 19357 19358 19359 19360 19361 19362 19363 19364 19365 19366 19367 19368 19369 19370 19371 19372 19373 19374 19375 19376 19377 19378 19379 19380 19381 19382 19383 19384 19385 19386 19387 19388 19389 19390 19391 19392 19393 19394 19395 19396 19397 19398 19399 19400 19401 19402 19403 19404 19405 19406 19407 19408 19409 19410 19411 19412 19413 19414 19415 19416 19417 19418 19419 19420 19421 19422 19423 19424 19425 19426 19427 19428 19429 19430 19431 19432 19433 19434 19435 19436 19437 19438 19439 19440 19441 19442 19443 19444 19445 19446 19447 19448 19449 19450 19451 19452 19453 19454 19455 19456 19457 19458 19459 19460 19461 19462 19463 19464 19465 19466 19467 19468 19469 19470 19471 19472 19473 19474 19475 19476 19477 19478 19479 19480 19481 19482 19483 19484 19485 19486 19487 19488 19489 19490 19491 19492 19493 19494 19495 19496 19497 19498 19499 19500 19501 19502 19503 19504 19505 19506 19507 19508 19509 19510 19511 19512 19513 19514 19515 19516 19517 19518 19519 19520 19521 19522 19523 19524 19525 19526 19527 19528 19529 19530 19531 19532 19533 19534 19535 19536 19537 19538 19539 19540 19541 19542 19543 19544 19545 19546 19547 19548 19549 19550 19551 19552 19553 19554 19555 19556 19557 19558 19559 19560 19561 19562 19563 19564 19565 19566 19567 19568 19569 19570 19571 19572 19573 19574 19575 19576 19577 19578 19579 19580 19581 19582 19583 19584 19585 19586 19587 19588 19589 19590 19591 19592 19593 19594 19595 19596 19597 19598 19599 19600 19601 19602 19603 19604 19605 19606 19607 19608 19609 19610 19611 19612 19613 19614 19615 19616 19617 19618 19619 19620 19621 19622 19623 19624 19625 19626 19627 19628 19629 19630 19631 19632 19633 19634 19635 19636 19637 19638 19639 19640 19641 19642 19643 19644 19645 19646 19647 19648 19649 19650 19651 19652 19653 19654 19655 19656 19657 19658 19659 19660 19661 19662 19663 19664 19665 19666 19667 19668 19669 19670 19671 19672 19673 19674 19675 19676 19677 19678 19679 19680 19681 19682 19683 19684 19685 19686 19687 19688 19689 19690 19691 19692 19693 19694 19695 19696 19697 19698 19699 19700 19701 19702 19703 19704 19705 19706 19707 19708 19709 19710 19711 19712 19713 19714 19715 19716 19717 19718 19719 19720 19721 19722 19723 19724 19725 19726 19727 19728 19729 19730 19731 19732 19733 19734 19735 19736 19737 19738 19739 19740 19741 19742 19743 19744 19745 19746 19747 19748 19749 19750 19751 19752 19753 19754 19755 19756 19757 19758 19759 19760 19761 19762 19763 19764 19765 19766 19767 19768 19769 19770 19771 19772 19773 19774 19775 19776 19777 19778 19779 19780 19781 19782 19783 19784 19785 19786 19787 19788 19789 19790 19791 19792 19793 19794 19795 19796 19797 19798 19799 19800 19801 19802 19803 19804 19805 19806 19807 19808 19809 19810 19811 19812 19813 19814 19815 19816 19817 19818 19819 19820 19821 19822 19823 19824 19825 19826 19827 19828 19829 19830 19831 19832 19833 19834 19835 19836 19837 19838 19839 19840 19841 19842 19843 19844 19845 19846 19847 19848 19849 19850 19851 19852 19853 19854 19855 19856 19857 19858 19859 19860 19861 19862 19863 19864 19865 19866 19867 19868 19869 19870 19871 19872 19873 19874 19875 19876 19877 19878 19879 19880 19881 19882 19883 19884 19885 19886 19887 19888 19889 19890 19891 19892 19893 19894 19895 19896 19897 19898 19899 19900 19901 19902 19903 19904 19905 19906 19907 19908 19909 19910 19911 19912 19913 19914 19915 19916 19917 19918 19919 19920 19921 19922 19923 19924 19925 19926 19927 19928 19929 19930 19931 19932 19933 19934 19935 19936 19937 19938 19939 19940 19941 19942 19943 19944 19945 19946 19947 19948 19949 19950 19951 19952 19953 19954 19955 19956 19957 19958 19959 19960 19961 19962 19963 19964 19965 19966 19967 19968 19969 19970 19971 19972 19973 19974 19975 19976 19977 19978 19979 19980 19981 19982 19983 19984 19985 19986 19987 19988 19989 19990 19991 19992 19993 19994 19995 19996 19997 19998 19999 20000 20001 20002 20003 20004 20005 20006 20007 20008 20009 20010 20011 20012 20013 20014 20015 20016 20017 20018 20019 20020 20021 20022 20023 20024 20025 20026 20027 20028 20029 20030 20031 20032 20033 20034 20035 20036 20037 20038 20039 20040 20041 20042 20043 20044 20045 20046 20047 20048 20049 20050 20051 20052 20053 20054 20055 20056 20057 20058 20059 20060 20061 20062 20063 20064 20065 20066 20067 20068 20069 20070 20071 20072 20073 20074 20075 20076 20077 20078 20079 20080 20081 20082 20083 20084 20085 20086 20087 20088 20089 20090 20091 20092 20093 20094 20095 20096 20097 20098 20099 20100 20101 20102 20103 20104 20105 20106 20107 20108 20109 20110 20111 20112 20113 20114 20115 20116 20117 20118 20119 20120 20121 20122 20123 20124 20125 20126 20127 20128 20129 20130 20131 20132 20133 20134 20135 20136 20137 20138 20139 20140 20141 20142 20143 20144 20145 20146 20147 20148 20149 20150 20151 20152 20153 20154 20155 20156 20157 20158 20159 20160 20161 20162 20163 20164 20165 20166 20167 20168 20169 20170 20171 20172 20173 20174 20175 20176 20177 20178 20179 20180 20181 20182 20183 20184 20185 20186 20187 20188 20189 20190 20191 20192 20193 20194 20195 20196 20197 20198 20199 20200 20201 20202 20203 20204 20205 20206 20207 20208 20209 20210 20211 20212 20213 20214 20215 20216 20217 20218 20219 20220 20221 20222 20223 20224 20225 20226 20227 20228 20229 20230 20231 20232 20233 20234 20235 20236 20237 20238 20239 20240 20241 20242 20243 20244 20245 20246 20247 20248 20249 20250 20251 20252 20253 20254 20255 20256 20257 20258 20259 20260 20261 20262 20263 20264 20265 20266 20267 20268 20269 20270 20271 20272 20273 20274 20275 20276 20277 20278 20279 20280 20281 20282 20283 20284 20285 20286 20287 20288 20289 20290 20291 20292 20293 20294 20295 20296 20297 20298 20299 20300 20301 20302 20303 20304 20305 20306 20307 20308 20309 20310 20311 20312 20313 20314 20315 20316 20317 20318 20319 20320 20321 20322 20323 20324 20325 20326 20327 20328 20329 20330 20331 20332 20333 20334 20335 20336 20337 20338 20339 20340 20341 20342 20343 20344 20345 20346 20347 20348 20349 20350 20351 20352 20353 20354 20355 20356 20357 20358 20359 20360 20361 20362 20363 20364 20365 20366 20367 20368 20369 20370 20371 20372 20373 20374 20375 20376 20377 20378 20379 20380 20381 20382 20383 20384 20385 20386 20387 20388 20389 20390 20391 20392 20393 20394 20395 20396 20397 20398 20399 20400 20401 20402 20403 20404 20405 20406 20407 20408 20409 20410 20411 20412 20413 20414 20415 20416 20417 20418 20419 20420 20421 20422 20423 20424 20425 20426 20427 20428 20429 20430 20431 20432 20433 20434 20435 20436 20437 20438 20439 20440 20441 20442 20443 20444 20445 20446 20447 20448 20449 20450 20451 20452 20453 20454 20455 20456 20457 20458 20459 20460 20461 20462 20463 20464 20465 20466 20467 20468 20469 20470 20471 20472 20473 20474 20475 20476 20477 20478 20479 20480 20481 20482 20483 20484 20485 20486 20487 20488 20489 20490 20491 20492 20493 20494 20495 20496 20497 20498 20499 20500 20501 20502 20503 20504 20505 20506 20507 20508 20509 20510 20511 20512 20513 20514 20515 20516 20517 20518 20519 20520 20521 20522 20523 20524 20525 20526 20527 20528 20529 20530 20531 20532 20533 20534 20535 20536 20537 20538 20539 20540 20541 20542 20543 20544 20545 20546 20547 20548 20549 20550 20551 20552 20553 20554 20555 20556 20557 20558 20559 20560 20561 20562 20563 20564 20565 20566 20567 20568 20569 20570 20571 20572 20573 20574 20575 20576 20577 20578 20579 20580 20581 20582 20583 20584 20585 20586 20587 20588 20589 20590 20591 20592 20593 20594 20595 20596 20597 20598 20599 20600 20601 20602 20603 20604 20605 20606 20607 20608 20609 20610 20611 20612 20613 20614 20615 20616 20617 20618 20619 20620 20621 20622 20623 20624 20625 20626 20627 20628 20629 20630 20631 20632 20633 20634 20635 20636 20637 20638 20639 20640 20641 20642 20643 20644 20645 20646 20647 20648 20649 20650 20651 20652 20653 20654 20655 20656 20657 20658 20659 20660 20661 20662 20663 20664 20665 20666 20667 20668 20669 20670 20671 20672 20673 20674 20675 20676 20677 20678 20679 20680 20681 20682 20683 20684 20685 20686 20687 20688 20689 20690 20691 20692 20693 20694 20695 20696 20697 20698 20699 20700 20701 20702 20703 20704 20705 20706 20707 20708 20709 20710 20711 20712 20713 20714 20715 20716 20717 20718 20719 20720 20721 20722 20723 20724 20725 20726 20727 20728 20729 20730 20731 20732 20733 20734 20735 20736 20737 20738 20739 20740 20741 20742 20743 20744 20745 20746 20747 20748 20749 20750 20751 20752 20753 20754 20755 20756 20757 20758 20759 20760 20761 20762 20763 20764 20765 20766 20767 20768 20769 20770 20771 20772 20773 20774 20775 20776 20777 20778 20779 20780 20781 20782 20783 20784 20785 20786 20787 20788 20789 20790 20791 20792 20793 20794 20795 20796 20797 20798 20799 20800 20801 20802 20803 20804 20805 20806 20807 20808 20809 20810 20811 20812 20813 20814 20815 20816 20817 20818 20819 20820 20821 20822 20823 20824 20825 20826 20827 20828 20829 20830 20831 20832 20833 20834 20835 20836 20837 20838 20839 20840 20841 20842 20843 20844 20845 20846 20847 20848 20849 20850 20851 20852 20853 20854 20855 20856 20857 20858 20859 20860 20861 20862 20863 20864 20865 20866 20867 20868 20869 20870 20871 20872 20873 20874 20875 20876 20877 20878 20879 20880 20881 20882 20883 20884 20885 20886 20887 20888 20889 20890 20891 20892 20893 20894 20895 20896 20897 20898 20899 20900 20901 20902 20903 20904 20905 20906 20907 20908 20909 20910 20911 20912 20913 20914 20915 20916 20917 20918 20919 20920 20921 20922 20923 20924 20925 20926 20927 20928 20929 20930 20931 20932 20933 20934 20935 20936 20937 20938 20939 20940 20941 20942 20943 20944 20945 20946 20947 20948 20949 20950 20951 20952 20953 20954 20955 20956 20957 20958 20959 20960 20961 20962 20963 20964 20965 20966 20967 20968 20969 20970 20971 20972 20973 20974 20975 20976 20977 20978 20979 20980 20981 20982 20983 20984 20985 20986 20987 20988 20989 20990 20991 20992 20993 20994 20995 20996 20997 20998 20999 21000 21001 21002 21003 21004 21005 21006 21007 21008 21009 21010 21011 21012 21013 21014 21015 21016 21017 21018 21019 21020 21021 21022 21023 21024 21025 21026 21027 21028 21029 21030 21031 21032 21033 21034 21035 21036 21037 21038 21039 21040 21041 21042 21043 21044 21045 21046 21047 21048 21049 21050 21051 21052 21053 21054 21055 21056 21057 21058 21059 21060 21061 21062 21063 21064 21065 21066 21067 21068 21069 21070 21071 21072 21073 21074 21075 21076 21077 21078 21079 21080 21081 21082 21083 21084 21085 21086 21087 21088 21089 21090 21091 21092 21093 21094 21095 21096 21097 21098 21099 21100 21101 21102 21103 21104 21105 21106 21107 21108 21109 21110 21111 21112 21113 21114 21115 21116 21117 21118 21119 21120 21121 21122 21123 21124 21125 21126 21127 21128 21129 21130 21131 21132 21133 21134 21135 21136 21137 21138 21139 21140 21141 21142 21143 21144 21145 21146 21147 21148 21149 21150 21151 21152 21153 21154 21155 21156 21157 21158 21159 21160 21161 21162 21163 21164 21165 21166 21167 21168 21169 21170 21171 21172 21173 21174 21175 21176 21177 21178 21179 21180 21181 21182 21183 21184 21185 21186 21187 21188 21189 21190 21191 21192 21193 21194 21195 21196 21197 21198 21199 21200 21201 21202 21203 21204 21205 21206 21207 21208 21209 21210 21211 21212 21213 21214 21215 21216 21217 21218 21219 21220 21221 21222 21223 21224 21225 21226 21227 21228 21229 21230 21231 21232 21233 21234 21235 21236 21237 21238 21239 21240 21241 21242 21243 21244 21245 21246 21247 21248 21249 21250 21251 21252 21253 21254 21255 21256 21257 21258 21259 21260 21261 21262 21263 21264 21265 21266 21267 21268 21269 21270 21271 21272 21273 21274 21275 21276 21277 21278 21279 21280 21281 21282 21283 21284 21285 21286 21287 21288 21289 21290 21291 21292 21293 21294 21295 21296 21297 21298 21299 21300 21301 21302 21303 21304 21305 21306 21307 21308 21309 21310 21311 21312 21313 21314 21315 21316 21317 21318 21319 21320 21321 21322 21323 21324 21325 21326 21327 21328 21329 21330 21331 21332 21333 21334 21335 21336 21337 21338 21339 21340 21341 21342 21343 21344 21345 21346 21347 21348 21349 21350 21351 21352 21353 21354 21355 21356 21357 21358 21359 21360 21361 21362 21363 21364 21365 21366 21367 21368 21369 21370 21371 21372 21373 21374 21375 21376 21377 21378 21379 21380 21381 21382 21383 21384 21385 21386 21387 21388 21389 21390 21391 21392 21393 21394 21395 21396 21397 21398 21399 21400 21401 21402 21403 21404 21405 21406 21407 21408 21409 21410 21411 21412 21413 21414 21415 21416 21417 21418 21419 21420 21421 21422 21423 21424 21425 21426 21427 21428 21429 21430 21431 21432 21433 21434 21435 21436 21437 21438 21439 21440 21441 21442 21443 21444 21445 21446 21447 21448 21449 21450 21451 21452 21453 21454 21455 21456 21457 21458 21459 21460 21461 21462 21463 21464 21465 21466 21467 21468 21469 21470 21471 21472 21473 21474 21475 21476 21477 21478 21479 21480 21481 21482 21483 21484 21485 21486 21487 21488 21489 21490 21491 21492 21493 21494 21495 21496 21497 21498 21499 21500 21501 21502 21503 21504 21505 21506 21507 21508 21509 21510 21511 21512 21513 21514 21515 21516 21517 21518 21519 21520 21521 21522 21523 21524 21525 21526 21527 21528 21529 21530 21531 21532 21533 21534 21535 21536 21537 21538 21539 21540 21541 21542 21543 21544 21545 21546 21547 21548 21549 21550 21551 21552 21553 21554 21555 21556 21557 21558 21559 21560 21561 21562 21563 21564 21565 21566 21567 21568 21569 21570 21571 21572 21573 21574 21575 21576 21577 21578 21579 21580 21581 21582 21583 21584 21585 21586 21587 21588 21589 21590 21591 21592 21593 21594 21595 21596 21597 21598 21599 21600 21601 21602 21603 21604 21605 21606 21607 21608 21609 21610 21611 21612 21613 21614 21615 21616 21617 21618 21619 21620 21621 21622 21623 21624 21625 21626 21627 21628 21629 21630 21631 21632 21633 21634 21635 21636 21637 21638 21639 21640 21641 21642 21643 21644 21645 21646 21647 21648 21649 21650 21651 21652 21653 21654 21655 21656 21657 21658 21659 21660 21661 21662 21663 21664 21665 21666 21667 21668 21669 21670 21671 21672 21673 21674 21675 21676 21677 21678 21679 21680 21681 21682 21683 21684 21685 21686 21687 21688 21689 21690 21691 21692 21693 21694 21695 21696 21697 21698 21699 21700 21701 21702 21703 21704 21705 21706 21707 21708 21709 21710 21711 21712 21713 21714 21715 21716 21717 21718 21719 21720 21721 21722 21723 21724 21725 21726 21727 21728 21729 21730 21731 21732 21733 21734 21735 21736 21737 21738 21739 21740 21741 21742 21743 21744 21745 21746 21747 21748 21749 21750 21751 21752 21753 21754 21755 21756 21757 21758 21759 21760 21761 21762 21763 21764 21765 21766 21767 21768 21769 21770 21771 21772 21773 21774 21775 21776 21777 21778 21779 21780 21781 21782 21783 21784 21785 21786 21787 21788 21789 21790 21791 21792 21793 21794 21795 21796 21797 21798 21799 21800 21801 21802 21803 21804 21805 21806 21807 21808 21809 21810 21811 21812 21813 21814 21815 21816 21817 21818 21819 21820 21821 21822 21823 21824 21825 21826 21827 21828 21829 21830 21831 21832 21833 21834 21835 21836 21837 21838 21839 21840 21841 21842 21843 21844 21845 21846 21847 21848 21849 21850 21851 21852 21853 21854 21855 21856 21857 21858 21859 21860 21861 21862 21863 21864 21865 21866 21867 21868 21869 21870 21871 21872 21873 21874 21875 21876 21877 21878 21879 21880 21881 21882 21883 21884 21885 21886 21887 21888 21889 21890 21891 21892 21893 21894 21895 21896 21897 21898 21899 21900 21901 21902 21903 21904 21905 21906 21907 21908 21909 21910 21911 21912 21913 21914 21915 21916 21917 21918 21919 21920 21921 21922 21923 21924 21925 21926 21927 21928 21929 21930 21931 21932 21933 21934 21935 21936 21937 21938 21939 21940 21941 21942 21943 21944 21945 21946 21947 21948 21949 21950 21951 21952 21953 21954 21955 21956 21957 21958 21959 21960 21961 21962 21963 21964 21965 21966 21967 21968 21969 21970 21971 21972 21973 21974 21975 21976 21977 21978 21979 21980 21981 21982 21983 21984 21985 21986 21987 21988 21989 21990 21991 21992 21993 21994 21995 21996 21997 21998 21999 22000 22001 22002 22003 22004 22005 22006 22007 22008 22009 22010 22011 22012 22013 22014 22015 22016 22017 22018 22019 22020 22021 22022 22023 22024 22025 22026 22027 22028 22029 22030 22031 22032 22033 22034 22035 22036 22037 22038 22039 22040 22041 22042 22043 22044 22045 22046 22047 22048 22049 22050 22051 22052 22053 22054 22055 22056 22057 22058 22059 22060 22061 22062 22063 22064 22065 22066 22067 22068 22069 22070 22071 22072 22073 22074 22075 22076 22077 22078 22079 22080 22081 22082 22083 22084 22085 22086 22087 22088 22089 22090 22091 22092 22093 22094 22095 22096 22097 22098 22099 22100 22101 22102 22103 22104 22105 22106 22107 22108 22109 22110 22111 22112 22113 22114 22115 22116 22117 22118 22119 22120 22121 22122 22123 22124 22125 22126 22127 22128 22129 22130 22131 22132 22133 22134 22135 22136 22137 22138 22139 22140 22141 22142 22143 22144 22145 22146 22147 22148 22149 22150 22151 22152 22153 22154 22155 22156 22157 22158 22159 22160 22161 22162 22163 22164 22165 22166 22167 22168 22169 22170 22171 22172 22173 22174 22175 22176 22177 22178 22179 22180 22181 22182 22183 22184 22185 22186 22187 22188 22189 22190 22191 22192 22193 22194 22195 22196 22197 22198 22199 22200 22201 22202 22203 22204 22205 22206 22207 22208 22209 22210 22211 22212 22213 22214 22215 22216 22217 22218 22219 22220 22221 22222 22223 22224 22225 22226 22227 22228 22229 22230 22231 22232 22233 22234 22235 22236 22237 22238 22239 22240 22241 22242 22243 22244 22245 22246 22247 22248 22249 22250 22251 22252 22253 22254 22255 22256 22257 22258 22259 22260 22261 22262 22263 22264 22265 22266 22267 22268 22269 22270 22271 22272 22273 22274 22275 22276 22277 22278 22279 22280 22281 22282 22283 22284 22285 22286 22287 22288 22289 22290 22291 22292 22293 22294 22295 22296 22297 22298 22299 22300 22301 22302 22303 22304 22305 22306 22307 22308 22309 22310 22311 22312 22313 22314 22315 22316 22317 22318 22319 22320 22321 22322 22323 22324 22325 22326 22327 22328 22329 22330 22331 22332 22333 22334 22335 22336 22337 22338 22339 22340 22341 22342 22343 22344 22345 22346 22347 22348 22349 22350 22351 22352 22353 22354 22355 22356 22357 22358 22359 22360 22361 22362 22363 22364 22365 22366 22367 22368 22369 22370 22371 22372 22373 22374 22375 22376 22377 22378 22379 22380 22381 22382 22383 22384 22385 22386 22387 22388 22389 22390 22391 22392 22393 22394 22395 22396 22397 22398 22399 22400 22401 22402 22403 22404 22405 22406 22407 22408 22409 22410 22411 22412 22413 22414 22415 22416 22417 22418 22419 22420 22421 22422 22423 22424 22425 22426 22427 22428 22429 22430 22431 22432 22433 22434 22435 22436 22437 22438 22439 22440 22441 22442 22443 22444 22445 22446 22447 22448 22449 22450 22451 22452 22453 22454 22455 22456 22457 22458 22459 22460 22461 22462 22463 22464 22465 22466 22467 22468 22469 22470 22471 22472 22473 22474 22475 22476 22477 22478 22479 22480 22481 22482 22483 22484 22485 22486 22487 22488 22489 22490 22491 22492 22493 22494 22495 22496 22497 22498 22499 22500 22501 22502 22503 22504 22505 22506 22507 22508 22509 22510 22511 22512 22513 22514 22515 22516 22517 22518 22519 22520 22521 22522 22523 22524 22525 22526 22527 22528 22529 22530 22531 22532 22533 22534 22535 22536 22537 22538 22539 22540 22541 22542 22543 22544 22545 22546 22547 22548 22549 22550 22551 22552 22553 22554 22555 22556 22557 22558 22559 22560 22561 22562 22563 22564 22565 22566 22567 22568 22569 22570 22571 22572 22573 22574 22575 22576 22577 22578 22579 22580 22581 22582 22583 22584 22585 22586 22587 22588 22589 22590 22591 22592 22593 22594 22595 22596 22597 22598 22599 22600 22601 22602 22603 22604 22605 22606 22607 22608 22609 22610 22611 22612 22613 22614 22615 22616 22617 22618 22619 22620 22621 22622 22623 22624 22625 22626 22627 22628 22629 22630 22631 22632 22633 22634 22635 22636 22637 22638 22639 22640 22641 22642 22643 22644 22645 22646 22647 22648 22649 22650 22651 22652 22653 22654 22655 22656 22657 22658 22659 22660 22661 22662 22663 22664 22665 22666 22667 22668 22669 22670 22671 22672 22673 22674 22675 22676 22677 22678 22679 22680 22681 22682 22683 22684 22685 22686 22687 22688 22689 22690 22691 22692 22693 22694 22695 22696 22697 22698 22699 22700 22701 22702 22703 22704 22705 22706 22707 22708 22709 22710 22711 22712 22713 22714 22715 22716 22717 22718 22719 22720 22721 22722 22723 22724 22725 22726 22727 22728 22729 22730 22731 22732 22733 22734 22735 22736 22737 22738 22739 22740 22741 22742 22743 22744 22745 22746 22747 22748 22749 22750 22751 22752 22753 22754 22755 22756 22757 22758 22759 22760 22761 22762 22763 22764 22765 22766 22767 22768 22769 22770 22771 22772 22773 22774 22775 22776 22777 22778 22779 22780 22781 22782 22783 22784 22785 22786 22787 22788 22789 22790 22791 22792 22793 22794 22795 22796 22797 22798 22799 22800 22801 22802 22803 22804 22805 22806 22807 22808 22809 22810 22811 22812 22813 22814 22815 22816 22817 22818 22819 22820 22821 22822 22823 22824 22825 22826 22827 22828 22829 22830 22831 22832 22833 22834 22835 22836 22837 22838 22839 22840 22841 22842 22843 22844 22845 22846 22847 22848 22849 22850 22851 22852 22853 22854 22855 22856 22857 22858 22859 22860 22861 22862 22863 22864 22865 22866 22867 22868 22869 22870 22871 22872 22873 22874 22875 22876 22877 22878 22879 22880 22881 22882 22883 22884 22885 22886 22887 22888 22889 22890 22891 22892 22893 22894 22895 22896 22897 22898 22899 22900 22901 22902 22903 22904 22905 22906 22907 22908 22909 22910 22911 22912 22913 22914 22915 22916 22917 22918 22919 22920 22921 22922 22923 22924 22925 22926 22927 22928 22929 22930 22931 22932 22933 22934 22935 22936 22937 22938 22939 22940 22941 22942 22943 22944 22945 22946 22947 22948 22949 22950 22951 22952 22953 22954 22955 22956 22957 22958 22959 22960 22961 22962 22963 22964 22965 22966 22967 22968 22969 22970 22971 22972 22973 22974 22975 22976 22977 22978 22979 22980 22981 22982 22983 22984 22985 22986 22987 22988 22989 22990 22991 22992 22993 22994 22995 22996 22997 22998 22999 23000 23001 23002 23003 23004 23005 23006 23007 23008 23009 23010 23011 23012 23013 23014 23015 23016 23017 23018 23019 23020 23021 23022 23023 23024 23025 23026 23027 23028 23029 23030 23031 23032 23033 23034 23035 23036 23037 23038 23039 23040 23041 23042 23043 23044 23045 23046 23047 23048 23049 23050 23051 23052 23053 23054 23055 23056 23057 23058 23059 23060 23061 23062 23063 23064 23065 23066 23067 23068 23069 23070 23071 23072 23073 23074 23075 23076 23077 23078 23079 23080 23081 23082 23083 23084 23085 23086 23087 23088 23089 23090 23091 23092 23093 23094 23095 23096 23097 23098 23099 23100 23101 23102 23103 23104 23105 23106 23107 23108 23109 23110 23111 23112 23113 23114 23115 23116 23117 23118 23119 23120 23121 23122 23123 23124 23125 23126 23127 23128 23129 23130 23131 23132 23133 23134 23135 23136 23137 23138 23139 23140 23141 23142 23143 23144 23145 23146 23147 23148 23149 23150 23151 23152 23153 23154 23155 23156 23157 23158 23159 23160 23161 23162 23163 23164 23165 23166 23167 23168 23169 23170 23171 23172 23173 23174 23175 23176 23177 23178 23179 23180 23181 23182 23183 23184 23185 23186 23187 23188 23189 23190 23191 23192 23193 23194 23195 23196 23197 23198 23199 23200 23201 23202 23203 23204 23205 23206 23207 23208 23209 23210 23211 23212 23213 23214 23215 23216 23217 23218 23219 23220 23221 23222 23223 23224 23225 23226 23227 23228 23229 23230 23231 23232 23233 23234 23235 23236 23237 23238 23239 23240 23241 23242 23243 23244 23245 23246 23247 23248 23249 23250 23251 23252 23253 23254 23255 23256 23257 23258 23259 23260 23261 23262 23263 23264 23265 23266 23267 23268 23269 23270 23271 23272 23273 23274 23275 23276 23277 23278 23279 23280 23281 23282 23283 23284 23285 23286 23287 23288 23289 23290 23291 23292 23293 23294 23295 23296 23297 23298 23299 23300 23301 23302 23303 23304 23305 23306 23307 23308 23309 23310 23311 23312 23313 23314 23315 23316 23317 23318 23319 23320 23321 23322 23323 23324 23325 23326 23327 23328 23329 23330 23331 23332 23333 23334 23335 23336 23337 23338 23339 23340 23341 23342 23343 23344 23345 23346 23347 23348 23349 23350 23351 23352 23353 23354 23355 23356 23357 23358 23359 23360 23361 23362 23363 23364 23365 23366 23367 23368 23369 23370 23371 23372 23373 23374 23375 23376 23377 23378 23379 23380 23381 23382 23383 23384 23385 23386 23387 23388 23389 23390 23391 23392 23393 23394 23395 23396 23397 23398 23399 23400 23401 23402 23403 23404 23405 23406 23407 23408 23409 23410 23411 23412 23413 23414 23415 23416 23417 23418 23419 23420 23421 23422 23423 23424 23425 23426 23427 23428 23429 23430 23431 23432 23433 23434 23435 23436 23437 23438 23439 23440 23441 23442 23443 23444 23445 23446 23447 23448 23449 23450 23451 23452 23453 23454 23455 23456 23457 23458 23459 23460 23461 23462 23463 23464 23465 23466 23467 23468 23469 23470 23471 23472 23473 23474 23475 23476 23477 23478 23479 23480 23481 23482 23483 23484 23485 23486 23487 23488 23489 23490 23491 23492 23493 23494 23495 23496 23497 23498 23499 23500 23501 23502 23503 23504 23505 23506 23507 23508 23509 23510 23511 23512 23513 23514 23515 23516 23517 23518 23519 23520 23521 23522 23523 23524 23525 23526 23527 23528 23529 23530 23531 23532 23533 23534 23535 23536 23537 23538 23539 23540 23541 23542 23543 23544 23545 23546 23547 23548 23549 23550 23551 23552 23553 23554 23555 23556 23557 23558 23559 23560 23561 23562 23563 23564 23565 23566 23567 23568 23569 23570 23571 23572 23573 23574 23575 23576 23577 23578 23579 23580 23581 23582 23583 23584 23585 23586 23587 23588 23589 23590 23591 23592 23593 23594 23595 23596 23597 23598 23599 23600 23601 23602 23603 23604 23605 23606 23607 23608 23609 23610 23611 23612 23613 23614 23615 23616 23617 23618 23619 23620 23621 23622 23623 23624 23625 23626 23627 23628 23629 23630 23631 23632 23633 23634 23635 23636 23637 23638 23639 23640 23641 23642 23643 23644 23645 23646 23647 23648 23649 23650 23651 23652 23653 23654 23655 23656 23657 23658 23659 23660 23661 23662 23663 23664 23665 23666 23667 23668 23669 23670 23671 23672 23673 23674 23675 23676 23677 23678 23679 23680 23681 23682 23683 23684 23685 23686 23687 23688 23689 23690 23691 23692 23693 23694 23695 23696 23697 23698 23699 23700 23701 23702 23703 23704 23705 23706 23707 23708 23709 23710 23711 23712 23713 23714 23715 23716 23717 23718 23719 23720 23721 23722 23723 23724 23725 23726 23727 23728 23729 23730 23731 23732 23733 23734 23735 23736 23737 23738 23739 23740 23741 23742 23743 23744 23745 23746 23747 23748 23749 23750 23751 23752 23753 23754 23755 23756 23757 23758 23759 23760 23761 23762 23763 23764 23765 23766 23767 23768 23769 23770 23771 23772 23773 23774 23775 23776 23777 23778 23779 23780 23781 23782 23783 23784 23785 23786 23787 23788 23789 23790 23791 23792 23793 23794 23795 23796 23797 23798 23799 23800 23801 23802 23803 23804 23805 23806 23807 23808 23809 23810 23811 23812 23813 23814 23815 23816 23817 23818 23819 23820 23821 23822 23823 23824 23825 23826 23827 23828 23829 23830 23831 23832 23833 23834 23835 23836 23837 23838 23839 23840 23841 23842 23843 23844 23845 23846 23847 23848 23849 23850 23851 23852 23853 23854 23855 23856 23857 23858 23859 23860 23861 23862 23863 23864 23865 23866 23867 23868 23869 23870 23871 23872 23873 23874 23875 23876 23877 23878 23879 23880 23881 23882 23883 23884 23885 23886 23887 23888 23889 23890 23891 23892 23893 23894 23895 23896 23897 23898 23899 23900 23901 23902 23903 23904 23905 23906 23907 23908 23909 23910 23911 23912 23913 23914 23915 23916 23917 23918 23919 23920 23921 23922 23923 23924 23925 23926 23927 23928 23929 23930 23931 23932 23933 23934 23935 23936 23937 23938 23939 23940 23941 23942 23943 23944 23945 23946 23947 23948 23949 23950 23951 23952 23953 23954 23955 23956 23957 23958 23959 23960 23961 23962 23963 23964 23965 23966 23967 23968 23969 23970 23971 23972 23973 23974 23975 23976 23977 23978 23979 23980 23981 23982 23983 23984 23985 23986 23987 23988 23989 23990 23991 23992 23993 23994 23995 23996 23997 23998 23999 24000 24001 24002 24003 24004 24005 24006 24007 24008 24009 24010 24011 24012 24013 24014 24015 24016 24017 24018 24019 24020 24021 24022 24023 24024 24025 24026 24027 24028 24029 24030 24031 24032 24033 24034 24035 24036 24037 24038 24039 24040 24041 24042 24043 24044 24045 24046 24047 24048 24049 24050 24051 24052 24053 24054 24055 24056 24057 24058 24059 24060 24061 24062 24063 24064 24065 24066 24067 24068 24069 24070 24071 24072 24073 24074 24075 24076 24077 24078 24079 24080 24081 24082 24083 24084 24085 24086 24087 24088 24089 24090 24091 24092 24093 24094 24095 24096 24097 24098 24099 24100 24101 24102 24103 24104 24105 24106 24107 24108 24109 24110 24111 24112 24113 24114 24115 24116 24117 24118 24119 24120 24121 24122 24123 24124 24125 24126 24127 24128 24129 24130 24131 24132 24133 24134 24135 24136 24137 24138 24139 24140 24141 24142 24143 24144 24145 24146 24147 24148 24149 24150 24151 24152 24153 24154 24155 24156 24157 24158 24159 24160 24161 24162 24163 24164 24165 24166 24167 24168 24169 24170 24171 24172 24173 24174 24175 24176 24177 24178 24179 24180 24181 24182 24183 24184 24185 24186 24187 24188 24189 24190 24191 24192 24193 24194 24195 24196 24197 24198 24199 24200 24201 24202 24203 24204 24205 24206 24207 24208 24209 24210 24211 24212 24213 24214 24215 24216 24217 24218 24219 24220 24221 24222 24223 24224 24225 24226 24227 24228 24229 24230 24231 24232 24233 24234 24235 24236 24237 24238 24239 24240 24241 24242 24243 24244 24245 24246 24247 24248 24249 24250 24251 24252 24253 24254 24255 24256 24257 24258 24259 24260 24261 24262 24263 24264 24265 24266 24267 24268 24269 24270 24271 24272 24273 24274 24275 24276 24277 24278 24279 24280 24281 24282 24283 24284 24285 24286 24287 24288 24289 24290 24291 24292 24293 24294 24295 24296 24297 24298 24299 24300 24301 24302 24303 24304 24305 24306 24307 24308 24309 24310 24311 24312 24313 24314 24315 24316 24317 24318 24319 24320 24321 24322 24323 24324 24325 24326 24327 24328 24329 24330 24331 24332 24333 24334 24335 24336 24337 24338 24339 24340 24341 24342 24343 24344 24345 24346 24347 24348 24349 24350 24351 24352 24353 24354 24355 24356 24357 24358 24359 24360 24361 24362 24363 24364 24365 24366 24367 24368 24369 24370 24371 24372 24373 24374 24375 24376 24377 24378 24379 24380 24381 24382 24383 24384 24385 24386 24387 24388 24389 24390 24391 24392 24393 24394 24395 24396 24397 24398 24399 24400 24401 24402 24403 24404 24405 24406 24407 24408 24409 24410 24411 24412 24413 24414 24415 24416 24417 24418 24419 24420 24421 24422 24423 24424 24425 24426 24427 24428 24429 24430 24431 24432 24433 24434 24435 24436 24437 24438 24439 24440 24441 24442 24443 24444 24445 24446 24447 24448 24449 24450 24451 24452 24453 24454 24455 24456 24457 24458 24459 24460 24461 24462 24463 24464 24465 24466 24467 24468 24469 24470 24471 24472 24473 24474 24475 24476 24477 24478 24479 24480 24481 24482 24483 24484 24485 24486 24487 24488 24489 24490 24491 24492 24493 24494 24495 24496 24497 24498 24499 24500 24501 24502 24503 24504 24505 24506 24507 24508 24509 24510 24511 24512 24513 24514 24515 24516 24517 24518 24519 24520 24521 24522 24523 24524 24525 24526 24527 24528 24529 24530 24531 24532 24533 24534 24535 24536 24537 24538 24539 24540 24541 24542 24543 24544 24545 24546 24547 24548 24549 24550 24551 24552 24553 24554 24555 24556 24557 24558 24559 24560 24561 24562 24563 24564 24565 24566 24567 24568 24569 24570 24571 24572 24573 24574 24575 24576 24577 24578 24579 24580 24581 24582 24583 24584 24585 24586 24587 24588 24589 24590 24591 24592 24593 24594 24595 24596 24597 24598 24599 24600 24601 24602 24603 24604 24605 24606 24607 24608 24609 24610 24611 24612 24613 24614 24615 24616 24617 24618 24619 24620 24621 24622 24623 24624 24625 24626 24627 24628 24629 24630 24631 24632 24633 24634 24635 24636 24637 24638 24639 24640 24641 24642 24643 24644 24645 24646 24647 24648 24649 24650 24651 24652 24653 24654 24655 24656 24657 24658 24659 24660 24661 24662 24663 24664 24665 24666 24667 24668 24669 24670 24671 24672 24673 24674 24675 24676 24677 24678 24679 24680 24681 24682 24683 24684 24685 24686 24687 24688 24689 24690 24691 24692 24693 24694 24695 24696 24697 24698 24699 24700 24701 24702 24703 24704 24705 24706 24707 24708 24709 24710 24711 24712 24713 24714 24715 24716 24717 24718 24719 24720 24721 24722 24723 24724 24725 24726 24727 24728 24729 24730 24731 24732 24733 24734 24735 24736 24737 24738 24739 24740 24741 24742 24743 24744 24745 24746 24747 24748 24749 24750 24751 24752 24753 24754 24755 24756 24757 24758 24759 24760 24761 24762 24763 24764 24765 24766 24767 24768 24769 24770 24771 24772 24773 24774 24775 24776 24777 24778 24779 24780 24781 24782 24783 24784 24785 24786 24787 24788 24789 24790 24791 24792 24793 24794 24795 24796 24797 24798 24799 24800 24801 24802 24803 24804 24805 24806 24807 24808 24809 24810 24811 24812 24813 24814 24815 24816 24817 24818 24819 24820 24821 24822 24823 24824 24825 24826 24827 24828 24829 24830 24831 24832 24833 24834 24835 24836 24837 24838 24839 24840 24841 24842 24843 24844 24845 24846 24847 24848 24849 24850 24851 24852 24853 24854 24855 24856 24857 24858 24859 24860 24861 24862 24863 24864 24865 24866 24867 24868 24869 24870 24871 24872 24873 24874 24875 24876 24877 24878 24879 24880 24881 24882 24883 24884 24885 24886 24887 24888 24889 24890 24891 24892 24893 24894 24895 24896 24897 24898 24899 24900 24901 24902 24903 24904 24905 24906 24907 24908 24909 24910 24911 24912 24913 24914 24915 24916 24917 24918 24919 24920 24921 24922 24923 24924 24925 24926 24927 24928 24929 24930 24931 24932 24933 24934 24935 24936 24937 24938 24939 24940 24941 24942 24943 24944 24945 24946 24947 24948 24949 24950 24951 24952 24953 24954 24955 24956 24957 24958 24959 24960 24961 24962 24963 24964 24965 24966 24967 24968 24969 24970 24971 24972 24973 24974 24975 24976 24977 24978 24979 24980 24981 24982 24983 24984 24985 24986 24987 24988 24989 24990 24991 24992 24993 24994 24995 24996 24997 24998 24999 25000 25001 25002 25003 25004 25005 25006 25007 25008 25009 25010 25011 25012 25013 25014 25015 25016 25017 25018 25019 25020 25021 25022 25023 25024 25025 25026 25027 25028 25029 25030 25031 25032 25033 25034 25035 25036 25037 25038 25039 25040 25041 25042 25043 25044 25045 25046 25047 25048 25049 25050 25051 25052 25053 25054 25055 25056 25057 25058 25059 25060 25061 25062 25063 25064 25065 25066 25067 25068 25069 25070 25071 25072 25073 25074 25075 25076 25077 25078 25079 25080 25081 25082 25083 25084 25085 25086 25087 25088 25089 25090 25091 25092 25093 25094 25095 25096 25097 25098 25099 25100 25101 25102 25103 25104 25105 25106 25107 25108 25109 25110 25111 25112 25113 25114 25115 25116 25117 25118 25119 25120 25121 25122 25123 25124 25125 25126 25127 25128 25129 25130 25131 25132 25133 25134 25135 25136 25137 25138 25139 25140 25141 25142 25143 25144 25145 25146 25147 25148 25149 25150 25151 25152 25153 25154 25155 25156 25157 25158 25159 25160 25161 25162 25163 25164 25165 25166 25167 25168 25169 25170 25171 25172 25173 25174 25175 25176 25177 25178 25179 25180 25181 25182 25183 25184 25185 25186 25187 25188 25189 25190 25191 25192 25193 25194 25195 25196 25197 25198 25199 25200 25201 25202 25203 25204 25205 25206 25207 25208 25209 25210 25211 25212 25213 25214 25215 25216 25217 25218 25219 25220 25221 25222 25223 25224 25225 25226 25227 25228 25229 25230 25231 25232 25233 25234 25235 25236 25237 25238 25239 25240 25241 25242 25243 25244 25245 25246 25247 25248 25249 25250 25251 25252 25253 25254 25255 25256 25257 25258 25259 25260 25261 25262 25263 25264 25265 25266 25267 25268 25269 25270 25271 25272 25273 25274 25275 25276 25277 25278 25279 25280 25281 25282 25283 25284 25285 25286 25287 25288 25289 25290 25291 25292 25293 25294 25295 25296 25297 25298 25299 25300 25301 25302 25303 25304 25305 25306 25307 25308 25309 25310 25311 25312 25313 25314 25315 25316 25317 25318 25319 25320 25321 25322 25323 25324 25325 25326 25327 25328 25329 25330 25331 25332 25333 25334 25335 25336 25337 25338 25339 25340 25341 25342 25343 25344 25345 25346 25347 25348 25349 25350 25351 25352 25353 25354 25355 25356 25357 25358 25359 25360 25361 25362 25363 25364 25365 25366 25367 25368 25369 25370 25371 25372 25373 25374 25375 25376 25377 25378 25379 25380 25381 25382 25383 25384 25385 25386 25387 25388 25389 25390 25391 25392 25393 25394 25395 25396 25397 25398 25399 25400 25401 25402 25403 25404 25405 25406 25407 25408 25409 25410 25411 25412 25413 25414 25415 25416 25417 25418 25419 25420 25421 25422 25423 25424 25425 25426 25427 25428 25429 25430 25431 25432 25433 25434 25435 25436 25437 25438 25439 25440 25441 25442 25443 25444 25445 25446 25447 25448 25449 25450 25451 25452 25453 25454 25455 25456 25457 25458 25459 25460 25461 25462 25463 25464 25465 25466 25467 25468 25469 25470 25471 25472 25473 25474 25475 25476 25477 25478 25479 25480 25481 25482 25483 25484 25485 25486 25487 25488 25489 25490 25491 25492 25493 25494 25495 25496 25497 25498 25499 25500 25501 25502 25503 25504 25505 25506 25507 25508 25509 25510 25511 25512 25513 25514 25515 25516 25517 25518 25519 25520 25521 25522 25523 25524 25525 25526 25527 25528 25529 25530 25531 25532 25533 25534 25535 25536 25537 25538 25539 25540 25541 25542 25543 25544 25545 25546 25547 25548 25549 25550 25551 25552 25553 25554 25555 25556 25557 25558 25559 25560 25561 25562 25563 25564 25565 25566 25567 25568 25569 25570 25571 25572 25573 25574 25575 25576 25577 25578 25579 25580 25581 25582 25583 25584 25585 25586 25587 25588 25589 25590 25591 25592 25593 25594 25595 25596 25597 25598 25599 25600 25601 25602 25603 25604 25605 25606 25607 25608 25609 25610 25611 25612 25613 25614 25615 25616 25617 25618 25619 25620 25621 25622 25623 25624 25625 25626 25627 25628 25629 25630 25631 25632 25633 25634 25635 25636 25637 25638 25639 25640 25641 25642 25643 25644 25645 25646 25647 25648 25649 25650 25651 25652 25653 25654 25655 25656 25657 25658 25659 25660 25661 25662 25663 25664 25665 25666 25667 25668 25669 25670 25671 25672 25673 25674 25675 25676 25677 25678 25679 25680 25681 25682 25683 25684 25685 25686 25687 25688 25689 25690 25691 25692 25693 25694 25695 25696 25697 25698 25699 25700 25701 25702 25703 25704 25705 25706 25707 25708 25709 25710 25711 25712 25713 25714 25715 25716 25717 25718 25719 25720 25721 25722 25723 25724 25725 25726 25727 25728 25729 25730 25731 25732 25733 25734 25735 25736 25737 25738 25739 25740 25741 25742 25743 25744 25745 25746 25747 25748 25749 25750 25751 25752 25753 25754 25755 25756 25757 25758 25759 25760 25761 25762 25763 25764 25765 25766 25767 25768 25769 25770 25771 25772 25773 25774 25775 25776 25777 25778 25779 25780 25781 25782 25783 25784 25785 25786 25787 25788 25789 25790 25791 25792 25793 25794 25795 25796 25797 25798 25799 25800 25801 25802 25803 25804 25805 25806 25807 25808 25809 25810 25811 25812 25813 25814 25815 25816 25817 25818 25819 25820 25821 25822 25823 25824 25825 25826 25827 25828 25829 25830 25831 25832 25833 25834 25835 25836 25837 25838 25839 25840 25841 25842 25843 25844 25845 25846 25847 25848 25849 25850 25851 25852 25853 25854 25855 25856 25857 25858 25859 25860 25861 25862 25863 25864 25865 25866 25867 25868 25869 25870 25871 25872 25873 25874 25875 25876 25877 25878 25879 25880 25881 25882 25883 25884 25885 25886 25887 25888 25889 25890 25891 25892 25893 25894 25895 25896 25897 25898 25899 25900 25901 25902 25903 25904 25905 25906 25907 25908 25909 25910 25911 25912 25913 25914 25915 25916 25917 25918 25919 25920 25921 25922 25923 25924 25925 25926 25927 25928 25929 25930 25931 25932 25933 25934 25935 25936 25937 25938 25939 25940 25941 25942 25943 25944 25945 25946 25947 25948 25949 25950 25951 25952 25953 25954 25955 25956 25957 25958 25959 25960 25961 25962 25963 25964 25965 25966 25967 25968 25969 25970 25971 25972 25973 25974 25975 25976 25977 25978 25979 25980 25981 25982 25983 25984 25985 25986 25987 25988 25989 25990 25991 25992 25993 25994 25995 25996 25997 25998 25999 26000 26001 26002 26003 26004 26005 26006 26007 26008 26009 26010 26011 26012 26013 26014 26015 26016 26017 26018 26019 26020 26021 26022 26023 26024 26025 26026 26027 26028 26029 26030 26031 26032 26033 26034 26035 26036 26037 26038 26039 26040 26041 26042 26043 26044 26045 26046 26047 26048 26049 26050 26051 26052 26053 26054 26055 26056 26057 26058 26059 26060 26061 26062 26063 26064 26065 26066 26067 26068 26069 26070 26071 26072 26073 26074 26075 26076 26077 26078 26079 26080 26081 26082 26083 26084 26085 26086 26087 26088 26089 26090 26091 26092 26093 26094 26095 26096 26097 26098 26099 26100 26101 26102 26103 26104 26105 26106 26107 26108 26109 26110 26111 26112 26113 26114 26115 26116 26117 26118 26119 26120 26121 26122 26123 26124 26125 26126 26127 26128 26129 26130 26131 26132 26133 26134 26135 26136 26137 26138 26139 26140 26141 26142 26143 26144 26145 26146 26147 26148 26149 26150 26151 26152 26153 26154 26155 26156 26157 26158 26159 26160 26161 26162 26163 26164 26165 26166 26167 26168 26169 26170 26171 26172 26173 26174 26175 26176 26177 26178 26179 26180 26181 26182 26183 26184 26185 26186 26187 26188 26189 26190 26191 26192 26193 26194 26195 26196 26197 26198 26199 26200 26201 26202 26203 26204 26205 26206 26207 26208 26209 26210 26211 26212 26213 26214 26215 26216 26217 26218 26219 26220 26221 26222 26223 26224 26225 26226 26227 26228 26229 26230 26231 26232 26233 26234 26235 26236 26237 26238 26239 26240 26241 26242 26243 26244 26245 26246 26247 26248 26249 26250 26251 26252 26253 26254 26255 26256 26257 26258 26259 26260 26261 26262 26263 26264 26265 26266 26267 26268 26269 26270 26271 26272 26273 26274 26275 26276 26277 26278 26279 26280 26281 26282 26283 26284 26285 26286 26287 26288 26289 26290 26291 26292 26293 26294 26295 26296 26297 26298 26299 26300 26301 26302 26303 26304 26305 26306 26307 26308 26309 26310 26311 26312 26313 26314 26315 26316 26317 26318 26319 26320 26321 26322 26323 26324 26325 26326 26327 26328 26329 26330 26331 26332 26333 26334 26335 26336 26337 26338 26339 26340 26341 26342 26343 26344 26345 26346 26347 26348 26349 26350 26351 26352 26353 26354 26355 26356 26357 26358 26359 26360 26361 26362 26363 26364 26365 26366 26367 26368 26369 26370 26371 26372 26373 26374 26375 26376 26377 26378 26379 26380 26381 26382 26383 26384 26385 26386 26387 26388 26389 26390 26391 26392 26393 26394 26395 26396 26397 26398 26399 26400 26401 26402 26403 26404 26405 26406 26407 26408 26409 26410 26411 26412 26413 26414 26415 26416 26417 26418 26419 26420 26421 26422 26423 26424 26425 26426 26427 26428 26429 26430 26431 26432 26433 26434 26435 26436 26437 26438 26439 26440 26441 26442 26443 26444 26445 26446 26447 26448 26449 26450 26451 26452 26453 26454 26455 26456 26457 26458 26459 26460 26461 26462 26463 26464 26465 26466 26467 26468 26469 26470 26471 26472 26473 26474 26475 26476 26477 26478 26479 26480 26481 26482 26483 26484 26485 26486 26487 26488 26489 26490 26491 26492 26493 26494 26495 26496 26497 26498 26499 26500 26501 26502 26503 26504 26505 26506 26507 26508 26509 26510 26511 26512 26513 26514 26515 26516 26517 26518 26519 26520 26521 26522 26523 26524 26525 26526 26527 26528 26529 26530 26531 26532 26533 26534 26535 26536 26537 26538 26539 26540 26541 26542 26543 26544 26545 26546 26547 26548 26549 26550 26551 26552 26553 26554 26555 26556 26557 26558 26559 26560 26561 26562 26563 26564 26565 26566 26567 26568 26569 26570 26571 26572 26573 26574 26575 26576 26577 26578 26579 26580 26581 26582 26583 26584 26585 26586 26587 26588 26589 26590 26591 26592 26593 26594 26595 26596 26597 26598 26599 26600 26601 26602 26603 26604 26605 26606 26607 26608 26609 26610 26611 26612 26613 26614 26615 26616 26617 26618 26619 26620 26621 26622 26623 26624 26625 26626 26627 26628 26629 26630 26631 26632 26633 26634 26635 26636 26637 26638 26639 26640 26641 26642 26643 26644 26645 26646 26647 26648 26649 26650 26651 26652 26653 26654 26655 26656 26657 26658 26659 26660 26661 26662 26663 26664 26665 26666 26667 26668 26669 26670 26671 26672 26673 26674 26675 26676 26677 26678 26679 26680 26681 26682 26683 26684 26685 26686 26687 26688 26689 26690 26691 26692 26693 26694 26695 26696 26697 26698 26699 26700 26701 26702 26703 26704 26705 26706 26707 26708 26709 26710 26711 26712 26713 26714 26715 26716 26717 26718 26719 26720 26721 26722 26723 26724 26725 26726 26727 26728 26729 26730 26731 26732 26733 26734 26735 26736 26737 26738 26739 26740 26741 26742 26743 26744 26745 26746 26747 26748 26749 26750 26751 26752 26753 26754 26755 26756 26757 26758 26759 26760 26761 26762 26763 26764 26765 26766 26767 26768 26769 26770 26771 26772 26773 26774 26775 26776 26777 26778 26779 26780 26781 26782 26783 26784 26785 26786 26787 26788 26789 26790 26791 26792 26793 26794 26795 26796 26797 26798 26799 26800 26801 26802 26803 26804 26805 26806 26807 26808 26809 26810 26811 26812 26813 26814 26815 26816 26817 26818 26819 26820 26821 26822 26823 26824 26825 26826 26827 26828 26829 26830 26831 26832 26833 26834 26835 26836 26837 26838 26839 26840 26841 26842 26843 26844 26845 26846 26847 26848 26849 26850 26851 26852 26853 26854 26855 26856 26857 26858 26859 26860 26861 26862 26863 26864 26865 26866 26867 26868 26869 26870 26871 26872 26873 26874 26875 26876 26877 26878 26879 26880 26881 26882 26883 26884 26885 26886 26887 26888 26889 26890 26891 26892 26893 26894 26895 26896 26897 26898 26899 26900 26901 26902 26903 26904 26905 26906 26907 26908 26909 26910 26911 26912 26913 26914 26915 26916 26917 26918 26919 26920 26921 26922 26923 26924 26925 26926 26927 26928 26929 26930 26931 26932 26933 26934 26935 26936 26937 26938 26939 26940 26941 26942 26943 26944 26945 26946 26947 26948 26949 26950 26951 26952 26953 26954 26955 26956 26957 26958 26959 26960 26961 26962 26963 26964 26965 26966 26967 26968 26969 26970 26971 26972 26973 26974 26975 26976 26977 26978 26979 26980 26981 26982 26983 26984 26985 26986 26987 26988 26989 26990 26991 26992 26993 26994 26995 26996 26997 26998 26999 27000 27001 27002 27003 27004 27005 27006 27007 27008 27009 27010 27011 27012 27013 27014 27015 27016 27017 27018 27019 27020 27021 27022 27023 27024 27025 27026 27027 27028 27029 27030 27031 27032 27033 27034 27035 27036 27037 27038 27039 27040 27041 27042 27043 27044 27045 27046 27047 27048 27049 27050 27051 27052 27053 27054 27055 27056 27057 27058 27059 27060 27061 27062 27063 27064 27065 27066 27067 27068 27069 27070 27071 27072 27073 27074 27075 27076 27077 27078 27079 27080 27081 27082 27083 27084 27085 27086 27087 27088 27089 27090 27091 27092 27093 27094 27095 27096 27097 27098 27099 27100 27101 27102 27103 27104 27105 27106 27107 27108 27109 27110 27111 27112 27113 27114 27115 27116 27117 27118 27119 27120 27121 27122 27123 27124 27125 27126 27127 27128 27129 27130 27131 27132 27133 27134 27135 27136 27137 27138 27139 27140 27141 27142 27143 27144 27145 27146 27147 27148 27149 27150 27151 27152 27153 27154 27155 27156 27157 27158 27159 27160 27161 27162 27163 27164 27165 27166 27167 27168 27169 27170 27171 27172 27173 27174 27175 27176 27177 27178 27179 27180 27181 27182 27183 27184 27185 27186 27187 27188 27189 27190 27191 27192 27193 27194 27195 27196 27197 27198 27199 27200 27201 27202 27203 27204 27205 27206 27207 27208 27209 27210 27211 27212 27213 27214 27215 27216 27217 27218 27219 27220 27221 27222 27223 27224 27225 27226 27227 27228 27229 27230 27231 27232 27233 27234 27235 27236 27237 27238 27239 27240 27241 27242 27243 27244 27245 27246 27247 27248 27249 27250 27251 27252 27253 27254 27255 27256 27257 27258 27259 27260 27261 27262 27263 27264 27265 27266 27267 27268 27269 27270 27271 27272 27273 27274 27275 27276 27277 27278 27279 27280 27281 27282 27283 27284 27285 27286 27287 27288 27289 27290 27291 27292 27293 27294 27295 27296 27297 27298 27299 27300 27301 27302 27303 27304 27305 27306 27307 27308 27309 27310 27311 27312 27313 27314 27315 27316 27317 27318 27319 27320 27321 27322 27323 27324 27325 27326 27327 27328 27329 27330 27331 27332 27333 27334 27335 27336 27337 27338 27339 27340 27341 27342 27343 27344 27345 27346 27347 27348 27349 27350 27351 27352 27353 27354 27355 27356 27357 27358 27359 27360 27361 27362 27363 27364 27365 27366 27367 27368 27369 27370 27371 27372 27373 27374 27375 27376 27377 27378 27379 27380 27381 27382 27383 27384 27385 27386 27387 27388 27389 27390 27391 27392 27393 27394 27395 27396 27397 27398 27399 27400 27401 27402 27403 27404 27405 27406 27407 27408 27409 27410 27411 27412 27413 27414 27415 27416 27417 27418 27419 27420 27421 27422 27423 27424 27425 27426 27427 27428 27429 27430 27431 27432 27433 27434 27435 27436 27437 27438 27439 27440 27441 27442 27443 27444 27445 27446 27447 27448 27449 27450 27451 27452 27453 27454 27455 27456 27457 27458 27459 27460 27461 27462 27463 27464 27465 27466 27467 27468 27469 27470 27471 27472 27473 27474 27475 27476 27477 27478 27479 27480 27481 27482 27483 27484 27485 27486 27487 27488 27489 27490 27491 27492 27493 27494 27495 27496 27497 27498 27499 27500 27501 27502 27503 27504 27505 27506 27507 27508 27509 27510 27511 27512 27513 27514 27515 27516 27517 27518 27519 27520 27521 27522 27523 27524 27525 27526 27527 27528 27529 27530 27531 27532 27533 27534 27535 27536 27537 27538 27539 27540 27541 27542 27543 27544 27545 27546 27547 27548 27549 27550 27551 27552 27553 27554 27555 27556 27557 27558 27559 27560 27561 27562 27563 27564 27565 27566 27567 27568 27569 27570 27571 27572 27573 27574 27575 27576 27577 27578 27579 27580 27581 27582 27583 27584 27585 27586 27587 27588 27589 27590 27591 27592 27593 27594 27595 27596 27597 27598 27599 27600 27601 27602 27603 27604 27605 27606 27607 27608 27609 27610 27611 27612 27613 27614 27615 27616 27617 27618 27619 27620 27621 27622 27623 27624 27625 27626 27627 27628 27629 27630 27631 27632 27633 27634 27635 27636 27637 27638 27639 27640 27641 27642 27643 27644 27645 27646 27647 27648 27649 27650 27651 27652 27653 27654 27655 27656 27657 27658 27659 27660 27661 27662 27663 27664 27665 27666 27667 27668 27669 27670 27671 27672 27673 27674 27675 27676 27677 27678 27679 27680 27681 27682 27683 27684 27685 27686 27687 27688 27689 27690 27691 27692 27693 27694 27695 27696 27697 27698 27699 27700 27701 27702 27703 27704 27705 27706 27707 27708 27709 27710 27711 27712 27713 27714 27715 27716 27717 27718 27719 27720 27721 27722 27723 27724 27725 27726 27727 27728 27729 27730 27731 27732 27733 27734 27735 27736 27737 27738 27739 27740 27741 27742 27743 27744 27745 27746 27747 27748 27749 27750 27751 27752 27753 27754 27755 27756 27757 27758 27759 27760 27761 27762 27763 27764 27765 27766 27767 27768 27769 27770 27771 27772 27773 27774 27775 27776 27777 27778 27779 27780 27781 27782 27783 27784 27785 27786 27787 27788 27789 27790 27791 27792 27793 27794 27795 27796 27797 27798 27799 27800 27801 27802 27803 27804 27805 27806 27807 27808 27809 27810 27811 27812 27813 27814 27815 27816 27817 27818 27819 27820 27821 27822 27823 27824 27825 27826 27827 27828 27829 27830 27831 27832 27833 27834 27835 27836 27837 27838 27839 27840 27841 27842 27843 27844 27845 27846 27847 27848 27849 27850 27851 27852 27853 27854 27855 27856 27857 27858 27859 27860 27861 27862 27863 27864 27865 27866 27867 27868 27869 27870 27871 27872 27873 27874 27875 27876 27877 27878 27879 27880 27881 27882 27883 27884 27885 27886 27887 27888 27889 27890 27891 27892 27893 27894 27895 27896 27897 27898 27899 27900 27901 27902 27903 27904 27905 27906 27907 27908 27909 27910 27911 27912 27913 27914 27915 27916 27917 27918 27919 27920 27921 27922 27923 27924 27925 27926 27927 27928 27929 27930 27931 27932 27933 27934 27935 27936 27937 27938 27939 27940 27941 27942 27943 27944 27945 27946 27947 27948 27949 27950 27951 27952 27953 27954 27955 27956 27957 27958 27959 27960 27961 27962 27963 27964 27965 27966 27967 27968 27969 27970 27971 27972 27973 27974 27975 27976 27977 27978 27979 27980 27981 27982 27983 27984 27985 27986 27987 27988 27989 27990 27991 27992 27993 27994 27995 27996 27997 27998 27999 28000 28001 28002 28003 28004 28005 28006 28007 28008 28009 28010 28011 28012 28013 28014 28015 28016 28017 28018 28019 28020 28021 28022 28023 28024 28025 28026 28027 28028 28029 28030 28031 28032 28033 28034 28035 28036 28037 28038 28039 28040 28041 28042 28043 28044 28045 28046 28047 28048 28049 28050 28051 28052 28053 28054 28055 28056 28057 28058 28059 28060 28061 28062 28063 28064 28065 28066 28067 28068 28069 28070 28071 28072 28073 28074 28075 28076 28077 28078 28079 28080 28081 28082 28083 28084 28085 28086 28087 28088 28089 28090 28091 28092 28093 28094 28095 28096 28097 28098 28099 28100 28101 28102 28103 28104 28105 28106 28107 28108 28109 28110 28111 28112 28113 28114 28115 28116 28117 28118 28119 28120 28121 28122 28123 28124 28125 28126 28127 28128 28129 28130 28131 28132 28133 28134 28135 28136 28137 28138 28139 28140 28141 28142 28143 28144 28145 28146 28147 28148 28149 28150 28151 28152 28153 28154 28155 28156 28157 28158 28159 28160 28161 28162 28163 28164 28165 28166 28167 28168 28169 28170 28171 28172 28173 28174 28175 28176 28177 28178 28179 28180 28181 28182 28183 28184 28185 28186 28187 28188 28189 28190 28191 28192 28193 28194 28195 28196 28197 28198 28199 28200 28201 28202 28203 28204 28205 28206 28207 28208 28209 28210 28211 28212 28213 28214 28215 28216 28217 28218 28219 28220 28221 28222 28223 28224 28225 28226 28227 28228 28229 28230 28231 28232 28233 28234 28235 28236 28237 28238 28239 28240 28241 28242 28243 28244 28245 28246 28247 28248 28249 28250 28251 28252 28253 28254 28255 28256 28257 28258 28259 28260 28261 28262 28263 28264 28265 28266 28267 28268 28269 28270 28271 28272 28273 28274 28275 28276 28277 28278 28279 28280 28281 28282 28283 28284 28285 28286 28287 28288 28289 28290 28291 28292 28293 28294 28295 28296 28297 28298 28299 28300 28301 28302 28303 28304 28305 28306 28307 28308 28309 28310 28311 28312 28313 28314 28315 28316 28317 28318 28319 28320 28321 28322 28323 28324 28325 28326 28327 28328 28329 28330 28331 28332 28333 28334 28335 28336 28337 28338 28339 28340 28341 28342 28343 28344 28345 28346 28347 28348 28349 28350 28351 28352 28353 28354 28355 28356 28357 28358 28359 28360 28361 28362 28363 28364 28365 28366 28367 28368 28369 28370 28371 28372 28373 28374 28375 28376 28377 28378 28379 28380 28381 28382 28383 28384 28385 28386 28387 28388 28389 28390 28391 28392 28393 28394 28395 28396 28397 28398 28399 28400 28401 28402 28403 28404 28405 28406 28407 28408 28409 28410 28411 28412 28413 28414 28415 28416 28417 28418 28419 28420 28421 28422 28423 28424 28425 28426 28427 28428 28429 28430 28431 28432 28433 28434 28435 28436 28437 28438 28439 28440 28441 28442 28443 28444 28445 28446 28447 28448 28449 28450 28451 28452 28453 28454 28455 28456 28457 28458 28459 28460 28461 28462 28463 28464 28465 28466 28467 28468 28469 28470 28471 28472 28473 28474 28475 28476 28477 28478 28479 28480 28481 28482 28483 28484 28485 28486 28487 28488 28489 28490 28491 28492 28493 28494 28495 28496 28497 28498 28499 28500 28501 28502 28503 28504 28505 28506 28507 28508 28509 28510 28511 28512 28513 28514 28515 28516 28517 28518 28519 28520 28521 28522 28523 28524 28525 28526 28527 28528 28529 28530 28531 28532 28533 28534 28535 28536 28537 28538 28539 28540 28541 28542 28543 28544 28545 28546 28547 28548 28549 28550 28551 28552 28553 28554 28555 28556 28557 28558 28559 28560 28561 28562 28563 28564 28565 28566 28567 28568 28569 28570 28571 28572 28573 28574 28575 28576 28577 28578 28579 28580 28581 28582 28583 28584 28585 28586 28587 28588 28589 28590 28591 28592 28593 28594 28595 28596 28597 28598 28599 28600 28601 28602 28603 28604 28605 28606 28607 28608 28609 28610 28611 28612 28613 28614 28615 28616 28617 28618 28619 28620 28621 28622 28623 28624 28625 28626 28627 28628 28629 28630 28631 28632 28633 28634 28635 28636 28637 28638 28639 28640 28641 28642 28643 28644 28645 28646 28647 28648 28649 28650 28651 28652 28653 28654 28655 28656 28657 28658 28659 28660 28661 28662 28663 28664 28665 28666 28667 28668 28669 28670 28671 28672 28673 28674 28675 28676 28677 28678 28679 28680 28681 28682 28683 28684 28685 28686 28687 28688 28689 28690 28691 28692 28693 28694 28695 28696 28697 28698 28699 28700 28701 28702 28703 28704 28705 28706 28707 28708 28709 28710 28711 28712 28713 28714 28715 28716 28717 28718 28719 28720 28721 28722 28723 28724 28725 28726 28727 28728 28729 28730 28731 28732 28733 28734 28735 28736 28737 28738 28739 28740 28741 28742 28743 28744 28745 28746 28747 28748 28749 28750 28751 28752 28753 28754 28755 28756 28757 28758 28759 28760 28761 28762 28763 28764 28765 28766 28767 28768 28769 28770 28771 28772 28773 28774 28775 28776 28777 28778 28779 28780 28781 28782 28783 28784 28785 28786 28787 28788 28789 28790 28791 28792 28793 28794 28795 28796 28797 28798 28799 28800 28801 28802 28803 28804 28805 28806 28807 28808 28809 28810 28811 28812 28813 28814 28815 28816 28817 28818 28819 28820 28821 28822 28823 28824 28825 28826 28827 28828 28829 28830 28831 28832 28833 28834 28835 28836 28837 28838 28839 28840 28841 28842 28843 28844 28845 28846 28847 28848 28849 28850 28851 28852 28853 28854 28855 28856 28857 28858 28859 28860 28861 28862 28863 28864 28865 28866 28867 28868 28869 28870 28871 28872 28873 28874 28875 28876 28877 28878 28879 28880 28881 28882 28883 28884 28885 28886 28887 28888 28889 28890 28891 28892 28893 28894 28895 28896 28897 28898 28899 28900 28901 28902 28903 28904 28905 28906 28907 28908 28909 28910 28911 28912 28913 28914 28915 28916 28917 28918 28919 28920 28921 28922 28923 28924 28925 28926 28927 28928 28929 28930 28931 28932 28933 28934 28935 28936 28937 28938 28939 28940 28941 28942 28943 28944 28945 28946 28947 28948 28949 28950 28951 28952 28953 28954 28955 28956 28957 28958 28959 28960 28961 28962 28963 28964 28965 28966 28967 28968 28969 28970 28971 28972 28973 28974 28975 28976 28977 28978 28979 28980 28981 28982 28983 28984 28985 28986 28987 28988 28989 28990 28991 28992 28993 28994 28995 28996 28997 28998 28999 29000 29001 29002 29003 29004 29005 29006 29007 29008 29009 29010 29011 29012 29013 29014 29015 29016 29017 29018 29019 29020 29021 29022 29023 29024 29025 29026 29027 29028 29029 29030 29031 29032 29033 29034 29035 29036 29037 29038 29039 29040 29041 29042 29043 29044 29045 29046 29047 29048 29049 29050 29051 29052 29053 29054 29055 29056 29057 29058 29059 29060 29061 29062 29063 29064 29065 29066 29067 29068 29069 29070 29071 29072 29073 29074 29075 29076 29077 29078 29079 29080 29081 29082 29083 29084 29085 29086 29087 29088 29089 29090 29091 29092 29093 29094 29095 29096 29097 29098 29099 29100 29101 29102 29103 29104 29105 29106 29107 29108 29109 29110 29111 29112 29113 29114 29115 29116 29117 29118 29119 29120 29121 29122 29123 29124 29125 29126 29127 29128 29129 29130 29131 29132 29133 29134 29135 29136 29137 29138 29139 29140 29141 29142 29143 29144 29145 29146 29147 29148 29149 29150 29151 29152 29153 29154 29155 29156 29157 29158 29159 29160 29161 29162 29163 29164 29165 29166 29167 29168 29169 29170 29171 29172 29173 29174 29175 29176 29177 29178 29179 29180 29181 29182 29183 29184 29185 29186 29187 29188 29189 29190 29191 29192 29193 29194 29195 29196 29197 29198 29199 29200 29201 29202 29203 29204 29205 29206 29207 29208 29209 29210 29211 29212 29213 29214 29215 29216 29217 29218 29219 29220 29221 29222 29223 29224 29225 29226 29227 29228 29229 29230 29231 29232 29233 29234 29235 29236 29237 29238 29239 29240 29241 29242 29243 29244 29245 29246 29247 29248 29249 29250 29251 29252 29253 29254 29255 29256 29257 29258 29259 29260 29261 29262 29263 29264 29265 29266 29267 29268 29269 29270 29271 29272 29273 29274 29275 29276 29277 29278 29279 29280 29281 29282 29283 29284 29285 29286 29287 29288 29289 29290 29291 29292 29293 29294 29295 29296 29297 29298 29299 29300 29301 29302 29303 29304 29305 29306 29307 29308 29309 29310 29311 29312 29313 29314 29315 29316 29317 29318 29319 29320 29321 29322 29323 29324 29325 29326 29327 29328 29329 29330 29331 29332 29333 29334 29335 29336 29337 29338 29339 29340 29341 29342 29343 29344 29345 29346 29347 29348 29349 29350 29351 29352 29353 29354 29355 29356 29357 29358 29359 29360 29361 29362 29363 29364 29365 29366 29367 29368 29369 29370 29371 29372 29373 29374 29375 29376 29377 29378 29379 29380 29381 29382 29383 29384 29385 29386 29387 29388 29389 29390 29391 29392 29393 29394 29395 29396 29397 29398 29399 29400 29401 29402 29403 29404 29405 29406 29407 29408 29409 29410 29411 29412 29413 29414 29415 29416 29417 29418 29419 29420 29421 29422 29423 29424 29425 29426 29427 29428 29429 29430 29431 29432 29433 29434 29435 29436 29437 29438 29439 29440 29441 29442 29443 29444 29445 29446 29447 29448 29449 29450 29451 29452 29453 29454 29455 29456 29457 29458 29459 29460 29461 29462 29463 29464 29465 29466 29467 29468 29469 29470 29471 29472 29473 29474 29475 29476 29477 29478 29479 29480 29481 29482 29483 29484 29485 29486 29487 29488 29489 29490 29491 29492 29493 29494 29495 29496 29497 29498 29499 29500 29501 29502 29503 29504 29505 29506 29507 29508 29509 29510 29511 29512 29513 29514 29515 29516 29517 29518 29519 29520 29521 29522 29523 29524 29525 29526 29527 29528 29529 29530 29531 29532 29533 29534 29535 29536 29537 29538 29539 29540 29541 29542 29543 29544 29545 29546 29547 29548 29549 29550 29551 29552 29553 29554 29555 29556 29557 29558 29559 29560 29561 29562 29563 29564 29565 29566 29567 29568 29569 29570 29571 29572 29573 29574 29575 29576 29577 29578 29579 29580 29581 29582 29583 29584 29585 29586 29587 29588 29589 29590 29591 29592 29593 29594 29595 29596 29597 29598 29599 29600 29601 29602 29603 29604 29605 29606 29607 29608 29609 29610 29611 29612 29613 29614 29615 29616 29617 29618 29619 29620 29621 29622 29623 29624 29625 29626 29627 29628 29629 29630 29631 29632 29633 29634 29635 29636 29637 29638 29639 29640 29641 29642 29643 29644 29645 29646 29647 29648 29649 29650 29651 29652 29653 29654 29655 29656 29657 29658 29659 29660 29661 29662 29663 29664 29665 29666 29667 29668 29669 29670 29671 29672 29673 29674 29675 29676 29677 29678 29679 29680 29681 29682 29683 29684 29685 29686 29687 29688 29689 29690 29691 29692 29693 29694 29695 29696 29697 29698 29699 29700 29701 29702 29703 29704 29705 29706 29707 29708 29709 29710 29711 29712 29713 29714 29715 29716 29717 29718 29719 29720 29721 29722 29723 29724 29725 29726 29727 29728 29729 29730 29731 29732 29733 29734 29735 29736 29737 29738 29739 29740 29741 29742 29743 29744 29745 29746 29747 29748 29749 29750 29751 29752 29753 29754 29755 29756 29757 29758 29759 29760 29761 29762 29763 29764 29765 29766 29767 29768 29769 29770 29771 29772 29773 29774 29775 29776 29777 29778 29779 29780 29781 29782 29783 29784 29785 29786 29787 29788 29789 29790 29791 29792 29793 29794 29795 29796 29797 29798 29799 29800 29801 29802 29803 29804 29805 29806 29807 29808 29809 29810 29811 29812 29813 29814 29815 29816 29817 29818 29819 29820 29821 29822 29823 29824 29825 29826 29827 29828 29829 29830 29831 29832 29833 29834 29835 29836 29837 29838 29839 29840 29841 29842 29843 29844 29845 29846 29847 29848 29849 29850 29851 29852 29853 29854 29855 29856 29857 29858 29859 29860 29861 29862 29863 29864 29865 29866 29867 29868 29869 29870 29871 29872 29873 29874 29875 29876 29877 29878 29879 29880 29881 29882 29883 29884 29885 29886 29887 29888 29889 29890 29891 29892 29893 29894 29895 29896 29897 29898 29899 29900 29901 29902 29903 29904 29905 29906 29907 29908 29909 29910 29911 29912 29913 29914 29915 29916 29917 29918 29919 29920 29921 29922 29923 29924 29925 29926 29927 29928 29929 29930 29931 29932 29933 29934 29935 29936 29937 29938 29939 29940 29941 29942 29943 29944 29945 29946 29947 29948 29949 29950 29951 29952 29953 29954 29955 29956 29957 29958 29959 29960 29961 29962 29963 29964 29965 29966 29967 29968 29969 29970 29971 29972 29973 29974 29975 29976 29977 29978 29979 29980 29981 29982 29983 29984 29985 29986 29987 29988 29989 29990 29991 29992 29993 29994 29995 29996 29997 29998 29999 30000 30001 30002 30003 30004 30005 30006 30007 30008 30009 30010 30011 30012 30013 30014 30015 30016 30017 30018 30019 30020 30021 30022 30023 30024 30025 30026 30027 30028 30029 30030 30031 30032 30033 30034 30035 30036 30037 30038 30039 30040 30041 30042 30043 30044 30045 30046 30047 30048 30049 30050 30051 30052 30053 30054 30055 30056 30057 30058 30059 30060 30061 30062 30063 30064 30065 30066 30067 30068 30069 30070 30071 30072 30073 30074 30075 30076 30077 30078 30079 30080 30081 30082 30083 30084 30085 30086 30087 30088 30089 30090 30091 30092 30093 30094 30095 30096 30097 30098 30099 30100 30101 30102 30103 30104 30105 30106 30107 30108 30109 30110 30111 30112 30113 30114 30115 30116 30117 30118 30119 30120 30121 30122 30123 30124 30125 30126 30127 30128 30129 30130 30131 30132 30133 30134 30135 30136 30137 30138 30139 30140 30141 30142 30143 30144 30145 30146 30147 30148 30149 30150 30151 30152 30153 30154 30155 30156 30157 30158 30159 30160 30161 30162 30163 30164 30165 30166 30167 30168 30169 30170 30171 30172 30173 30174 30175 30176 30177 30178 30179 30180 30181 30182 30183 30184 30185 30186 30187 30188 30189 30190 30191 30192 30193 30194 30195 30196 30197 30198 30199 30200 30201 30202 30203 30204 30205 30206 30207 30208 30209 30210 30211 30212 30213 30214 30215 30216 30217 30218 30219 30220 30221 30222 30223 30224 30225 30226 30227 30228 30229 30230 30231 30232 30233 30234 30235 30236 30237 30238 30239 30240 30241 30242 30243 30244 30245 30246 30247 30248 30249 30250 30251 30252 30253 30254 30255 30256 30257 30258 30259 30260 30261 30262 30263 30264 30265 30266 30267 30268 30269 30270 30271 30272 30273 30274 30275 30276 30277 30278 30279 30280 30281 30282 30283 30284 30285 30286 30287 30288 30289 30290 30291 30292 30293 30294 30295 30296 30297 30298 30299 30300 30301 30302 30303 30304 30305 30306 30307 30308 30309 30310 30311 30312 30313 30314 30315 30316 30317 30318 30319 30320 30321 30322 30323 30324 30325 30326 30327 30328 30329 30330 30331 30332 30333 30334 30335 30336 30337 30338 30339 30340 30341 30342 30343 30344 30345 30346 30347 30348 30349 30350 30351 30352 30353 30354 30355 30356 30357 30358 30359 30360 30361 30362 30363 30364 30365 30366 30367 30368 30369 30370 30371 30372 30373 30374 30375 30376 30377 30378 30379 30380 30381 30382 30383 30384 30385 30386 30387 30388 30389 30390 30391 30392 30393 30394 30395 30396 30397 30398 30399 30400 30401 30402 30403 30404 30405 30406 30407 30408 30409 30410 30411 30412 30413 30414 30415 30416 30417 30418 30419 30420 30421 30422 30423 30424 30425 30426 30427 30428 30429 30430 30431 30432 30433 30434 30435 30436 30437 30438 30439 30440 30441 30442 30443 30444 30445 30446 30447 30448 30449 30450 30451 30452 30453 30454 30455 30456 30457 30458 30459 30460 30461 30462 30463 30464 30465 30466 30467 30468 30469 30470 30471 30472 30473 30474 30475 30476 30477 30478 30479 30480 30481 30482 30483 30484 30485 30486 30487 30488 30489 30490 30491 30492 30493 30494 30495 30496 30497 30498 30499 30500 30501 30502 30503 30504 30505 30506 30507 30508 30509 30510 30511 30512 30513 30514 30515 30516 30517 30518 30519 30520 30521 30522 30523 30524 30525 30526 30527 30528 30529 30530 30531 30532 30533 30534 30535 30536 30537 30538 30539 30540 30541 30542 30543 30544 30545 30546 30547 30548 30549 30550 30551 30552 30553 30554 30555 30556 30557 30558 30559 30560 30561 30562 30563 30564 30565 30566 30567 30568 30569 30570 30571 30572 30573 30574 30575 30576 30577 30578 30579 30580 30581 30582 30583 30584 30585 30586 30587 30588 30589 30590 30591 30592 30593 30594 30595 30596 30597 30598 30599 30600 30601 30602 30603 30604 30605 30606 30607 30608 30609 30610 30611 30612 30613 30614 30615 30616 30617 30618 30619 30620 30621 30622 30623 30624 30625 30626 30627 30628 30629 30630 30631 30632 30633 30634 30635 30636 30637 30638 30639 30640 30641 30642 30643 30644 30645 30646 30647 30648 30649 30650 30651 30652 30653 30654 30655 30656 30657 30658 30659 30660 30661 30662 30663 30664 30665 30666 30667 30668 30669 30670 30671 30672 30673 30674 30675 30676 30677 30678 30679 30680 30681 30682 30683 30684 30685 30686 30687 30688 30689 30690 30691 30692 30693 30694 30695 30696 30697 30698 30699 30700 30701 30702 30703 30704 30705 30706 30707 30708 30709 30710 30711 30712 30713 30714 30715 30716 30717 30718 30719 30720 30721 30722 30723 30724 30725 30726 30727 30728 30729 30730 30731 30732 30733 30734 30735 30736 30737 30738 30739 30740 30741 30742 30743 30744 30745 30746 30747 30748 30749 30750 30751 30752 30753 30754 30755 30756 30757 30758 30759 30760 30761 30762 30763 30764 30765 30766 30767 30768 30769 30770 30771 30772 30773 30774 30775 30776 30777 30778 30779 30780 30781 30782 30783 30784 30785 30786 30787 30788 30789 30790 30791 30792 30793 30794 30795 30796 30797 30798 30799 30800 30801 30802 30803 30804 30805 30806 30807 30808 30809 30810 30811 30812 30813 30814 30815 30816 30817 30818 30819 30820 30821 30822 30823 30824 30825 30826 30827 30828 30829 30830 30831 30832 30833 30834 30835 30836 30837 30838 30839 30840 30841 30842 30843 30844 30845 30846 30847 30848 30849 30850 30851 30852 30853 30854 30855 30856 30857 30858 30859 30860 30861 30862 30863 30864 30865 30866 30867 30868 30869 30870 30871 30872 30873 30874 30875 30876 30877 30878 30879 30880 30881 30882 30883 30884 30885 30886 30887 30888 30889 30890 30891 30892 30893 30894 30895 30896 30897 30898 30899 30900 30901 30902 30903 30904 30905 30906 30907 30908 30909 30910 30911 30912 30913 30914 30915 30916 30917 30918 30919 30920 30921 30922 30923 30924 30925 30926 30927 30928 30929 30930 30931 30932 30933 30934 30935 30936 30937 30938 30939 30940 30941 30942 30943 30944 30945 30946 30947 30948 30949 30950 30951 30952 30953 30954 30955 30956 30957 30958 30959 30960 30961 30962 30963 30964 30965 30966 30967 30968 30969 30970 30971 30972 30973 30974 30975 30976 30977 30978 30979 30980 30981 30982 30983 30984 30985 30986 30987 30988 30989 30990 30991 30992 30993 30994 30995 30996 30997 30998 30999 31000 31001 31002 31003 31004 31005 31006 31007 31008 31009 31010 31011 31012 31013 31014 31015 31016 31017 31018 31019 31020 31021 31022 31023 31024 31025 31026 31027 31028 31029 31030 31031 31032 31033 31034 31035 31036 31037 31038 31039 31040 31041 31042 31043 31044 31045 31046 31047 31048 31049 31050 31051 31052 31053 31054 31055 31056 31057 31058 31059 31060 31061 31062 31063 31064 31065 31066 31067 31068 31069 31070 31071 31072 31073 31074 31075 31076 31077 31078 31079 31080 31081 31082 31083 31084 31085 31086 31087 31088 31089 31090 31091 31092 31093 31094 31095 31096 31097 31098 31099 31100 31101 31102 31103 31104 31105 31106 31107 31108 31109 31110 31111 31112 31113 31114 31115 31116 31117 31118 31119 31120 31121 31122 31123 31124 31125 31126 31127 31128 31129 31130 31131 31132 31133 31134 31135 31136 31137 31138 31139 31140 31141 31142 31143 31144 31145 31146 31147 31148 31149 31150 31151 31152 31153 31154 31155 31156 31157 31158 31159 31160 31161 31162 31163 31164 31165 31166 31167 31168 31169 31170 31171 31172 31173 31174 31175 31176 31177 31178 31179 31180 31181 31182 31183 31184 31185 31186 31187 31188 31189 31190 31191 31192 31193 31194 31195 31196 31197 31198 31199 31200 31201 31202 31203 31204 31205 31206 31207 31208 31209 31210 31211 31212 31213 31214 31215 31216 31217 31218 31219 31220 31221 31222 31223 31224 31225 31226 31227 31228 31229 31230 31231 31232 31233 31234 31235 31236 31237 31238 31239 31240 31241 31242 31243 31244 31245 31246 31247 31248 31249 31250 31251 31252 31253 31254 31255 31256 31257 31258 31259 31260 31261 31262 31263 31264 31265 31266 31267 31268 31269 31270 31271 31272 31273 31274 31275 31276 31277 31278 31279 31280 31281 31282 31283 31284 31285 31286 31287 31288 31289 31290 31291 31292 31293 31294 31295 31296 31297 31298 31299 31300 31301 31302 31303 31304 31305 31306 31307 31308 31309 31310 31311 31312 31313 31314 31315 31316 31317 31318 31319 31320 31321 31322 31323 31324 31325 31326 31327 31328 31329 31330 31331 31332 31333 31334 31335 31336 31337 31338 31339 31340 31341 31342 31343 31344 31345 31346 31347 31348 31349 31350 31351 31352 31353 31354 31355 31356 31357 31358 31359 31360 31361 31362 31363 31364 31365 31366 31367 31368 31369 31370 31371 31372 31373 31374 31375 31376 31377 31378 31379 31380 31381 31382 31383 31384 31385 31386 31387 31388 31389 31390 31391 31392 31393 31394 31395 31396 31397 31398 31399 31400 31401 31402 31403 31404 31405 31406 31407 31408 31409 31410 31411 31412 31413 31414 31415 31416 31417 31418 31419 31420 31421 31422 31423 31424 31425 31426 31427 31428 31429 31430 31431 31432 31433 31434 31435 31436 31437 31438 31439 31440 31441 31442 31443 31444 31445 31446 31447 31448 31449 31450 31451 31452 31453 31454 31455 31456 31457 31458 31459 31460 31461 31462 31463 31464 31465 31466 31467 31468 31469 31470 31471 31472 31473 31474 31475 31476 31477 31478 31479 31480 31481 31482 31483 31484 31485 31486 31487 31488 31489 31490 31491 31492 31493 31494 31495 31496 31497 31498 31499 31500 31501 31502 31503 31504 31505 31506 31507 31508 31509 31510 31511 31512 31513 31514 31515 31516 31517 31518 31519 31520 31521 31522 31523 31524 31525 31526 31527 31528 31529 31530 31531 31532 31533 31534 31535 31536 31537 31538 31539 31540 31541 31542 31543 31544 31545 31546 31547 31548 31549 31550 31551 31552 31553 31554 31555 31556 31557 31558 31559 31560 31561 31562 31563 31564 31565 31566 31567 31568 31569 31570 31571 31572 31573 31574 31575 31576 31577 31578 31579 31580 31581 31582 31583 31584 31585 31586 31587 31588 31589 31590 31591 31592 31593 31594 31595 31596 31597 31598 31599 31600 31601 31602 31603 31604 31605 31606 31607 31608 31609 31610 31611 31612 31613 31614 31615 31616 31617 31618 31619 31620 31621 31622 31623 31624 31625 31626 31627 31628 31629 31630 31631 31632 31633 31634 31635 31636 31637 31638 31639 31640 31641 31642 31643 31644 31645 31646 31647 31648 31649 31650 31651 31652 31653 31654 31655 31656 31657 31658 31659 31660 31661 31662 31663 31664 31665 31666 31667 31668 31669 31670 31671 31672 31673 31674 31675 31676 31677 31678 31679 31680 31681 31682 31683 31684 31685 31686 31687 31688 31689 31690 31691 31692 31693 31694 31695 31696 31697 31698 31699 31700 31701 31702 31703 31704 31705 31706 31707 31708 31709 31710 31711 31712 31713 31714 31715 31716 31717 31718 31719 31720 31721 31722 31723 31724 31725 31726 31727 31728 31729 31730 31731 31732 31733 31734 31735 31736 31737 31738 31739 31740 31741 31742 31743 31744 31745 31746 31747 31748 31749 31750 31751 31752 31753 31754 31755 31756 31757 31758 31759 31760 31761 31762 31763 31764 31765 31766 31767 31768 31769 31770 31771 31772 31773 31774 31775 31776 31777 31778 31779 31780 31781 31782 31783 31784 31785 31786 31787 31788 31789 31790 31791 31792 31793 31794 31795 31796 31797 31798 31799 31800 31801 31802 31803 31804 31805 31806 31807 31808 31809 31810 31811 31812 
</DataArray>
<DataArray type="UInt32" Name="offsets" format="ascii">
3 6 8 11 14 17 20 23 26 29 32 35 38 41 44 47 50 53 56 59 62 65 68 71 74 77 80 83 86 89 92 95 98 101 104 107 110 113 116 119 121 124 127 129 132 134 136 139 142 145 148 150 153 155 157 160 163 166 168 171 174 177 179 182 185 188 191 194 197 200 203 206 209 211 214 217 220 223 226 229 232 234 236 239 242 244 247 250 252 254 257 260 262 265 268 271 274 277 280 283 286 289 292 295 298 301 303 306 309 312 315 318 321 324 326 329 332 335 337 340 343 346 349 351 354 357 360 363 366 369 372 375 377 380 383 385 388 391 394 397 400 403 406 409 412 415 418 420 423 426 428 431 434 437 440 443 446 449 452 455 458 461 464 467 470 473 475 478 481 484 487 490 493 496 499 501 504 507 510 512 515 518 521 524 527 530 533 536 539 541 544 547 550 553 556 559 561 564 567 570 573 576 579 582 584 586 589 592 595 598 601 603 605 607 609 612 615 618 620 623 626 629 631 634 637 640 643 645 648 651 654 656 659 661 664 667 670 673 676 679 682 684 687 690 693 696 699 702 704 707 710 713 716 718 721 724 726 729 732 734 737 740 743 746 749 751 754 757 760 763 766 768 771 774 777 779 782 785 788 791 793 796 799 802 805 808 811 814 817 820 823 826 829 832 835 837 840 843 845 848 850 852 855 857 860 863 866 869 872 875 877 880 883 886 889 892 895 897 900 902 905 908 911 913 916 919 921 923 926 929 932 934 937 939 942 944 947 950 953 956 958 961 964 967 969 971 974 976 979 982 985 987 990 993 995 998 1001 1004 1007 1010 1013 1016 1019 1022 1025 1028 1031 1034 1037 1040 1043 1046 1048 1051 1054 1057 1060 1063 1066 1069 1071 1074 1077 1080 1083 1086 1089 1092 1095 1098 1101 1104 1107 1110 1113 1116 1119 1122 1125 1128 1131 1134 1137 1140 1143 1146 1149 1152 1155 1158 1161 1164 1167 1170 1173 1176 1179 1182 1185 1188 1191 1194 1197 1199 1201 1204 1206 1209 1212 1215 1218 1221 1224 1227 1230 1233 1236 1239 1242 1244 1247 1250 1253 1256 1259 1262 1265 1267 1270 1273 1276 1279 1281 1284 1287 1290 1293 1296 1299 1302 1305 1308 1310 1313 1316 1319 1322 1325 1328 1331 1333 1336 1339 1342 1345 1348 1351 1353 1356 1359 1362 1365 1368 1371 1373 1376 1378 1381 1384 1387 1390 1393 1396 1398 1401 1404 1407 1410 1412 1415 1418 1420 1423 1426 1429 1432 1435 1438 1441 1443 1446 1449 1452 1455 1457 1460 1462 1464 1467 1470 1473 1475 1477 1479 1482 1485 1487 1490 1492 1495 1497 1499 1502 1505 1508 1510 1513 1516 1518 1521 1524 1527 1530 1533 1536 1539 1542 1545 1548 1551 1554 1557 1559 1562 1564 1567 1570 1572 1575 1577 1580 1582 1585 1588 1591 1594 1596 1599 1602 1605 1608 1611 1614 1617 1620 1623 1626 1629 1632 1635 1637 1640 1643 1646 1648 1651 1653 1656 1659 1662 1665 1668 1671 1674 1677 1680 1683 1686 1688 1691 1694 1697 1700 1703 1706 1709 1712 1715 1718 1721 1724 1727 1730 1733 1736 1739 1742 1745 1748 1751 1754 1757 1760 1763 1766 1769 1772 1775 1778 1781 1784 1787 1790 1793 1796 1799 1802 1805 1808 1811 1813 1816 1819 1822 1825 1828 1831 1833 1835 1838 1841 1844 1847 1850 1852 1855 1858 1861 1864 1867 1870 1873 1876 1879 1882 1885 1887 1890 1893 1895 1898 1901 1904 1907 1910 1913 1916 1919 1922 1925 1928 1931 1934 1937 1940 1943 1946 1949 1952 1955 1958 1961 1964 1967 1970 1973 1976 1979 1982 1985 1988 1991 1994 1997 2000 2003 2006 2009 2012 2015 2018 2021 2024 2026 2029 2031 2034 2037 2039 2041 2044 2047 2050 2053 2056 2059 2062 2065 2068 2071 2074 2077 2080 2083 2086 2089 2091 2094 2097 2100 2103 2105 2108 2111 2114 2117 2120 2123 2126 2129 2132 2135 2138 2141 2143 2146 2148 2150 2152 2155 2158 2161 2164 2166 2168 2170 2173 2176 2179 2182 2184 2187 2190 2192 2195 2198 2201 2204 2207 2210 2213 2216 2219 2222 2225 2228 2231 2234 2237 2240 2243 2246 2249 2252 2254 2257 2260 2263 2266 2269 2272 2274 2277 2280 2283 2286 2288 2291 2294 2297 2300 2303 2306 2309 2312 2315 2318 2321 2324 2327 2330 2333 2336 2339 2342 2345 2348 2350 2353 2356 2359 2362 2365 2368 2371 2374 2376 2379 2382 2385 2387 2390 2393 2395 2397 2400 2403 2406 2409 2412 2414 2417 2420 2423 2425 2427 2429 2432 2435 2438 2441 2444 2446 2449 2452 2455 2458 2461 2464 2467 2470 2473 2476 2479 2482 2485 2488 2490 2493 2496 2499 2502 2505 2508 2511 2514 2517 2520 2523 2526 2529 2532 2535 2538 2541 2544 2546 2549 2552 2555 2558 2561 2564 2567 2570 2573 2576 2579 2582 2585 2588 2591 2593 2596 2599 2602 2605 2608 2610 2613 2616 2619 2621 2624 2627 2630 2633 2635 2638 2640 2643 2646 2649 2652 2654 2657 2660 2663 2666 2669 2672 2675 2678 2681 2684 2687 2690 2693 2696 2699 2702 2705 2708 2710 2713 2716 2719 2722 2724 2726 2729 2732 2735 2737 2740 2743 2746 2748 2751 2754 2757 2760 2763 2766 2769 2772 2774 2777 2779 2782 2785 2788 2791 2793 2796 2799 2802 2805 2808 2811 2814 2816 2819 2822 2825 2828 2831 2834 2837 2840 2843 2846 2849 2852 2855 2858 2861 2863 2866 2869 2871 2874 2877 2880 2882 2885 2888 2891 2894 2897 2900 2902 2904 2907 2910 2912 2915 2918 2921 2924 2927 2929 2931 2934 2937 2940 2943 2946 2949 2952 2955 2957 2960 2963 2966 2969 2972 2975 2977 2980 2983 2986 2989 2992 2994 2997 3000 3003 3006 3009 3012 3014 3017 3019 3022 3025 3027 3030 3033 3036 3039 3042 3045 3048 3051 3054 3057 3060 3062 3064 3067 3070 3072 3075 3078 3080 3083 3086 3088 3091 3093 3096 3099 3102 3105 3108 3110 3113 3116 3119 3122 3125 3128 3131 3134 3137 3140 3143 3146 3149 3152 3155 3158 3161 3163 3166 3169 3171 3174 3177 3179 3182 3185 3188 3191 3194 3196 3199 3202 3205 3208 3211 3213 3216 3219 3222 3224 3227 3230 3232 3235 3238 3241 3244 3246 3249 3252 3255 3258 3261 3264 3267 3269 3271 3274 3277 3280 3283 3285 3288 3291 3294 3297 3300 3303 3306 3309 3312 3315 3318 3321 3324 3327 3330 3333 3336 3339 3341 3344 3347 3350 3353 3356 3359 3362 3364 3367 3370 3373 3376 3378 3381 3384 3387 3390 3393 3396 3399 3402 3405 3407 3410 3413 3415 3418 3421 3424 3427 3430 3432 3434 3436 3438 3441 3443 3445 3448 3451 3454 3456 3459 3462 3465 3467 3470 3472 3475 3478 3480 3483 3486 3489 3491 3494 3497 3500 3503 3505 3508 3510 3513 3515 3518 3521 3523 3526 3528 3531 3534 3537 3540 3543 3546 3549 3552 3555 3558 3561 3564 3567 3570 3572 3575 3578 3581 3583 3586 3589 3592 3595 3598 3601 3604 3607 3610 3613 3616 3619 3622 3624 3627 3630 3633 3636 3639 3642 3645 3648 3651 3654 3657 3659 3662 3665 3668 3670 3673 3676 3679 3682 3685 3688 3691 3694 3697 3700 3703 3706 3709 3712 3715 3718 3721 3724 3727 3730 3733 3736 3739 3742 3745 3748 3751 3754 3756 3759 3762 3765 3768 3771 3773 3776 3779 3782 3784 3787 3790 3793 3796 3799 3802 3805 3808 3811 3814 3817 3820 3823 3826 3829 3832 3835 3838 3841 3844 3847 3850 3852 3855 3858 3861 3864 3866 3868 3871 3874 3877 3880 3883 3886 3889 3892 3895 3897 3900 3903 3906 3909 3912 3915 3918 3921 3924 3926 3929 3932 3935 3938 3941 3943 3946 3949 3951 3954 3956 3959 3962 3964 3966 3969 3971 3974 3977 3980 3982 3985 3988 3990 3993 3996 3999 4001 4004 4006 4009 4012 4015 4018 4021 4024 4027 4030 4033 4036 4038 4041 4044 4047 4050 4053 4056 4059 4062 4065 4068 4071 4074 4077 4080 4083 4086 4089 4092 4095 4098 4101 4104 4106 4109 4112 4115 4118 4121 4123 4126 4129 4132 4135 4138 4140 4143 4146 4149 4152 4155 4158 4161 4164 4167 4170 4173 4176 4179 4182 4185 4188 4191 4194 4197 4200 4203 4206 4209 4211 4214 4217 4219 4222 4225 4228 4231 4234 4237 4240 4243 4246 4249 4252 4255 4258 4260 4263 4266 4269 4272 4275 4278 4281 4283 4285 4287 4290 4292 4295 4298 4301 4304 4307 4310 4312 4315 4317 4319 4322 4325 4328 4331 4334 4337 4340 4343 4346 4349 4352 4355 4358 4361 4364 4367 4370 4373 4376 4379 4381 4383 4386 4389 4392 4394 4396 4399 4402 4405 4408 4411 4414 4417 4420 4423 4426 4429 4432 4435 4438 4441 4443 4446 4448 4451 4454 4457 4459 4462 4465 4467 4470 4473 4476 4479 4482 4485 4487 4490 4492 4495 4498 4501 4504 4507 4510 4513 4516 4519 4522 4524 4527 4530 4533 4536 4539 4542 4545 4548 4551 4553 4555 4558 4561 4564 4567 4570 4573 4576 4578 4580 4583 4586 4589 4591 4594 4596 4599 4602 4605 4608 4611 4613 4616 4618 4621 4624 4626 4629 4632 4635 4638 4641 4644 4647 4649 4652 4655 4657 4660 4663 4666 4669 4672 4675 4678 4681 4683 4686 4689 4692 4695 4698 4701 4703 4706 4709 4712 4715 4718 4720 4723 4726 4729 4732 4735 4737 4740 4743 4746 4749 4751 4754 4757 4760 4763 4765 4767 4769 4772 4775 4777 4780 4782 4785 4788 4791 4794 4797 4800 4803 4806 4809 4811 4814 4817 4820 4822 4825 4828 4831 4833 4835 4838 4841 4844 4846 4849 4852 4855 4858 4861 4864 4867 4870 4873 4876 4879 4882 4885 4888 4891 4894 4896 4899 4902 4905 4908 4911 4914 4917 4920 4923 4926 4929 4932 4935 4938 4941 4944 4947 4950 4953 4956 4959 4962 4965 4967 4970 4973 4976 4978 4981 4984 4987 4990 4993 4996 4999 5002 5005 5008 5011 5014 5016 5019 5022 5024 5027 5030 5033 5036 5039 5042 5045 5048 5051 5054 5057 5060 5063 5066 5069 5072 5075 5078 5081 5084 5087 5090 5093 5096 5099 5102 5105 5108 5111 5114 5117 5120 5123 5126 5129 5132 5135 5138 5140 5143 5146 5149 5152 5155 5158 5161 5164 5166 5169 5172 5175 5178 5181 5184 5187 5190 5193 5196 5199 5202 5205 5208 5211 5214 5217 5220 5223 5226 5229 5231 5234 5237 5240 5242 5245 5248 5251 5253 5255 5258 5261 5264 5267 5270 5273 5276 5279 5282 5285 5288 5291 5294 5297 5300 5303 5306 5309 5312 5315 5317 5320 5323 5326 5329 5332 5335 5338 5341 5343 5346 5349 5352 5354 5357 5360 5363 5366 5368 5371 5373 5376 5379 5381 5384 5387 5390 5392 5395 5397 5400 5402 5405 5408 5411 5414 5417 5420 5423 5426 5429 5432 5435 5437 5440 5443 5445 5448 5451 5454 5457 5460 5463 5466 5468 5471 5474 5477 5480 5483 5486 5489 5492 5495 5498 5501 5504 5507 5510 5513 5516 5519 5522 5525 5528 5531 5534 5537 5540 5543 5546 5549 5552 5555 5558 5560 5563 5566 5569 5571 5574 5577 5580 5583 5586 5589 5592 5594 5597 5600 5603 5606 5608 5611 5614 5617 5620 5622 5625 5627 5630 5633 5636 5639 5642 5645 5647 5649 5652 5655 5658 5661 5664 5667 5669 5672 5675 5678 5681 5684 5687 5690 5693 5696 5699 5702 5704 5707 5710 5713 5716 5718 5721 5724 5727 5729 5732 5735 5738 5741 5744 5747 5750 5753 5756 5759 5762 5765 5768 5771 5774 5777 5780 5783 5786 5789 5792 5795 5798 5801 5804 5807 5810 5813 5816 5819 5822 5825 5828 5831 5834 5836 5839 5842 5845 5848 5851 5854 5857 5860 5863 5866 5869 5872 5875 5878 5881 5884 5887 5890 5893 5896 5899 5901 5904 5907 5910 5913 5916 5919 5922 5925 5928 5931 5934 5937 5940 5943 5945 5948 5951 5954 5957 5960 5963 5966 5969 5972 5975 5978 5981 5984 5987 5990 5993 5995 5998 6001 6003 6006 6009 6012 6015 6018 6021 6024 6027 6030 6033 6035 6038 6040 6042 6044 6047 6050 6052 6054 6057 6060 6062 6065 6068 6071 6073 6076 6079 6082 6085 6088 6091 6094 6097 6099 6102 6105 6108 6111 6114 6116 6119 6122 6125 6128 6130 6133 6135 6138 6141 6143 6145 6147 6150 6153 6156 6159 6162 6165 6168 6171 6174 6177 6180 6183 6186 6189 6192 6195 6198 6201 6204 6206 6209 6212 6215 6217 6220 6223 6225 6228 6231 6233 6236 6239 6241 6244 6247 6250 6252 6255 6258 6261 6263 6266 6269 6272 6275 6278 6281 6284 6287 6290 6292 6295 6298 6301 6304 6307 6310 6313 6316 6319 6322 6325 6328 6331 6334 6337 6340 6343 6346 6349 6352 6355 6358 6360 6363 6366 6369 6372 6375 6378 6381 6384 6387 6390 6393 6396 6399 6402 6405 6408 6411 6414 6417 6420 6423 6426 6429 6431 6434 6436 6438 6441 6443 6446 6449 6452 6455 6457 6460 6463 6466 6469 6472 6475 6478 6480 6482 6485 6488 6491 6494 6497 6500 6503 6506 6509 6511 6514 6517 6520 6522 6525 6528 6531 6533 6536 6539 6542 6545 6548 6551 6554 6557 6560 6563 6566 6569 6572 6575 6578 6581 6584 6587 6590 6593 6596 6599 6602 6605 6608 6611 6614 6617 6620 6623 6626 6629 6632 6635 6638 6641 6644 6647 6650 6653 6656 6659 6661 6664 6667 6670 6673 6676 6678 6681 6684 6687 6690 6693 6696 6699 6702 6705 6708 6711 6714 6717 6720 6723 6726 6728 6730 6733 6735 6738 6741 6744 6747 6749 6752 6754 6757 6760 6763 6766 6769 6772 6775 6778 6781 6784 6786 6789 6792 6795 6798 6800 6803 6806 6809 6812 6815 6818 6821 6824 6826 6829 6832 6835 6837 6840 6843 6846 6849 6852 6855 6858 6861 6863 6866 6869 6871 6874 6877 6880 6883 6886 6889 6892 6895 6898 6901 6904 6907 6910 6913 6916 6918 6921 6923 6926 6929 6932 6935 6937 6940 6943 6946 6949 6952 6954 6957 6959 6962 6965 6968 6971 6974 6977 6980 6983 6986 6989 6992 6995 6998 7001 7004 7007 7010 7013 7016 7019 7022 7025 7028 7031 7034 7037 7040 7043 7046 7049 7051 7054 7057 7060 7063 7066 7069 7071 7074 7077 7079 7081 7084 7087 7090 7093 7096 7099 7101 7104 7106 7109 7112 7115 7117 7120 7123 7126 7129 7132 7135 7138 7140 7143 7146 7148 7151 7154 7157 7160 7163 7166 7168 7171 7174 7177 7180 7183 7186 7189 7192 7195 7198 7200 7203 7206 7208 7211 7214 7216 7219 7222 7225 7228 7231 7234 7237 7240 7243 7246 7249 7251 7254 7257 7260 7263 7266 7269 7272 7275 7278 7281 7284 7287 7290 7293 7296 7298 7301 7304 7306 7309 7312 7314 7317 7319 7322 7325 7328 7331 7334 7337 7340 7343 7346 7348 7350 7353 7356 7359 7362 7365 7368 7371 7374 7376 7379 7382 7385 7388 7391 7394 7396 7398 7401 7404 7406 7409 7412 7415 7418 7421 7423 7426 7429 7431 7434 7436 7439 7442 7444 7447 7450 7453 7455 7458 7461 7464 7466 7469 7472 7475 7478 7481 7483 7486 7489 7492 7494 7497 7500 7503 7505 7508 7511 7513 7515 7518 7521 7523 7526 7529 7532 7535 7538 7541 7544 7547 7550 7552 7555 7558 7561 7564 7567 7570 7573 7576 7579 7582 7585 7588 7591 7594 7597 7600 7603 7606 7609 7612 7615 7617 7620 7623 7625 7628 7631 7634 7637 7640 7643 7645 7648 7651 7654 7657 7660 7663 7666 7669 7672 7675 7677 7680 7683 7686 7688 7691 7694 7697 7700 7702 7704 7707 7710 7713 7715 7718 7721 7724 7727 7730 7733 7736 7738 7741 7744 7747 7750 7753 7756 7758 7761 7764 7767 7769 7772 7775 7778 7781 7784 7787 7790 7793 7796 7799 7802 7805 7808 7810 7812 7815 7818 7821 7823 7826 7829 7832 7835 7837 7840 7843 7846 7849 7852 7855 7858 7861 7864 7867 7870 7873 7876 7879 7881 7884 7887 7890 7893 7896 7899 7901 7904 7907 7909 7912 7915 7918 7921 7923 7926 7929 7932 7935 7937 7940 7943 7946 7949 7951 7953 7956 7959 7962 7965 7968 7971 7974 7977 7979 7982 7984 7987 7990 7992 7995 7998 8001 8003 8005 8007 8009 8012 8015 8018 8021 8024 8027 8029 8032 8035 8037 8040 8043 8046 8049 8052 8055 8057 8060 8063 8066 8068 8071 8073 8076 8079 8082 8084 8087 8089 8092 8095 8097 8099 8102 8105 8108 8111 8114 8116 8119 8122 8125 8128 8130 8133 8136 8139 8142 8144 8147 8150 8153 8155 8158 8160 8162 8165 8168 8171 8174 8177 8180 8183 8185 8188 8191 8194 8197 8199 8201 8204 8206 8209 8211 8213 8215 8218 8221 8224 8227 8229 8232 8235 8237 8240 8242 8245 8248 8250 8253 8256 8259 8262 8265 8268 8271 8273 8276 8279 8281 8284 8287 8290 8293 8296 8299 8302 8305 8308 8310 8313 8316 8319 8322 8325 8327 8330 8332 8335 8337 8340 8343 8345 8348 8351 8354 8356 8359 8362 8365 8367 8370 8373 8376 8378 8381 8384 8387 8390 8393 8395 8398 8401 8404 8407 8410 8412 8415 8418 8420 8422 8425 8428 8430 8433 8436 8439 8441 8444 8447 8450 8453 8456 8459 8461 8463 8466 8468 8471 8474 8476 8479 8482 8485 8487 8490 8493 8496 8499 8502 8505 8508 8511 8514 8517 8520 8523 8526 8529 8532 8535 8538 8541 8543 8546 8549 8552 8554 8557 8560 8563 8566 8569 8571 8574 8577 8580 8583 8586 8589 8592 8595 8598 8601 8604 8607 8610 8612 8615 8618 8621 8624 8627 8630 8633 8636 8639 8642 8645 8648 8651 8654 8657 8660 8663 8666 8669 8672 8674 8677 8680 8683 8686 8689 8692 8694 8697 8700 8703 8706 8709 8712 8715 8718 8721 8724 8727 8730 8733 8736 8738 8741 8744 8747 8750 8753 8755 8758 8761 8764 8767 8770 8773 8776 8779 8782 8785 8788 8791 8794 8797 8800 8803 8806 8808 8811 8814 8817 8819 8822 8825 8828 8831 8834 8837 8840 8843 8846 8849 8852 8855 8858 8861 8864 8867 8870 8873 8876 8879 8882 8885 8888 8891 8894 8897 8900 8903 8905 8908 8911 8913 8916 8918 8920 8923 8926 8929 8931 8934 8937 8940 8943 8946 8949 8952 8955 8958 8961 8964 8967 8970 8973 8976 8979 8981 8984 8986 8989 8992 8995 8998 9001 9004 9006 9009 9012 9015 9018 9021 9024 9027 9030 9033 9036 9038 9041 9044 9046 9049 9051 9053 9056 9059 9062 9064 9067 9070 9073 9076 9079 9082 9085 9087 9090 9093 9096 9099 9102 9104 9107 9109 9112 9114 9117 9119 9122 9125 9128 9131 9134 9137 9140 9142 9145 9148 9151 9154 9157 9160 9162 9165 9168 9170 9173 9176 9179 9181 9184 9187 9190 9193 9196 9199 9201 9204 9207 9210 9213 9216 9219 9222 9224 9227 9230 9232 9234 9237 9240 9242 9244 9247 9250 9252 9255 9258 9261 9264 9267 9270 9273 9276 9279 9281 9283 9286 9288 9291 9294 9296 9299 9301 9304 9307 9310 9313 9316 9319 9322 9325 9328 9331 9334 9337 9340 9343 9346 9348 9351 9354 9357 9360 9363 9366 9369 9372 9375 9377 9379 9382 9384 9387 9389 9391 9394 9397 9400 9403 9405 9408 9410 9413 9416 9418 9421 9424 9427 9430 9432 9434 9436 9438 9441 9444 9446 9448 9451 9454 9456 9459 9461 9463 9466 9469 9471 9474 9476 9479 9482 9485 9487 9490 9493 9495 9497 9500 9503 9506 9509 9512 9515 9518 9521 9524 9527 9530 9533 9535 9538 9541 9544 9547 9549 9552 9555 9557 9560 9563 9565 9568 9570 9573 9576 9578 9580 9583 9586 9588 9591 9594 9596 9599 9602 9605 9607 9610 9613 9616 9619 9622 9625 9628 9631 9634 9636 9639 9642 9645 9648 9651 9653 9656 9658 9661 9664 9666 9669 9672 9675 9677 9680 9683 9686 9689 9691 9694 9696 9698 9701 9704 9707 9710 9713 9716 9719 9722 9725 9728 9731 9734 9737 9739 9742 9745 9748 9751 9754 9757 9760 9763 9766 9769 9772 9774 9777 9780 9783 9786 9788 9790 9793 9796 9798 9801 9804 9806 9809 9812 9814 9817 9820 9823 9825 9828 9830 9833 9835 9837 9840 9843 9846 9849 9851 9854 9856 9859 9862 9865 9868 9871 9874 9877 9879 9882 9885 9888 9891 9893 9895 9898 9901 9903 9906 9908 9910 9913 9916 9919 9922 9925 9928 9931 9934 9937 9940 9943 9946 9949 9951 9954 9957 9959 9962 9965 9968 9971 9974 9977 9980 9983 9986 9989 9992 9995 9998 10001 10004 10007 10010 10013 10016 10018 10021 10023 10026 10029 10032 10034 10037 10039 10042 10044 10047 10050 10053 10056 10059 10062 10065 10068 10071 10074 10077 10080 10083 10086 10088 10091 10094 10097 10099 10102 10105 10107 10110 10113 10115 10118 10121 10124 10127 10130 10133 10136 10139 10142 10145 10148 10151 10154 10156 10159 10162 10164 10167 10170 10173 10176 10179 10182 10185 10187 10190 10193 10196 10199 10201 10204 10207 10209 10212 10214 10217 10220 10223 10226 10229 10231 10234 10237 10240 10243 10245 10248 10251 10254 10256 10259 10262 10264 10267 10270 10273 10276 10278 10281 10284 10287 10290 10293 10296 10299 10301 10304 10307 10310 10313 10316 10319 10322 10325 10328 10331 10334 10337 10340 10342 10345 10348 10351 10354 10357 10360 10363 10366 10369 10372 10375 10378 10381 10384 10387 10390 10393 10395 10398 10401 10404 10407 10409 10412 10415 10418 10421 10424 10427 10430 10433 10435 10438 10441 10444 10447 10450 10453 10456 10459 10462 10465 10468 10471 10474 10477 10480 10483 10486 10489 10492 10495 10498 10501 10504 10507 10510 10513 10516 10519 10522 10525 10528 10531 10534 10537 10540 10543 10545 10548 10551 10554 10557 10560 10563 10566 10569 10572 10575 10578 10581 10584 10587 10590 10593 10596 10598 10601 10604 10607 10610 10612 10615 10617 10620 10623 10626 10629 10632 10635 10638 10641 10644 10647 10649 10652 10654 10657 10660 10663 10666 10669 10671 10674 10677 10680 10682 10685 10687 10690 10692 10695 10698 10701 10704 10707 10710 10713 10716 10719 10722 10725 10728 10731 10734 10737 10740 10743 10745 10748 10751 10754 10757 10760 10763 10766 10768 10770 10773 10776 10779 10781 10783 10786 10788 10791 10794 10797 10800 10802 10805 10808 10811 10813 10815 10818 10821 10824 10827 10830 10833 10836 10839 10842 10845 10848 10850 10853 10856 10858 10861 10864 10866 10869 10872 10875 10878 10881 10884 10886 10889 10892 10895 10898 10901 10904 10907 10910 10913 10916 10919 10922 10925 10928 10931 10934 10937 10940 10943 10946 10948 10951 10954 10956 10959 10962 10965 10967 10969 10972 10975 10978 10980 10983 10986 10989 10991 10994 10997 11000 11003 11005 11008 11011 11014 11017 11020 11023 11026 11029 11032 11035 11038 11041 11044 11047 11050 11053 11055 11058 11060 11063 11066 11069 11072 11075 11078 11081 11084 11087 11089 11092 11095 11097 11100 11103 11106 11109 11111 11114 11117 11120 11123 11126 11128 11131 11134 11137 11140 11143 11146 11149 11152 11155 11158 11161 11164 11167 11170 11172 11175 11178 11181 11184 11187 11189 11192 11195 11198 11200 11203 11206 11208 11211 11214 11216 11219 11222 11225 11228 11231 11234 11237 11240 11243 11245 11248 11251 11254 11257 11259 11261 11264 11267 11270 11272 11275 11277 11280 11283 11286 11289 11292 11295 11298 11301 11304 11307 11310 11313 11316 11319 11322 11325 11328 11330 11333 11335 11338 11341 11343 11346 11349 11352 11354 11357 11360 11362 11365 11368 11371 11374 11377 11380 11383 11385 11388 11391 11394 11397 11400 11403 11406 11409 11412 11415 11418 11421 11423 11426 11429 11432 11435 11438 11440 11443 11446 11448 11451 11454 11457 11459 11462 11465 11467 11470 11473 11475 11478 11480 11483 11485 11488 11491 11494 11497 11499 11501 11504 11507 11510 11513 11516 11519 11522 11525 11528 11531 11533 11536 11539 11542 11544 11547 11549 11552 11555 11558 11560 11563 11566 11569 11571 11574 11577 11579 11581 11584 11587 11590 11593 11596 11599 11602 11605 11608 11611 11614 11616 11619 11622 11625 11627 11629 11632 11635 11637 11640 11643 11646 11649 11652 11654 11656 11659 11662 11665 11668 11671 11674 11677 11680 11682 11685 11688 11690 11693 11696 11699 11701 11704 11707 11710 11713 11716 11719 11722 11725 11728 11730 11733 11736 11739 11741 11744 11747 11750 11753 11755 11758 11761 11764 11767 11770 11773 11776 11778 11781 11784 11787 11790 11793 11795 11798 11801 11804 11807 11810 11813 11816 11819 11822 11825 11828 11831 11834 11837 11840 11843 11846 11848 11851 11854 11857 11860 11863 11866 11868 11871 11874 11877 11880 11883 11886 11889 11892 11895 11898 11901 11904 11907 11910 11913 11916 11919 11922 11925 11928 11931 11934 11937 11939 11942 11944 11947 11950 11953 11956 11959 11962 11965 11968 11971 11973 11976 11979 11982 11984 11987 11990 11993 11996 11999 12002 12005 12008 12011 12014 12017 12020 12023 12026 12029 12032 12035 12038 12041 12044 12047 12050 12053 12056 12059 12062 12065 12068 12071 12073 12076 12079 12082 12085 12088 12091 12094 12097 12100 12102 12105 12108 12111 12114 12117 12120 12123 12126 12129 12132 12135 12138 12141 12144 12147 12150 12153 12156 12159 12162 12165 12168 12171 12174 12176 12178 12181 12184 12187 12190 12193 12196 12199 12202 12205 12208 12210 12213 12216 12219 12222 12225 12227 12230 12233 12236 12238 12241 12244 12246 12249 12252 12255 12258 12261 12263 12266 12269 12272 12275 12278 12281 12283 12286 12289 12291 12294 12297 12299 12302 12304 12307 12310 12312 12314 12317 12320 12322 12324 12327 12329 12332 12335 12338 12341 12344 12347 12349 12352 12355 12358 12361 12364 12366 12369 12371 12374 12377 12379 12381 12384 12387 12390 12393 12396 12399 12402 12405 12408 12411 12414 12417 12420 12422 12425 12427 12430 12433 12436 12439 12442 12445 12448 12451 12454 12457 12460 12463 12466 12469 12472 12475 12478 12481 12484 12487 12489 12491 12494 12497 12500 12503 12506 12509 12512 12515 12518 12521 12523 12526 12529 12532 12535 12538 12541 12544 12547 12550 12552 12555 12558 12561 12563 12566 12569 12571 12574 12576 12579 12582 12585 12587 12590 12593 12595 12598 12601 12604 12607 12610 12613 12616 12619 12622 12625 12628 12631 12634 12637 12640 12643 12646 12649 12652 12655 12658 12660 12663 12666 12669 12672 12675 12678 12681 12684 12687 12690 12693 12696 12699 12702 12705 12708 12710 12713 12716 12719 12722 12725 12728 12731 12734 12736 12739 12742 12745 12748 12751 12754 12757 12760 12763 12765 12768 12771 12774 12777 12780 12783 12785 12788 12790 12793 12796 12799 12802 12805 12808 12811 12814 12817 12820 12823 12825 12828 12830 12833 12836 12838 12840 12843 12846 12849 12852 12855 12857 12860 12863 12866 12869 12872 12875 12878 12881 12883 12886 12889 12891 12894 12897 12900 12903 12906 12908 12911 12914 12917 12920 12923 12926 12929 12932 12935 12937 12940 12943 12945 12947 12950 12953 12956 12959 12961 12964 12967 12970 12973 12976 12979 12982 12985 12988 12991 12994 12997 13000 13002 13005 13008 13011 13014 13016 13019 13022 13024 13027 13030 13033 13036 13038 13041 13044 13047 13050 13053 13055 13058 13061 13064 13067 13069 13072 13075 13077 13080 13083 13086 13089 13092 13094 13096 13099 13102 13105 13108 13110 13112 13115 13118 13120 13123 13126 13129 13132 13135 13138 13141 13144 13147 13149 13152 13155 13158 13161 13164 13167 13170 13173 13176 13179 13182 13185 13188 13191 13194 13197 13200 13203 13205 13208 13211 13214 13217 13220 13223 13225 13228 13231 13234 13236 13239 13242 13245 13248 13251 13254 13257 13259 13262 13265 13267 13270 13273 13276 13279 13282 13285 13288 13291 13294 13297 13300 13303 13306 13309 13312 13314 13317 13320 13322 13325 13328 13331 13333 13336 13339 13341 13343 13346 13349 13352 13355 13358 13361 13363 13366 13369 13372 13375 13378 13381 13384 13387 13390 13393 13396 13399 13402 13405 13407 13410 13413 13416 13419 13422 13425 13427 13430 13433 13436 13439 13441 13444 13447 13450 13453 13456 13459 13462 13465 13468 13471 13474 13477 13480 13483 13486 13489 13492 13495 13498 13501 13504 13507 13510 13513 13516 13519 13522 13525 13528 13531 13534 13537 13539 13542 13545 13548 13551 13553 13556 13559 13561 13564 13566 13569 13572 13574 13577 13580 13583 13586 13589 13591 13594 13597 13600 13603 13606 13609 13612 13615 13618 13621 13624 13627 13630 13632 13635 13638 13641 13644 13647 13649 13652 13654 13657 13660 13663 13666 13669 13672 13675 13678 13681 13684 13687 13690 13692 13694 13697 13699 13702 13705 13708 13711 13713 13716 13719 13722 13724 13727 13730 13733 13736 13738 13741 13744 13747 13750 13753 13755 13758 13760 13763 13766 13769 13772 13775 13778 13781 13784 13787 13790 13793 13796 13799 13802 13805 13808 13811 13814 13817 13820 13822 13825 13828 13831 13834 13837 13840 13843 13846 13849 13851 13854 13857 13860 13863 13866 13869 13872 13875 13878 13881 13884 13887 13889 13892 13895 13898 13901 13904 13906 13908 13911 13914 13917 13920 13923 13925 13928 13930 13933 13936 13939 13942 13945 13948 13951 13954 13956 13959 13962 13964 13967 13970 13973 13975 13978 13981 13984 13987 13990 13993 13996 13999 14002 14005 14008 14011 14014 14017 14020 14023 14026 14029 14032 14035 14038 14041 14043 14046 14049 14052 14055 14057 14060 14063 14066 14069 14071 14074 14077 14080 14083 14086 14089 14092 14095 14098 14101 14104 14106 14109 14112 14115 14118 14121 14124 14127 14130 14133 14136 14139 14142 14145 14148 14151 14154 14157 14160 14163 14166 14169 14172 14175 14178 14181 14184 14187 14189 14192 14195 14197 14200 14203 14206 14209 14212 14215 14218 14221 14224 14227 14230 14233 14236 14239 14242 14245 14247 14250 14252 14255 14258 14261 14264 14267 14269 14272 14275 14278 14280 14283 14286 14289 14291 14294 14297 14300 14303 14305 14307 14310 14313 14316 14318 14321 14323 14325 14328 14331 14334 14337 14340 14343 14345 14348 14351 14354 14357 14359 14362 14365 14367 14370 14373 14376 14379 14381 14384 14387 14389 14392 14395 14397 14400 14403 14406 14409 14412 14415 14417 14420 14423 14425 14427 14430 14432 14435 14438 14441 14444 14447 14450 14452 14454 14456 14459 14461 14463 14466 14469 14472 14475 14478 14481 14484 14487 14490 14493 14496 14499 14502 14505 14508 14511 14514 14517 14520 14523 14526 14529 14532 14535 14538 14541 14544 14547 14550 14553 14556 14559 14562 14565 14568 14570 14573 14576 14579 14581 14584 14587 14590 14593 14596 14599 14602 14605 14608 14611 14614 14617 14620 14623 14626 14628 14631 14634 14637 14640 14643 14646 14649 14652 14655 14658 14661 14663 14666 14669 14671 14674 14676 14679 14682 14685 14688 14691 14693 14696 14699 14702 14705 14707 14710 14713 14716 14718 14721 14724 14727 14730 14733 14736 14739 14742 14745 14748 14751 14754 14757 14760 14763 14766 14769 14772 14775 14778 14781 14784 14787 14790 14793 14796 14799 14802 14805 14808 14810 14813 14816 14819 14822 14825 14828 14831 14834 14837 14840 14843 14846 14849 14852 14855 14858 14861 14864 14867 14870 14873 14876 14879 14882 14885 14888 14891 14893 14896 14899 14902 14905 14907 14910 14913 14915 14918 14921 14924 14927 14930 14933 14936 14939 14942 14945 14947 14950 14953 14956 14959 14962 14965 14967 14970 14972 14975 14977 14980 14983 14986 14989 14992 14995 14998 15001 15004 15007 15010 15013 15016 15019 15022 15025 15028 15031 15034 15037 15039 15042 15044 15047 15050 15053 15056 15059 15062 15065 15068 15070 15073 15076 15079 15082 15084 15087 15089 15092 15095 15098 15101 15103 15106 15109 15112 15115 15118 15121 15124 15127 15130 15133 15136 15139 15142 15145 15148 15150 15153 15156 15159 15162 15165 15168 15170 15173 15176 15179 15182 15185 15188 15191 15194 15197 15200 15203 15206 15209 15212 15215 15218 15221 15224 15227 15230 15233 15236 15239 15242 15245 15248 15251 15254 15257 15260 15263 15265 15267 15270 15273 15276 15279 15282 15285 15288 15291 15294 15297 15300 15303 15305 15308 15310 15313 15316 15319 15322 15325 15328 15331 15333 15336 15339 15342 15345 15348 15351 15354 15357 15360 15363 15366 15369 15372 15375 15378 15381 15384 15387 15390 15392 15395 15398 15401 15404 15407 15410 15413 15416 15419 15422 15425 15428 15431 15434 15437 15440 15443 15446 15449 15452 15455 15458 15461 15464 15467 15470 15473 15476 15479 15482 15485 15488 15491 15494 15497 15500 15503 15506 15509 15512 15515 15518 15521 15524 15527 15530 15533 15536 15539 15542 15545 15548 15551 15554 15557 15560 15563 15566 15569 15572 15575 15578 15581 15584 15587 15590 15593 15596 15599 15602 15605 15608 15611 15614 15617 15620 15623 15626 15629 15632 15635 15638 15641 15644 15647 15650 15653 15656 15659 15662 15665 15668 15671 15674 15677 15680 15683 15686 15689 15692 15695 15698 15701 15704 15707 15710 15713 15716 15719 15722 15725 15727 15730 15733 15735 15738 15741 15744 15747 15750 15753 15756 15759 15762 15765 15768 15771 15774 15777 15780 15783 15786 15789 15792 15795 15798 15801 15804 15807 15810 15813 15816 15819 15822 15825 15828 15831 15834 15837 15840 15843 15846 15849 15852 15855 15858 15861 15863 15865 15868 15871 15874 15877 15880 15883 15886 15889 15891 15894 15897 15900 15903 15906 15909 15912 15915 15918 15921 15924 15927 15930 15932 15935 15938 15941 15944 15946 15949 15952 15955 15958 15961 15964 15967 15970 15973 15976 15979 15982 15985 15988 15991 15994 15997 16000 16003 16006 16009 16012 16014 16016 16019 16022 16025 16028 16031 16034 16037 16040 16043 16046 16049 16051 16054 16057 16060 16063 16066 16069 16072 16075 16078 16081 16084 16087 16090 16092 16095 16098 16101 16104 16107 16110 16113 16116 16119 16122 16125 16128 16131 16134 16137 16140 16143 16146 16148 16151 16153 16156 16159 16162 16165 16168 16171 16174 16177 16180 16183 16186 16189 16192 16195 16198 16201 16204 16207 16209 16212 16215 16218 16221 16223 16226 16229 16232 16235 16238 16241 16244 16247 16250 16253 16255 16258 16261 16264 16267 16270 16273 16275 16278 16281 16284 16287 16290 16293 16295 16298 16300 16303 16306 16308 16311 16314 16317 16320 16322 16325 16328 16331 16334 16337 16340 16343 16346 16349 16352 16355 16358 16361 16364 16367 16369 16371 16374 16377 16380 16382 16385 16387 16389 16392 16395 16398 16400 16403 16406 16409 16412 16415 16418 16421 16424 16426 16429 16432 16435 16438 16441 16444 16446 16449 16452 16455 16458 16461 16464 16467 16470 16473 16476 16479 16482 16485 16488 16491 16494 16497 16500 16503 16506 16509 16511 16513 16516 16519 16522 16524 16527 16529 16532 16535 16538 16540 16543 16545 16547 16550 16552 16555 16558 16561 16563 16566 16569 16572 16575 16578 16581 16584 16587 16589 16592 16595 16598 16601 16604 16607 16610 16612 16614 16617 16620 16622 16624 16627 16630 16633 16636 16639 16642 16645 16648 16651 16654 16657 16660 16663 16666 16669 16672 16675 16678 16681 16684 16687 16690 16693 16696 16699 16702 16705 16708 16711 16714 16717 16720 16723 16726 16729 16732 16735 16738 16741 16744 16747 16750 16753 16756 16759 16762 16765 16768 16771 16774 16777 16780 16783 16786 16789 16792 16795 16798 16801 16804 16807 16809 16811 16814 16817 16820 16822 16825 16828 16831 16834 16837 16840 16843 16846 16849 16852 16855 16858 16861 16864 16867 16870 16873 16876 16879 16882 16885 16888 16891 16894 16897 16900 16903 16906 16909 16912 16915 16917 16920 16923 16926 16929 16932 16935 16938 16941 16943 16946 16949 16952 16955 16957 16960 16963 16966 16968 16971 16974 16977 16979 16982 16985 16988 16991 16994 16997 17000 17003 17006 17009 17012 17014 17017 17020 17022 17025 17028 17031 17033 17035 17037 17040 17043 17045 17048 17051 17053 17056 17059 17061 17064 17067 17070 17073 17076 17079 17082 17084 17087 17090 17093 17096 17098 17101 17103 17106 17109 17112 17114 17117 17120 17123 17125 17128 17130 17133 17136 17139 17142 17145 17148 17151 17154 17157 17160 17163 17165 17168 17171 17174 17177 17180 17183 17186 17189 17192 17195 17198 17201 17204 17207 17210 17213 17216 17219 17222 17225 17228 17231 17234 17237 17240 17243 17246 17249 17252 17255 17258 17261 17264 17267 17270 17273 17276 17279 17282 17285 17288 17291 17294 17297 17300 17303 17306 17309 17312 17315 17317 17320 17323 17326 17329 17332 17335 17338 17341 17344 17347 17350 17353 17356 17359 17362 17365 17367 17370 17373 17376 17379 17382 17385 17388 17391 17394 17397 17400 17402 17405 17408 17411 17414 17417 17419 17422 17425 17428 17431 17434 17437 17439 17442 17445 17448 17451 17453 17456 17459 17462 17465 17468 17471 17474 17477 17480 17483 17486 17489 17492 17495 17498 17501 17504 17507 17510 17513 17516 17519 17522 17525 17528 17531 17534 17537 17540 17543 17546 17549 17552 17555 17558 17561 17564 17567 17570 17573 17576 17579 17582 17585 17588 17591 17594 17597 17600 17603 17606 17609 17612 17614 17617 17620 17623 17626 17629 17632 17635 17638 17641 17644 17647 17650 17653 17656 17658 17661 17664 17667 17669 17672 17675 17678 17681 17683 17685 17688 17691 17694 17696 17698 17700 17703 17706 17709 17711 17714 17717 17720 17723 17726 17729 17732 17734 17737 17740 17742 17745 17748 17750 17753 17756 17759 17762 17765 17768 17771 17774 17777 17780 17783 17786 17789 17792 17795 17798 17801 17804 17807 17810 17813 17816 17819 17822 17824 17827 17830 17832 17835 17838 17841 17843 17846 17848 17851 17854 17857 17860 17863 17866 17869 17872 17875 17878 17881 17884 17887 17890 17893 17895 17898 17901 17904 17907 17909 17912 17914 17917 17920 17923 17926 17929 17932 17935 17938 17941 17944 17947 17950 17953 17955 17958 17961 17963 17966 17969 17972 17975 17977 17980 17983 17986 17989 17992 17995 17998 18001 18003 18006 18009 18012 18015 18018 18020 18023 18026 18029 18032 18035 18038 18041 18044 18047 18050 18053 18056 18059 18062 18065 18068 18071 18074 18077 18080 18083 18085 18088 18091 18094 18097 18100 18103 18105 18108 18111 18114 18117 18120 18123 18126 18129 18132 18135 18138 18141 18144 18147 18150 18152 18155 18158 18161 18163 18166 18169 18172 18175 18178 18181 18184 18186 18189 18191 18194 18197 18200 18203 18206 18209 18212 18215 18218 18221 18223 18226 18229 18232 18235 18238 18241 18244 18247 18250 18253 18256 18259 18262 18265 18268 18271 18274 18277 18280 18283 18286 18288 18290 18293 18296 18299 18302 18305 18308 18311 18314 18317 18320 18323 18326 18329 18332 18335 18338 18341 18344 18347 18350 18353 18356 18359 18362 18365 18368 18371 18374 18377 18379 18382 18385 18388 18391 18394 18397 18400 18403 18406 18409 18412 18415 18418 18421 18424 18427 18430 18433 18436 18439 18442 18445 18448 18451 18453 18456 18459 18462 18465 18468 18470 18473 18476 18479 18481 18484 18487 18490 18493 18496 18499 18502 18505 18508 18511 18514 18516 18518 18521 18524 18527 18530 18533 18536 18538 18541 18544 18547 18550 18553 18555 18558 18561 18564 18567 18570 18573 18576 18579 18582 18585 18588 18591 18593 18596 18599 18602 18605 18607 18610 18612 18615 18618 18621 18624 18627 18629 18632 18635 18638 18641 18644 18647 18649 18652 18655 18658 18661 18663 18666 18668 18671 18674 18677 18680 18683 18685 18688 18690 18692 18695 18698 18700 18703 18706 18709 18712 18715 18718 18721 18724 18727 18730 18733 18736 18739 18742 18744 18747 18749 18752 18755 18758 18760 18763 18766 18769 18771 18774 18777 18780 18783 18786 18789 18792 18795 18797 18800 18802 18805 18808 18811 18814 18816 18819 18822 18825 18828 18831 18834 18837 18840 18842 18845 18848 18851 18854 18856 18859 18862 18865 18868 18871 18873 18876 18879 18882 18885 18888 18891 18893 18896 18899 18902 18905 18908 18910 18913 18916 18918 18921 18924 18927 18930 18933 18936 18939 18942 18945 18948 18951 18954 18957 18960 18963 18966 18968 18971 18974 18977 18980 18983 18985 18987 18990 18992 18995 18997 19000 19003 19006 19009 19012 19015 19018 19021 19023 19026 19029 19032 19034 19037 19040 19043 19046 19049 19052 19054 19057 19060 19063 19066 19068 19071 19074 19077 19080 19083 19086 19088 19091 19094 19097 19100 19103 19106 19109 19112 19115 19117 19120 19123 19126 19129 19131 19134 19137 19139 19142 19145 19148 19151 19154 19156 19159 19162 19165 19168 19171 19174 19177 19180 19183 19186 19189 19192 19195 19198 19201 19204 19207 19210 19213 19216 19219 19222 19225 19228 19231 19234 19237 19240 19243 19246 19249 19252 19255 19258 19261 19264 19267 19270 19273 19276 19279 19282 19285 19288 19291 19294 19297 19299 19302 19304 19307 19310 19313 19316 19319 19322 19325 19328 19331 19333 19336 19339 19342 19345 19348 19351 19354 19356 19359 19362 19365 19368 19370 19373 19376 19379 19382 19384 19387 19390 19393 19395 19398 19401 19404 19407 19410 19413 19416 19419 19422 19425 19428 19431 19434 19437 19439 19442 19445 19448 19451 19454 19457 19460 19463 19466 19469 19472 19475 19477 19480 19483 19486 19489 19492 19495 19498 19501 19503 19506 19509 19512 19515 19518 19520 19523 19525 19528 19531 19534 19536 19539 19542 19544 19547 19550 19553 19556 19559 19562 19564 19567 19569 19572 19574 19577 19579 19582 19585 19588 19591 19593 19596 19599 19602 19605 19608 19611 19614 19617 19620 19623 19626 19629 19632 19635 19637 19640 19643 19646 19649 19652 19655 19658 19661 19664 19667 19670 19673 19675 19678 19681 19684 19686 19689 19692 19695 19698 19701 19704 19707 19710 19713 19716 19719 19722 19725 19728 19731 19734 19736 19739 19742 19745 19748 19751 19754 19756 19759 19762 19764 19767 19769 19771 19773 19776 19779 19782 19785 19788 19791 19794 19797 19800 19803 19806 19809 19812 19815 19818 19821 19824 19827 19830 19832 19835 19838 19841 19844 19847 19850 19852 19854 19856 19859 19862 19865 19868 19871 19874 19877 19880 19883 19886 19888 19891 19894 19897 19900 19903 19906 19908 19911 19914 19917 19920 19922 19925 19928 19931 19933 19936 19939 19942 19945 19947 19950 19953 19955 19958 19960 19963 19966 19969 19972 19975 19978 19981 19984 19987 19990 19993 19996 19999 20002 20004 20006 20009 20012 20015 20018 20021 20024 20027 20030 20033 20036 20039 20042 20045 20048 20051 20054 20057 20060 20063 20066 20069 20072 20075 20078 20081 20084 20086 20089 20091 20094 20097 20100 20103 20106 20109 20112 20115 20118 20121 20124 20127 20129 20132 20135 20138 20141 20144 20147 20149 20152 20155 20158 20161 20164 20167 20169 20172 20175 20178 20181 20183 20186 20189 20192 20195 20198 20201 20204 20206 20209 20211 20214 20217 20220 20223 20226 20228 20231 20233 20236 20239 20242 20245 20247 20250 20253 20255 20258 20260 20262 20265 20267 20269 20272 20274 20277 20279 20282 20285 20288 20290 20293 20296 20299 20301 20303 20306 20309 20312 20314 20317 20319 20322 20325 20327 20330 20332 20335 20338 20341 20344 20346 20349 20352 20355 20358 20360 20362 20365 20368 20371 20373 20375 20378 20381 20384 20387 20389 20392 20395 20398 20401 20404 20406 20409 20412 20415 20418 20421 20424 20427 20429 20432 20435 20438 20440 20442 20444 20446 20449 20452 20455 20458 20460 20463 20466 20469 20472 20475 20478 20481 20484 20487 20490 20493 20496 20499 20502 20505 20508 20511 20514 20517 20520 20523 20526 20529 20532 20534 20537 20540 20542 20545 20548 20551 20554 20557 20560 20563 20565 20568 20570 20573 20576 20579 20581 20584 20587 20590 20593 20596 20599 20602 20605 20608 20611 20614 20617 20619 20622 20625 20627 20630 20632 20635 20638 20641 20644 20647 20649 20651 20654 20657 20660 20662 20665 20668 20671 20673 20675 20678 20680 20683 20686 20689 20692 20695 20697 20700 20703 20706 20709 20711 20714 20717 20720 20723 20725 20728 20731 20734 20737 20740 20743 20746 20749 20752 20755 20758 20761 20764 20767 20770 20773 20776 20779 20782 20785 20788 20790 20793 20796 20799 20802 20804 20807 20810 20812 20815 20818 20821 20824 20827 20830 20833 20835 20838 20841 20844 20847 20850 20852 20855 20858 20861 20864 20866 20868 20871 20874 20877 20880 20883 20886 20888 20891 20894 20896 20899 20902 20905 20907 20910 20913 20916 20919 20922 20925 20927 20930 20933 20936 20939 20942 20944 20947 20950 20953 20956 20959 20961 20964 20966 20969 20972 20975 20978 20981 20983 20986 20989 20992 20995 20998 21001 21004 21007 21009 21012 21015 21018 21021 21024 21027 21030 21033 21036 21039 21042 21045 21048 21051 21054 21057 21060 21063 21066 21069 21071 21074 21077 21080 21082 21084 21087 21089 21092 21095 21098 21101 21104 21107 21110 21113 21116 21119 21122 21125 21127 21130 21133 21136 21139 21141 21144 21147 21150 21153 21155 21158 21161 21164 21167 21170 21173 21176 21179 21182 21185 21188 21191 21194 21197 21200 21203 21206 21209 21212 21215 21218 21220 21223 21225 21228 21231 21234 21237 21240 21243 21246 21248 21251 21254 21257 21260 21263 21266 21269 21272 21275 21278 21281 21284 21287 21290 21293 21296 21299 21302 21304 21307 21310 21313 21316 21319 21322 21325 21328 21330 21333 21336 21339 21342 21344 21347 21350 21353 21356 21359 21362 21365 21368 21371 21374 21377 21380 21383 21386 21389 21392 21395 21397 21400 21403 21405 21408 21410 21413 21416 21419 21422 21425 21428 21431 21434 21436 21439 21442 21444 21447 21449 21452 21455 21458 21461 21464 21467 21470 21473 21476 21479 21482 21485 21488 21491 21493 21496 21499 21502 21505 21508 21511 21514 21517 21520 21523 21526 21529 21531 21534 21537 21540 21543 21546 21549 21551 21553 21556 21559 21562 21565 21568 21570 21573 21575 21578 21580 21583 21585 21587 21590 21593 21596 21599 21602 21604 21607 21610 21613 21616 21618 21621 21624 21626 21629 21632 21635 21638 21641 21644 21647 21650 21653 21656 21659 21662 21664 21667 21669 21672 21675 21678 21681 21684 21687 21690 21692 21695 21697 21700 21703 21706 21708 21711 21714 21717 21720 21723 21726 21729 21732 21735 21738 21741 21744 21746 21749 21752 21755 21758 21760 21763 21766 21769 21772 21775 21777 21780 21782 21785 21788 21791 21793 21796 21799 21802 21804 21807 21809 21812 21815 21818 21821 21823 21826 21829 21831 21833 21836 21839 21842 21845 21848 21851 21853 21856 21859 21862 21865 21867 21870 21873 21875 21878 21881 21884 21886 21889 21892 21895 21897 21900 21902 21905 21908 21910 21912 21915 21918 21921 21924 21927 21929 21932 21935 21938 21941 21943 21946 21949 21952 21954 21957 21960 21963 21966 21968 21971 21974 21976 21979 21982 21985 21988 21991 21993 21996 21999 22002 22005 22008 22011 22014 22017 22020 22023 22026 22029 22032 22035 22038 22040 22043 22045 22048 22051 22054 22056 22059 22062 22064 22067 22069 22072 22075 22078 22081 22084 22087 22090 22093 22096 22098 22101 22104 22107 22110 22113 22116 22119 22122 22125 22128 22131 22134 22137 22140 22143 22146 22149 22152 22155 22158 22161 22164 22166 22169 22172 22175 22178 22181 22184 22187 22189 22192 22194 22197 22200 22202 22205 22207 22210 22212 22214 22217 22220 22223 22225 22228 22231 22234 22237 22240 22243 22246 22249 22252 22255 22257 22260 22263 22266 22269 22272 22275 22277 22280 22283 22286 22289 22292 22295 22298 22301 22304 22307 22309 22312 22315 22317 22320 22322 22324 22327 22330 22333 22336 22339 22342 22344 22347 22349 22352 22355 22358 22361 22363 22366 22369 22372 22375 22377 22379 22382 22385 22388 22391 22394 22397 22399 22402 22405 22408 22410 22413 22416 22419 22422 22425 22428 22431 22434 22437 22440 22443 22446 22449 22452 22455 22458 22460 22462 22465 22467 22470 22473 22476 22479 22482 22485 22487 22489 22492 22495 22498 22501 22504 22506 22509 22512 22515 22518 22521 22524 22527 22530 22533 22535 22538 22541 22544 22547 22550 22553 22556 22559 22562 22565 22568 22571 22574 22577 22580 22583 22586 22588 22591 22594 22597 22600 22603 22606 22609 22612 22615 22618 22621 22623 22625 22628 22631 22634 22637 22640 22642 22645 22648 22651 22653 22656 22658 22661 22664 22667 22670 22673 22676 22679 22682 22684 22687 22690 22693 22696 22698 22700 22703 22706 22709 22712 22715 22717 22720 22723 22726 22728 22731 22734 22737 22740 22742 22745 22747 22750 22753 22756 22758 22760 22763 22765 22767 22770 22772 22775 22778 22781 22783 22786 22788 22791 22794 22797 22800 22803 22806 22809 22812 22814 22817 22820 22823 22826 22829 22832 22835 22838 22841 22844 22847 22849 22852 22855 22858 22861 22864 22867 22869 22872 22875 22878 22881 22884 22887 22889 22892 22895 22898 22901 22904 22907 22909 22912 22914 22917 22920 22922 22925 22928 22931 22934 22937 22940 22943 22946 22949 22951 22954 22957 22959 22962 22965 22967 22970 22972 22975 22978 22981 22984 22987 22989 22992 22995 22997 23000 23003 23006 23009 23012 23015 23018 23020 23023 23026 23029 23031 23034 23037 23040 23043 23046 23049 23052 23055 23058 23061 23064 23067 23070 23073 23076 23079 23082 23085 23088 23090 23093 23096 23098 23101 23104 23107 23109 23112 23115 23118 23121 23124 23127 23130 23132 23135 23138 23141 23144 23147 23150 23153 23156 23159 23162 23165 23168 23170 23173 23176 23179 23182 23185 23188 23191 23194 23197 23200 23202 23205 23208 23211 23214 23216 23219 23222 23225 23228 23230 23233 23236 23239 23241 23243 23246 23249 23251 23254 23257 23260 23263 23266 23269 23272 23275 23277 23280 23283 23285 23288 23291 23294 23297 23300 23303 23306 23308 23311 23314 23317 23319 23322 23325 23328 23331 23334 23337 23340 23343 23346 23349 23352 23355 23358 23361 23364 23367 23370 23373 23376 23378 23381 23384 23387 23390 23393 23396 23399 23402 23405 23408 23411 23414 23417 23420 23423 23426 23429 23432 23434 23437 23440 23443 23446 23449 23452 23455 23458 23460 23463 23465 23468 23471 23474 23477 23480 23483 23486 23489 23492 23494 23497 23500 23503 23506 23509 23512 23515 23518 23520 23523 23526 23529 23532 23535 23538 23541 23544 23547 23550 23552 23555 23558 23560 23563 23566 23568 23571 23574 23577 23580 23583 23585 23588 23591 23594 23597 23600 23603 23605 23607 23610 23613 23615 23617 23620 23622 23625 23627 23630 23633 23635 23638 23640 23643 23646 23649 23652 23654 23657 23660 23663 23665 23668 23671 23673 23676 23679 23682 23685 23687 23690 23693 23696 23699 23702 23705 23708 23711 23714 23716 23719 23722 23725 23728 23731 23734 23737 23740 23743 23746 23749 23751 23754 23757 23760 23763 23765 23768 23771 23774 23776 23779 23782 23785 23788 23791 23794 23797 23799 23802 23805 23807 23810 23813 23816 23819 23821 23824 23826 23829 23832 23835 23838 23841 23844 23847 23850 23853 23856 23859 23862 23865 23868 23871 23874 23877 23880 23883 23886 23889 23892 23895 23898 23901 23904 23907 23910 23913 23916 23919 23922 23925 23928 23931 23934 23936 23938 23941 23944 23946 23949 23952 23955 23958 23961 23964 23967 23970 23973 23976 23979 23982 23985 23987 23990 23993 23996 23999 24002 24005 24008 24010 24013 24016 24019 24022 24024 24026 24029 24032 24035 24038 24041 24043 24045 24048 24051 24053 24056 24059 24062 24065 24068 24071 24074 24076 24079 24082 24084 24087 24090 24093 24095 24098 24101 24104 24106 24109 24111 24114 24116 24118 24121 24124 24126 24129 24132 24135 24138 24141 24144 24147 24149 24152 24155 24158 24161 24164 24166 24168 24170 24173 24176 24178 24181 24184 24187 24190 24192 24195 24198 24201 24204 24207 24210 24213 24215 24218 24221 24224 24227 24230 24233 24236 24239 24242 24245 24248 24251 24254 24257 24260 24262 24265 24268 24270 24273 24276 24279 24282 24285 24287 24290 24293 24296 24299 24302 24305 24308 24311 24314 24317 24320 24323 24325 24328 24331 24334 24337 24340 24342 24345 24348 24351 24354 24357 24360 24362 24365 24368 24371 24373 24375 24377 24379 24382 24385 24388 24391 24394 24397 24400 24402 24404 24406 24409 24411 24414 24416 24419 24422 24425 24428 24431 24434 24437 24440 24443 24446 24449 24452 24455 24458 24461 24464 24467 24469 24472 24475 24478 24481 24484 24487 24490 24493 24495 24498 24501 24504 24507 24509 24512 24515 24518 24521 24524 24526 24529 24532 24534 24537 24539 24542 24545 24548 24551 24553 24556 24559 24562 24565 24568 24571 24574 24577 24580 24582 24585 24588 24591 24594 24597 24600 24603 24606 24609 24612 24615 24618 24621 24624 24627 24629 24632 24635 24638 24641 24643 24646 24649 24652 24654 24657 24659 24662 24664 24667 24670 24673 24676 24679 24682 24685 24688 24691 24693 24696 24699 24702 24705 24708 24711 24714 24717 24719 24721 24723 24726 24729 24731 24734 24737 24740 24742 24745 24748 24751 24753 24756 24759 24762 24764 24767 24770 24773 24776 24779 24782 24785 24787 24790 24793 24795 24798 24801 24804 24806 24809 24811 24814 24817 24820 24823 24825 24828 24831 24834 24837 24840 24842 24845 24848 24851 24854 24856 24859 24862 24865 24867 24869 24872 24875 24878 24881 24884 24887 24890 24893 24896 24899 24902 24905 24908 24911 24914 24917 24920 24923 24925 24928 24931 24934 24936 24939 24941 24944 24947 24949 24952 24955 24958 24960 24963 24966 24969 24972 24975 24978 24981 24984 24986 24989 24992 24995 24998 25001 25004 25006 25009 25012 25014 25016 25019 25021 25024 25027 25030 25033 25036 25039 25042 25045 25048 25051 25054 25057 25060 25063 25066 25069 25071 25074 25077 25080 25083 25086 25089 25092 25094 25097 25100 25103 25105 25108 25111 25114 25116 25119 25122 25124 25127 25130 25133 25136 25139 25142 25145 25148 25151 25154 25157 25160 25163 25166 25169 25172 25175 25178 25181 25184 25187 25189 25192 25195 25198 25201 25204 25207 25210 25213 25216 25219 25222 25225 25228 25231 25234 25237 25240 25243 25246 25249 25252 25255 25258 25261 25264 25267 25270 25273 25276 25279 25282 25285 25287 25289 25292 25295 25298 25301 25304 25307 25310 25313 25316 25319 25322 25325 25328 25331 25333 25336 25339 25342 25345 25348 25351 25354 25357 25359 25362 25365 25368 25371 25374 25377 25380 25383 25385 25388 25391 25394 25396 25399 25402 25405 25408 25411 25414 25417 25420 25423 25426 25429 25432 25435 25438 25441 25444 25447 25450 25453 25456 25459 25462 25465 25467 25470 25473 25476 25478 25481 25484 25487 25490 25493 25496 25499 25502 25505 25508 25511 25514 25517 25520 25523 25526 25529 25532 25535 25538 25541 25544 25547 25550 25552 25555 25558 25561 25564 25567 25570 25573 25576 25579 25582 25584 25587 25590 25593 25595 25598 25601 25604 25607 25609 25612 25615 25618 25621 25624 25627 25630 25633 25635 25638 25641 25644 25646 25649 25652 25655 25658 25660 25663 25666 25668 25671 25673 25676 25678 25681 25684 25687 25690 25693 25696 25698 25701 25704 25707 25710 25712 25715 25718 25721 25723 25726 25729 25732 25735 25738 25740 25743 25746 25749 25752 25755 25758 25761 25764 25767 25770 25773 25776 25779 25782 25785 25787 25790 25793 25796 25798 25801 25804 25806 25809 25812 25814 25817 25820 25823 25826 25829 25832 25835 25838 25841 25843 25846 25849 25852 25855 25858 25861 25864 25867 25870 25872 25875 25878 25881 25884 25887 25890 25893 25895 25898 25901 25904 25906 25909 25912 25915 25918 25921 25924 25927 25930 25933 25936 25939 25942 25945 25948 25951 25954 25957 25960 25963 25966 25968 25971 25974 25977 25980 25983 25986 25989 25992 25995 25998 26000 26003 26006 26009 26012 26015 26018 26021 26024 26026 26029 26032 26035 26038 26041 26043 26046 26049 26052 26055 26058 26061 26064 26067 26070 26073 26075 26078 26081 26083 26086 26089 26091 26094 26097 26100 26103 26106 26108 26111 26114 26117 26120 26122 26125 26128 26130 26133 26136 26139 26142 26145 26148 26150 26153 26156 26159 26162 26165 26168 26170 26173 26176 26179 26181 26184 26186 26189 26192 26195 26198 26201 26204 26207 26210 26213 26216 26219 26222 26224 26227 26230 26232 26235 26238 26241 26244 26247 26250 26253 26256 26258 26261 26264 26267 26270 26273 26276 26279 26282 26285 26288 26291 26294 26296 26299 26301 26304 26307 26310 26313 26316 26319 26322 26325 26328 26330 26333 26336 26339 26342 26345 26348 26351 26354 26357 26360 26363 26366 26369 26372 26374 26377 26380 26383 26386 26389 26392 26395 26398 26400 26403 26405 26408 26411 26414 26417 26419 26422 26425 26428 26430 26433 26436 26439 26442 26445 26448 26450 26453 26456 26458 26461 26464 26467 26470 26472 26475 26477 26480 26483 26486 26489 26492 26495 26498 26501 26504 26507 26510 26513 26516 26519 26522 26525 26528 26531 26534 26537 26540 26543 26546 26549 26552 26555 26558 26561 26564 26567 26570 26573 26576 26579 26582 26585 26588 26591 26593 26596 26599 26602 26605 26608 26610 26613 26616 26619 26622 26625 26627 26630 26633 26635 26638 26641 26644 26647 26650 26653 26656 26659 26662 26665 26667 26670 26673 26675 26678 26681 26684 26687 26690 26693 26696 26699 26702 26705 26708 26711 26714 26717 26719 26722 26725 26728 26731 26734 26737 26740 26743 26746 26749 26752 26754 26757 26759 26761 26764 26767 26770 26773 26776 26779 26782 26784 26787 26790 26793 26795 26797 26800 26802 26805 26808 26811 26814 26816 26819 26822 26825 26828 26831 26834 26837 26840 26842 26845 26848 26851 26854 26857 26860 26863 26866 26869 26872 26874 26877 26880 26883 26886 26889 26892 26895 26898 26901 26904 26907 26910 26912 26915 26918 26921 26924 26927 26930 26932 26934 26937 26940 26943 26946 26949 26952 26955 26958 26961 26964 26967 26970 26973 26976 26979 26981 26983 26986 26989 26992 26995 26998 27001 27004 27007 27010 27012 27015 27018 27021 27024 27027 27030 27032 27035 27037 27040 27042 27045 27048 27051 27054 27056 27059 27062 27064 27067 27070 27073 27076 27079 27082 27085 27088 27091 27094 27097 27100 27102 27105 27108 27111 27113 27116 27119 27122 27125 27128 27131 27134 27137 27140 27143 27146 27148 27151 27154 27157 27159 27162 27165 27168 27170 27173 27176 27179 27182 27185 27188 27191 27193 27196 27199 27202 27205 27208 27211 27214 27217 27220 27223 27226 27229 27232 27235 27238 27241 27244 27247 27250 27253 27256 27259 27262 27265 27267 27270 27273 27276 27279 27282 27285 27287 27289 27292 27295 27298 27300 27303 27306 27309 27312 27315 27318 27321 27324 27327 27330 27333 27336 27339 27342 27345 27348 27351 27354 27357 27360 27363 27366 27369 27372 27374 27377 27380 27383 27385 27387 27390 27393 27395 27398 27400 27403 27406 27408 27411 27414 27417 27419 27421 27424 27427 27430 27432 27435 27438 27441 27444 27447 27450 27453 27456 27459 27462 27465 27468 27471 27474 27477 27480 27483 27486 27489 27492 27495 27498 27501 27504 27507 27509 27512 27515 27518 27521 27524 27527 27530 27533 27536 27539 27542 27545 27548 27551 27554 27557 27560 27563 27565 27568 27571 27573 27576 27578 27581 27584 27587 27590 27593 27596 27599 27602 27605 27608 27610 27613 27616 27619 27622 27625 27628 27631 27634 27637 27640 27643 27646 27649 27652 27655 27658 27661 27664 27667 27670 27673 27676 27679 27682 27685 27688 27691 27694 27697 27700 27703 27706 27709 27712 27715 27718 27721 27723 27726 27729 27732 27735 27738 27740 27743 27746 27749 27752 27755 27758 27761 27764 27767 27770 27773 27776 27779 27782 27785 27788 27791 27794 27796 27799 27802 27805 27808 27811 27814 27817 27820 27823 27826 27829 27832 27835 27838 27841 27844 27847 27850 27853 27856 27859 27861 27864 27867 27870 27872 27875 27878 27881 27884 27887 27890 27893 27896 27899 27902 27905 27908 27911 27913 27916 27919 27922 27925 27928 27931 27934 27937 27940 27943 27946 27949 27952 27955 27958 27961 27964 27967 27970 27973 27976 27979 27982 27985 27988 27991 27994 27996 27999 28002 28005 28008 28010 28013 28016 28018 28021 28024 28027 28029 28031 28034 28037 28040 28043 28045 28048 28051 28054 28057 28059 28061 28064 28067 28069 28072 28075 28078 28080 28083 28085 28088 28091 28094 28097 28099 28102 28105 28108 28111 28114 28116 28118 28121 28124 28126 28129 28131 28134 28137 28140 28143 28145 28148 28150 28153 28156 28159 28161 28164 28167 28170 28173 28175 28177 28179 28182 28185 28187 28190 28193 28196 28199 28202 28205 28208 28211 28214 28217 28220 28223 28226 28229 28232 28235 28237 28240 28243 28246 28249 28252 28255 28258 28261 28264 28267 28270 28273 28275 28278 28281 28284 28287 28290 28293 28296 28299 28302 28304 28307 28310 28313 28316 28319 28322 28325 28328 28331 28334 28337 28340 28343 28345 28348 28351 28354 28357 28360 28363 28366 28369 28372 28374 28377 28380 28382 28385 28388 28391 28394 28397 28400 28403 28406 28409 28411 28414 28417 28420 28423 28426 28429 28431 28433 28435 28438 28441 28443 28446 28449 28452 28455 28458 28461 28464 28466 28469 28472 28475 28478 28481 28484 28487 28490 28493 28496 28498 28501 28503 28506 28508 28511 28513 28516 28518 28521 28524 28527 28529 28531 28534 28536 28539 28541 28543 28546 28549 28552 28555 28557 28560 28563 28565 28567 28570 28573 28576 28579 28582 28585 28588 28590 28592 28595 28597 28600 28603 28606 28609 28612 28615 28618 28621 28624 28627 28630 28633 28636 28639 28642 28645 28648 28651 28654 28657 28659 28662 28665 28668 28671 28674 28677 28680 28683 28686 28688 28691 28694 28697 28700 28703 28706 28709 28712 28714 28716 28719 28722 28725 28728 28731 28734 28737 28740 28743 28746 28749 28752 28754 28757 28760 28763 28766 28769 28772 28775 28778 28781 28784 28787 28790 28793 28795 28798 28801 28804 28806 28809 28812 28815 28818 28821 28824 28827 28829 28832 28835 28838 28841 28844 28847 28850 28853 28856 28858 28861 28863 28866 28869 28871 28874 28877 28880 28883 28886 28889 28892 28895 28898 28901 28904 28907 28910 28913 28916 28919 28922 28925 28928 28931 28934 28937 28940 28942 28945 28948 28951 28954 28957 28960 28962 28965 28968 28971 28974 28976 28979 28982 28984 28987 28990 28993 28996 28999 29002 29005 29008 29011 29014 29017 29019 29022 29025 29028 29031 29034 29037 29040 29043 29045 29047 29050 29053 29056 29059 29062 29065 29068 29070 29073 29076 29078 29081 29084 29087 29090 29092 29095 29098 29101 29104 29107 29110 29112 29115 29118 29121 29124 29127 29130 29132 29135 29138 29141 29144 29147 29150 29152 29155 29158 29161 29163 29166 29169 29171 29174 29177 29180 29183 29186 29189 29192 29195 29198 29200 29203 29206 29209 29212 29215 29218 29221 29223 29226 29228 29230 29233 29236 29238 29241 29244 29247 29250 29253 29256 29259 29262 29265 29268 29271 29274 29276 29279 29281 29284 29287 29290 29292 29295 29298 29301 29304 29306 29309 29311 29314 29316 29319 29322 29325 29328 29330 29333 29336 29338 29341 29344 29347 29349 29351 29354 29357 29360 29363 29366 29368 29371 29374 29376 29379 29382 29385 29388 29391 29394 29397 29400 29403 29406 29409 29412 29415 29418 29421 29424 29427 29430 29432 29435 29438 29441 29444 29447 29450 29452 29455 29458 29461 29464 29467 29470 29473 29476 29478 29481 29484 29487 29490 29493 29495 29498 29501 29504 29507 29509 29512 29515 29518 29521 29524 29527 29530 29533 29536 29539 29541 29544 29547 29550 29553 29556 29559 29562 29565 29568 29570 29573 29576 29579 29582 29584 29586 29589 29592 29595 29598 29601 29604 29607 29610 29613 29616 29619 29622 29625 29628 29631 29633 29636 29639 29642 29645 29647 29650 29653 29656 29659 29662 29665 29668 29670 29673 29676 29679 29682 29685 29688 29691 29694 29697 29700 29703 29706 29709 29712 29715 29717 29720 29723 29726 29729 29731 29734 29737 29740 29742 29745 29748 29751 29754 29757 29759 29762 29764 29766 29768 29771 29774 29777 29780 29782 29784 29787 29790 29793 29795 29798 29801 29804 29807 29810 29813 29816 29819 29822 29825 29828 29831 29834 29837 29840 29843 29846 29849 29851 29854 29857 29860 29863 29866 29869 29872 29875 29878 29881 29884 29887 29890 29893 29896 29898 29900 29903 29906 29909 29912 29915 29918 29921 29924 29926 29929 29932 29934 29936 29939 29942 29945 29948 29951 29954 29957 29959 29962 29965 29968 29971 29974 29977 29980 29983 29986 29989 29991 29994 29997 29999 30002 30004 30006 30009 30011 30013 30016 30019 30022 30025 30028 30031 30034 30037 30040 30042 30045 30048 30051 30053 30056 30059 30062 30064 30067 30069 30072 30075 30078 30081 30083 30086 30089 30092 30095 30098 30101 30104 30107 30109 30112 30115 30118 30121 30123 30126 30129 30131 30133 30136 30139 30142 30145 30148 30151 30154 30157 30160 30163 30166 30169 30172 30175 30178 30181 30184 30187 30190 30193 30196 30199 30202 30205 30208 30210 30212 30214 30217 30220 30222 30225 30228 30231 30234 30237 30239 30242 30245 30248 30251 30254 30257 30260 30263 30266 30268 30271 30273 30276 30279 30282 30285 30288 30291 30294 30296 30299 30301 30304 30306 30309 30312 30315 30318 30321 30324 30327 30330 30333 30335 30338 30341 30344 30347 30350 30353 30355 30358 30361 30364 30367 30370 30373 30376 30379 30382 30385 30388 30391 30394 30397 30400 30403 30405 30408 30411 30413 30416 30419 30422 30425 30428 30431 30434 30437 30440 30442 30445 30448 30451 30453 30455 30457 30460 30463 30466 30468 30471 30474 30476 30479 30481 30484 30487 30490 30493 30496 30499 30502 30505 30508 30511 30514 30517 30520 30523 30526 30529 30532 30535 30537 30540 30543 30546 30548 30551 30554 30556 30558 30561 30563 30566 30569 30572 30574 30577 30580 30583 30586 30589 30592 30595 30598 30601 30604 30606 30609 30612 30615 30618 30620 30623 30626 30629 30632 30635 30638 30641 30644 30647 30650 30653 30656 30659 30662 30665 30668 30671 30674 30677 30680 30683 30686 30689 30692 30695 30698 30701 30704 30706 30709 30712 30715 30718 30721 30724 30727 30730 30733 30736 30738 30741 30743 30746 30749 30752 30755 30758 30761 30763 30766 30769 30772 30775 30778 30781 30784 30787 30790 30793 30796 30799 30802 30805 30808 30811 30813 30816 30819 30822 30825 30828 30831 30834 30836 30839 30842 30845 30848 30851 30854 30857 30860 30863 30865 30868 30871 30874 30877 30880 30883 30886 30889 30892 30895 30898 30901 30904 30907 30910 30912 30915 30918 30921 30924 30927 30930 30933 30936 30939 30942 30945 30947 30950 30953 30956 30959 30962 30965 30968 30970 30972 30975 30978 30981 30984 30987 30990 30993 30996 30998 31000 31003 31006 31009 31012 31015 31018 31021 31024 31027 31030 31033 31036 31039 31042 31045 31048 31050 31053 31056 31059 31062 31065 31068 31071 31074 31077 31079 31082 31085 31088 31091 31094 31097 31100 31103 31106 31109 31112 31115 31118 31121 31124 31127 31130 31133 31136 31139 31142 31145 31148 31151 31154 31157 31160 31163 31166 31169 31172 31175 31178 31181 31184 31187 31190 31193 31196 31199 31202 31205 31208 31211 31214 31217 31220 31223 31226 31229 31232 31235 31238 31241 31244 31247 31250 31253 31256 31259 31262 31265 31268 31271 31274 31277 31280 31283 31286 31289 31292 31295 31298 31301 31304 31307 31310 31313 31316 31319 31322 31325 31328 31331 31334 31337 31340 31343 31346 31349 31352 31355 31358 31361 31364 31367 31369 31372 31375 31378 31381 31384 31387 31390 31393 31396 31398 31401 31404 31407 31409 31412 31415 31418 31421 31424 31427 31430 31433 31436 31438 31441 31444 31447 31450 31453 31456 31459 31462 31465 31467 31470 31473 31475 31478 31480 31482 31485 31487 31490 31493 31495 31498 31501 31504 31507 31510 31513 31516 31519 31522 31525 31528 31531 31534 31536 31538 31541 31543 31546 31549 31552 31554 31557 31560 31563 31566 31568 31571 31574 31577 31580 31583 31586 31589 31592 31595 31598 31601 31604 31607 31610 31613 31616 31618 31620 31623 31626 31629 31632 31635 31638 31641 31643 31646 31649 31652 31655 31658 31661 31664 31667 31670 31672 31675 31678 31681 31684 31687 31690 31693 31696 31699 31701 31704 31707 31710 31713 31716 31719 31722 31725 31728 31731 31733 31736 31739 31741 31743 31746 31748 31751 31754 31757 31760 31763 31766 31769 31772 31774 31777 31780 31783 31786 31789 31792 31795 31798 31801 31804 31807 31810 31813 
</DataArray>
<DataArray type="UInt32" Name="types" format="ascii">
5 5 3 5 5 5 5 5 5 5 5 5 5 5 5 5 5 5 5 5 5 5 5 5 5 5 5 5 5 5 5 5 5 5 5 5 5 5 5 5 3 5 5 3 5 3 3 5 5 5 5 3 5 3 3 5 5 5 3 5 5 5 3 5 5 5 5 5 5 5 5 5 5 3 5 5 5 5 5 5 5 3 3 5 5 3 5 5 3 3 5 5 3 5 5 5 5 5 5 5 5 5 5 5 5 5 3 5 5 5 5 5 5 5 3 5 5 5 3 5 5 5 5 3 5 5 5 5 5 5 5 5 3 5 5 3 5 5 5 5 5 5 5 5 5 5 5 3 5 5 3 5 5 5 5 5 5 5 5 5 5 5 5 5 5 5 3 5 5 5 5 5 5 5 5 3 5 5 5 3 5 5 5 5 5 5 5 5 5 3 5 5 5 5 5 5 3 5 5 5 5 5 5 5 3 3 5 5 5 5 5 3 3 3 3 5 5 5 3 5 5 5 3 5 5 5 5 3 5 5 5 3 5 3 5 5 5 5 5 5 5 3 5 5 5 5 5 5 3 5 5 5 5 3 5 5 3 5 5 3 5 5 5 5 5 3 5 5 5 5 5 3 5 5 5 3 5 5 5 5 3 5 5 5 5 5 5 5 5 5 5 5 5 5 5 3 5 5 3 5 3 3 5 3 5 5 5 5 5 5 3 5 5 5 5 5 5 3 5 3 5 5 5 3 5 5 3 3 5 5 5 3 5 3 5 3 5 5 5 5 3 5 5 5 3 3 5 3 5 5 5 3 5 5 3 5 5 5 5 5 5 5 5 5 5 5 5 5 5 5 5 5 3 5 5 5 5 5 5 5 3 5 5 5 5 5 5 5 5 5 5 5 5 5 5 5 5 5 5 5 5 5 5 5 5 5 5 5 5 5 5 5 5 5 5 5 5 5 5 5 5 5 5 3 3 5 3 5 5 5 5 5 5 5 5 5 5 5 5 3 5 5 5 5 5 5 5 3 5 5 5 5 3 5 5 5 5 5 5 5 5 5 3 5 5 5 5 5 5 5 3 5 5 5 5 5 5 3 5 5 5 5 5 5 3 5 3 5 5 5 5 5 5 3 5 5 5 5 3 5 5 3 5 5 5 5 5 5 5 3 5 5 5 5 3 5 3 3 5 5 5 3 3 3 5 5 3 5 3 5 3 3 5 5 5 3 5 5 3 5 5 5 5 5 5 5 5 5 5 5 5 5 3 5 3 5 5 3 5 3 5 3 5 5 5 5 3 5 5 5 5 5 5 5 5 5 5 5 5 5 3 5 5 5 3 5 3 5 5 5 5 5 5 5 5 5 5 5 3 5 5 5 5 5 5 5 5 5 5 5 5 5 5 5 5 5 5 5 5 5 5 5 5 5 5 5 5 5 5 5 5 5 5 5 5 5 5 5 5 5 3 5 5 5 5 5 5 3 3 5 5 5 5 5 3 5 5 5 5 5 5 5 5 5 5 5 3 5 5 3 5 5 5 5 5 5 5 5 5 5 5 5 5 5 5 5 5 5 5 5 5 5 5 5 5 5 5 5 5 5 5 5 5 5 5 5 5 5 5 5 5 5 5 3 5 3 5 5 3 3 5 5 5 5 5 5 5 5 5 5 5 5 5 5 5 5 3 5 5 5 5 3 5 5 5 5 5 5 5 5 5 5 5 5 3 5 3 3 3 5 5 5 5 3 3 3 5 5 5 5 3 5 5 3 5 5 5 5 5 5 5 5 5 5 5 5 5 5 5 5 5 5 5 5 3 5 5 5 5 5 5 3 5 5 5 5 3 5 5 5 5 5 5 5 5 5 5 5 5 5 5 5 5 5 5 5 5 3 5 5 5 5 5 5 5 5 3 5 5 5 3 5 5 3 3 5 5 5 5 5 3 5 5 5 3 3 3 5 5 5 5 5 3 5 5 5 5 5 5 5 5 5 5 5 5 5 5 3 5 5 5 5 5 5 5 5 5 5 5 5 5 5 5 5 5 5 3 5 5 5 5 5 5 5 5 5 5 5 5 5 5 5 3 5 5 5 5 5 3 5 5 5 3 5 5 5 5 3 5 3 5 5 5 5 3 5 5 5 5 5 5 5 5 5 5 5 5 5 5 5 5 5 5 3 5 5 5 5 3 3 5 5 5 3 5 5 5 3 5 5 5 5 5 5 5 5 3 5 3 5 5 5 5 3 5 5 5 5 5 5 5 3 5 5 5 5 5 5 5 5 5 5 5 5 5 5 5 3 5 5 3 5 5 5 3 5 5 5 5 5 5 3 3 5 5 3 5 5 5 5 5 3 3 5 5 5 5 5 5 5 5 3 5 5 5 5 5 5 3 5 5 5 5 5 3 5 5 5 5 5 5 3 5 3 5 5 3 5 5 5 5 5 5 5 5 5 5 5 3 3 5 5 3 5 5 3 5 5 3 5 3 5 5 5 5 5 3 5 5 5 5 5 5 5 5 5 5 5 5 5 5 5 5 5 3 5 5 3 5 5 3 5 5 5 5 5 3 5 5 5 5 5 3 5 5 5 3 5 5 3 5 5 5 5 3 5 5 5 5 5 5 5 3 3 5 5 5 5 3 5 5 5 5 5 5 5 5 5 5 5 5 5 5 5 5 5 5 3 5 5 5 5 5 5 5 3 5 5 5 5 3 5 5 5 5 5 5 5 5 5 3 5 5 3 5 5 5 5 5 3 3 3 3 5 3 3 5 5 5 3 5 5 5 3 5 3 5 5 3 5 5 5 3 5 5 5 5 3 5 3 5 3 5 5 3 5 3 5 5 5 5 5 5 5 5 5 5 5 5 5 5 3 5 5 5 3 5 5 5 5 5 5 5 5 5 5 5 5 5 3 5 5 5 5 5 5 5 5 5 5 5 3 5 5 5 3 5 5 5 5 5 5 5 5 5 5 5 5 5 5 5 5 5 5 5 5 5 5 5 5 5 5 5 5 3 5 5 5 5 5 3 5 5 5 3 5 5 5 5 5 5 5 5 5 5 5 5 5 5 5 5 5 5 5 5 5 5 3 5 5 5 5 3 3 5 5 5 5 5 5 5 5 5 3 5 5 5 5 5 5 5 5 5 3 5 5 5 5 5 3 5 5 3 5 3 5 5 3 3 5 3 5 5 5 3 5 5 3 5 5 5 3 5 3 5 5 5 5 5 5 5 5 5 5 3 5 5 5 5 5 5 5 5 5 5 5 5 5 5 5 5 5 5 5 5 5 5 3 5 5 5 5 5 3 5 5 5 5 5 3 5 5 5 5 5 5 5 5 5 5 5 5 5 5 5 5 5 5 5 5 5 5 5 3 5 5 3 5 5 5 5 5 5 5 5 5 5 5 5 5 3 5 5 5 5 5 5 5 3 3 3 5 3 5 5 5 5 5 5 3 5 3 3 5 5 5 5 5 5 5 5 5 5 5 5 5 5 5 5 5 5 5 5 3 3 5 5 5 3 3 5 5 5 5 5 5 5 5 5 5 5 5 5 5 5 3 5 3 5 5 5 3 5 5 3 5 5 5 5 5 5 3 5 3 5 5 5 5 5 5 5 5 5 5 3 5 5 5 5 5 5 5 5 5 3 3 5 5 5 5 5 5 5 3 3 5 5 5 3 5 3 5 5 5 5 5 3 5 3 5 5 3 5 5 5 5 5 5 5 3 5 5 3 5 5 5 5 5 5 5 5 3 5 5 5 5 5 5 3 5 5 5 5 5 3 5 5 5 5 5 3 5 5 5 5 3 5 5 5 5 3 3 3 5 5 3 5 3 5 5 5 5 5 5 5 5 5 3 5 5 5 3 5 5 5 3 3 5 5 5 3 5 5 5 5 5 5 5 5 5 5 5 5 5 5 5 5 3 5 5 5 5 5 5 5 5 5 5 5 5 5 5 5 5 5 5 5 5 5 5 5 3 5 5 5 3 5 5 5 5 5 5 5 5 5 5 5 5 3 5 5 3 5 5 5 5 5 5 5 5 5 5 5 5 5 5 5 5 5 5 5 5 5 5 5 5 5 5 5 5 5 5 5 5 5 5 5 5 5 5 3 5 5 5 5 5 5 5 5 3 5 5 5 5 5 5 5 5 5 5 5 5 5 5 5 5 5 5 5 5 5 3 5 5 5 3 5 5 5 3 3 5 5 5 5 5 5 5 5 5 5 5 5 5 5 5 5 5 5 5 5 3 5 5 5 5 5 5 5 5 3 5 5 5 3 5 5 5 5 3 5 3 5 5 3 5 5 5 3 5 3 5 3 5 5 5 5 5 5 5 5 5 5 5 3 5 5 3 5 5 5 5 5 5 5 3 5 5 5 5 5 5 5 5 5 5 5 5 5 5 5 5 5 5 5 5 5 5 5 5 5 5 5 5 5 5 3 5 5 5 3 5 5 5 5 5 5 5 3 5 5 5 5 3 5 5 5 5 3 5 3 5 5 5 5 5 5 3 3 5 5 5 5 5 5 3 5 5 5 5 5 5 5 5 5 5 5 3 5 5 5 5 3 5 5 5 3 5 5 5 5 5 5 5 5 5 5 5 5 5 5 5 5 5 5 5 5 5 5 5 5 5 5 5 5 5 5 5 5 5 5 5 3 5 5 5 5 5 5 5 5 5 5 5 5 5 5 5 5 5 5 5 5 5 3 5 5 5 5 5 5 5 5 5 5 5 5 5 5 3 5 5 5 5 5 5 5 5 5 5 5 5 5 5 5 5 3 5 5 3 5 5 5 5 5 5 5 5 5 5 3 5 3 3 3 5 5 3 3 5 5 3 5 5 5 3 5 5 5 5 5 5 5 5 3 5 5 5 5 5 3 5 5 5 5 3 5 3 5 5 3 3 3 5 5 5 5 5 5 5 5 5 5 5 5 5 5 5 5 5 5 5 3 5 5 5 3 5 5 3 5 5 3 5 5 3 5 5 5 3 5 5 5 3 5 5 5 5 5 5 5 5 5 3 5 5 5 5 5 5 5 5 5 5 5 5 5 5 5 5 5 5 5 5 5 5 3 5 5 5 5 5 5 5 5 5 5 5 5 5 5 5 5 5 5 5 5 5 5 5 3 5 3 3 5 3 5 5 5 5 3 5 5 5 5 5 5 5 3 3 5 5 5 5 5 5 5 5 5 3 5 5 5 3 5 5 5 3 5 5 5 5 5 5 5 5 5 5 5 5 5 5 5 5 5 5 5 5 5 5 5 5 5 5 5 5 5 5 5 5 5 5 5 5 5 5 5 5 5 5 3 5 5 5 5 5 3 5 5 5 5 5 5 5 5 5 5 5 5 5 5 5 5 3 3 5 3 5 5 5 5 3 5 3 5 5 5 5 5 5 5 5 5 5 3 5 5 5 5 3 5 5 5 5 5 5 5 5 3 5 5 5 3 5 5 5 5 5 5 5 5 3 5 5 3 5 5 5 5 5 5 5 5 5 5 5 5 5 5 5 3 5 3 5 5 5 5 3 5 5 5 5 5 3 5 3 5 5 5 5 5 5 5 5 5 5 5 5 5 5 5 5 5 5 5 5 5 5 5 5 5 5 5 5 5 5 3 5 5 5 5 5 5 3 5 5 3 3 5 5 5 5 5 5 3 5 3 5 5 5 3 5 5 5 5 5 5 5 3 5 5 3 5 5 5 5 5 5 3 5 5 5 5 5 5 5 5 5 5 3 5 5 3 5 5 3 5 5 5 5 5 5 5 5 5 5 5 3 5 5 5 5 5 5 5 5 5 5 5 5 5 5 5 3 5 5 3 5 5 3 5 3 5 5 5 5 5 5 5 5 5 3 3 5 5 5 5 5 5 5 5 3 5 5 5 5 5 5 3 3 5 5 3 5 5 5 5 5 3 5 5 3 5 3 5 5 3 5 5 5 3 5 5 5 3 5 5 5 5 5 3 5 5 5 3 5 5 5 3 5 5 3 3 5 5 3 5 5 5 5 5 5 5 5 5 3 5 5 5 5 5 5 5 5 5 5 5 5 5 5 5 5 5 5 5 5 5 3 5 5 3 5 5 5 5 5 5 3 5 5 5 5 5 5 5 5 5 5 3 5 5 5 3 5 5 5 5 3 3 5 5 5 3 5 5 5 5 5 5 5 3 5 5 5 5 5 5 3 5 5 5 3 5 5 5 5 5 5 5 5 5 5 5 5 5 3 3 5 5 5 3 5 5 5 5 3 5 5 5 5 5 5 5 5 5 5 5 5 5 5 3 5 5 5 5 5 5 3 5 5 3 5 5 5 5 3 5 5 5 5 3 5 5 5 5 3 3 5 5 5 5 5 5 5 5 3 5 3 5 5 3 5 5 5 3 3 3 3 5 5 5 5 5 5 3 5 5 3 5 5 5 5 5 5 3 5 5 5 3 5 3 5 5 5 3 5 3 5 5 3 3 5 5 5 5 5 3 5 5 5 5 3 5 5 5 5 3 5 5 5 3 5 3 3 5 5 5 5 5 5 5 3 5 5 5 5 3 3 5 3 5 3 3 3 5 5 5 5 3 5 5 3 5 3 5 5 3 5 5 5 5 5 5 5 3 5 5 3 5 5 5 5 5 5 5 5 5 3 5 5 5 5 5 3 5 3 5 3 5 5 3 5 5 5 3 5 5 5 3 5 5 5 3 5 5 5 5 5 3 5 5 5 5 5 3 5 5 3 3 5 5 3 5 5 5 3 5 5 5 5 5 5 3 3 5 3 5 5 3 5 5 5 3 5 5 5 5 5 5 5 5 5 5 5 5 5 5 5 5 5 5 3 5 5 5 3 5 5 5 5 5 3 5 5 5 5 5 5 5 5 5 5 5 5 5 3 5 5 5 5 5 5 5 5 5 5 5 5 5 5 5 5 5 5 5 5 3 5 5 5 5 5 5 3 5 5 5 5 5 5 5 5 5 5 5 5 5 5 3 5 5 5 5 5 3 5 5 5 5 5 5 5 5 5 5 5 5 5 5 5 5 5 3 5 5 5 3 5 5 5 5 5 5 5 5 5 5 5 5 5 5 5 5 5 5 5 5 5 5 5 5 5 5 5 5 3 5 5 3 5 3 3 5 5 5 3 5 5 5 5 5 5 5 5 5 5 5 5 5 5 5 5 3 5 3 5 5 5 5 5 5 3 5 5 5 5 5 5 5 5 5 5 3 5 5 3 5 3 3 5 5 5 3 5 5 5 5 5 5 5 3 5 5 5 5 5 3 5 3 5 3 5 3 5 5 5 5 5 5 5 3 5 5 5 5 5 5 3 5 5 3 5 5 5 3 5 5 5 5 5 5 3 5 5 5 5 5 5 5 3 5 5 3 3 5 5 3 3 5 5 3 5 5 5 5 5 5 5 5 5 3 3 5 3 5 5 3 5 3 5 5 5 5 5 5 5 5 5 5 5 5 5 5 5 3 5 5 5 5 5 5 5 5 5 3 3 5 3 5 3 3 5 5 5 5 3 5 3 5 5 3 5 5 5 5 3 3 3 3 5 5 3 3 5 5 3 5 3 3 5 5 3 5 3 5 5 5 3 5 5 3 3 5 5 5 5 5 5 5 5 5 5 5 5 3 5 5 5 5 3 5 5 3 5 5 3 5 3 5 5 3 3 5 5 3 5 5 3 5 5 5 3 5 5 5 5 5 5 5 5 5 3 5 5 5 5 5 3 5 3 5 5 3 5 5 5 3 5 5 5 5 3 5 3 3 5 5 5 5 5 5 5 5 5 5 5 5 5 3 5 5 5 5 5 5 5 5 5 5 5 3 5 5 5 5 3 3 5 5 3 5 5 3 5 5 3 5 5 5 3 5 3 5 3 3 5 5 5 5 3 5 3 5 5 5 5 5 5 5 3 5 5 5 5 3 3 5 5 3 5 3 3 5 5 5 5 5 5 5 5 5 5 5 5 5 3 5 5 3 5 5 5 5 5 5 5 5 5 5 5 5 5 5 5 5 5 5 5 3 5 3 5 5 5 3 5 3 5 3 5 5 5 5 5 5 5 5 5 5 5 5 5 5 3 5 5 5 3 5 5 3 5 5 3 5 5 5 5 5 5 5 5 5 5 5 5 5 3 5 5 3 5 5 5 5 5 5 5 3 5 5 5 5 3 5 5 3 5 3 5 5 5 5 5 3 5 5 5 5 3 5 5 5 3 5 5 3 5 5 5 5 3 5 5 5 5 5 5 5 3 5 5 5 5 5 5 5 5 5 5 5 5 5 3 5 5 5 5 5 5 5 5 5 5 5 5 5 5 5 5 5 3 5 5 5 5 3 5 5 5 5 5 5 5 5 3 5 5 5 5 5 5 5 5 5 5 5 5 5 5 5 5 5 5 5 5 5 5 5 5 5 5 5 5 5 5 5 5 5 5 5 5 3 5 5 5 5 5 5 5 5 5 5 5 5 5 5 5 5 5 3 5 5 5 5 3 5 3 5 5 5 5 5 5 5 5 5 5 3 5 3 5 5 5 5 5 3 5 5 5 3 5 3 5 3 5 5 5 5 5 5 5 5 5 5 5 5 5 5 5 5 5 3 5 5 5 5 5 5 5 3 3 5 5 5 3 3 5 3 5 5 5 5 3 5 5 5 3 3 5 5 5 5 5 5 5 5 5 5 5 3 5 5 3 5 5 3 5 5 5 5 5 5 3 5 5 5 5 5 5 5 5 5 5 5 5 5 5 5 5 5 5 5 5 3 5 5 3 5 5 5 3 3 5 5 5 3 5 5 5 3 5 5 5 5 3 5 5 5 5 5 5 5 5 5 5 5 5 5 5 5 5 3 5 3 5 5 5 5 5 5 5 5 5 3 5 5 3 5 5 5 5 3 5 5 5 5 5 3 5 5 5 5 5 5 5 5 5 5 5 5 5 5 3 5 5 5 5 5 3 5 5 5 3 5 5 3 5 5 3 5 5 5 5 5 5 5 5 5 3 5 5 5 5 3 3 5 5 5 3 5 3 5 5 5 5 5 5 5 5 5 5 5 5 5 5 5 5 5 3 5 3 5 5 3 5 5 5 3 5 5 3 5 5 5 5 5 5 5 3 5 5 5 5 5 5 5 5 5 5 5 5 3 5 5 5 5 5 3 5 5 3 5 5 5 3 5 5 3 5 5 3 5 3 5 3 5 5 5 5 3 3 5 5 5 5 5 5 5 5 5 5 3 5 5 5 3 5 3 5 5 5 3 5 5 5 3 5 5 3 3 5 5 5 5 5 5 5 5 5 5 5 3 5 5 5 3 3 5 5 3 5 5 5 5 5 3 3 5 5 5 5 5 5 5 5 3 5 5 3 5 5 5 3 5 5 5 5 5 5 5 5 5 3 5 5 5 3 5 5 5 5 3 5 5 5 5 5 5 5 3 5 5 5 5 5 3 5 5 5 5 5 5 5 5 5 5 5 5 5 5 5 5 5 3 5 5 5 5 5 5 3 5 5 5 5 5 5 5 5 5 5 5 5 5 5 5 5 5 5 5 5 5 5 5 3 5 3 5 5 5 5 5 5 5 5 5 3 5 5 5 3 5 5 5 5 5 5 5 5 5 5 5 5 5 5 5 5 5 5 5 5 5 5 5 5 5 5 5 5 5 3 5 5 5 5 5 5 5 5 5 3 5 5 5 5 5 5 5 5 5 5 5 5 5 5 5 5 5 5 5 5 5 5 5 5 3 3 5 5 5 5 5 5 5 5 5 5 3 5 5 5 5 5 3 5 5 5 3 5 5 3 5 5 5 5 5 3 5 5 5 5 5 5 3 5 5 3 5 5 3 5 3 5 5 3 3 5 5 3 3 5 3 5 5 5 5 5 5 3 5 5 5 5 5 3 5 3 5 5 3 3 5 5 5 5 5 5 5 5 5 5 5 5 5 3 5 3 5 5 5 5 5 5 5 5 5 5 5 5 5 5 5 5 5 5 5 5 3 3 5 5 5 5 5 5 5 5 5 5 3 5 5 5 5 5 5 5 5 5 3 5 5 5 3 5 5 3 5 3 5 5 5 3 5 5 3 5 5 5 5 5 5 5 5 5 5 5 5 5 5 5 5 5 5 5 5 5 3 5 5 5 5 5 5 5 5 5 5 5 5 5 5 5 5 3 5 5 5 5 5 5 5 5 3 5 5 5 5 5 5 5 5 5 3 5 5 5 5 5 5 3 5 3 5 5 5 5 5 5 5 5 5 5 5 3 5 3 5 5 3 3 5 5 5 5 5 3 5 5 5 5 5 5 5 5 3 5 5 3 5 5 5 5 5 3 5 5 5 5 5 5 5 5 5 3 5 5 3 3 5 5 5 5 3 5 5 5 5 5 5 5 5 5 5 5 5 5 3 5 5 5 5 3 5 5 3 5 5 5 5 3 5 5 5 5 5 3 5 5 5 5 3 5 5 3 5 5 5 5 5 3 3 5 5 5 5 3 3 5 5 3 5 5 5 5 5 5 5 5 5 3 5 5 5 5 5 5 5 5 5 5 5 5 5 5 5 5 5 5 3 5 5 5 5 5 5 3 5 5 5 3 5 5 5 5 5 5 5 3 5 5 3 5 5 5 5 5 5 5 5 5 5 5 5 5 5 5 3 5 5 3 5 5 5 3 5 5 3 3 5 5 5 5 5 5 3 5 5 5 5 5 5 5 5 5 5 5 5 5 5 3 5 5 5 5 5 5 3 5 5 5 5 3 5 5 5 5 5 5 5 5 5 5 5 5 5 5 5 5 5 5 5 5 5 5 5 5 5 5 5 5 5 5 5 5 3 5 5 5 5 3 5 5 3 5 3 5 5 3 5 5 5 5 5 3 5 5 5 5 5 5 5 5 5 5 5 5 5 3 5 5 5 5 5 3 5 3 5 5 5 5 5 5 5 5 5 5 5 5 3 3 5 3 5 5 5 5 3 5 5 5 3 5 5 5 5 3 5 5 5 5 5 3 5 3 5 5 5 5 5 5 5 5 5 5 5 5 5 5 5 5 5 5 5 5 3 5 5 5 5 5 5 5 5 5 3 5 5 5 5 5 5 5 5 5 5 5 5 3 5 5 5 5 5 3 3 5 5 5 5 5 3 5 3 5 5 5 5 5 5 5 5 3 5 5 3 5 5 5 3 5 5 5 5 5 5 5 5 5 5 5 5 5 5 5 5 5 5 5 5 5 5 3 5 5 5 5 3 5 5 5 5 3 5 5 5 5 5 5 5 5 5 5 5 3 5 5 5 5 5 5 5 5 5 5 5 5 5 5 5 5 5 5 5 5 5 5 5 5 5 5 5 3 5 5 3 5 5 5 5 5 5 5 5 5 5 5 5 5 5 5 5 3 5 3 5 5 5 5 5 3 5 5 5 3 5 5 5 3 5 5 5 5 3 3 5 5 5 3 5 3 3 5 5 5 5 5 5 3 5 5 5 5 3 5 5 3 5 5 5 5 3 5 5 3 5 5 3 5 5 5 5 5 5 3 5 5 3 3 5 3 5 5 5 5 5 5 3 3 3 5 3 3 5 5 5 5 5 5 5 5 5 5 5 5 5 5 5 5 5 5 5 5 5 5 5 5 5 5 5 5 5 5 5 5 5 5 5 3 5 5 5 3 5 5 5 5 5 5 5 5 5 5 5 5 5 5 5 3 5 5 5 5 5 5 5 5 5 5 5 3 5 5 3 5 3 5 5 5 5 5 3 5 5 5 5 3 5 5 5 3 5 5 5 5 5 5 5 5 5 5 5 5 5 5 5 5 5 5 5 5 5 5 5 5 5 5 5 5 5 5 3 5 5 5 5 5 5 5 5 5 5 5 5 5 5 5 5 5 5 5 5 5 5 5 5 5 5 5 3 5 5 5 5 3 5 5 3 5 5 5 5 5 5 5 5 5 5 3 5 5 5 5 5 5 3 5 3 5 3 5 5 5 5 5 5 5 5 5 5 5 5 5 5 5 5 5 5 5 5 3 5 3 5 5 5 5 5 5 5 5 3 5 5 5 5 3 5 3 5 5 5 5 3 5 5 5 5 5 5 5 5 5 5 5 5 5 5 5 3 5 5 5 5 5 5 3 5 5 5 5 5 5 5 5 5 5 5 5 5 5 5 5 5 5 5 5 5 5 5 5 5 5 5 5 5 5 5 3 3 5 5 5 5 5 5 5 5 5 5 5 5 3 5 3 5 5 5 5 5 5 5 3 5 5 5 5 5 5 5 5 5 5 5 5 5 5 5 5 5 5 5 3 5 5 5 5 5 5 5 5 5 5 5 5 5 5 5 5 5 5 5 5 5 5 5 5 5 5 5 5 5 5 5 5 5 5 5 5 5 5 5 5 5 5 5 5 5 5 5 5 5 5 5 5 5 5 5 5 5 5 5 5 5 5 5 5 5 5 5 5 5 5 5 5 5 5 5 5 5 5 5 5 5 5 5 5 5 5 5 5 5 5 5 5 5 5 5 5 5 5 5 5 5 5 5 5 5 5 5 5 5 5 5 3 5 5 3 5 5 5 5 5 5 5 5 5 5 5 5 5 5 5 5 5 5 5 5 5 5 5 5 5 5 5 5 5 5 5 5 5 5 5 5 5 5 5 5 5 5 3 3 5 5 5 5 5 5 5 5 3 5 5 5 5 5 5 5 5 5 5 5 5 5 3 5 5 5 5 3 5 5 5 5 5 5 5 5 5 5 5 5 5 5 5 5 5 5 5 5 5 5 3 3 5 5 5 5 5 5 5 5 5 5 5 3 5 5 5 5 5 5 5 5 5 5 5 5 5 3 5 5 5 5 5 5 5 5 5 5 5 5 5 5 5 5 5 5 3 5 3 5 5 5 5 5 5 5 5 5 5 5 5 5 5 5 5 5 5 3 5 5 5 5 3 5 5 5 5 5 5 5 5 5 5 3 5 5 5 5 5 5 3 5 5 5 5 5 5 3 5 3 5 5 3 5 5 5 5 3 5 5 5 5 5 5 5 5 5 5 5 5 5 5 5 3 3 5 5 5 3 5 3 3 5 5 5 3 5 5 5 5 5 5 5 5 3 5 5 5 5 5 5 3 5 5 5 5 5 5 5 5 5 5 5 5 5 5 5 5 5 5 5 5 5 3 3 5 5 5 3 5 3 5 5 5 3 5 3 3 5 3 5 5 5 3 5 5 5 5 5 5 5 5 3 5 5 5 5 5 5 5 3 3 5 5 3 3 5 5 5 5 5 5 5 5 5 5 5 5 5 5 5 5 5 5 5 5 5 5 5 5 5 5 5 5 5 5 5 5 5 5 5 5 5 5 5 5 5 5 5 5 5 5 5 5 5 5 5 5 5 5 5 5 5 5 5 5 5 3 3 5 5 5 3 5 5 5 5 5 5 5 5 5 5 5 5 5 5 5 5 5 5 5 5 5 5 5 5 5 5 5 5 5 5 5 3 5 5 5 5 5 5 5 5 3 5 5 5 5 3 5 5 5 3 5 5 5 3 5 5 5 5 5 5 5 5 5 5 5 3 5 5 3 5 5 5 3 3 3 5 5 3 5 5 3 5 5 3 5 5 5 5 5 5 5 3 5 5 5 5 3 5 3 5 5 5 3 5 5 5 3 5 3 5 5 5 5 5 5 5 5 5 5 5 3 5 5 5 5 5 5 5 5 5 5 5 5 5 5 5 5 5 5 5 5 5 5 5 5 5 5 5 5 5 5 5 5 5 5 5 5 5 5 5 5 5 5 5 5 5 5 5 5 5 5 3 5 5 5 5 5 5 5 5 5 5 5 5 5 5 5 5 3 5 5 5 5 5 5 5 5 5 5 5 3 5 5 5 5 5 3 5 5 5 5 5 5 3 5 5 5 5 3 5 5 5 5 5 5 5 5 5 5 5 5 5 5 5 5 5 5 5 5 5 5 5 5 5 5 5 5 5 5 5 5 5 5 5 5 5 5 5 5 5 5 5 5 5 5 5 5 5 5 5 5 5 3 5 5 5 5 5 5 5 5 5 5 5 5 5 5 3 5 5 5 3 5 5 5 5 3 3 5 5 5 3 3 3 5 5 5 3 5 5 5 5 5 5 5 3 5 5 3 5 5 3 5 5 5 5 5 5 5 5 5 5 5 5 5 5 5 5 5 5 5 5 5 5 5 5 3 5 5 3 5 5 5 3 5 3 5 5 5 5 5 5 5 5 5 5 5 5 5 5 5 3 5 5 5 5 3 5 3 5 5 5 5 5 5 5 5 5 5 5 5 5 3 5 5 3 5 5 5 5 3 5 5 5 5 5 5 5 5 3 5 5 5 5 5 3 5 5 5 5 5 5 5 5 5 5 5 5 5 5 5 5 5 5 5 5 5 3 5 5 5 5 5 5 3 5 5 5 5 5 5 5 5 5 5 5 5 5 5 5 3 5 5 5 3 5 5 5 5 5 5 5 3 5 3 5 5 5 5 5 5 5 5 5 5 3 5 5 5 5 5 5 5 5 5 5 5 5 5 5 5 5 5 5 5 5 5 3 3 5 5 5 5 5 5 5 5 5 5 5 5 5 5 5 5 5 5 5 5 5 5 5 5 5 5 5 5 5 3 5 5 5 5 5 5 5 5 5 5 5 5 5 5 5 5 5 5 5 5 5 5 5 5 3 5 5 5 5 5 3 5 5 5 3 5 5 5 5 5 5 5 5 5 5 5 3 3 5 5 5 5 5 5 3 5 5 5 5 5 3 5 5 5 5 5 5 5 5 5 5 5 5 3 5 5 5 5 3 5 3 5 5 5 5 5 3 5 5 5 5 5 5 3 5 5 5 5 3 5 3 5 5 5 5 5 3 5 3 3 5 5 3 5 5 5 5 5 5 5 5 5 5 5 5 5 5 3 5 3 5 5 5 3 5 5 5 3 5 5 5 5 5 5 5 5 3 5 3 5 5 5 5 3 5 5 5 5 5 5 5 5 3 5 5 5 5 3 5 5 5 5 5 3 5 5 5 5 5 5 3 5 5 5 5 5 3 5 5 3 5 5 5 5 5 5 5 5 5 5 5 5 5 5 5 5 3 5 5 5 5 5 3 3 5 3 5 3 5 5 5 5 5 5 5 5 3 5 5 5 3 5 5 5 5 5 5 3 5 5 5 5 3 5 5 5 5 5 5 3 5 5 5 5 5 5 5 5 5 3 5 5 5 5 3 5 5 3 5 5 5 5 5 3 5 5 5 5 5 5 5 5 5 5 5 5 5 5 5 5 5 5 5 5 5 5 5 5 5 5 5 5 5 5 5 5 5 5 5 5 5 5 5 5 5 5 5 5 5 5 5 3 5 3 5 5 5 5 5 5 5 5 5 3 5 5 5 5 5 5 5 3 5 5 5 5 3 5 5 5 5 3 5 5 5 3 5 5 5 5 5 5 5 5 5 5 5 5 5 5 3 5 5 5 5 5 5 5 5 5 5 5 5 3 5 5 5 5 5 5 5 5 3 5 5 5 5 5 3 5 3 5 5 5 3 5 5 3 5 5 5 5 5 5 3 5 3 5 3 5 3 5 5 5 5 3 5 5 5 5 5 5 5 5 5 5 5 5 5 5 3 5 5 5 5 5 5 5 5 5 5 5 5 3 5 5 5 3 5 5 5 5 5 5 5 5 5 5 5 5 5 5 5 5 3 5 5 5 5 5 5 3 5 5 3 5 3 3 3 5 5 5 5 5 5 5 5 5 5 5 5 5 5 5 5 5 5 5 3 5 5 5 5 5 5 3 3 3 5 5 5 5 5 5 5 5 5 5 3 5 5 5 5 5 5 3 5 5 5 5 3 5 5 5 3 5 5 5 5 3 5 5 3 5 3 5 5 5 5 5 5 5 5 5 5 5 5 5 5 3 3 5 5 5 5 5 5 5 5 5 5 5 5 5 5 5 5 5 5 5 5 5 5 5 5 5 5 3 5 3 5 5 5 5 5 5 5 5 5 5 5 5 3 5 5 5 5 5 5 3 5 5 5 5 5 5 3 5 5 5 5 3 5 5 5 5 5 5 5 3 5 3 5 5 5 5 5 3 5 3 5 5 5 5 3 5 5 3 5 3 3 5 3 3 5 3 5 3 5 5 5 3 5 5 5 3 3 5 5 5 3 5 3 5 5 3 5 3 5 5 5 5 3 5 5 5 5 3 3 5 5 5 3 3 5 5 5 5 3 5 5 5 5 5 3 5 5 5 5 5 5 5 3 5 5 5 3 3 3 3 5 5 5 5 3 5 5 5 5 5 5 5 5 5 5 5 5 5 5 5 5 5 5 5 5 5 5 5 5 3 5 5 3 5 5 5 5 5 5 5 3 5 3 5 5 5 3 5 5 5 5 5 5 5 5 5 5 5 5 3 5 5 3 5 3 5 5 5 5 5 3 3 5 5 5 3 5 5 5 3 3 5 3 5 5 5 5 5 3 5 5 5 5 3 5 5 5 5 3 5 5 5 5 5 5 5 5 5 5 5 5 5 5 5 5 5 5 5 5 5 3 5 5 5 5 3 5 5 3 5 5 5 5 5 5 5 3 5 5 5 5 5 3 5 5 5 5 3 3 5 5 5 5 5 5 3 5 5 3 5 5 5 3 5 5 5 5 5 5 3 5 5 5 5 5 3 5 5 5 5 5 3 5 3 5 5 5 5 5 3 5 5 5 5 5 5 5 5 3 5 5 5 5 5 5 5 5 5 5 5 5 5 5 5 5 5 5 5 5 3 5 5 5 3 3 5 3 5 5 5 5 5 5 5 5 5 5 5 5 3 5 5 5 5 3 5 5 5 5 3 5 5 5 5 5 5 5 5 5 5 5 5 5 5 5 5 5 5 5 5 5 3 5 3 5 5 5 5 5 5 5 3 5 5 5 5 5 5 5 5 5 5 5 5 5 5 5 5 5 5 3 5 5 5 5 5 5 5 5 3 5 5 5 5 3 5 5 5 5 5 5 5 5 5 5 5 5 5 5 5 5 5 3 5 5 3 5 3 5 5 5 5 5 5 5 5 3 5 5 3 5 3 5 5 5 5 5 5 5 5 5 5 5 5 5 5 3 5 5 5 5 5 5 5 5 5 5 5 5 3 5 5 5 5 5 5 3 3 5 5 5 5 5 3 5 3 5 3 5 3 3 5 5 5 5 5 3 5 5 5 5 3 5 5 3 5 5 5 5 5 5 5 5 5 5 5 5 3 5 3 5 5 5 5 5 5 5 3 5 3 5 5 5 3 5 5 5 5 5 5 5 5 5 5 5 5 3 5 5 5 5 3 5 5 5 5 5 3 5 3 5 5 5 3 5 5 5 3 5 3 5 5 5 5 3 5 5 3 3 5 5 5 5 5 5 3 5 5 5 5 3 5 5 3 5 5 5 3 5 5 5 3 5 3 5 5 3 3 5 5 5 5 5 3 5 5 5 5 3 5 5 5 3 5 5 5 5 3 5 5 3 5 5 5 5 5 3 5 5 5 5 5 5 5 5 5 5 5 5 5 5 5 3 5 3 5 5 5 3 5 5 3 5 3 5 5 5 5 5 5 5 5 5 3 5 5 5 5 5 5 5 5 5 5 5 5 5 5 5 5 5 5 5 5 5 5 3 5 5 5 5 5 5 5 3 5 3 5 5 3 5 3 5 3 3 5 5 5 3 5 5 5 5 5 5 5 5 5 5 3 5 5 5 5 5 5 3 5 5 5 5 5 5 5 5 5 5 3 5 5 3 5 3 3 5 5 5 5 5 5 3 5 3 5 5 5 5 3 5 5 5 5 3 3 5 5 5 5 5 5 3 5 5 5 3 5 5 5 5 5 5 5 5 5 5 5 5 5 5 5 5 3 3 5 3 5 5 5 5 5 5 3 3 5 5 5 5 5 3 5 5 5 5 5 5 5 5 5 3 5 5 5 5 5 5 5 5 5 5 5 5 5 5 5 5 5 3 5 5 5 5 5 5 5 5 5 5 5 3 3 5 5 5 5 5 3 5 5 5 3 5 3 5 5 5 5 5 5 5 5 3 5 5 5 5 3 3 5 5 5 5 5 3 5 5 5 3 5 5 5 5 3 5 3 5 5 5 3 3 5 3 3 5 3 5 5 5 3 5 3 5 5 5 5 5 5 5 5 3 5 5 5 5 5 5 5 5 5 5 5 3 5 5 5 5 5 5 3 5 5 5 5 5 5 3 5 5 5 5 5 5 3 5 3 5 5 3 5 5 5 5 5 5 5 5 5 3 5 5 3 5 5 3 5 3 5 5 5 5 5 3 5 5 3 5 5 5 5 5 5 5 3 5 5 5 3 5 5 5 5 5 5 5 5 5 5 5 5 5 5 5 5 5 5 5 3 5 5 3 5 5 5 3 5 5 5 5 5 5 5 3 5 5 5 5 5 5 5 5 5 5 5 5 3 5 5 5 5 5 5 5 5 5 5 3 5 5 5 5 3 5 5 5 5 3 5 5 5 3 3 5 5 3 5 5 5 5 5 5 5 5 3 5 5 3 5 5 5 5 5 5 5 3 5 5 5 3 5 5 5 5 5 5 5 5 5 5 5 5 5 5 5 5 5 5 5 3 5 5 5 5 5 5 5 5 5 5 5 5 5 5 5 5 5 5 3 5 5 5 5 5 5 5 5 3 5 3 5 5 5 5 5 5 5 5 5 3 5 5 5 5 5 5 5 5 3 5 5 5 5 5 5 5 5 5 5 3 5 5 3 5 5 3 5 5 5 5 5 3 5 5 5 5 5 5 3 3 5 5 3 3 5 3 5 3 5 5 3 5 3 5 5 5 5 3 5 5 5 3 5 5 3 5 5 5 5 3 5 5 5 5 5 5 5 5 5 3 5 5 5 5 5 5 5 5 5 5 5 3 5 5 5 5 3 5 5 5 3 5 5 5 5 5 5 5 3 5 5 3 5 5 5 5 3 5 3 5 5 5 5 5 5 5 5 5 5 5 5 5 5 5 5 5 5 5 5 5 5 5 5 5 5 5 5 5 5 5 5 5 5 5 5 3 3 5 5 3 5 5 5 5 5 5 5 5 5 5 5 5 5 3 5 5 5 5 5 5 5 3 5 5 5 5 3 3 5 5 5 5 5 3 3 5 5 3 5 5 5 5 5 5 5 3 5 5 3 5 5 5 3 5 5 5 3 5 3 5 3 3 5 5 3 5 5 5 5 5 5 5 3 5 5 5 5 5 3 3 3 5 5 3 5 5 5 5 3 5 5 5 5 5 5 5 3 5 5 5 5 5 5 5 5 5 5 5 5 5 5 5 3 5 5 3 5 5 5 5 5 3 5 5 5 5 5 5 5 5 5 5 5 5 3 5 5 5 5 5 3 5 5 5 5 5 5 3 5 5 5 3 3 3 3 5 5 5 5 5 5 5 3 3 3 5 3 5 3 5 5 5 5 5 5 5 5 5 5 5 5 5 5 5 5 5 3 5 5 5 5 5 5 5 5 3 5 5 5 5 3 5 5 5 5 5 3 5 5 3 5 3 5 5 5 5 3 5 5 5 5 5 5 5 5 5 3 5 5 5 5 5 5 5 5 5 5 5 5 5 5 5 3 5 5 5 5 3 5 5 5 3 5 3 5 3 5 5 5 5 5 5 5 5 5 3 5 5 5 5 5 5 5 5 3 3 3 5 5 3 5 5 5 3 5 5 5 3 5 5 5 3 5 5 5 5 5 5 5 3 5 5 3 5 5 5 3 5 3 5 5 5 5 3 5 5 5 5 5 3 5 5 5 5 3 5 5 5 3 3 5 5 5 5 5 5 5 5 5 5 5 5 5 5 5 5 5 5 3 5 5 5 3 5 3 5 5 3 5 5 5 3 5 5 5 5 5 5 5 5 3 5 5 5 5 5 5 3 5 5 3 3 5 3 5 5 5 5 5 5 5 5 5 5 5 5 5 5 5 5 3 5 5 5 5 5 5 5 3 5 5 5 3 5 5 5 3 5 5 3 5 5 5 5 5 5 5 5 5 5 5 5 5 5 5 5 5 5 5 5 5 3 5 5 5 5 5 5 5 5 5 5 5 5 5 5 5 5 5 5 5 5 5 5 5 5 5 5 5 5 5 5 5 5 3 3 5 5 5 5 5 5 5 5 5 5 5 5 5 5 3 5 5 5 5 5 5 5 5 3 5 5 5 5 5 5 5 5 3 5 5 5 3 5 5 5 5 5 5 5 5 5 5 5 5 5 5 5 5 5 5 5 5 5 5 5 3 5 5 5 3 5 5 5 5 5 5 5 5 5 5 5 5 5 5 5 5 5 5 5 5 5 5 5 5 3 5 5 5 5 5 5 5 5 5 5 3 5 5 5 3 5 5 5 5 3 5 5 5 5 5 5 5 5 3 5 5 5 3 5 5 5 5 3 5 5 3 5 3 5 3 5 5 5 5 5 5 3 5 5 5 5 3 5 5 5 3 5 5 5 5 5 3 5 5 5 5 5 5 5 5 5 5 5 5 5 5 5 3 5 5 5 3 5 5 3 5 5 3 5 5 5 5 5 5 5 5 5 3 5 5 5 5 5 5 5 5 5 3 5 5 5 5 5 5 5 3 5 5 5 3 5 5 5 5 5 5 5 5 5 5 5 5 5 5 5 5 5 5 5 5 3 5 5 5 5 5 5 5 5 5 5 3 5 5 5 5 5 5 5 5 3 5 5 5 5 5 3 5 5 5 5 5 5 5 5 5 5 3 5 5 3 5 5 3 5 5 5 5 5 3 5 5 5 5 3 5 5 3 5 5 5 5 5 5 3 5 5 5 5 5 5 3 5 5 5 3 5 3 5 5 5 5 5 5 5 5 5 5 5 5 3 5 5 3 5 5 5 5 5 5 5 5 3 5 5 5 5 5 5 5 5 5 5 5 5 3 5 3 5 5 5 5 5 5 5 5 5 3 5 5 5 5 5 5 5 5 5 5 5 5 5 5 3 5 5 5 5 5 5 5 5 3 5 3 5 5 5 5 3 5 5 5 3 5 5 5 5 5 5 3 5 5 3 5 5 5 5 3 5 3 5 5 5 5 5 5 5 5 5 5 5 5 5 5 5 5 5 5 5 5 5 5 5 5 5 5 5 5 5 5 5 5 5 5 5 5 5 5 3 5 5 5 5 5 3 5 5 5 5 5 3 5 5 3 5 5 5 5 5 5 5 5 5 5 3 5 5 3 5 5 5 5 5 5 5 5 5 5 5 5 5 5 3 5 5 5 5 5 5 5 5 5 5 5 3 5 3 3 5 5 5 5 5 5 5 3 5 5 5 3 3 5 3 5 5 5 5 3 5 5 5 5 5 5 5 5 3 5 5 5 5 5 5 5 5 5 5 3 5 5 5 5 5 5 5 5 5 5 5 5 3 5 5 5 5 5 5 3 3 5 5 5 5 5 5 5 5 5 5 5 5 5 5 5 3 3 5 5 5 5 5 5 5 5 5 3 5 5 5 5 5 5 3 5 3 5 3 5 5 5 5 3 5 5 3 5 5 5 5 5 5 5 5 5 5 5 5 3 5 5 5 3 5 5 5 5 5 5 5 5 5 5 5 3 5 5 5 3 5 5 5 3 5 5 5 5 5 5 5 3 5 5 5 5 5 5 5 5 5 5 5 5 5 5 5 5 5 5 5 5 5 5 5 5 3 5 5 5 5 5 5 3 3 5 5 5 3 5 5 5 5 5 5 5 5 5 5 5 5 5 5 5 5 5 5 5 5 5 5 5 5 3 5 5 5 3 3 5 5 3 5 3 5 5 3 5 5 5 3 3 5 5 5 3 5 5 5 5 5 5 5 5 5 5 5 5 5 5 5 5 5 5 5 5 5 5 5 5 5 3 5 5 5 5 5 5 5 5 5 5 5 5 5 5 5 5 5 5 3 5 5 3 5 3 5 5 5 5 5 5 5 5 5 5 3 5 5 5 5 5 5 5 5 5 5 5 5 5 5 5 5 5 5 5 5 5 5 5 5 5 5 5 5 5 5 5 5 5 5 5 5 5 3 5 5 5 5 5 3 5 5 5 5 5 5 5 5 5 5 5 5 5 5 5 5 5 5 3 5 5 5 5 5 5 5 5 5 5 5 5 5 5 5 5 5 5 5 5 5 3 5 5 5 3 5 5 5 5 5 5 5 5 5 5 5 5 5 3 5 5 5 5 5 5 5 5 5 5 5 5 5 5 5 5 5 5 5 5 5 5 5 5 5 5 5 3 5 5 5 5 3 5 5 3 5 5 5 3 3 5 5 5 5 3 5 5 5 5 3 3 5 5 3 5 5 5 3 5 3 5 5 5 5 3 5 5 5 5 5 3 3 5 5 3 5 3 5 5 5 5 3 5 3 5 5 5 3 5 5 5 5 3 3 3 5 5 3 5 5 5 5 5 5 5 5 5 5 5 5 5 5 5 5 3 5 5 5 5 5 5 5 5 5 5 5 5 3 5 5 5 5 5 5 5 5 5 3 5 5 5 5 5 5 5 5 5 5 5 5 5 3 5 5 5 5 5 5 5 5 5 3 5 5 3 5 5 5 5 5 5 5 5 5 3 5 5 5 5 5 5 3 3 3 5 5 3 5 5 5 5 5 5 5 3 5 5 5 5 5 5 5 5 5 5 3 5 3 5 3 5 3 5 3 5 5 5 3 3 5 3 5 3 3 5 5 5 5 3 5 5 3 3 5 5 5 5 5 5 5 3 3 5 3 5 5 5 5 5 5 5 5 5 5 5 5 5 5 5 5 5 5 5 5 3 5 5 5 5 5 5 5 5 5 3 5 5 5 5 5 5 5 5 3 3 5 5 5 5 5 5 5 5 5 5 5 5 3 5 5 5 5 5 5 5 5 5 5 5 5 5 3 5 5 5 3 5 5 5 5 5 5 5 3 5 5 5 5 5 5 5 5 5 3 5 3 5 5 3 5 5 5 5 5 5 5 5 5 5 5 5 5 5 5 5 5 5 5 5 5 5 5 3 5 5 5 5 5 5 3 5 5 5 5 3 5 5 3 5 5 5 5 5 5 5 5 5 5 5 3 5 5 5 5 5 5 5 5 3 3 5 5 5 5 5 5 5 3 5 5 3 5 5 5 5 3 5 5 5 5 5 5 3 5 5 5 5 5 5 3 5 5 5 5 5 5 3 5 5 5 3 5 5 3 5 5 5 5 5 5 5 5 5 3 5 5 5 5 5 5 5 3 5 3 3 5 5 3 5 5 5 5 5 5 5 5 5 5 5 5 3 5 3 5 5 5 3 5 5 5 5 3 5 3 5 3 5 5 5 5 3 5 5 3 5 5 5 3 3 5 5 5 5 5 3 5 5 3 5 5 5 5 5 5 5 5 5 5 5 5 5 5 5 5 5 5 3 5 5 5 5 5 5 3 5 5 5 5 5 5 5 5 3 5 5 5 5 5 3 5 5 5 5 3 5 5 5 5 5 5 5 5 5 5 3 5 5 5 5 5 5 5 5 5 3 5 5 5 5 3 3 5 5 5 5 5 5 5 5 5 5 5 5 5 5 5 3 5 5 5 5 3 5 5 5 5 5 5 5 3 5 5 5 5 5 5 5 5 5 5 5 5 5 5 5 3 5 5 5 5 3 5 5 5 3 5 5 5 5 5 3 5 3 3 3 5 5 5 5 3 3 5 5 5 3 5 5 5 5 5 5 5 5 5 5 5 5 5 5 5 5 5 5 3 5 5 5 5 5 5 5 5 5 5 5 5 5 5 5 3 3 5 5 5 5 5 5 5 5 3 5 5 3 3 5 5 5 5 5 5 5 3 5 5 5 5 5 5 5 5 5 5 3 5 5 3 5 3 3 5 3 3 5 5 5 5 5 5 5 5 5 3 5 5 5 3 5 5 5 3 5 3 5 5 5 5 3 5 5 5 5 5 5 5 5 3 5 5 5 5 3 5 5 3 3 5 5 5 5 5 5 5 5 5 5 5 5 5 5 5 5 5 5 5 5 5 5 5 5 5 3 3 3 5 5 3 5 5 5 5 5 3 5 5 5 5 5 5 5 5 5 3 5 3 5 5 5 5 5 5 5 3 5 3 5 3 5 5 5 5 5 5 5 5 5 3 5 5 5 5 5 5 3 5 5 5 5 5 5 5 5 5 5 5 5 5 5 5 5 3 5 5 3 5 5 5 5 5 5 5 5 5 3 5 5 5 3 3 3 5 5 5 3 5 5 3 5 3 5 5 5 5 5 5 5 5 5 5 5 5 5 5 5 5 5 5 3 5 5 5 3 5 5 3 3 5 3 5 5 5 3 5 5 5 5 5 5 5 5 5 5 3 5 5 5 5 3 5 5 5 5 5 5 5 5 5 5 5 5 5 5 5 5 5 5 5 5 5 5 5 5 5 5 5 5 3 5 5 5 5 5 5 5 5 5 5 3 5 3 5 5 5 5 5 5 3 5 5 5 5 5 5 5 5 5 5 5 5 5 5 5 5 3 5 5 5 5 5 5 5 3 5 5 5 5 5 5 5 5 5 3 5 5 5 5 5 5 5 5 5 5 5 5 5 5 5 3 5 5 5 5 5 5 5 5 5 5 5 3 5 5 5 5 5 5 5 3 3 5 5 5 5 5 5 5 5 3 3 5 5 5 5 5 5 5 5 5 5 5 5 5 5 5 5 3 5 5 5 5 5 5 5 5 5 3 5 5 5 5 5 5 5 5 5 5 5 5 5 5 5 5 5 5 5 5 5 5 5 5 5 5 5 5 5 5 5 5 5 5 5 5 5 5 5 5 5 5 5 5 5 5 5 5 5 5 5 5 5 5 5 5 5 5 5 5 5 5 5 5 5 5 5 5 5 5 5 5 5 5 5 5 5 5 5 5 5 5 5 5 5 5 5 5 5 5 5 5 5 5 5 5 3 5 5 5 5 5 5 5 5 5 3 5 5 5 3 5 5 5 5 5 5 5 5 5 3 5 5 5 5 5 5 5 5 5 3 5 5 3 5 3 3 5 3 5 5 3 5 5 5 5 5 5 5 5 5 5 5 5 5 3 3 5 3 5 5 5 3 5 5 5 5 3 5 5 5 5 5 5 5 5 5 5 5 5 5 5 5 5 3 3 5 5 5 5 5 5 5 3 5 5 5 5 5 5 5 5 5 3 5 5 5 5 5 5 5 5 5 3 5 5 5 5 5 5 5 5 5 5 3 5 5 3 3 5 3 5 5 5 5 5 5 5 5 3 5 5 5 5 5 5 5 5 5 5 5 5 5 
</DataArray>
</Cells>
<PointData Scalars="" Vectors="displacement," Tensors="">
<DataArray type="Float64" Name="displacement" NumberOfComponents="3" format="ascii">
-0.055000693899698007 -0.054059268611918745 0 -0.05499859652896328 -0.054996007523094109 0 -0.052321048367349021 -0.055001989907524133 0 -0.054996793444149435 -0.054049855323247242 0 -0.052320218886385737 -0.05499393701145211 0 -0.053934276033370927 -0.053205745571587117 0 -0.054999362932896083 -0.054053784862950927 0 -0.052319572507924281 -0.054999491128049721 0 -0.052320218886385737 -0.05499393701145211 0 -0.053934276033370927 -0.053205745571587117 0 -0.052036104211366313 -0.054141410658286308 0 -0.052995590330207773 -0.05307651296450986 0 -0.053934276033370927 -0.053205745571587117 0 -0.052036104211366313 -0.054141410658286308 0 -0.054996793444149435 -0.054049855323247242 0 -0.053934276033370927 -0.053205745571587117 0 -0.054998125800160107 -0.051240861033088593 0 -0.053934276033370927 -0.053205745571587117 0 -0.054998125800160107 -0.051240861033088593 0 -0.054138098476060367 -0.051131843674690626 0 -0.054998125800160107 -0.051240861033088593 0 -0.054138098476060367 -0.051131843674690626 0 -0.054998166640008075 -0.048425420537455091 0 -0.052995590330207773 -0.05307651296450986 0 -0.054138098476060367 -0.051131843674690626 0 -0.052898137996573155 -0.052408653179416252 0 -0.052995590330207773 -0.05307651296450986 0 -0.053934276033370927 -0.053205745571587117 0 -0.054138098476060367 -0.051131843674690626 0 -0.054138098476060367 -0.051131843674690626 0 -0.053791824070960607 -0.050677580336234269 0 -0.054536463019250768 -0.048768180182376178 0 -0.054138098476060367 -0.051131843674690626 0 -0.054998166640008075 -0.048425420537455091 0 -0.054536463019250768 -0.048768180182376178 0 -0.052929213341585707 -0.051976044684674622 0 -0.051839631040342379 -0.053094983195552968 0 -0.053281258720298 -0.051683343197519514 0 -0.052929213341585707 -0.051976044684674622 0 -0.052898137996573155 -0.052408653179416252 0 -0.051946155277169941 -0.05308936660909977 0 -0.052929213341585707 -0.051976044684674622 0 -0.051946155277169941 -0.05308936660909977 0 -0.051839631040342379 -0.053094983195552968 0 -0.054138098476060367 -0.051131843674690626 0 -0.053791824070960607 -0.050677580336234269 0 -0.052898137996573155 -0.052408653179416252 0 -0.052929213341585707 -0.051976044684674622 0 -0.053791824070960607 -0.050677580336234269 0 -0.052898137996573155 -0.052408653179416252 0 -0.052995590330207773 -0.05307651296450986 0 -0.052898137996573155 -0.052408653179416252 0 -0.051233481119159971 -0.05393758660898218 0 -0.051946155277169941 -0.05308936660909977 0 -0.051233481119159971 -0.05393758660898218 0 -0.050492981049687906 -0.054070814812411876 0 -0.052898137996573155 -0.052408653179416252 0 -0.051946155277169941 -0.05308936660909977 0 -0.051233481119159971 -0.05393758660898218 0 -0.051233481119159971 -0.05393758660898218 0 -0.049125738678215985 -0.054998977997626139 0 -0.048807250695083709 -0.054678844329688253 0 -0.052995590330207773 -0.05307651296450986 0 -0.051233481119159971 -0.05393758660898218 0 -0.052036104211366313 -0.054141410658286308 0 -0.052320218886385737 -0.05499393701145211 0 -0.052036104211366313 -0.054141410658286308 0 -0.049125738678215985 -0.054998977997626139 0 -0.051233481119159971 -0.05393758660898218 0 -0.052036104211366313 -0.054141410658286308 0 -0.049125738678215985 -0.054998977997626139 0 -0.049125738678215985 -0.054998977997626139 0 -0.045930404115308819 -0.054998131929995885 0 -0.048807250695083709 -0.054678844329688253 0 -0.045930404115308819 -0.054998131929995885 0 -0.046264561889658579 -0.055069315925168644 0 -0.048807250695083709 -0.054678844329688253 0 -0.046264561889658579 -0.055069315925168644 0 -0.048449405887726282 -0.054869279094391578 0 -0.046104764930666113 -0.055649356759797264 0 -0.046264561889658579 -0.055069315925168644 0 -0.048449405887726282 -0.054869279094391578 0 -0.048807250695083709 -0.054678844329688253 0 -0.048449405887726282 -0.054869279094391578 0 -0.048807250695083709 -0.054678844329688253 0 -0.050492981049687906 -0.054070814812411876 0 -0.051233481119159971 -0.05393758660898218 0 -0.048807250695083709 -0.054678844329688253 0 -0.050492981049687906 -0.054070814812411876 0 -0.042734464081523905 -0.054998714778303232 0 -0.044547332871054314 -0.055497612007195635 0 -0.043329825630460533 -0.055760689264158704 0 -0.042734464081523905 -0.054998714778303232 0 -0.043329825630460533 -0.055760689264158704 0 -0.041728650204906022 -0.055887917608631855 0 -0.046264561889658579 -0.055069315925168644 0 -0.042734464081523905 -0.054998714778303232 0 -0.044547332871054314 -0.055497612007195635 0 -0.045930404115308819 -0.054998131929995885 0 -0.046264561889658579 -0.055069315925168644 0 -0.042734464081523905 -0.054998714778303232 0 -0.046104764930666113 -0.055649356759797264 0 -0.044504415135313509 -0.055888778482927337 0 -0.044289217893587945 -0.056269007456943396 0 -0.046264561889658579 -0.055069315925168644 0 -0.046104764930666113 -0.055649356759797264 0 -0.044547332871054314 -0.055497612007195635 0 -0.046104764930666113 -0.055649356759797264 0 -0.044547332871054314 -0.055497612007195635 0 -0.044504415135313509 -0.055888778482927337 0 -0.042903102661313024 -0.057384881150577285 0 -0.042434209156908292 -0.057580919253050873 0 -0.041321166297923415 -0.056118235078200004 0 -0.044547332871054314 -0.055497612007195635 0 -0.043329825630460533 -0.055760689264158704 0 -0.044504415135313509 -0.055888778482927337 0 -0.043329825630460533 -0.055760689264158704 0 -0.044504415135313509 -0.055888778482927337 0 -0.044289217893587945 -0.056269007456943396 0 -0.045183205667539833 -0.056621724161997386 0 -0.041336890065112916 -0.055843168556685516 0 -0.043329825630460533 -0.055760689264158704 0 -0.044289217893587945 -0.056269007456943396 0 -0.041728650204906022 -0.055887917608631855 0 -0.042434209156908292 -0.057580919253050873 0 -0.043620882670294306 -0.058216900712799051 0 -0.042115173986274214 -0.057824273981921637 0 -0.041860759034569796 -0.057202955949424483 0 -0.041746392657553026 -0.056565010737999598 0 -0.042903102661313024 -0.057384881150577285 0 -0.042434209156908292 -0.057580919253050873 0 -0.043620882670294306 -0.058216900712799051 0 -0.045183205667539833 -0.056621724161997386 0 -0.04612888155280908 -0.057902985879919655 0 -0.045183205667539833 -0.056621724161997386 0 -0.047142126722482504 -0.055589176153812418 0 -0.048380330080687609 -0.057127069269097684 0 -0.047852137973343832 -0.055954364363725639 0 -0.046987956474164864 -0.055435747967089978 0 -0.046104764930666113 -0.055649356759797264 0 -0.044289217893587945 -0.056269007456943396 0 -0.046987956474164864 -0.055435747967089978 0 -0.047852137973343832 -0.055954364363725639 0 -0.046987956474164864 -0.055435747967089978 0 -0.047462734724623881 -0.054641331763388722 0 -0.043620882670294306 -0.058216900712799051 0 -0.044461775281354206 -0.059117619127157635 0 -0.043570235279577436 -0.059198673343668358 0 -0.04612888155280908 -0.057902985879919655 0 -0.048523596988399649 -0.05069538433531022 0 -0.046987956474164864 -0.055435747967089978 0 -0.047462734724623881 -0.054641331763388722 0 -0.047290710309363125 -0.054643581005861031 0 -0.048523596988399649 -0.05069538433531022 0 -0.047605913525623579 -0.051782754933098293 0 -0.048523596988399649 -0.05069538433531022 0 -0.047798986698768933 -0.042581205769448099 0 -0.043162491038001426 -0.047590483363601464 0 -0.043118480447089561 -0.047696304013055989 0 -0.043134428628017196 -0.047632705775556727 0 -0.043162491038001426 -0.047590483363601464 0 -0.043134428628017196 -0.047632705775556727 0 -0.043140382446477062 -0.047608814609741638 0 -0.043620882670294306 -0.058216900712799051 0 -0.043570235279577436 -0.059198673343668358 0 -0.042115173986274214 -0.057824273981921637 0 -0.047798986698768933 -0.042581205769448099 0 -0.041746392657553026 -0.056565010737999598 0 -0.048449405887726282 -0.054869279094391578 0 -0.050492981049687906 -0.054070814812411876 0 -0.050269260637061733 -0.054328123966482199 0 -0.050492981049687906 -0.054070814812411876 0 -0.050269260637061733 -0.054328123966482199 0 -0.051839631040342379 -0.053094983195552968 0 -0.051946155277169941 -0.05308936660909977 0 -0.050492981049687906 -0.054070814812411876 0 -0.051839631040342379 -0.053094983195552968 0 -0.046427558563640885 -0.055281493204633617 0 -0.048355183730757409 -0.054683558216896813 0 -0.046104764930666113 -0.055649356759797264 0 -0.046987956474164864 -0.055435747967089978 0 -0.046818634411388012 -0.055326830660306435 0 -0.048449405887726282 -0.054869279094391578 0 -0.046104764930666113 -0.055649356759797264 0 -0.050269260637061733 -0.054328123966482199 0 -0.046818634411388012 -0.055326830660306435 0 -0.046993706857503439 -0.055077434605898028 0 -0.046960116339959591 -0.054801312812024702 0 -0.046987956474164864 -0.055435747967089978 0 -0.046818634411388012 -0.055326830660306435 0 -0.046993706857503439 -0.055077434605898028 0 -0.046993706857503439 -0.055077434605898028 0 -0.047290710309363125 -0.054643581005861031 0 -0.046960116339959591 -0.054801312812024702 0 -0.047290710309363125 -0.054643581005861031 0 -0.046960116339959591 -0.054801312812024702 0 -0.047159621643264232 -0.054229534930813159 0 -0.046987956474164864 -0.055435747967089978 0 -0.046993706857503439 -0.055077434605898028 0 -0.047290710309363125 -0.054643581005861031 0 -0.047535531093029049 -0.054726756748044079 0 -0.047290710309363125 -0.054643581005861031 0 -0.047159621643264232 -0.054229534930813159 0 -0.046818634411388012 -0.055326830660306435 0 -0.046960116339959591 -0.054801312812024702 0 -0.046857191520841369 -0.054134711942555216 0 -0.046960116339959591 -0.054801312812024702 0 -0.046857191520841369 -0.054134711942555216 0 -0.047159621643264232 -0.054229534930813159 0 -0.048355183730757409 -0.054683558216896813 0 -0.049620576948867047 -0.052448324017976534 0 -0.050269260637061733 -0.054328123966482199 0 -0.051839631040342379 -0.053094983195552968 0 -0.053281258720298 -0.051683343197519514 0 -0.046818634411388012 -0.055326830660306435 0 -0.046211088778768908 -0.053510424112627734 0 -0.046857191520841369 -0.054134711942555216 0 -0.046211088778768908 -0.053510424112627734 0 -0.047193463101170022 -0.052804599230454927 0 -0.046280762276767418 -0.051625858991301211 0 -0.046211088778768908 -0.053510424112627734 0 -0.046857191520841369 -0.054134711942555216 0 -0.047193463101170022 -0.052804599230454927 0 -0.047535531093029049 -0.054726756748044079 0 -0.047159621643264232 -0.054229534930813159 0 -0.047193463101170022 -0.052804599230454927 0 -0.053743896520477764 -0.050491631660106 0 -0.051628294695115769 -0.048762878363733317 0 -0.052658986802892833 -0.047929025889709473 0 -0.046857191520841369 -0.054134711942555216 0 -0.047159621643264232 -0.054229534930813159 0 -0.047193463101170022 -0.052804599230454927 0 -0.048523596988399649 -0.05069538433531022 0 -0.049824213336606769 -0.051136437732215566 0 -0.048523596988399649 -0.05069538433531022 0 -0.052500141352987598 -0.03918035287163206 0 -0.051758428333236225 -0.03329626824079511 0 -0.052219059940984386 -0.03356073480783868 0 -0.052179108054385755 -0.031878374955137991 0 -0.051628294695115769 -0.048762878363733317 0 -0.052658986802892833 -0.047929025889709473 0 -0.051004423914677681 -0.046912514720964596 0 -0.052103343247104916 -0.029419422333106356 0 -0.052385074016986395 -0.030949119959739629 0 -0.047193463101170022 -0.052804599230454927 0 -0.046280762276767418 -0.051625858991301211 0 -0.046327346046053632 -0.049647759522439626 0 -0.051628294695115769 -0.048762878363733317 0 -0.051004423914677681 -0.046912514720964596 0 -0.048810403097805231 -0.046834488030071696 0 -0.049824213336606769 -0.051136437732215566 0 -0.047293737265309832 -0.04796507172276878 0 -0.047798986698768933 -0.042581205769448099 0 -0.047579166114632872 -0.037892881874732824 0 -0.051736142641519794 -0.028319437374085876 0 -0.051629608790200239 -0.028698661072148513 0 -0.051089483060280855 -0.028342552075777138 0 -0.051837682755452683 -0.034960336969555979 0 -0.052370988217220964 -0.034939213038262515 0 -0.052219059940984386 -0.03356073480783868 0 -0.047798986698768933 -0.042581205769448099 0 -0.052103343247104916 -0.029419422333106356 0 -0.051736142641519794 -0.028319437374085876 0 -0.052157878910165253 -0.028793712888657425 0 -0.051629608790200239 -0.028698661072148513 0 -0.051837682755452683 -0.034960336969555979 0 -0.051758428333236225 -0.03329626824079511 0 -0.052219059940984386 -0.03356073480783868 0 -0.052157878910165253 -0.028793712888657425 0 -0.051629608790200239 -0.028698661072148513 0 -0.051914878095488205 -0.02910211656220402 0 -0.052157878910165253 -0.028793712888657425 0 -0.052211672090199709 -0.029210346479402106 0 -0.052504994953703289 -0.02944962389366735 0 -0.052157878910165253 -0.028793712888657425 0 -0.051914878095488205 -0.02910211656220402 0 -0.052211672090199709 -0.029210346479402106 0 -0.051629608790200239 -0.028698661072148513 0 -0.051457362735944014 -0.029036623064981212 0 -0.05115248126118533 -0.028724472261469167 0 -0.051629608790200239 -0.028698661072148513 0 -0.051457362735944014 -0.029036623064981212 0 -0.051914878095488205 -0.02910211656220402 0 -0.051457362735944014 -0.029036623064981212 0 -0.051819209804124265 -0.029376522842807222 0 -0.051198066511744619 -0.029348292267668556 0 -0.051457362735944014 -0.029036623064981212 0 -0.051819209804124265 -0.029376522842807222 0 -0.051914878095488205 -0.02910211656220402 0 -0.051819209804124265 -0.029376522842807222 0 -0.051914878095488205 -0.02910211656220402 0 -0.052252453179087027 -0.029463387372584898 0 -0.051914878095488205 -0.02910211656220402 0 -0.052211672090199709 -0.029210346479402106 0 -0.052252453179087027 -0.029463387372584898 0 -0.052211672090199709 -0.029210346479402106 0 -0.052252453179087027 -0.029463387372584898 0 -0.052504994953703289 -0.02944962389366735 0 -0.052252453179087027 -0.029463387372584898 0 -0.052455785889978138 -0.029731326889745897 0 -0.053362722989895708 -0.0299261618112968 0 -0.052360017343220946 -0.029545226362480428 0 -0.052859351022039737 -0.030115301509700008 0 -0.051819209804124265 -0.029376522842807222 0 -0.052252453179087027 -0.029463387372584898 0 -0.052455785889978138 -0.029731326889745897 0 -0.051819209804124265 -0.029376522842807222 0 -0.051198066511744619 -0.029348292267668556 0 -0.051596600256437378 -0.029806211785939979 0 -0.051819209804124265 -0.029376522842807222 0 -0.052455785889978138 -0.029731326889745897 0 -0.051596600256437378 -0.029806211785939979 0 -0.05149467856016373 -0.044572707462797463 0 -0.050049721867259069 -0.045902665408139399 0 -0.048620895704431295 -0.043556389974108121 0 -0.051004423914677681 -0.046912514720964596 0 -0.05149467856016373 -0.044572707462797463 0 -0.050049721867259069 -0.045902665408139399 0 -0.051004423914677681 -0.046912514720964596 0 -0.050049721867259069 -0.045902665408139399 0 -0.048810403097805231 -0.046834488030071696 0 -0.052658986802892833 -0.047929025889709473 0 -0.051004423914677681 -0.046912514720964596 0 -0.05149467856016373 -0.044572707462797463 0 -0.052500141352987598 -0.03918035287163206 0 -0.05178577937850861 -0.038252875963655078 0 -0.051758428333236225 -0.03329626824079511 0 -0.051953884451041391 -0.031294281072772101 0 -0.052179108054385755 -0.031878374955137991 0 -0.052252453179087027 -0.029463387372584898 0 -0.052504994953703289 -0.02944962389366735 0 -0.052358293506576128 -0.029910566950251707 0 -0.052504994953703289 -0.02944962389366735 0 -0.052358293506576128 -0.029910566950251707 0 -0.052262246790590466 -0.03042030747252485 0 -0.052385074016986395 -0.030949119959739629 0 -0.052160058772856913 -0.030239821651606581 0 -0.051953884451041391 -0.031294281072772101 0 -0.052179108054385755 -0.031878374955137991 0 -0.052262246790590466 -0.03042030747252485 0 -0.052252453179087027 -0.029463387372584898 0 -0.052358293506576128 -0.029910566950251707 0 -0.052336236910410519 -0.030234393692801776 0 -0.052358293506576128 -0.029910566950251707 0 -0.052262246790590466 -0.03042030747252485 0 -0.052336236910410519 -0.030234393692801776 0 -0.05149467856016373 -0.044572707462797463 0 -0.048620895704431295 -0.043556389974108121 0 -0.049816227973605812 -0.040147708794737655 0 -0.05178577937850861 -0.038252875963655078 0 -0.050624704555937754 -0.035035084703542489 0 -0.051953884451041391 -0.031294281072772101 0 -0.052262246790590466 -0.03042030747252485 0 -0.052139162263967379 -0.030042283639895632 0 -0.048620895704431295 -0.043556389974108121 0 -0.046182847593295398 -0.04308416913652454 0 -0.046629915381477358 -0.04061285069235393 0 -0.048620895704431295 -0.043556389974108121 0 -0.047371068194653025 -0.044741049888273564 0 -0.046182847593295398 -0.04308416913652454 0 -0.047371068194653025 -0.044741049888273564 0 -0.048810403097805231 -0.046834488030071696 0 -0.044697471309463534 -0.044627699794368356 0 -0.048620895704431295 -0.043556389974108121 0 -0.04871490869572747 -0.045286523389162649 0 -0.047371068194653025 -0.044741049888273564 0 -0.050049721867259069 -0.045902665408139399 0 -0.048620895704431295 -0.043556389974108121 0 -0.04871490869572747 -0.045286523389162649 0 -0.04871490869572747 -0.045286523389162649 0 -0.047371068194653025 -0.044741049888273564 0 -0.048810403097805231 -0.046834488030071696 0 -0.046327346046053632 -0.049647759522439626 0 -0.044697471309463534 -0.044627699794368356 0 -0.045204679305578373 -0.050480263575056972 0 -0.047293737265309832 -0.04796507172276878 0 -0.044694011674391861 -0.044859374628714602 0 -0.050049721867259069 -0.045902665408139399 0 -0.04871490869572747 -0.045286523389162649 0 -0.048810403097805231 -0.046834488030071696 0 -0.044014910595005868 -0.045156667803978194 0 -0.044697471309463534 -0.044627699794368356 0 -0.045204679305578373 -0.050480263575056972 0 -0.048902446193173604 -0.045202993384992021 0 -0.050202857985596885 -0.049410076172938987 0 -0.055024240493985188 -0.046718510708710442 0 -0.055401633807824799 -0.045234732851030419 0 -0.055058791455792941 -0.048386650624515956 0 -0.055024240493985188 -0.046718510708710442 0 -0.055100864303570522 -0.045851815251238284 0 -0.054936985803546709 -0.046239790859000533 0 -0.055100864303570522 -0.045851815251238284 0 -0.055401633807824799 -0.045234732851030419 0 -0.055028821873442851 -0.045136167892170502 0 -0.055024240493985188 -0.046718510708710442 0 -0.055100864303570522 -0.045851815251238284 0 -0.055401633807824799 -0.045234732851030419 0 -0.044014910595005868 -0.045156667803978194 0 -0.044697471309463534 -0.044627699794368356 0 -0.04390519345021842 -0.041612791877391572 0 -0.047371068194653025 -0.044741049888273564 0 -0.044697471309463534 -0.044627699794368356 0 -0.046182847593295398 -0.04308416913652454 0 -0.044697471309463534 -0.044627699794368356 0 -0.046182847593295398 -0.04308416913652454 0 -0.04390519345021842 -0.041612791877391572 0 -0.046182847593295398 -0.04308416913652454 0 -0.04390519345021842 -0.041612791877391572 0 -0.046629915381477358 -0.04061285069235393 0 -0.055401633807824799 -0.045234732851030419 0 -0.055028821873442851 -0.045136167892170502 0 -0.055003913036497966 -0.043970023270593454 0 -0.055028821873442851 -0.045136167892170502 0 -0.05499233391113105 -0.044875734582231333 0 -0.055003913036497966 -0.043970023270593454 0 -0.044014910595005868 -0.045156667803978194 0 -0.04390519345021842 -0.041612791877391572 0 -0.041256979982316068 -0.04057850560720877 0 -0.048902446193173604 -0.045202993384992021 0 -0.0531127635729437 -0.041468159256496134 0 -0.05499838817604278 -0.04280046753799914 0 -0.05499233391113105 -0.044875734582231333 0 -0.055003913036497966 -0.043970023270593454 0 -0.054999983043695175 -0.042793622280781658 0 -0.05588777615165437 -0.04072117346044947 0 -0.057127739466682231 -0.040878351392622275 0 -0.055002965156151724 -0.042793279764911207 0 -0.0531127635729437 -0.041468159256496134 0 -0.05499838817604278 -0.04280046753799914 0 -0.05499233391113105 -0.044875734582231333 0 -0.054998497283228726 -0.045609250377634095 0 -0.05499233391113105 -0.044875734582231333 0 -0.054936985803546709 -0.046239790859000533 0 -0.05470864161639552 -0.047273579192590481 0 -0.055100864303570522 -0.045851815251238284 0 -0.055028821873442851 -0.045136167892170502 0 -0.054936985803546709 -0.046239790859000533 0 -0.055028821873442851 -0.045136167892170502 0 -0.05499233391113105 -0.044875734582231333 0 -0.054936985803546709 -0.046239790859000533 0 -0.054936985803546709 -0.046239790859000533 0 -0.05470864161639552 -0.047273579192590481 0 -0.054689750099248834 -0.047856702457845915 0 -0.05470864161639552 -0.047273579192590481 0 -0.054998497283228726 -0.045609250377634095 0 -0.054536463019250768 -0.048768180182376178 0 -0.05499233391113105 -0.044875734582231333 0 -0.05470864161639552 -0.047273579192590481 0 -0.054998497283228726 -0.045609250377634095 0 -0.054998166640008075 -0.048425420537455091 0 -0.054998497283228726 -0.045609250377634095 0 -0.054536463019250768 -0.048768180182376178 0 -0.05470864161639552 -0.047273579192590481 0 -0.054536463019250768 -0.048768180182376178 0 -0.054313826088564256 -0.049102258591331091 0 -0.053791824070960607 -0.050677580336234269 0 -0.054536463019250768 -0.048768180182376178 0 -0.054313826088564256 -0.049102258591331091 0 -0.052929213341585707 -0.051976044684674622 0 -0.053791824070960607 -0.050677580336234269 0 -0.053856844126796644 -0.050417345694820322 0 -0.054313826088564256 -0.049102258591331091 0 -0.053856844126796644 -0.050417345694820322 0 -0.054452068469457236 -0.048978177041082774 0 -0.053791824070960607 -0.050677580336234269 0 -0.054313826088564256 -0.049102258591331091 0 -0.053856844126796644 -0.050417345694820322 0 -0.052929213341585707 -0.051976044684674622 0 -0.053281258720298 -0.051683343197519514 0 -0.053856844126796644 -0.050417345694820322 0 -0.053281258720298 -0.051683343197519514 0 -0.053856844126796644 -0.050417345694820322 0 -0.055058791455792941 -0.048386650624515956 0 -0.049620576948867047 -0.052448324017976534 0 -0.050202857985596885 -0.049410076172938987 0 -0.053856844126796644 -0.050417345694820322 0 -0.055058791455792941 -0.048386650624515956 0 -0.054452068469457236 -0.048978177041082774 0 -0.046211088778768908 -0.053510424112627734 0 -0.046280762276767418 -0.051625858991301211 0 -0.045204679305578373 -0.050480263575056972 0 -0.046280762276767418 -0.051625858991301211 0 -0.046327346046053632 -0.049647759522439626 0 -0.045204679305578373 -0.050480263575056972 0 -0.055024240493985188 -0.046718510708710442 0 -0.055058791455792941 -0.048386650624515956 0 -0.054689750099248834 -0.047856702457845915 0 -0.055024240493985188 -0.046718510708710442 0 -0.054936985803546709 -0.046239790859000533 0 -0.054689750099248834 -0.047856702457845915 0 -0.054313826088564256 -0.049102258591331091 0 -0.054689750099248834 -0.047856702457845915 0 -0.054452068469457236 -0.048978177041082774 0 -0.05470864161639552 -0.047273579192590481 0 -0.054313826088564256 -0.049102258591331091 0 -0.054689750099248834 -0.047856702457845915 0 -0.055058791455792941 -0.048386650624515956 0 -0.054689750099248834 -0.047856702457845915 0 -0.054452068469457236 -0.048978177041082774 0 -0.023760898073236236 -0.049234560685722961 0 -0.02983016314700216 -0.049420283166690893 0 -0.024896601151780051 -0.043762586319399222 0 -0.022114358504140601 -0.046663799358334257 0 -0.029364624611212965 -0.049360116715219143 0 -0.022114358504140601 -0.046663799358334257 0 -0.015132048284748128 -0.045305158687103352 0 -0.019291362743974319 -0.041610912089307533 0 -0.024896601151780051 -0.043762586319399222 0 -0.022114358504140601 -0.046663799358334257 0 -0.019291362743974319 -0.041610912089307533 0 -0.023760898073236236 -0.049234560685722961 0 -0.025848200931691608 -0.046417904271353255 0 -0.027465658295215883 -0.051494001349373396 0 -0.027590515686099847 -0.053005696034230276 0 -0.026353217733688511 -0.052444894668708671 0 -0.027465658295215883 -0.051494001349373396 0 -0.027590515686099847 -0.053005696034230276 0 -0.027979983219306358 -0.052069343534329411 0 -0.027590515686099847 -0.053005696034230276 0 -0.027979983219306358 -0.052069343534329411 0 -0.027982872863029622 -0.053647166921854707 0 -0.027465658295215883 -0.051494001349373396 0 -0.027979983219306358 -0.052069343534329411 0 -0.029364624611212965 -0.049360116715219143 0 -0.027979983219306358 -0.052069343534329411 0 -0.027982872863029622 -0.053647166921854707 0 -0.028436807588020547 -0.053469461692358465 0 -0.027982872863029622 -0.053647166921854707 0 -0.027951020819527859 -0.054934591345923052 0 -0.028348022919331188 -0.054380368247368555 0 -0.027982872863029622 -0.053647166921854707 0 -0.027951020819527859 -0.054934591345923052 0 -0.028436807588020547 -0.053469461692358465 0 -0.027951020819527859 -0.054934591345923052 0 -0.03031805908763114 -0.05499877259508542 0 -0.027101512526696778 -0.054999478976675877 0 -0.030327687356492276 -0.054999855988469085 0 -0.030975615660230875 -0.055357543985976136 0 -0.031612589239133612 -0.057480310716032421 0 -0.030325760203394912 -0.054998948310497807 0 -0.030361979726796086 -0.055801677184398338 0 -0.03031805908763114 -0.05499877259508542 0 -0.028348022919331188 -0.054380368247368555 0 -0.026929526796909083 -0.05384630009277732 0 -0.027951020819527859 -0.054934591345923052 0 -0.03031805908763114 -0.05499877259508542 0 -0.028348022919331188 -0.054380368247368555 0 -0.027590515686099847 -0.053005696034230276 0 -0.027982872863029622 -0.053647166921854707 0 -0.028348022919331188 -0.054380368247368555 0 -0.027590515686099847 -0.053005696034230276 0 -0.028348022919331188 -0.054380368247368555 0 -0.026929526796909083 -0.05384630009277732 0 -0.031953486420203146 -0.057030899982465577 0 -0.032598809674226209 -0.056041781622755235 0 -0.034086621014012795 -0.056958786806255136 0 -0.031953486420203146 -0.057030899982465577 0 -0.034086621014012795 -0.056958786806255136 0 -0.03279600248735854 -0.058189455963646879 0 -0.031362468289296883 -0.05607733539478691 0 -0.030361979726796086 -0.055801677184398338 0 -0.030975615660230875 -0.055357543985976136 0 -0.031953486420203146 -0.057030899982465577 0 -0.032598809674226209 -0.056041781622755235 0 -0.030327687356492276 -0.054999855988469085 0 -0.030975615660230875 -0.055357543985976136 0 -0.0331213148283694 -0.054999767710047547 0 -0.030975615660230875 -0.055357543985976136 0 -0.032598809674226209 -0.056041781622755235 0 -0.0331213148283694 -0.054999767710047547 0 -0.032598809674226209 -0.056041781622755235 0 -0.0331213148283694 -0.054999767710047547 0 -0.034457188050985188 -0.055899674092548202 0 -0.032598809674226209 -0.056041781622755235 0 -0.034086621014012795 -0.056958786806255136 0 -0.034457188050985188 -0.055899674092548202 0 -0.03279600248735854 -0.058189455963646879 0 -0.033480839468109903 -0.059320972823607557 0 -0.034569596764059678 -0.058247957570518809 0 -0.034086621014012795 -0.056958786806255136 0 -0.03279600248735854 -0.058189455963646879 0 -0.034569596764059678 -0.058247957570518809 0 -0.030361979726796086 -0.055801677184398338 0 -0.031568122004103562 -0.056311187987231559 0 -0.030361979726796086 -0.055801677184398338 0 -0.028622055612530166 -0.053455564697954087 0 -0.029920458440559721 -0.05320923103865921 0 -0.030573335087519627 -0.053309043417077318 0 -0.029812663108261268 -0.049961550681601623 0 -0.027590515686099847 -0.053005696034230276 0 -0.026929526796909083 -0.05384630009277732 0 -0.026353217733688511 -0.052444894668708671 0 -0.031315461483676976 -0.056580167525160839 0 -0.029920458440559721 -0.05320923103865921 0 -0.030573335087519627 -0.053309043417077318 0 -0.029920458440559721 -0.05320923103865921 0 -0.029812663108261268 -0.049961550681601623 0 -0.028498814701449136 -0.049759678611399398 0 -0.027465658295215883 -0.051494001349373396 0 -0.026353217733688511 -0.052444894668708671 0 -0.026103810225289566 -0.051481654171274448 0 -0.031568122004103562 -0.056311187987231559 0 -0.034106339610919308 -0.050503410170215229 0 -0.028622055612530166 -0.053455564697954087 0 -0.025848200931691608 -0.046417904271353255 0 -0.025848200931691608 -0.046417904271353255 0 -0.034106339610919308 -0.050503410170215229 0 -0.034106339610919308 -0.050503410170215229 0 -0.037368241112689264 -0.047484107079684069 0 -0.038424149279633404 -0.042165004312687111 0 -0.038589334062315891 -0.042560420805617297 0 -0.033434728488303422 -0.041769053928690854 0 -0.033480839468109903 -0.059320972823607557 0 -0.035233584109528551 -0.059407094509827042 0 -0.034569596764059678 -0.058247957570518809 0 -0.040163197159407672 -0.042821641468501669 0 -0.038424149279633404 -0.042165004312687111 0 -0.038584534682723749 -0.0425670002157214 0 -0.034049091979517276 -0.049837957320581786 0 -0.034106339610919308 -0.050503410170215229 0 -0.035233584109528551 -0.059407094509827042 0 -0.036502252509764112 -0.058099370273826063 0 -0.034569596764059678 -0.058247957570518809 0 -0.045694976481792944 -0.044200907346991468 0 -0.041305025678225013 -0.043761781175022559 0 -0.038732217080753438 -0.047262942109251915 0 -0.045694976481792944 -0.044200907346991468 0 -0.041305025678225013 -0.043761781175022559 0 -0.043548577274313278 -0.042334883794716567 0 -0.037368241112689264 -0.047484107079684069 0 -0.036936431772617469 -0.057609878340131287 0 -0.038732217080753438 -0.047262942109251915 0 -0.03614065385997095 -0.055410305133016577 0 -0.032986078384440738 -0.042828092020564354 0 -0.041305025678225013 -0.043761781175022559 0 -0.038732217080753438 -0.047262942109251915 0 -0.03573656760018102 -0.040652958300162821 0 -0.037908449359657384 -0.057410153840809247 0 -0.038221368022603786 -0.057515789356347415 0 -0.038150905657299443 -0.057824109741481278 0 -0.045694976481792944 -0.044200907346991468 0 -0.038732217080753438 -0.047262942109251915 0 -0.03614065385997095 -0.055410305133016577 0 -0.036936431772617469 -0.057609878340131287 0 -0.040890503608527397 -0.045202785847187885 0 -0.038732217080753438 -0.047262942109251915 0 -0.03573656760018102 -0.040652958300162821 0 -0.032986078384440738 -0.042828092020564354 0 -0.036502252509764112 -0.058099370273826063 0 -0.03531687889072449 -0.057515550808422196 0 -0.036061295594972474 -0.056713954694787828 0 -0.037622832161834964 -0.057620553339603947 0 -0.037940184281340938 -0.057271856623337218 0 -0.037018367733317604 -0.056564953240646747 0 -0.036936431772617469 -0.057609878340131287 0 -0.036541726074848714 -0.056627592431746261 0 -0.037908449359657384 -0.057410153840809247 0 -0.037940184281340938 -0.057271856623337218 0 -0.038221368022603786 -0.057515789356347415 0 -0.036936431772617469 -0.057609878340131287 0 -0.037665673739174649 -0.057178367881758167 0 -0.034086621014012795 -0.056958786806255136 0 -0.03531687889072449 -0.057515550808422196 0 -0.034569596764059678 -0.058247957570518809 0 -0.036502252509764112 -0.058099370273826063 0 -0.03531687889072449 -0.057515550808422196 0 -0.034569596764059678 -0.058247957570518809 0 -0.034086621014012795 -0.056958786806255136 0 -0.03531687889072449 -0.057515550808422196 0 -0.036061295594972474 -0.056713954694787828 0 -0.034086621014012795 -0.056958786806255136 0 -0.034457188050985188 -0.055899674092548202 0 -0.036061295594972474 -0.056713954694787828 0 -0.0331213148283694 -0.054999767710047547 0 -0.034457188050985188 -0.055899674092548202 0 -0.035913361340714232 -0.054999811021889916 0 -0.034457188050985188 -0.055899674092548202 0 -0.035913361340714232 -0.054999811021889916 0 -0.036061295594972474 -0.056713954694787828 0 -0.035916028359254899 -0.054999660553755721 0 -0.037438534024527945 -0.05578150609469576 0 -0.037018367733317604 -0.056564953240646747 0 -0.035914510937223941 -0.055000145594954149 0 -0.036541726074848714 -0.056627592431746261 0 -0.035916028359254899 -0.054999660553755721 0 -0.037438534024527945 -0.05578150609469576 0 -0.038580289614587294 -0.055000057712910076 0 -0.037438534024527945 -0.05578150609469576 0 -0.037018367733317604 -0.056564953240646747 0 -0.038080136451992014 -0.056534520335353514 0 -0.037940184281340938 -0.057271856623337218 0 -0.037018367733317604 -0.056564953240646747 0 -0.038080136451992014 -0.056534520335353514 0 -0.037940184281340938 -0.057271856623337218 0 -0.038080136451992014 -0.056534520335353514 0 -0.038523972856164879 -0.057159488659726899 0 -0.038080136451992014 -0.056534520335353514 0 -0.038959769565686246 -0.056369875934620943 0 -0.038523972856164879 -0.057159488659726899 0 -0.038581999399206944 -0.055000437416480176 0 -0.039536975497227712 -0.054999238877038309 0 -0.040228455411064082 -0.056516109342268549 0 -0.038581919645203015 -0.055000085751290145 0 -0.039493589914046112 -0.056500748403947462 0 -0.037438534024527945 -0.05578150609469576 0 -0.038080136451992014 -0.056534520335353514 0 -0.038580289614587294 -0.055000057712910076 0 -0.038080136451992014 -0.056534520335353514 0 -0.038580289614587294 -0.055000057712910076 0 -0.038959769565686246 -0.056369875934620943 0 -0.039536975497227712 -0.054999238877038309 0 -0.041321166297923415 -0.056118235078200004 0 -0.040228455411064082 -0.056516109342268549 0 -0.042734464081523905 -0.054998714778303232 0 -0.039537457643908716 -0.05500002414719548 0 -0.041728650204906022 -0.055887917608631855 0 -0.039537529669193633 -0.055000220334158932 0 -0.041336890065112916 -0.055843168556685516 0 -0.042434209156908292 -0.057580919253050873 0 -0.040228455411064082 -0.056516109342268549 0 -0.041728633356148868 -0.05815678151902752 0 -0.042434209156908292 -0.057580919253050873 0 -0.041321166297923415 -0.056118235078200004 0 -0.040228455411064082 -0.056516109342268549 0 -0.039493589914046112 -0.056500748403947462 0 -0.041746392657553026 -0.056565010737999598 0 -0.038959769565686246 -0.056369875934620943 0 -0.039334815537880978 -0.057244092093926342 0 -0.038523972856164879 -0.057159488659726899 0 -0.039334815537880978 -0.057244092093926342 0 -0.038523972856164879 -0.057159488659726899 0 -0.038603797276173822 -0.057648010201898033 0 -0.041746392657553026 -0.056565010737999598 0 -0.040520129335768401 -0.053029466595278733 0 -0.037940184281340938 -0.057271856623337218 0 -0.038523972856164879 -0.057159488659726899 0 -0.038221368022603786 -0.057515789356347415 0 -0.038523972856164879 -0.057159488659726899 0 -0.038221368022603786 -0.057515789356347415 0 -0.038603797276173822 -0.057648010201898033 0 -0.038221368022603786 -0.057515789356347415 0 -0.038603797276173822 -0.057648010201898033 0 -0.038150905657299443 -0.057824109741481278 0 -0.04309924468448776 -0.047635574222700296 0 -0.04303231818800738 -0.047593062321797275 0 -0.043039740434928003 -0.047589198346850645 0 -0.04309924468448776 -0.047635574222700296 0 -0.043140382446477062 -0.047608814609741638 0 -0.043039740434928003 -0.047589198346850645 0 -0.040520129335768401 -0.053029466595278733 0 -0.040890503608527397 -0.045202785847187885 0 -0.043118480447089561 -0.047696304013055989 0 -0.04309924468448776 -0.047635574222700296 0 -0.043134428628017196 -0.047632705775556727 0 -0.04309924468448776 -0.047635574222700296 0 -0.043134428628017196 -0.047632705775556727 0 -0.043140382446477062 -0.047608814609741638 0 -0.051089483060280855 -0.028342552075777138 0 -0.050849574187294584 -0.028618192533398062 0 -0.05115248126118533 -0.028724472261469167 0 -0.051629608790200239 -0.028698661072148513 0 -0.051089483060280855 -0.028342552075777138 0 -0.05115248126118533 -0.028724472261469167 0 -0.051089483060280855 -0.028342552075777138 0 -0.050849574187294584 -0.028618192533398062 0 -0.050482842393286556 -0.028408318543142297 0 -0.047579166114632872 -0.037892881874732824 0 -0.044104494127135484 -0.034119868459598954 0 -0.050849574187294584 -0.028618192533398062 0 -0.050683709665088596 -0.028993597726695609 0 -0.050482842393286556 -0.028408318543142297 0 -0.050849574187294584 -0.028618192533398062 0 -0.050683709665088596 -0.028993597726695609 0 -0.05115248126118533 -0.028724472261469167 0 -0.045761373793542295 -0.024925800625221442 0 -0.044309401104796219 -0.024201118776182213 0 -0.044522514171327965 -0.023302846730821974 0 -0.048542990990932219 -0.025247289027086599 0 -0.044104494127135484 -0.034119868459598954 0 -0.051457362735944014 -0.029036623064981212 0 -0.050683709665088596 -0.028993597726695609 0 -0.05115248126118533 -0.028724472261469167 0 -0.051457362735944014 -0.029036623064981212 0 -0.050683709665088596 -0.028993597726695609 0 -0.051198066511744619 -0.029348292267668556 0 -0.050683709665088596 -0.028993597726695609 0 -0.051198066511744619 -0.029348292267668556 0 -0.05067328774080955 -0.029692047842429556 0 -0.051198066511744619 -0.029348292267668556 0 -0.05067328774080955 -0.029692047842429556 0 -0.051596600256437378 -0.029806211785939979 0 -0.048542990990932219 -0.025247289027086599 0 -0.049272002396428732 -0.029120077634815032 0 -0.045761373793542295 -0.024925800625221442 0 -0.047823090333080166 -0.027490142117945378 0 -0.045233547280842952 -0.026607036907034112 0 -0.045761373793542295 -0.024925800625221442 0 -0.044261805656562916 -0.025466780540423756 0 -0.045233547280842952 -0.026607036907034112 0 -0.044261805656562916 -0.025466780540423756 0 -0.045233547280842952 -0.026607036907034112 0 -0.04329406134360704 -0.026623575213723591 0 -0.047823090333080166 -0.027490142117945378 0 -0.045233547280842952 -0.026607036907034112 0 -0.044313226815101942 -0.028392132062709959 0 -0.045233547280842952 -0.026607036907034112 0 -0.04329406134360704 -0.026623575213723591 0 -0.044313226815101942 -0.028392132062709959 0 -0.042363498312961489 -0.027549013483090481 0 -0.04329406134360704 -0.026623575213723591 0 -0.041347433727970666 -0.026495230294004978 0 -0.042363498312961489 -0.027549013483090481 0 -0.04329406134360704 -0.026623575213723591 0 -0.044313226815101942 -0.028392132062709959 0 -0.04329406134360704 -0.026623575213723591 0 -0.04260125209583919 -0.025529457494501417 0 -0.041347433727970666 -0.026495230294004978 0 -0.044261805656562916 -0.025466780540423756 0 -0.04329406134360704 -0.026623575213723591 0 -0.04260125209583919 -0.025529457494501417 0 -0.04260125209583919 -0.025529457494501417 0 -0.042814284668930301 -0.024165657790394597 0 -0.041228885388048905 -0.025193016764663765 0 -0.044261805656562916 -0.025466780540423756 0 -0.04260125209583919 -0.025529457494501417 0 -0.042814284668930301 -0.024165657790394597 0 -0.045761373793542295 -0.024925800625221442 0 -0.044261805656562916 -0.025466780540423756 0 -0.044309401104796219 -0.024201118776182213 0 -0.044261805656562916 -0.025466780540423756 0 -0.042814284668930301 -0.024165657790394597 0 -0.044309401104796219 -0.024201118776182213 0 -0.042814284668930301 -0.024165657790394597 0 -0.044309401104796219 -0.024201118776182213 0 -0.044146672900028473 -0.023362795432652093 0 -0.045372518813428818 -0.028306154541215621 0 -0.041774982622502531 -0.03698504739500709 0 -0.045504159616368847 -0.035042808616890145 0 -0.038259533348911141 -0.040402881235479922 0 -0.042194958257169367 -0.04027982694987433 0 -0.044309401104796219 -0.024201118776182213 0 -0.044146672900028473 -0.023362795432652093 0 -0.044522514171327965 -0.023302846730821974 0 -0.041774982622502531 -0.03698504739500709 0 -0.040890503608527397 -0.045202785847187885 0 -0.041323243913611807 -0.037729599478054224 0 -0.044070753303784994 -0.035534565844761314 0 -0.044578366877699067 -0.037473792266300647 0 -0.041774982622502531 -0.03698504739500709 0 -0.044104494127135484 -0.034119868459598954 0 -0.040890503608527397 -0.045202785847187885 0 -0.044104494127135484 -0.034119868459598954 0 -0.041305025678225013 -0.043761781175022559 0 -0.03573656760018102 -0.040652958300162821 0 -0.042194958257169367 -0.04027982694987433 0 -0.041774982622502531 -0.03698504739500709 0 -0.040196334786517809 -0.039156659424209581 0 -0.042194958257169367 -0.04027982694987433 0 -0.045424822184219095 -0.041334804001460959 0 -0.046191439611233821 -0.038238172946076648 0 -0.041305025678225013 -0.043761781175022559 0 -0.043548577274313278 -0.042334883794716567 0 -0.042194958257169367 -0.04027982694987433 0 -0.043548577274313278 -0.042334883794716567 0 -0.042194958257169367 -0.04027982694987433 0 -0.045424822184219095 -0.041334804001460959 0 -0.045694976481792944 -0.044200907346991468 0 -0.043548577274313278 -0.042334883794716567 0 -0.045424822184219095 -0.041334804001460959 0 -0.045694976481792944 -0.044200907346991468 0 -0.045424822184219095 -0.041334804001460959 0 -0.049416690146365447 -0.038672937981298422 0 -0.045424822184219095 -0.041334804001460959 0 -0.046191439611233821 -0.038238172946076648 0 -0.049416690146365447 -0.038672937981298422 0 -0.037368241112689264 -0.047484107079684069 0 -0.043914973910795498 -0.037112777465334618 0 -0.046191439611233821 -0.038238172946076648 0 -0.049416690146365447 -0.038672937981298422 0 -0.049149247984862858 -0.035334988078972729 0 -0.045504159616368847 -0.035042808616890145 0 -0.046191439611233821 -0.038238172946076648 0 -0.049149247984862858 -0.035334988078972729 0 -0.045504159616368847 -0.035042808616890145 0 -0.042194958257169367 -0.04027982694987433 0 -0.046191439611233821 -0.038238172946076648 0 -0.038424149279633404 -0.042165004312687111 0 -0.033434728488303422 -0.041769053928690854 0 -0.036028520494034787 -0.038880602639135883 0 -0.038424149279633404 -0.042165004312687111 0 -0.036028520494034787 -0.038880602639135883 0 -0.038647282195861041 -0.035993757629739144 0 -0.040163197159407672 -0.042821641468501669 0 -0.038424149279633404 -0.042165004312687111 0 -0.038647282195861041 -0.035993757629739144 0 -0.043914973910795498 -0.037112777465334618 0 -0.032366630393533581 -0.036081148537764937 0 -0.049416690146365447 -0.038672937981298422 0 -0.052882743221647058 -0.034481907990859602 0 -0.049149247984862858 -0.035334988078972729 0 -0.025848200931691608 -0.046417904271353255 0 -0.032366630393533581 -0.036081148537764937 0 -0.015132048284748128 -0.045305158687103352 0 -0.013512335791968385 -0.038094448791142536 0 -0.019291362743974319 -0.041610912089307533 0 -0.018138563756120499 -0.03724017928523695 0 -0.013512335791968385 -0.038094448791142536 0 -0.018068898831331889 -0.033058475458679362 0 -0.030495294997021461 -0.033575336435345125 0 -0.03084392562436232 -0.03494022875224629 0 -0.02849806331977205 -0.035662839598448369 0 -0.032366630393533581 -0.036081148537764937 0 -0.022467692791149563 -0.034417471835630618 0 -0.018138563756120499 -0.03724017928523695 0 -0.013512335791968385 -0.038094448791142536 0 -0.019291362743974319 -0.041610912089307533 0 -0.045504159616368847 -0.035042808616890145 0 -0.049149247984862858 -0.035334988078972729 0 -0.051861774260340845 -0.030114655046583814 0 -0.032366630393533581 -0.036081148537764937 0 -0.040717674876214575 -0.030574417803814424 0 -0.045372518813428818 -0.028306154541215621 0 -0.040717674876214575 -0.030574417803814424 0 -0.052882743221647058 -0.034481907990859602 0 -0.049149247984862858 -0.035334988078972729 0 -0.051861774260340845 -0.030114655046583814 0 -0.037106803521712264 -0.02900924832000059 0 -0.037247232834298392 -0.029608558961622677 0 -0.036492825501578965 -0.029480626100867956 0 -0.04260125209583919 -0.025529457494501417 0 -0.041228885388048905 -0.025193016764663765 0 -0.041347433727970666 -0.026495230294004978 0 -0.040717674876214575 -0.030574417803814424 0 -0.039226123151083661 -0.027619484058891215 0 -0.039647435064181002 -0.02760328062303443 0 -0.034727334129064723 -0.027448997378909691 0 -0.036966092168953503 -0.028612756497649338 0 -0.039633286328776156 -0.02848092303903213 0 -0.030703372567882144 -0.031410881117286404 0 -0.037247232834298392 -0.029608558961622677 0 -0.037404481314228355 -0.030204415321841573 0 -0.036492825501578965 -0.029480626100867956 0 -0.039226123151083661 -0.027619484058891215 0 -0.039633286328776156 -0.02848092303903213 0 -0.042363498312961489 -0.027549013483090481 0 -0.041347433727970666 -0.026495230294004978 0 -0.041373537553772474 -0.028011239935345648 0 -0.039647435064181002 -0.02760328062303443 0 -0.034727334129064723 -0.027448997378909691 0 -0.033720369178512309 -0.02440305457395062 0 -0.032509499462005008 -0.028172520502772073 0 -0.034727334129064723 -0.027448997378909691 0 -0.034671579746489552 -0.029124721706609832 0 -0.032509499462005008 -0.028172520502772073 0 -0.034727334129064723 -0.027448997378909691 0 -0.030955797548745854 -0.026779750353271105 0 -0.030703372567882144 -0.031410881117286404 0 -0.028408179271474873 -0.029704953129794359 0 -0.034727334129064723 -0.027448997378909691 0 -0.033720369178512309 -0.02440305457395062 0 -0.030955797548745854 -0.026779750353271105 0 -0.025368717053219973 -0.032942196937361286 0 -0.025184081225032819 -0.032877226487480822 0 -0.025007027321876416 -0.033207183122762933 0 -0.03084392562436232 -0.03494022875224629 0 -0.029187955076302226 -0.0362336354836712 0 -0.02849806331977205 -0.035662839598448369 0 -0.030703372567882144 -0.031410881117286404 0 -0.022467692791149563 -0.034417471835630618 0 -0.040717674876214575 -0.030574417803814424 0 -0.030703372567882144 -0.031410881117286404 0 -0.023967460987655766 -0.034286239273992644 0 -0.025685156702771109 -0.034148047421958462 0 -0.02502428162769 -0.036289728250631266 0 -0.022467692791149563 -0.034417471835630618 0 -0.023246669328308361 -0.036252166090086441 0 -0.025685156702771109 -0.034148047421958462 0 -0.026407689465375847 -0.034806543562790525 0 -0.02502428162769 -0.036289728250631266 0 -0.025685156702771109 -0.034148047421958462 0 -0.025007027321876416 -0.033207183122762933 0 -0.026213738972529897 -0.033031189620468512 0 -0.023967460987655766 -0.034286239273992644 0 -0.025685156702771109 -0.034148047421958462 0 -0.025007027321876416 -0.033207183122762933 0 -0.022467692791149563 -0.034417471835630618 0 -0.024537557415045548 -0.032958431145232267 0 -0.025007027321876416 -0.033207183122762933 0 -0.025103487443708026 -0.032489836716986485 0 -0.026213738972529897 -0.033031189620468512 0 -0.025368717053219973 -0.032942196937361286 0 -0.025007027321876416 -0.033207183122762933 0 -0.025103487443708026 -0.032489836716986485 0 -0.028408179271474873 -0.029704953129794359 0 -0.027850058565103197 -0.030400348324299088 0 -0.025103487443708026 -0.032489836716986485 0 -0.026213738972529897 -0.033031189620468512 0 -0.027934120263996848 -0.030676373928257058 0 -0.030955797548745854 -0.026779750353271105 0 -0.027934120263996848 -0.030676373928257058 0 -0.031381031544487438 -0.02995885391008837 0 -0.032509499462005008 -0.028172520502772073 0 -0.030955797548745854 -0.026779750353271105 0 -0.031381031544487438 -0.02995885391008837 0 -0.027693259094359601 -0.032156699989719581 0 -0.027920326921259481 -0.031784772599798748 0 -0.028006089584533274 -0.032501127534865698 0 -0.027693259094359601 -0.032156699989719581 0 -0.027764844739876639 -0.033247455879109017 0 -0.028006089584533274 -0.032501127534865698 0 -0.026213738972529897 -0.033031189620468512 0 -0.027693259094359601 -0.032156699989719581 0 -0.027934120263996848 -0.030676373928257058 0 -0.027693259094359601 -0.032156699989719581 0 -0.027934120263996848 -0.030676373928257058 0 -0.027920326921259481 -0.031784772599798748 0 -0.026213738972529897 -0.033031189620468512 0 -0.027693259094359601 -0.032156699989719581 0 -0.026947849617212472 -0.033532610587112807 0 -0.027693259094359601 -0.032156699989719581 0 -0.026947849617212472 -0.033532610587112807 0 -0.027764844739876639 -0.033247455879109017 0 -0.027400110726430026 -0.034428793717532657 0 -0.026947849617212472 -0.033532610587112807 0 -0.027764844739876639 -0.033247455879109017 0 -0.026407689465375847 -0.034806543562790525 0 -0.026926333105864883 -0.035716462437459455 0 -0.02502428162769 -0.036289728250631266 0 -0.027400110726430026 -0.034428793717532657 0 -0.026947849617212472 -0.033532610587112807 0 -0.026407689465375847 -0.034806543562790525 0 -0.025685156702771109 -0.034148047421958462 0 -0.026213738972529897 -0.033031189620468512 0 -0.026947849617212472 -0.033532610587112807 0 -0.025685156702771109 -0.034148047421958462 0 -0.026947849617212472 -0.033532610587112807 0 -0.026407689465375847 -0.034806543562790525 0 -0.027400110726430026 -0.034428793717532657 0 -0.026407689465375847 -0.034806543562790525 0 -0.026926333105864883 -0.035716462437459455 0 -0.02502428162769 -0.036289728250631266 0 -0.025559229334538296 -0.039311026863612993 0 -0.026962996984445417 -0.037403202804397469 0 -0.026926333105864883 -0.035716462437459455 0 -0.02502428162769 -0.036289728250631266 0 -0.026962996984445417 -0.037403202804397469 0 -0.023246669328308361 -0.036252166090086441 0 -0.025638069999550612 -0.039017246454299777 0 -0.021748073141244797 -0.036228845204309447 0 -0.019291362743974319 -0.041610912089307533 0 -0.025559229334538296 -0.039311026863612993 0 -0.018138563756120499 -0.03724017928523695 0 -0.021748073141244797 -0.036228845204309447 0 -0.019291362743974319 -0.041610912089307533 0 -0.018138563756120499 -0.03724017928523695 0 -0.018068898831331889 -0.033058475458679362 0 -0.021748073141244797 -0.036228845204309447 0 -0.024896601151780051 -0.043762586319399222 0 -0.019291362743974319 -0.041610912089307533 0 -0.025559229334538296 -0.039311026863612993 0 -0.024896601151780051 -0.043762586319399222 0 -0.025559229334538296 -0.039311026863612993 0 -0.028494909081522232 -0.04269080318902288 0 -0.027110556929173423 -0.035392219272086793 0 -0.02783973343140967 -0.035483796344377164 0 -0.027153984695258038 -0.035431790177945052 0 -0.027110556929173423 -0.035392219272086793 0 -0.02783973343140967 -0.035483796344377164 0 -0.026697977251277843 -0.035226790378392284 0 -0.028213729606161586 -0.036431904998921801 0 -0.028009888843891995 -0.036017890715796516 0 -0.03112443836879944 -0.037623812189106889 0 -0.02783973343140967 -0.035483796344377164 0 -0.030385482236865199 -0.040526075707218931 0 -0.03112443836879944 -0.037623812189106889 0 -0.033038128812403651 -0.03940782324044996 0 -0.030385482236865199 -0.040526075707218931 0 -0.03112443836879944 -0.037623812189106889 0 -0.033451366502940574 -0.037139222574562689 0 -0.033038128812403651 -0.03940782324044996 0 -0.03112443836879944 -0.037623812189106889 0 -0.030839559349286016 -0.035529534545289676 0 -0.033451366502940574 -0.037139222574562689 0 -0.030839559349286016 -0.035529534545289676 0 -0.029433222417976256 -0.033617959884503869 0 -0.03276143581441484 -0.033958598637150519 0 -0.03112443836879944 -0.037623812189106889 0 -0.030839559349286016 -0.035529534545289676 0 -0.02783973343140967 -0.035483796344377164 0 -0.030839559349286016 -0.035529534545289676 0 -0.03276143581441484 -0.033958598637150519 0 -0.033451366502940574 -0.037139222574562689 0 -0.030839559349286016 -0.035529534545289676 0 -0.02783973343140967 -0.035483796344377164 0 -0.029433222417976256 -0.033617959884503869 0 -0.02783973343140967 -0.035483796344377164 0 -0.029433222417976256 -0.033617959884503869 0 -0.02728297745206712 -0.034172651642744599 0 -0.027998760601097034 -0.032685357709817113 0 -0.029433222417976256 -0.033617959884503869 0 -0.02728297745206712 -0.034172651642744599 0 -0.027998760601097034 -0.032685357709817113 0 -0.028750478097939455 -0.031972281654921761 0 -0.029433222417976256 -0.033617959884503869 0 -0.027998760601097034 -0.032685357709817113 0 -0.028750478097939455 -0.031972281654921761 0 -0.027920326921259481 -0.031784772599798748 0 -0.028750478097939455 -0.031972281654921761 0 -0.027934120263996848 -0.030676373928257058 0 -0.027920326921259481 -0.031784772599798748 0 -0.028750478097939455 -0.031972281654921761 0 -0.027934120263996848 -0.030676373928257058 0 -0.031381031544487438 -0.02995885391008837 0 -0.028750478097939455 -0.031972281654921761 0 -0.031381031544487438 -0.02995885391008837 0 -0.031106337452760691 -0.032183035742982265 0 -0.031381031544487438 -0.02995885391008837 0 -0.031106337452760691 -0.032183035742982265 0 -0.033878973088399301 -0.031235787226397266 0 -0.031106337452760691 -0.032183035742982265 0 -0.029433222417976256 -0.033617959884503869 0 -0.03276143581441484 -0.033958598637150519 0 -0.028750478097939455 -0.031972281654921761 0 -0.031106337452760691 -0.032183035742982265 0 -0.029433222417976256 -0.033617959884503869 0 -0.035870372559889278 -0.032478903534915143 0 -0.033878973088399301 -0.031235787226397266 0 -0.03276143581441484 -0.033958598637150519 0 -0.035870372559889278 -0.032478903534915143 0 -0.033878973088399301 -0.031235787226397266 0 -0.038263406718019068 -0.030245635211302243 0 -0.031106337452760691 -0.032183035742982265 0 -0.033878973088399301 -0.031235787226397266 0 -0.03276143581441484 -0.033958598637150519 0 -0.035870372559889278 -0.032478903534915143 0 -0.036423631787716432 -0.034624934594003134 0 -0.03276143581441484 -0.033958598637150519 0 -0.033878973088399301 -0.031235787226397266 0 -0.034671579746489552 -0.029124721706609832 0 -0.038263406718019068 -0.030245635211302243 0 -0.034727334129064723 -0.027448997378909691 0 -0.034671579746489552 -0.029124721706609832 0 -0.036966092168953503 -0.028612756497649338 0 -0.031381031544487438 -0.02995885391008837 0 -0.033878973088399301 -0.031235787226397266 0 -0.034671579746489552 -0.029124721706609832 0 -0.032509499462005008 -0.028172520502772073 0 -0.031381031544487438 -0.02995885391008837 0 -0.034671579746489552 -0.029124721706609832 0 -0.039647435064181002 -0.02760328062303443 0 -0.038263406718019068 -0.030245635211302243 0 -0.041628752156582023 -0.028660806022917873 0 -0.039647435064181002 -0.02760328062303443 0 -0.036966092168953503 -0.028612756497649338 0 -0.038263406718019068 -0.030245635211302243 0 -0.034671579746489552 -0.029124721706609832 0 -0.036966092168953503 -0.028612756497649338 0 -0.038263406718019068 -0.030245635211302243 0 -0.038263406718019068 -0.030245635211302243 0 -0.040908507957019231 -0.03057120703559571 0 -0.041628752156582023 -0.028660806022917873 0 -0.038263406718019068 -0.030245635211302243 0 -0.038870484443309532 -0.032431676108107883 0 -0.040908507957019231 -0.03057120703559571 0 -0.038870484443309532 -0.032431676108107883 0 -0.041648427944328464 -0.032328971814803528 0 -0.040908507957019231 -0.03057120703559571 0 -0.035870372559889278 -0.032478903534915143 0 -0.038263406718019068 -0.030245635211302243 0 -0.038870484443309532 -0.032431676108107883 0 -0.035870372559889278 -0.032478903534915143 0 -0.038870484443309532 -0.032431676108107883 0 -0.036423631787716432 -0.034624934594003134 0 -0.038870484443309532 -0.032431676108107883 0 -0.039984822734249068 -0.03447875150230028 0 -0.041648427944328464 -0.032328971814803528 0 -0.039984822734249068 -0.03447875150230028 0 -0.038153042723736187 -0.038348514319715754 0 -0.044033003819962467 -0.034937221660625607 0 -0.039984822734249068 -0.03447875150230028 0 -0.036423631787716432 -0.034624934594003134 0 -0.038153042723736187 -0.038348514319715754 0 -0.038870484443309532 -0.032431676108107883 0 -0.039984822734249068 -0.03447875150230028 0 -0.036423631787716432 -0.034624934594003134 0 -0.036423631787716432 -0.034624934594003134 0 -0.033451366502940574 -0.037139222574562689 0 -0.038153042723736187 -0.038348514319715754 0 -0.036423631787716432 -0.034624934594003134 0 -0.03276143581441484 -0.033958598637150519 0 -0.033451366502940574 -0.037139222574562689 0 -0.042694987254181083 -0.035894697798116763 0 -0.043763401703614348 -0.035446656272111431 0 -0.043191491549993036 -0.036444446109087481 0 -0.033451366502940574 -0.037139222574562689 0 -0.032946270677880363 -0.040328774865810789 0 -0.038153042723736187 -0.038348514319715754 0 -0.035812876106396961 -0.037106603686609306 0 -0.041310636146206933 -0.036783804993796805 0 -0.033765118480318816 -0.038412286968923563 0 -0.035812876106396961 -0.037106603686609306 0 -0.043763401703614348 -0.035446656272111431 0 -0.044033003819962467 -0.034937221660625607 0 -0.044572427960345322 -0.035951700292733625 0 -0.041310636146206933 -0.036783804993796805 0 -0.043675886786605805 -0.035245125289966817 0 -0.044033003819962467 -0.034937221660625607 0 -0.046637313202929534 -0.036843165982467382 0 -0.044572427960345322 -0.035951700292733625 0 -0.044033003819962467 -0.034937221660625607 0 -0.048460402503195506 -0.033929583361669423 0 -0.046637313202929534 -0.036843165982467382 0 -0.044033003819962467 -0.034937221660625607 0 -0.0472193294961765 -0.032306163784962941 0 -0.048460402503195506 -0.033929583361669423 0 -0.044033003819962467 -0.034937221660625607 0 -0.044608089912817901 -0.032058431105825118 0 -0.0472193294961765 -0.032306163784962941 0 -0.039984822734249068 -0.03447875150230028 0 -0.044033003819962467 -0.034937221660625607 0 -0.041648427944328464 -0.032328971814803528 0 -0.044033003819962467 -0.034937221660625607 0 -0.041648427944328464 -0.032328971814803528 0 -0.044608089912817901 -0.032058431105825118 0 -0.041648427944328464 -0.032328971814803528 0 -0.043326055839456784 -0.030416917593224988 0 -0.044608089912817901 -0.032058431105825118 0 -0.041648427944328464 -0.032328971814803528 0 -0.043326055839456784 -0.030416917593224988 0 -0.040908507957019231 -0.03057120703559571 0 -0.043326055839456784 -0.030416917593224988 0 -0.040908507957019231 -0.03057120703559571 0 -0.041628752156582023 -0.028660806022917873 0 -0.043326055839456784 -0.030416917593224988 0 -0.041628752156582023 -0.028660806022917873 0 -0.044313226815101942 -0.028392132062709959 0 -0.042363498312961489 -0.027549013483090481 0 -0.041628752156582023 -0.028660806022917873 0 -0.044313226815101942 -0.028392132062709959 0 -0.042363498312961489 -0.027549013483090481 0 -0.041373537553772474 -0.028011239935345648 0 -0.041628752156582023 -0.028660806022917873 0 -0.039633286328776156 -0.02848092303903213 0 -0.040905233528122656 -0.028893341362286287 0 -0.043326055839456784 -0.030416917593224988 0 -0.044313226815101942 -0.028392132062709959 0 -0.046299763944855542 -0.030255844634577218 0 -0.043326055839456784 -0.030416917593224988 0 -0.046299763944855542 -0.030255844634577218 0 -0.044608089912817901 -0.032058431105825118 0 -0.046299763944855542 -0.030255844634577218 0 -0.044608089912817901 -0.032058431105825118 0 -0.0472193294961765 -0.032306163784962941 0 -0.046299763944855542 -0.030255844634577218 0 -0.05025599750584768 -0.030946798355021204 0 -0.0472193294961765 -0.032306163784962941 0 -0.047823090333080166 -0.027490142117945378 0 -0.046299763944855542 -0.030255844634577218 0 -0.05025599750584768 -0.030946798355021204 0 -0.047823090333080166 -0.027490142117945378 0 -0.044313226815101942 -0.028392132062709959 0 -0.046299763944855542 -0.030255844634577218 0 -0.05067328774080955 -0.029692047842429556 0 -0.05025599750584768 -0.030946798355021204 0 -0.051596600256437378 -0.029806211785939979 0 -0.049272002396428732 -0.029120077634815032 0 -0.050176628763214083 -0.030762998767686837 0 -0.05025599750584768 -0.030946798355021204 0 -0.048460402503195506 -0.033929583361669423 0 -0.052391940857364837 -0.032850736890771531 0 -0.05025599750584768 -0.030946798355021204 0 -0.0472193294961765 -0.032306163784962941 0 -0.048460402503195506 -0.033929583361669423 0 -0.048460402503195506 -0.033929583361669423 0 -0.050563014120828448 -0.035691856737659386 0 -0.052391940857364837 -0.032850736890771531 0 -0.048460402503195506 -0.033929583361669423 0 -0.050563014120828448 -0.035691856737659386 0 -0.046637313202929534 -0.036843165982467382 0 -0.053641841243984398 -0.032599453209884895 0 -0.050719598417316041 -0.032628390963846357 0 -0.056946159289658245 -0.029645576954169126 0 -0.056850822665599841 -0.029211068616929497 0 -0.055463318984026642 -0.028369804485384079 0 -0.056946159289658245 -0.029645576954169126 0 -0.056850822665599841 -0.029211068616929497 0 -0.056547540111225113 -0.029467112455093307 0 -0.056850822665599841 -0.029211068616929497 0 -0.057297732811636727 -0.029160882587520816 0 -0.057003871040710176 -0.028727789141858622 0 -0.057297732811636727 -0.029160882587520816 0 -0.057003871040710176 -0.028727789141858622 0 -0.057350114585727287 -0.028025422280174368 0 -0.056184905230984516 -0.029534038123355626 0 -0.055291711827641227 -0.030321474673704205 0 -0.056588060963564522 -0.030804735924702866 0 -0.057297732811636727 -0.029160882587520816 0 -0.056184905230984516 -0.029534038123355626 0 -0.056588060963564522 -0.030804735924702866 0 -0.056850822665599841 -0.029211068616929497 0 -0.057297732811636727 -0.029160882587520816 0 -0.056184905230984516 -0.029534038123355626 0 -0.056850822665599841 -0.029211068616929497 0 -0.056184905230984516 -0.029534038123355626 0 -0.055039486380427362 -0.029240842583420218 0 -0.056184905230984516 -0.029534038123355626 0 -0.055039486380427362 -0.029240842583420218 0 -0.055291711827641227 -0.030321474673704205 0 -0.05267922192174667 -0.029466163289857693 0 -0.052759106680072158 -0.029490485194085505 0 -0.055039486380427362 -0.029240842583420218 0 -0.055291711827641227 -0.030321474673704205 0 -0.05381916069490595 -0.030013454968160238 0 -0.050735864055594181 -0.028500421631763924 0 -0.051645540900834341 -0.029054511751395416 0 -0.051274635318193533 -0.028217918401742748 0 -0.051645540900834341 -0.029054511751395416 0 -0.051274635318193533 -0.028217918401742748 0 -0.051877960100314764 -0.028388249371458733 0 -0.055039486380427362 -0.029240842583420218 0 -0.05381916069490595 -0.030013454968160238 0 -0.053366706380176987 -0.029057263257158652 0 -0.055039486380427362 -0.029240842583420218 0 -0.055463318984026642 -0.028369804485384079 0 -0.053129060096370244 -0.02815549418993591 0 -0.055039486380427362 -0.029240842583420218 0 -0.053129060096370244 -0.02815549418993591 0 -0.053366706380176987 -0.029057263257158652 0 -0.056850822665599841 -0.029211068616929497 0 -0.055039486380427362 -0.029240842583420218 0 -0.055463318984026642 -0.028369804485384079 0 -0.050719598417316041 -0.032628390963846357 0 -0.050082769301883504 -0.032623421103101208 0 -0.046637313202929534 -0.036843165982467382 0 -0.044572427960345322 -0.035951700292733625 0 -0.044324283709952006 -0.036888931755985163 0 -0.043763401703614348 -0.035446656272111431 0 -0.044572427960345322 -0.035951700292733625 0 -0.044324283709952006 -0.036888931755985163 0 -0.043763401703614348 -0.035446656272111431 0 -0.043191491549993036 -0.036444446109087481 0 -0.044324283709952006 -0.036888931755985163 0 -0.042694987254181083 -0.035894697798116763 0 -0.043191491549993036 -0.036444446109087481 0 -0.042539831974346888 -0.036943597345573335 0 -0.043191491549993036 -0.036444446109087481 0 -0.044324283709952006 -0.036888931755985163 0 -0.04262831868122146 -0.037074342391417672 0 -0.052501461287784726 -0.028719648155247534 0 -0.052215468329438838 -0.0291787392523719 0 -0.051453155212033315 -0.028593238794163339 0 -0.050082769301883504 -0.032623421103101208 0 -0.041149664496164015 -0.031816779368451092 0 -0.053129060096370244 -0.02815549418993591 0 -0.052501461287784726 -0.028719648155247534 0 -0.051453155212033315 -0.028593238794163339 0 -0.043191491549993036 -0.036444446109087481 0 -0.04262831868122146 -0.037074342391417672 0 -0.042539831974346888 -0.036943597345573335 0 -0.044442328579812312 -0.02802298432725862 0 -0.04419302923469591 -0.027948667818536055 0 -0.044430979017934552 -0.029020916455978762 0 -0.053129060096370244 -0.02815549418993591 0 -0.052501461287784726 -0.028719648155247534 0 -0.053366706380176987 -0.029057263257158652 0 -0.052501461287784726 -0.028719648155247534 0 -0.053366706380176987 -0.029057263257158652 0 -0.052215468329438838 -0.0291787392523719 0 -0.051645540900834341 -0.029054511751395416 0 -0.052215468329438838 -0.0291787392523719 0 -0.052224051229114034 -0.029268918286104471 0 -0.052759106680072158 -0.029490485194085505 0 -0.052220197437826313 -0.029198344266237068 0 -0.05381916069490595 -0.030013454968160238 0 -0.053366706380176987 -0.029057263257158652 0 -0.052215468329438838 -0.0291787392523719 0 -0.048698564129306073 -0.028105779057040283 0 -0.047317677142412487 -0.027227726115181747 0 -0.051645540900834341 -0.029054511751395416 0 -0.052224051229114034 -0.029268918286104471 0 -0.051877960100314764 -0.028388249371458733 0 -0.044070891289670906 -0.026422399719325473 0 -0.043626238879804616 -0.027469791067497255 0 -0.042855500562617173 -0.025969583357432133 0 -0.044070891289670906 -0.026422399719325473 0 -0.044269857177127267 -0.027285345190968747 0 -0.044920817326232917 -0.027094676627616731 0 -0.044070891289670906 -0.026422399719325473 0 -0.044269857177127267 -0.027285345190968747 0 -0.043626238879804616 -0.027469791067497255 0 -0.043626238879804616 -0.027469791067497255 0 -0.04419302923469591 -0.027948667818536055 0 -0.044430979017934552 -0.029020916455978762 0 -0.052215468329438838 -0.0291787392523719 0 -0.052224051229114034 -0.029268918286104471 0 -0.051453155212033315 -0.028593238794163339 0 -0.048698564129306073 -0.028105779057040283 0 -0.041149664496164015 -0.031816779368451092 0 -0.044269857177127267 -0.027285345190968747 0 -0.043626238879804616 -0.027469791067497255 0 -0.04419302923469591 -0.027948667818536055 0 -0.044269857177127267 -0.027285345190968747 0 -0.044442328579812312 -0.02802298432725862 0 -0.04419302923469591 -0.027948667818536055 0 -0.044442328579812312 -0.02802298432725862 0 -0.044920817326232917 -0.027094676627616731 0 -0.04456573034565417 -0.029001633465459409 0 -0.022552406763538972 -0.032897487139981127 0 -0.021754579040234649 -0.031407398683951385 0 -0.021393143754522462 -0.034020908982665542 0 -0.033405759904778849 -0.029062866319396238 0 -0.032507429766088829 -0.032296962855902257 0 -0.044269857177127267 -0.027285345190968747 0 -0.044442328579812312 -0.02802298432725862 0 -0.044920817326232917 -0.027094676627616731 0 -0.021754579040234649 -0.031407398683951385 0 -0.023316306404517463 -0.030433384556733965 0 -0.022002280944814989 -0.028853949985793631 0 -0.033405759904778849 -0.029062866319396238 0 -0.033598127884324855 -0.027099249768051652 0 -0.044070891289670906 -0.026422399719325473 0 -0.044920817326232917 -0.027094676627616731 0 -0.045222989118378375 -0.025276474036853992 0 -0.023316306404517463 -0.030433384556733965 0 -0.02355337883335442 -0.032133988474738341 0 -0.024769090682681232 -0.031521706595769007 0 -0.021754579040234649 -0.031407398683951385 0 -0.023316306404517463 -0.030433384556733965 0 -0.02355337883335442 -0.032133988474738341 0 -0.022552406763538972 -0.032897487139981127 0 -0.021754579040234649 -0.031407398683951385 0 -0.02355337883335442 -0.032133988474738341 0 -0.022552406763538972 -0.032897487139981127 0 -0.02355337883335442 -0.032133988474738341 0 -0.024099264871925392 -0.033739770156529757 0 -0.022552406763538972 -0.032897487139981127 0 -0.024099264871925392 -0.033739770156529757 0 -0.021393143754522462 -0.034020908982665542 0 -0.024099264871925392 -0.033739770156529757 0 -0.022899182565460446 -0.034514717323317019 0 -0.023393687714838397 -0.034707737022482192 0 -0.019411204014366752 -0.034525070581043905 0 -0.032507429766088829 -0.032296962855902257 0 -0.024099264871925392 -0.033739770156529757 0 -0.02396659342362778 -0.035100793699629415 0 -0.023393687714838397 -0.034707737022482192 0 -0.024099264871925392 -0.033739770156529757 0 -0.022298190198211446 -0.034293909068535598 0 -0.022899182565460446 -0.034514717323317019 0 -0.044442328579812312 -0.02802298432725862 0 -0.044430979017934552 -0.029020916455978762 0 -0.04456573034565417 -0.029001633465459409 0 -0.022298190198211446 -0.034293909068535598 0 -0.022277869363780661 -0.034451051731948672 0 -0.022899182565460446 -0.034514717323317019 0 -0.041149664496164015 -0.031816779368451092 0 -0.035305310853270655 -0.032916798759276916 0 -0.031668779449303415 -0.027228112140801283 0 -0.037368300948648979 -0.026367790617942029 0 -0.036077632806892357 -0.034236118876122414 0 -0.041149664496164015 -0.031816779368451092 0 -0.032507429766088829 -0.032296962855902257 0 -0.032507429766088829 -0.032296962855902257 0 -0.035305310853270655 -0.032916798759276916 0 -0.022899182565460446 -0.034514717323317019 0 -0.02286567558832709 -0.035429288006396935 0 -0.023393687714838397 -0.034707737022482192 0 -0.022277869363780661 -0.034451051731948672 0 -0.022899182565460446 -0.034514717323317019 0 -0.02286567558832709 -0.035429288006396935 0 -0.033145681666527871 -0.035693174224679637 0 -0.033279368201024874 -0.034872102037766417 0 -0.033635216539217271 -0.035481605833843195 0 -0.035812876106396961 -0.037106603686609306 0 -0.035305310853270655 -0.032916798759276916 0 -0.035305310853270655 -0.032916798759276916 0 -0.028009888843891995 -0.036017890715796516 0 -0.035812876106396961 -0.037106603686609306 0 -0.028009888843891995 -0.036017890715796516 0 -0.02286567558832709 -0.035429288006396935 0 -0.02396659342362778 -0.035100793699629415 0 -0.023393687714838397 -0.034707737022482192 0 -0.027110556929173423 -0.035392219272086793 0 -0.027153984695258038 -0.035431790177945052 0 -0.026872028182659154 -0.035494356028872256 0 -0.028009888843891995 -0.036017890715796516 0 -0.025034396014836788 -0.035371631401205909 0 -0.054204945605471878 -0.033984713930070881 0 -0.054417776230716718 -0.03505871973910462 0 -0.054965564330230712 -0.034596283840826553 0 -0.056955451060600688 -0.035366616605119326 0 -0.050599598864853587 -0.037429455559381687 0 -0.054204945605471878 -0.033984713930070881 0 -0.054570277319587981 -0.033676613120362589 0 -0.054965564330230712 -0.034596283840826553 0 -0.054876404237146854 -0.032531581904949709 0 -0.052357167923682175 -0.032644292156970109 0 -0.052357167923682175 -0.032644292156970109 0 -0.054271860196199034 -0.030683016321413282 0 -0.054725257041598328 -0.03095779066837042 0 -0.054898391375339514 -0.031378039279575054 0 -0.055281804308040784 -0.031056210564310703 0 -0.054725257041598328 -0.03095779066837042 0 -0.055120926886914626 -0.030670481709924851 0 -0.054890833837755115 -0.030347368043864443 0 -0.054725257041598328 -0.03095779066837042 0 -0.055281804308040784 -0.031056210564310703 0 -0.055120926886914626 -0.030670481709924851 0 -0.056955451060600688 -0.035366616605119326 0 -0.056232681778671537 -0.033755525910620622 0 -0.054204945605471878 -0.033984713930070881 0 -0.054570277319587981 -0.033676613120362589 0 -0.053988617812772498 -0.032881738532324511 0 -0.054725257041598328 -0.03095779066837042 0 -0.054466992172390608 -0.030350240738458514 0 -0.054890833837755115 -0.030347368043864443 0 -0.054876404237146854 -0.032531581904949709 0 -0.05421509248850051 -0.031401356582715652 0 -0.054570277319587981 -0.033676613120362589 0 -0.053988617812772498 -0.032881738532324511 0 -0.054180374699808694 -0.032719880589211166 0 -0.058799080582240794 -0.036634870840734329 0 -0.056754088191412679 -0.03554744630811027 0 -0.058386415154107627 -0.034229037595292847 0 -0.056754088191412679 -0.03554744630811027 0 -0.054999813250829629 -0.037085068717380182 0 -0.054999913486179206 -0.034230501187743442 0 -0.056754088191412679 -0.03554744630811027 0 -0.054999813250829629 -0.037085068717380182 0 -0.056760166610702906 -0.037622781805174456 0 -0.058799080582240794 -0.036634870840734329 0 -0.056754088191412679 -0.03554744630811027 0 -0.056760166610702906 -0.037622781805174456 0 -0.058799080582240794 -0.036634870840734329 0 -0.056760166610702906 -0.037622781805174456 0 -0.057448476209057305 -0.038953154205065135 0 -0.057448476209057305 -0.038953154205065135 0 -0.056717298561085573 -0.041031419340241314 0 -0.059079543101081274 -0.039076151798279599 0 -0.056760166610702906 -0.037622781805174456 0 -0.057448476209057305 -0.038953154205065135 0 -0.055979056929190474 -0.03949648723160494 0 -0.054999813250829629 -0.037085068717380182 0 -0.055979056929190474 -0.03949648723160494 0 -0.054999820140172788 -0.03993936588594537 0 -0.054999813250829629 -0.037085068717380182 0 -0.056760166610702906 -0.037622781805174456 0 -0.055979056929190474 -0.03949648723160494 0 -0.054999983043695175 -0.042793622280781658 0 -0.054999820140172788 -0.03993936588594537 0 -0.05588777615165437 -0.04072117346044947 0 -0.055979056929190474 -0.03949648723160494 0 -0.054999820140172788 -0.03993936588594537 0 -0.05588777615165437 -0.04072117346044947 0 -0.055979056929190474 -0.03949648723160494 0 -0.05588777615165437 -0.04072117346044947 0 -0.057127739466682231 -0.040878351392622275 0 -0.056403408197610222 -0.040267160781783072 0 -0.0531127635729437 -0.041468159256496134 0 -0.057448476209057305 -0.038953154205065135 0 -0.055979056929190474 -0.03949648723160494 0 -0.056717298561085573 -0.041031419340241314 0 -0.050599598864853587 -0.037429455559381687 0 -0.046330451891208775 -0.03972760606665772 0 -0.04390519345021842 -0.041612791877391572 0 -0.041256979982316068 -0.04057850560720877 0 -0.046042985739738439 -0.036597443929712092 0 -0.04390519345021842 -0.041612791877391572 0 -0.046042985739738439 -0.036597443929712092 0 -0.046629915381477358 -0.04061285069235393 0 -0.0531127635729437 -0.041468159256496134 0 -0.050599598864853587 -0.037429455559381687 0 -0.058799080582240794 -0.036634870840734329 0 -0.057448476209057305 -0.038953154205065135 0 -0.059079543101081274 -0.039076151798279599 0 -0.052357167923682175 -0.032644292156970109 0 -0.050624704555937754 -0.035035084703542489 0 -0.04587127297236341 -0.037436221484312651 0 -0.047838022068093643 -0.035785653914449898 0 -0.049816227973605812 -0.040147708794737655 0 -0.050599598864853587 -0.037429455559381687 0 -0.052357167923682175 -0.032644292156970109 0 -0.04587127297236341 -0.037436221484312651 0 -0.046629915381477358 -0.04061285069235393 0 -0.049816227973605812 -0.040147708794737655 0 -0.048620895704431295 -0.043556389974108121 0 -0.046629915381477358 -0.04061285069235393 0 -0.049816227973605812 -0.040147708794737655 0 -0.052262246790590466 -0.03042030747252485 0 -0.052139162263967379 -0.030042283639895632 0 -0.052336236910410519 -0.030234393692801776 0 -0.052139162263967379 -0.030042283639895632 0 -0.052336236910410519 -0.030234393692801776 0 -0.052218167958016322 -0.030037532216038429 0 -0.052859351022039737 -0.030115301509700008 0 -0.053159921864107174 -0.030483463457580337 0 -0.053362722989895708 -0.0299261618112968 0 -0.054319127738246632 -0.030942622017977553 0 -0.052966057535255198 -0.030566481449045026 0 -0.054319127738246632 -0.030942622017977553 0 -0.052966057535255198 -0.030566481449045026 0 -0.054224234947673013 -0.031519938762127477 0 -0.052195980266714473 -0.030065161880428584 0 -0.052139162263967379 -0.030042283639895632 0 -0.052218167958016322 -0.030037532216038429 0 -0.05025599750584768 -0.030946798355021204 0 -0.052966057535255198 -0.030566481449045026 0 -0.053183174892471881 -0.031528034839345118 0 -0.05025599750584768 -0.030946798355021204 0 -0.051596600256437378 -0.029806211785939979 0 -0.052966057535255198 -0.030566481449045026 0 -0.052455785889978138 -0.029731326889745897 0 -0.053362722989895708 -0.0299261618112968 0 -0.052966057535255198 -0.030566481449045026 0 -0.052455785889978138 -0.029731326889745897 0 -0.051596600256437378 -0.029806211785939979 0 -0.052966057535255198 -0.030566481449045026 0 -0.052966057535255198 -0.030566481449045026 0 -0.053183174892471881 -0.031528034839345118 0 -0.054224234947673013 -0.031519938762127477 0 -0.05025599750584768 -0.030946798355021204 0 -0.053183174892471881 -0.031528034839345118 0 -0.052391940857364837 -0.032850736890771531 0 -0.053183174892471881 -0.031528034839345118 0 -0.054166065854205976 -0.031909247437914047 0 -0.054224234947673013 -0.031519938762127477 0 -0.053183174892471881 -0.031528034839345118 0 -0.054166065854205976 -0.031909247437914047 0 -0.052391940857364837 -0.032850736890771531 0 -0.054166065854205976 -0.031909247437914047 0 -0.054779258383618183 -0.03139648068473512 0 -0.054995684656381404 -0.031928686657620324 0 -0.054166065854205976 -0.031909247437914047 0 -0.052391940857364837 -0.032850736890771531 0 -0.054995684656381404 -0.031928686657620324 0 -0.053159921864107174 -0.030483463457580337 0 -0.054271860196199034 -0.030683016321413282 0 -0.052195980266714473 -0.030065161880428584 0 -0.052218167958016322 -0.030037532216038429 0 -0.052220190503639068 -0.030058085833613229 0 -0.054319127738246632 -0.030942622017977553 0 -0.054563824984255972 -0.031517697322852957 0 -0.054224234947673013 -0.031519938762127477 0 -0.054166065854205976 -0.031909247437914047 0 -0.054224234947673013 -0.031519938762127477 0 -0.054779258383618183 -0.03139648068473512 0 -0.054271860196199034 -0.030683016321413282 0 -0.054847128545085569 -0.031399118710316282 0 -0.054563824984255972 -0.031517697322852957 0 -0.054224234947673013 -0.031519938762127477 0 -0.054779258383618183 -0.03139648068473512 0 -0.054271860196199034 -0.030683016321413282 0 -0.055254585693191083 -0.030902774472546118 0 -0.054984974766098947 -0.030872588790882179 0 -0.054779258383618183 -0.03139648068473512 0 -0.055120926886914626 -0.030670481709924851 0 -0.054779258383618183 -0.03139648068473512 0 -0.055135905776362869 -0.03066266515538351 0 -0.055120926886914626 -0.030670481709924851 0 -0.055135905776362869 -0.03066266515538351 0 -0.055230770397182126 -0.029954053613981055 0 -0.055120926886914626 -0.030670481709924851 0 -0.054779258383618183 -0.03139648068473512 0 -0.055135905776362869 -0.03066266515538351 0 -0.055124455384514472 -0.030970830630996427 0 -0.054779258383618183 -0.03139648068473512 0 -0.055124455384514472 -0.030970830630996427 0 -0.054995684656381404 -0.031928686657620324 0 -0.055135905776362869 -0.03066266515538351 0 -0.055124455384514472 -0.030970830630996427 0 -0.055437260783260674 -0.029961516825327029 0 -0.055437260783260674 -0.029961516825327029 0 -0.055656318796571583 -0.03001673415354893 0 -0.05598353054414968 -0.028946333376249061 0 -0.055124455384514472 -0.030970830630996427 0 -0.055437260783260674 -0.029961516825327029 0 -0.055656318796571583 -0.03001673415354893 0 -0.055135905776362869 -0.03066266515538351 0 -0.055437260783260674 -0.029961516825327029 0 -0.055230770397182126 -0.029954053613981055 0 -0.055437260783260674 -0.029961516825327029 0 -0.055644866962248046 -0.029007298151529665 0 -0.055230770397182126 -0.029954053613981055 0 -0.050563014120828448 -0.035691856737659386 0 -0.052391940857364837 -0.032850736890771531 0 -0.054995684656381404 -0.031928686657620324 0 -0.053641841243984398 -0.032599453209884895 0 -0.054696790658962741 -0.032079368689834215 0 -0.056946159289658245 -0.029645576954169126 0 -0.054995684656381404 -0.031928686657620324 0 -0.056547540111225113 -0.029467112455093307 0 -0.055124455384514472 -0.030970830630996427 0 -0.054995684656381404 -0.031928686657620324 0 -0.055656318796571583 -0.03001673415354893 0 -0.055656318796571583 -0.03001673415354893 0 -0.056547540111225113 -0.029467112455093307 0 -0.056469611621100486 -0.028746517185969794 0 -0.054995684656381404 -0.031928686657620324 0 -0.055656318796571583 -0.03001673415354893 0 -0.056547540111225113 -0.029467112455093307 0 -0.056850822665599841 -0.029211068616929497 0 -0.056547540111225113 -0.029467112455093307 0 -0.057003871040710176 -0.028727789141858622 0 -0.056547540111225113 -0.029467112455093307 0 -0.056469611621100486 -0.028746517185969794 0 -0.057003871040710176 -0.028727789141858622 0 -0.056469611621100486 -0.028746517185969794 0 -0.056881560181037162 -0.027817127347820915 0 -0.057003871040710176 -0.028727789141858622 0 -0.056881560181037162 -0.027817127347820915 0 -0.057003871040710176 -0.028727789141858622 0 -0.057215381893982321 -0.027685053857236495 0 -0.057003871040710176 -0.028727789141858622 0 -0.057215381893982321 -0.027685053857236495 0 -0.057350114585727287 -0.028025422280174368 0 -0.055437260783260674 -0.029961516825327029 0 -0.055644866962248046 -0.029007298151529665 0 -0.05598353054414968 -0.028946333376249061 0 -0.055644866962248046 -0.029007298151529665 0 -0.05598353054414968 -0.028946333376249061 0 -0.056084674593077165 -0.028202894303308138 0 -0.055644866962248046 -0.029007298151529665 0 -0.056084674593077165 -0.028202894303308138 0 -0.055747394318162891 -0.028010510621223762 0 -0.055656318796571583 -0.03001673415354893 0 -0.056469611621100486 -0.028746517185969794 0 -0.05598353054414968 -0.028946333376249061 0 -0.056469611621100486 -0.028746517185969794 0 -0.05598353054414968 -0.028946333376249061 0 -0.056456797689913671 -0.028045470939196921 0 -0.056456797689913671 -0.028045470939196921 0 -0.056314669413874932 -0.027458607343425413 0 -0.056906511761144619 -0.027100904492519156 0 -0.05598353054414968 -0.028946333376249061 0 -0.056456797689913671 -0.028045470939196921 0 -0.056084674593077165 -0.028202894303308138 0 -0.056469611621100486 -0.028746517185969794 0 -0.056881560181037162 -0.027817127347820915 0 -0.056456797689913671 -0.028045470939196921 0 -0.056881560181037162 -0.027817127347820915 0 -0.056456797689913671 -0.028045470939196921 0 -0.056906511761144619 -0.027100904492519156 0 -0.056456797689913671 -0.028045470939196921 0 -0.056084674593077165 -0.028202894303308138 0 -0.056314669413874932 -0.027458607343425413 0 -0.056084674593077165 -0.028202894303308138 0 -0.056314669413874932 -0.027458607343425413 0 -0.055747394318162891 -0.028010510621223762 0 -0.056314669413874932 -0.027458607343425413 0 -0.055747394318162891 -0.028010510621223762 0 -0.055966141807209893 -0.026957159500927644 0 -0.055747394318162891 -0.028010510621223762 0 -0.055458617976459602 -0.027538750095788735 0 -0.055966141807209893 -0.026957159500927644 0 -0.055458617976459602 -0.027538750095788735 0 -0.055966141807209893 -0.026957159500927644 0 -0.055492887876522214 -0.026886167336028256 0 -0.055391716973307227 -0.028098088727439543 0 -0.055747394318162891 -0.028010510621223762 0 -0.055458617976459602 -0.027538750095788735 0 -0.055139231883209724 -0.027053535950823226 0 -0.055458617976459602 -0.027538750095788735 0 -0.055014198563906817 -0.027600356650773709 0 -0.055139231883209724 -0.027053535950823226 0 -0.055458617976459602 -0.027538750095788735 0 -0.055492887876522214 -0.026886167336028256 0 -0.055391716973307227 -0.028098088727439543 0 -0.055458617976459602 -0.027538750095788735 0 -0.055008649894107538 -0.028125940236641327 0 -0.055458617976459602 -0.027538750095788735 0 -0.055014198563906817 -0.027600356650773709 0 -0.055008649894107538 -0.028125940236641327 0 -0.055014198563906817 -0.027600356650773709 0 -0.055008649894107538 -0.028125940236641327 0 -0.054722111340995014 -0.028052845766094032 0 -0.055008649894107538 -0.028125940236641327 0 -0.054717857186154489 -0.028775344759325274 0 -0.055338435217584185 -0.028717599501835861 0 -0.055008649894107538 -0.028125940236641327 0 -0.054717857186154489 -0.028775344759325274 0 -0.054722111340995014 -0.028052845766094032 0 -0.055391716973307227 -0.028098088727439543 0 -0.055008649894107538 -0.028125940236641327 0 -0.055338435217584185 -0.028717599501835861 0 -0.055644866962248046 -0.029007298151529665 0 -0.055747394318162891 -0.028010510621223762 0 -0.055338435217584185 -0.028717599501835861 0 -0.055391716973307227 -0.028098088727439543 0 -0.055747394318162891 -0.028010510621223762 0 -0.055338435217584185 -0.028717599501835861 0 -0.055338435217584185 -0.028717599501835861 0 -0.055230770397182126 -0.029954053613981055 0 -0.054856042703639696 -0.029631728313691447 0 -0.055644866962248046 -0.029007298151529665 0 -0.055338435217584185 -0.028717599501835861 0 -0.055230770397182126 -0.029954053613981055 0 -0.054856042703639696 -0.029631728313691447 0 -0.054466992172390608 -0.030350240738458514 0 -0.054248508043082719 -0.029388984426241171 0 -0.054717857186154489 -0.028775344759325274 0 -0.054856042703639696 -0.029631728313691447 0 -0.054248508043082719 -0.029388984426241171 0 -0.054717857186154489 -0.028775344759325274 0 -0.055338435217584185 -0.028717599501835861 0 -0.054856042703639696 -0.029631728313691447 0 -0.054856042703639696 -0.029631728313691447 0 -0.054466992172390608 -0.030350240738458514 0 -0.054890833837755115 -0.030347368043864443 0 -0.053988617812772498 -0.032881738532324511 0 -0.054180374699808694 -0.032719880589211166 0 -0.053761190515613851 -0.031702422392682103 0 -0.05421509248850051 -0.031401356582715652 0 -0.055096344729579382 -0.030670944192241187 0 -0.055230770397182126 -0.029954053613981055 0 -0.055120926886914626 -0.030670481709924851 0 -0.054890833837755115 -0.030347368043864443 0 -0.055230770397182126 -0.029954053613981055 0 -0.054856042703639696 -0.029631728313691447 0 -0.054890833837755115 -0.030347368043864443 0 -0.056754088191412679 -0.03554744630811027 0 -0.054999913486179206 -0.034230501187743442 0 -0.056637268099137231 -0.033425526620618137 0 -0.054999913486179206 -0.034230501187743442 0 -0.056637268099137231 -0.033425526620618137 0 -0.054999941173071304 -0.031376032352439145 0 -0.056754088191412679 -0.03554744630811027 0 -0.058386415154107627 -0.034229037595292847 0 -0.056637268099137231 -0.033425526620618137 0 -0.058386415154107627 -0.034229037595292847 0 -0.056637268099137231 -0.033425526620618137 0 -0.057884289137432161 -0.031850227209850646 0 -0.056232681778671537 -0.033755525910620622 0 -0.055096344729579382 -0.030670944192241187 0 -0.055096344729579382 -0.030670944192241187 0 -0.05422861691315109 -0.028052427582178581 0 -0.056637268099137231 -0.033425526620618137 0 -0.057884289137432161 -0.031850227209850646 0 -0.054999941173071304 -0.031376032352439145 0 -0.057884289137432161 -0.031850227209850646 0 -0.054999941173071304 -0.031376032352439145 0 -0.056944682036411357 -0.029787896740033366 0 -0.054999941173071304 -0.031376032352439145 0 -0.056944682036411357 -0.029787896740033366 0 -0.054999985316139671 -0.028521566145545192 0 -0.054480530452568156 -0.029263038313262324 0 -0.054373081238720915 -0.028342490639930603 0 -0.054171820104991608 -0.028131257167797265 0 -0.054717857186154489 -0.028775344759325274 0 -0.054248508043082719 -0.029388984426241171 0 -0.054373081238720915 -0.028342490639930603 0 -0.055096344729579382 -0.030670944192241187 0 -0.055682763710722782 -0.029003281757811361 0 -0.054717857186154489 -0.028775344759325274 0 -0.054373081238720915 -0.028342490639930603 0 -0.054722111340995014 -0.028052845766094032 0 -0.054171820104991608 -0.028131257167797265 0 -0.054512945126988996 -0.02795903138403593 0 -0.054678924464663284 -0.027475185065136101 0 -0.054373081238720915 -0.028342490639930603 0 -0.054171820104991608 -0.028131257167797265 0 -0.054512945126988996 -0.02795903138403593 0 -0.054373081238720915 -0.028342490639930603 0 -0.054512945126988996 -0.02795903138403593 0 -0.054722111340995014 -0.028052845766094032 0 -0.054171820104991608 -0.028131257167797265 0 -0.054678924464663284 -0.027475185065136101 0 -0.054341549102069099 -0.026673253118894694 0 -0.054678924464663284 -0.027475185065136101 0 -0.054341549102069099 -0.026673253118894694 0 -0.054870334527151593 -0.026685073412697342 0 -0.055014198563906817 -0.027600356650773709 0 -0.054722111340995014 -0.028052845766094032 0 -0.054678924464663284 -0.027475185065136101 0 -0.055139231883209724 -0.027053535950823226 0 -0.055014198563906817 -0.027600356650773709 0 -0.054678924464663284 -0.027475185065136101 0 -0.054512945126988996 -0.02795903138403593 0 -0.054722111340995014 -0.028052845766094032 0 -0.054678924464663284 -0.027475185065136101 0 -0.055139231883209724 -0.027053535950823226 0 -0.054678924464663284 -0.027475185065136101 0 -0.054870334527151593 -0.026685073412697342 0 -0.056944682036411357 -0.029787896740033366 0 -0.054999985316139671 -0.028521566145545192 0 -0.055983473713957843 -0.027724076749401999 0 -0.055682763710722782 -0.029003281757811361 0 -0.055200061293114056 -0.027255941056223251 0 -0.054999985316139671 -0.028521566145545192 0 -0.055983473713957843 -0.027724076749401999 0 -0.054999996635497456 -0.025667116274497494 0 -0.054341549102069099 -0.026673253118894694 0 -0.054934946789212971 -0.025927438996275261 0 -0.054997675553412402 -0.025665790065733832 0 -0.055200061293114056 -0.027255941056223251 0 -0.054999999491596813 -0.025667693749880906 0 -0.054341549102069099 -0.026673253118894694 0 -0.054870334527151593 -0.026685073412697342 0 -0.054934946789212971 -0.025927438996275261 0 -0.054870334527151593 -0.026685073412697342 0 -0.054934946789212971 -0.025927438996275261 0 -0.055244667142729784 -0.02635424249187927 0 -0.055139231883209724 -0.027053535950823226 0 -0.054870334527151593 -0.026685073412697342 0 -0.055244667142729784 -0.02635424249187927 0 -0.054934946789212971 -0.025927438996275261 0 -0.055244667142729784 -0.02635424249187927 0 -0.055416896552371517 -0.025374491084505159 0 -0.055207150213469447 -0.024638956197566508 0 -0.055416896552371517 -0.025374491084505159 0 -0.055585176792698816 -0.024143062270402096 0 -0.054934946789212971 -0.025927438996275261 0 -0.055207150213469447 -0.024638956197566508 0 -0.055416896552371517 -0.025374491084505159 0 -0.054934946789212971 -0.025927438996275261 0 -0.054997675553412402 -0.025665790065733832 0 -0.055207150213469447 -0.024638956197566508 0 -0.054997675553412402 -0.025665790065733832 0 -0.055207150213469447 -0.024638956197566508 0 -0.054999499817193098 -0.023437547086566181 0 -0.055966141807209893 -0.026957159500927644 0 -0.056181885098833297 -0.026094481431408439 0 -0.056589861851015742 -0.02657050589719091 0 -0.055966141807209893 -0.026957159500927644 0 -0.055663719033845462 -0.026234170074157622 0 -0.055492887876522214 -0.026886167336028256 0 -0.055966141807209893 -0.026957159500927644 0 -0.055663719033845462 -0.026234170074157622 0 -0.056181885098833297 -0.026094481431408439 0 -0.055663719033845462 -0.026234170074157622 0 -0.055492887876522214 -0.026886167336028256 0 -0.055244667142729784 -0.02635424249187927 0 -0.055139231883209724 -0.027053535950823226 0 -0.055492887876522214 -0.026886167336028256 0 -0.055244667142729784 -0.02635424249187927 0 -0.055663719033845462 -0.026234170074157622 0 -0.055244667142729784 -0.02635424249187927 0 -0.055416896552371517 -0.025374491084505159 0 -0.055416896552371517 -0.025374491084505159 0 -0.056015792707807564 -0.025041025390976943 0 -0.055585176792698816 -0.024143062270402096 0 -0.055663719033845462 -0.026234170074157622 0 -0.055416896552371517 -0.025374491084505159 0 -0.056015792707807564 -0.025041025390976943 0 -0.055663719033845462 -0.026234170074157622 0 -0.056015792707807564 -0.025041025390976943 0 -0.056181885098833297 -0.026094481431408439 0 -0.056015792707807564 -0.025041025390976943 0 -0.056181885098833297 -0.026094481431408439 0 -0.056653090333783837 -0.025586837800897891 0 -0.056181885098833297 -0.026094481431408439 0 -0.056653090333783837 -0.025586837800897891 0 -0.056589861851015742 -0.02657050589719091 0 -0.056512042649518708 -0.024581309125106397 0 -0.056136866610422068 -0.023610403243959011 0 -0.057057457976982855 -0.023980053467507503 0 -0.056015792707807564 -0.025041025390976943 0 -0.056512042649518708 -0.024581309125106397 0 -0.056136866610422068 -0.023610403243959011 0 -0.056015792707807564 -0.025041025390976943 0 -0.056512042649518708 -0.024581309125106397 0 -0.056653090333783837 -0.025586837800897891 0 -0.055585176792698816 -0.024143062270402096 0 -0.055564852668353863 -0.022975776490176583 0 -0.056136866610422068 -0.023610403243959011 0 -0.056015792707807564 -0.025041025390976943 0 -0.055585176792698816 -0.024143062270402096 0 -0.056136866610422068 -0.023610403243959011 0 -0.055564852668353863 -0.022975776490176583 0 -0.055872711924803718 -0.02249805497368949 0 -0.056136866610422068 -0.023610403243959011 0 -0.055564852668353863 -0.022975776490176583 0 -0.055872711924803718 -0.02249805497368949 0 -0.055385747312809354 -0.022123732248057922 0 -0.056710864330073142 -0.022709696993394014 0 -0.056136866610422068 -0.023610403243959011 0 -0.057057457976982855 -0.023980053467507503 0 -0.055872711924803718 -0.02249805497368949 0 -0.056710864330073142 -0.022709696993394014 0 -0.056136866610422068 -0.023610403243959011 0 -0.054999499817193098 -0.023437547086566181 0 -0.055329158691303795 -0.023216640039389485 0 -0.055219726557436156 -0.022261401743573363 0 -0.055207150213469447 -0.024638956197566508 0 -0.054999499817193098 -0.023437547086566181 0 -0.055329158691303795 -0.023216640039389485 0 -0.055207150213469447 -0.024638956197566508 0 -0.055585176792698816 -0.024143062270402096 0 -0.055329158691303795 -0.023216640039389485 0 -0.055585176792698816 -0.024143062270402096 0 -0.055564852668353863 -0.022975776490176583 0 -0.055329158691303795 -0.023216640039389485 0 -0.055564852668353863 -0.022975776490176583 0 -0.055329158691303795 -0.023216640039389485 0 -0.055276819392407271 -0.022200096073942039 0 -0.055564852668353863 -0.022975776490176583 0 -0.055385747312809354 -0.022123732248057922 0 -0.055276819392407271 -0.022200096073942039 0 -0.055385747312809354 -0.022123732248057922 0 -0.055276819392407271 -0.022200096073942039 0 -0.05514443166497128 -0.021614357716302546 0 -0.055276819392407271 -0.022200096073942039 0 -0.055219726557436156 -0.022261401743573363 0 -0.055228090394320063 -0.02133282705443312 0 -0.054999499817193098 -0.023437547086566181 0 -0.055219726557436156 -0.022261401743573363 0 -0.054999325101092518 -0.02120852875594019 0 -0.055276819392407271 -0.022200096073942039 0 -0.055228090394320063 -0.02133282705443312 0 -0.05514443166497128 -0.021614357716302546 0 -0.055329158691303795 -0.023216640039389485 0 -0.055276819392407271 -0.022200096073942039 0 -0.055219726557436156 -0.022261401743573363 0 -0.055219726557436156 -0.022261401743573363 0 -0.054999325101092518 -0.02120852875594019 0 -0.055228090394320063 -0.02133282705443312 0 -0.054999325101092518 -0.02120852875594019 0 -0.055228090394320063 -0.02133282705443312 0 -0.054999909070290946 -0.018976048797883362 0 -0.055228090394320063 -0.02133282705443312 0 -0.054929346296161835 -0.021298358978440336 0 -0.05514443166497128 -0.021614357716302546 0 -0.055228090394320063 -0.02133282705443312 0 -0.054999909070290946 -0.018976048797883362 0 -0.057055102699658217 -0.018238438508648133 0 -0.055238342210226415 -0.02155894896490574 0 -0.055913942359873008 -0.018930941909369298 0 -0.054999936187268492 -0.018976352590295561 0 -0.056727762514058144 -0.018217978308659403 0 -0.056266445206920833 -0.01667980312907533 0 -0.055001479838083428 -0.018975953118804088 0 -0.055913942359873008 -0.018930941909369298 0 -0.054999936187268492 -0.018976352590295561 0 -0.054999818162095836 -0.01597060366001319 0 -0.056266445206920833 -0.01667980312907533 0 -0.055660043822646811 -0.017852131403302142 0 -0.057606092814804173 -0.017123294487280394 0 -0.056511183862821016 -0.016186551006093355 0 -0.055913942359873008 -0.018930941909369298 0 -0.057114317687481868 -0.015976037392975213 0 -0.055913942359873008 -0.018930941909369298 0 -0.056484994421315445 -0.018739782962428776 0 -0.054929346296161835 -0.021298358978440336 0 -0.055466460751808576 -0.021319059686462739 0 -0.055564122617241078 -0.020248852955546889 0 -0.054929346296161835 -0.021298358978440336 0 -0.055204685418719007 -0.021534807968973221 0 -0.055466460751808576 -0.021319059686462739 0 -0.054929346296161835 -0.021298358978440336 0 -0.055204685418719007 -0.021534807968973221 0 -0.05514443166497128 -0.021614357716302546 0 -0.055385747312809354 -0.022123732248057922 0 -0.055204685418719007 -0.021534807968973221 0 -0.055466460751808576 -0.021319059686462739 0 -0.055385747312809354 -0.022123732248057922 0 -0.055204685418719007 -0.021534807968973221 0 -0.05514443166497128 -0.021614357716302546 0 -0.055872711924803718 -0.02249805497368949 0 -0.055385747312809354 -0.022123732248057922 0 -0.055466460751808576 -0.021319059686462739 0 -0.055466460751808576 -0.021319059686462739 0 -0.056272401808659618 -0.021696267400858893 0 -0.056542375896480847 -0.02042174137652332 0 -0.055872711924803718 -0.02249805497368949 0 -0.055466460751808576 -0.021319059686462739 0 -0.056272401808659618 -0.021696267400858893 0 -0.056272401808659618 -0.021696267400858893 0 -0.056542375896480847 -0.02042174137652332 0 -0.057457926519513911 -0.021355366336605036 0 -0.055872711924803718 -0.02249805497368949 0 -0.056710864330073142 -0.022709696993394014 0 -0.056272401808659618 -0.021696267400858893 0 -0.056710864330073142 -0.022709696993394014 0 -0.056272401808659618 -0.021696267400858893 0 -0.057457926519513911 -0.021355366336605036 0 -0.056542375896480847 -0.02042174137652332 0 -0.055564122617241078 -0.020248852955546889 0 -0.05696706647048317 -0.018590165521680285 0 -0.056542375896480847 -0.02042174137652332 0 -0.05696706647048317 -0.018590165521680285 0 -0.057741726344889395 -0.019986251995832472 0 -0.055466460751808576 -0.021319059686462739 0 -0.056542375896480847 -0.02042174137652332 0 -0.055564122617241078 -0.020248852955546889 0 -0.057606092814804173 -0.017123294487280394 0 -0.05795920524638281 -0.015700304176890011 0 -0.056511183862821016 -0.016186551006093355 0 -0.057606092814804173 -0.017123294487280394 0 -0.05795920524638281 -0.015700304176890011 0 -0.05944987109003947 -0.016407385925745688 0 -0.056484994421315445 -0.018739782962428776 0 -0.058350575567138588 -0.017472828328423541 0 -0.05944987109003947 -0.016407385925745688 0 -0.059848428257451708 -0.014936019473346239 0 -0.058874005071407789 -0.014155980097003681 0 -0.05795920524638281 -0.015700304176890011 0 -0.05944987109003947 -0.016407385925745688 0 -0.058874005071407789 -0.014155980097003681 0 -0.05795920524638281 -0.015700304176890011 0 -0.057340367242675522 -0.014509746634181135 0 -0.058874005071407789 -0.014155980097003681 0 -0.05795920524638281 -0.015700304176890011 0 -0.057340367242675522 -0.014509746634181135 0 -0.056511183862821016 -0.016186551006093355 0 -0.057795258830870486 -0.014270243084029806 0 -0.057114317687481868 -0.015976037392975213 0 -0.05826216368698283 -0.01397125269933246 0 -0.056537649169081126 -0.014613127741503917 0 -0.057615319521033638 -0.016069762078961967 0 -0.056537649169081126 -0.014613127741503917 0 -0.054999818162095836 -0.01597060366001319 0 -0.054999797057189694 -0.012965050748291717 0 -0.056537649169081126 -0.014613127741503917 0 -0.054999818162095836 -0.01597060366001319 0 -0.056266445206920833 -0.01667980312907533 0 -0.056727762514058144 -0.018217978308659403 0 -0.056266445206920833 -0.01667980312907533 0 -0.057615319521033638 -0.016069762078961967 0 -0.056537649169081126 -0.014613127741503917 0 -0.056266445206920833 -0.01667980312907533 0 -0.057615319521033638 -0.016069762078961967 0 -0.062445060612399586 -0.016754973919460715 0 -0.061542576075119579 -0.018223394258362457 0 -0.064295780236039421 -0.016469280069733333 0 -0.062445060612399586 -0.016754973919460715 0 -0.061733970895721434 -0.017095039501918839 0 -0.061542576075119579 -0.018223394258362457 0 -0.061733970895721434 -0.017095039501918839 0 -0.061542576075119579 -0.018223394258362457 0 -0.060936055648322142 -0.017116704376255353 0 -0.061733970895721434 -0.017095039501918839 0 -0.062208239571529919 -0.015358957506968383 0 -0.060936055648322142 -0.017116704376255353 0 -0.061542576075119579 -0.018223394258362457 0 -0.060936055648322142 -0.017116704376255353 0 -0.060596267677533226 -0.018418104620249221 0 -0.062903442315308769 -0.0196554505093346 0 -0.062737973514821618 -0.018776466221023465 0 -0.062101546634940018 -0.019966230051558301 0 -0.061542576075119579 -0.018223394258362457 0 -0.063851436045254062 -0.016843220855774697 0 -0.063115459064126064 -0.018918217152042196 0 -0.062525872451162298 -0.018668838339210039 0 -0.060879662153617418 -0.013450032126145421 0 -0.063851436045254062 -0.016843220855774697 0 -0.064144250882129994 -0.017018345629993267 0 -0.063115459064126064 -0.018918217152042196 0 -0.058728180897219352 -0.013988351070090735 0 -0.062626252322067352 -0.019734793943616151 0 -0.060879662153617418 -0.013450032126145421 0 -0.058728180897219352 -0.013988351070090735 0 -0.060879662153617418 -0.013450032126145421 0 -0.061338351804017567 -0.010348505284506416 0 -0.060317777551082911 -0.0055096757601133719 0 -0.060426249305423251 -0.0057910152032127444 0 -0.060715064193684984 -0.0058093395061366822 0 -0.062445060612399586 -0.016754973919460715 0 -0.064295780236039421 -0.016469280069733333 0 -0.062208239571529919 -0.015358957506968383 0 -0.060317777551082911 -0.0055096757601133719 0 -0.060426249305423251 -0.0057910152032127444 0 -0.060157703968817998 -0.0055725836479061748 0 -0.057699996870263184 -0.012223465978899391 0 -0.057493193099413302 -0.012101561494805515 0 -0.057271226401306101 -0.012469058301740355 0 -0.060879662153617418 -0.013450032126145421 0 -0.055212197811521056 -0.011137384299639806 0 -0.058728180897219352 -0.013988351070090735 0 -0.055212197811521056 -0.011137384299639806 0 -0.061338351804017567 -0.010348505284506416 0 -0.060992951591076622 -0.011933642901027925 0 -0.062208239571529919 -0.015358957506968383 0 -0.060936055648322142 -0.017116704376255353 0 -0.060379206353845874 -0.014238909930047677 0 -0.062445060612399586 -0.016754973919460715 0 -0.061733970895721434 -0.017095039501918839 0 -0.062208239571529919 -0.015358957506968383 0 -0.060936055648322142 -0.017116704376255353 0 -0.060319591842922418 -0.016441475465585408 0 -0.061426600825135916 -0.014074043291360061 0 -0.060557359185147853 -0.014558080585535973 0 -0.060319591842922418 -0.016441475465585408 0 -0.061426600825135916 -0.014074043291360061 0 -0.061038942508523805 -0.017786796906006565 0 -0.060992951591076622 -0.011933642901027925 0 -0.060557359185147853 -0.014558080585535973 0 -0.059848428257451708 -0.014936019473346239 0 -0.060319591842922418 -0.016441475465585408 0 -0.05696706647048317 -0.018590165521680285 0 -0.059485678430109649 -0.018665964649522776 0 -0.057741726344889395 -0.019986251995832472 0 -0.058350575567138588 -0.017472828328423541 0 -0.060229481635825213 -0.01653117460612458 0 -0.05696706647048317 -0.018590165521680285 0 -0.060319591842922418 -0.016441475465585408 0 -0.059485678430109649 -0.018665964649522776 0 -0.05944987109003947 -0.016407385925745688 0 -0.059848428257451708 -0.014936019473346239 0 -0.060319591842922418 -0.016441475465585408 0 -0.060936055648322142 -0.017116704376255353 0 -0.060319591842922418 -0.016441475465585408 0 -0.059485678430109649 -0.018665964649522776 0 -0.060936055648322142 -0.017116704376255353 0 -0.059485678430109649 -0.018665964649522776 0 -0.060596267677533226 -0.018418104620249221 0 -0.059485678430109649 -0.018665964649522776 0 -0.060596267677533226 -0.018418104620249221 0 -0.060416528518972855 -0.019600614228027537 0 -0.059485678430109649 -0.018665964649522776 0 -0.060416528518972855 -0.019600614228027537 0 -0.059010298350797151 -0.020139129790571024 0 -0.060416528518972855 -0.019600614228027537 0 -0.059010298350797151 -0.020139129790571024 0 -0.059715647357813921 -0.021338717132381606 0 -0.059485678430109649 -0.018665964649522776 0 -0.059010298350797151 -0.020139129790571024 0 -0.057741726344889395 -0.019986251995832472 0 -0.059010298350797151 -0.020139129790571024 0 -0.057741726344889395 -0.019986251995832472 0 -0.057457926519513911 -0.021355366336605036 0 -0.056542375896480847 -0.02042174137652332 0 -0.057741726344889395 -0.019986251995832472 0 -0.057457926519513911 -0.021355366336605036 0 -0.056710864330073142 -0.022709696993394014 0 -0.057457926519513911 -0.021355366336605036 0 -0.058088338210165652 -0.02261721361384051 0 -0.059010298350797151 -0.020139129790571024 0 -0.057457926519513911 -0.021355366336605036 0 -0.058535066232845864 -0.021416455552530363 0 -0.057457926519513911 -0.021355366336605036 0 -0.058535066232845864 -0.021416455552530363 0 -0.058088338210165652 -0.02261721361384051 0 -0.059715647357813921 -0.021338717132381606 0 -0.058088338210165652 -0.02261721361384051 0 -0.059646531358604128 -0.022954720921648585 0 -0.059010298350797151 -0.020139129790571024 0 -0.058535066232845864 -0.021416455552530363 0 -0.059715647357813921 -0.021338717132381606 0 -0.058535066232845864 -0.021416455552530363 0 -0.059715647357813921 -0.021338717132381606 0 -0.058088338210165652 -0.02261721361384051 0 -0.059715647357813921 -0.021338717132381606 0 -0.061435250148797207 -0.021150419869351438 0 -0.059646531358604128 -0.022954720921648585 0 -0.060416528518972855 -0.019600614228027537 0 -0.059715647357813921 -0.021338717132381606 0 -0.061435250148797207 -0.021150419869351438 0 -0.061435250148797207 -0.021150419869351438 0 -0.061634680643441159 -0.019537601890236803 0 -0.063115459064126064 -0.018918217152042196 0 -0.060416528518972855 -0.019600614228027537 0 -0.061435250148797207 -0.021150419869351438 0 -0.061634680643441159 -0.019537601890236803 0 -0.061624310332283772 -0.020898814823961814 0 -0.062626252322067352 -0.019734793943616151 0 -0.061542576075119579 -0.018223394258362457 0 -0.061634680643441159 -0.019537601890236803 0 -0.063115459064126064 -0.018918217152042196 0 -0.061542576075119579 -0.018223394258362457 0 -0.060416528518972855 -0.019600614228027537 0 -0.061634680643441159 -0.019537601890236803 0 -0.061542576075119579 -0.018223394258362457 0 -0.060596267677533226 -0.018418104620249221 0 -0.060416528518972855 -0.019600614228027537 0 -0.062903442315308769 -0.0196554505093346 0 -0.062101546634940018 -0.019966230051558301 0 -0.06339278773612872 -0.021394230789847663 0 -0.061435250148797207 -0.021150419869351438 0 -0.062101546634940018 -0.019966230051558301 0 -0.06339278773612872 -0.021394230789847663 0 -0.061435250148797207 -0.021150419869351438 0 -0.061833164412498524 -0.023439777498978853 0 -0.06339278773612872 -0.021394230789847663 0 -0.059472744940911822 -0.024995617267479842 0 -0.061021009294874709 -0.024934529902323196 0 -0.057486632199153551 -0.026777768562096363 0 -0.057108712244870602 -0.026523483991134009 0 -0.05694902196565451 -0.027045308864623894 0 -0.061435250148797207 -0.021150419869351438 0 -0.061833164412498524 -0.023439777498978853 0 -0.059646531358604128 -0.022954720921648585 0 -0.061833164412498524 -0.023439777498978853 0 -0.059646531358604128 -0.022954720921648585 0 -0.058199574932315423 -0.025985953080713057 0 -0.057486632199153551 -0.026777768562096363 0 -0.057509484818373778 -0.0263801369449486 0 -0.058199574932315423 -0.025985953080713057 0 -0.059472744940911822 -0.024995617267479842 0 -0.058383049906922307 -0.025971596325914705 0 -0.057486632199153551 -0.026777768562096363 0 -0.057509484818373778 -0.0263801369449486 0 -0.057108712244870602 -0.026523483991134009 0 -0.057509484818373778 -0.0263801369449486 0 -0.057020571135411681 -0.026027554316476693 0 -0.057108712244870602 -0.026523483991134009 0 -0.056710864330073142 -0.022709696993394014 0 -0.057057457976982855 -0.023980053467507503 0 -0.058088338210165652 -0.02261721361384051 0 -0.057057457976982855 -0.023980053467507503 0 -0.058088338210165652 -0.02261721361384051 0 -0.058064876948092169 -0.024273945828172671 0 -0.058088338210165652 -0.02261721361384051 0 -0.059646531358604128 -0.022954720921648585 0 -0.058064876948092169 -0.024273945828172671 0 -0.059646531358604128 -0.022954720921648585 0 -0.058199574932315423 -0.025985953080713057 0 -0.058064876948092169 -0.024273945828172671 0 -0.058199574932315423 -0.025985953080713057 0 -0.058064876948092169 -0.024273945828172671 0 -0.057279452660303654 -0.02513926446908989 0 -0.056512042649518708 -0.024581309125106397 0 -0.057057457976982855 -0.023980053467507503 0 -0.057279452660303654 -0.02513926446908989 0 -0.056512042649518708 -0.024581309125106397 0 -0.057279452660303654 -0.02513926446908989 0 -0.056653090333783837 -0.025586837800897891 0 -0.057057457976982855 -0.023980053467507503 0 -0.058064876948092169 -0.024273945828172671 0 -0.057279452660303654 -0.02513926446908989 0 -0.056653090333783837 -0.025586837800897891 0 -0.057314448333949788 -0.026226894765574812 0 -0.056589861851015742 -0.02657050589719091 0 -0.057279452660303654 -0.02513926446908989 0 -0.056653090333783837 -0.025586837800897891 0 -0.057314448333949788 -0.026226894765574812 0 -0.058199574932315423 -0.025985953080713057 0 -0.057279452660303654 -0.02513926446908989 0 -0.057314448333949788 -0.026226894765574812 0 -0.057314448333949788 -0.026226894765574812 0 -0.056906511761144619 -0.027100904492519156 0 -0.057472673591784179 -0.026785408928239184 0 -0.058199574932315423 -0.025985953080713057 0 -0.057314448333949788 -0.026226894765574812 0 -0.057472673591784179 -0.026785408928239184 0 -0.056881560181037162 -0.027817127347820915 0 -0.056906511761144619 -0.027100904492519156 0 -0.057472673591784179 -0.026785408928239184 0 -0.057314448333949788 -0.026226894765574812 0 -0.056906511761144619 -0.027100904492519156 0 -0.056589861851015742 -0.02657050589719091 0 -0.056314669413874932 -0.027458607343425413 0 -0.056906511761144619 -0.027100904492519156 0 -0.056589861851015742 -0.02657050589719091 0 -0.056314669413874932 -0.027458607343425413 0 -0.055966141807209893 -0.026957159500927644 0 -0.056589861851015742 -0.02657050589719091 0 -0.057509484818373778 -0.0263801369449486 0 -0.057406583415979012 -0.027147806782266037 0 -0.057667317496217729 -0.027152792947078046 0 -0.057353957366343945 -0.026380840470602778 0 -0.057590150859076136 -0.026587819594417663 0 -0.057509484818373778 -0.0263801369449486 0 -0.057406583415979012 -0.027147806782266037 0 -0.057472673591784179 -0.026785408928239184 0 -0.057509484818373778 -0.0263801369449486 0 -0.058199574932315423 -0.025985953080713057 0 -0.057472673591784179 -0.026785408928239184 0 -0.057406583415979012 -0.027147806782266037 0 -0.057472673591784179 -0.026785408928239184 0 -0.057215381893982321 -0.027685053857236495 0 -0.056881560181037162 -0.027817127347820915 0 -0.057472673591784179 -0.026785408928239184 0 -0.057215381893982321 -0.027685053857236495 0 -0.057406583415979012 -0.027147806782266037 0 -0.057215381893982321 -0.027685053857236495 0 -0.057350114585727287 -0.028025422280174368 0 -0.057406583415979012 -0.027147806782266037 0 -0.057350114585727287 -0.028025422280174368 0 -0.057667317496217729 -0.027152792947078046 0 -0.057350114585727287 -0.028025422280174368 0 -0.057667317496217729 -0.027152792947078046 0 -0.05827448987870637 -0.027820370282496138 0 -0.057297732811636727 -0.029160882587520816 0 -0.057350114585727287 -0.028025422280174368 0 -0.05827448987870637 -0.027820370282496138 0 -0.057590150859076136 -0.026587819594417663 0 -0.055449026381965076 -0.027895277755908034 0 -0.057020571135411681 -0.026027554316476693 0 -0.056656060863342614 -0.026136342459682251 0 -0.056590810200690775 -0.025784136191902802 0 -0.057020571135411681 -0.026027554316476693 0 -0.056656060863342614 -0.026136342459682251 0 -0.056789419796714202 -0.02631745350326067 0 -0.05637207672915804 -0.026212502352837227 0 -0.056656060863342614 -0.026136342459682251 0 -0.056590810200690775 -0.025784136191902802 0 -0.053583987901403687 -0.026457482367930669 0 -0.055449026381965076 -0.027895277755908034 0 -0.050252208730555172 -0.026980068886940219 0 -0.049848598790750154 -0.027908563100178391 0 -0.050309831098487051 -0.027613403629579324 0 -0.05637207672915804 -0.026212502352837227 0 -0.056656060863342614 -0.026136342459682251 0 -0.056554614530759315 -0.026358709729550601 0 -0.05267922192174667 -0.029466163289857693 0 -0.055449026381965076 -0.027895277755908034 0 -0.057530889417170161 -0.029429675345473794 0 -0.055449026381965076 -0.027895277755908034 0 -0.050735864055594181 -0.028500421631763924 0 -0.050815208012387585 -0.027748191094114454 0 -0.050309831098487051 -0.027613403629579324 0 -0.050735864055594181 -0.028500421631763924 0 -0.050815208012387585 -0.027748191094114454 0 -0.051274635318193533 -0.028217918401742748 0 -0.050735864055594181 -0.028500421631763924 0 -0.049848598790750154 -0.027908563100178391 0 -0.050309831098487051 -0.027613403629579324 0 -0.051274635318193533 -0.028217918401742748 0 -0.051294813769585827 -0.027322992461026714 0 -0.051877960100314764 -0.028388249371458733 0 -0.050815208012387585 -0.027748191094114454 0 -0.051274635318193533 -0.028217918401742748 0 -0.051294813769585827 -0.027322992461026714 0 -0.046401745137331807 -0.025811314005008901 0 -0.047317677142412487 -0.027227726115181747 0 -0.050815208012387585 -0.027748191094114454 0 -0.051294813769585827 -0.027322992461026714 0 -0.050497982308901485 -0.027106792347648172 0 -0.050815208012387585 -0.027748191094114454 0 -0.050309831098487051 -0.027613403629579324 0 -0.050497982308901485 -0.027106792347648172 0 -0.050252208730555172 -0.026980068886940219 0 -0.050309831098487051 -0.027613403629579324 0 -0.050497982308901485 -0.027106792347648172 0 -0.050454516781035005 -0.027307435203490833 0 -0.048314532478278251 -0.024856786813599704 0 -0.046401745137331807 -0.025811314005008901 0 -0.048314532478278251 -0.024856786813599704 0 -0.053583987901403687 -0.026457482367930669 0 -0.048297873132188446 -0.0251513147670544 0 -0.050252208730555172 -0.026980068886940219 0 -0.050497982308901485 -0.027106792347648172 0 -0.050647641917937185 -0.026235821007204792 0 -0.050252208730555172 -0.026980068886940219 0 -0.050647641917937185 -0.026235821007204792 0 -0.050686525916961211 -0.02597889716271054 0 -0.05637207672915804 -0.026212502352837227 0 -0.056338726042541261 -0.026448845678510122 0 -0.056156680143669604 -0.026577746276424521 0 -0.051294813769585827 -0.027322992461026714 0 -0.050497982308901485 -0.027106792347648172 0 -0.050639476969037894 -0.026275301284971936 0 -0.041457715295599717 -0.023219316040494282 0 -0.042176952676299916 -0.023247637625373282 0 -0.041787762649836004 -0.023031355356949675 0 -0.048314532478278251 -0.024856786813599704 0 -0.048297873132188446 -0.0251513147670544 0 -0.041457715295599717 -0.023219316040494282 0 -0.041519950050545915 -0.022929784067396871 0 -0.041787762649836004 -0.023031355356949675 0 -0.056338726042541261 -0.026448845678510122 0 -0.056317373953218675 -0.026566166185045051 0 -0.056156680143669604 -0.026577746276424521 0 -0.056338726042541261 -0.026448845678510122 0 -0.056317373953218675 -0.026566166185045051 0 -0.056433425473762941 -0.026504620117573909 0 -0.042141050280379969 -0.02452810985023476 0 -0.041457715295599717 -0.023219316040494282 0 -0.042176952676299916 -0.023247637625373282 0 -0.042141050280379969 -0.02452810985023476 0 -0.042176952676299916 -0.023247637625373282 0 -0.042909834880877552 -0.023922483511872004 0 -0.042176952676299916 -0.023247637625373282 0 -0.042909834880877552 -0.023922483511872004 0 -0.042794452744440513 -0.023054214951569649 0 -0.042176952676299916 -0.023247637625373282 0 -0.042483988686096208 -0.022343291271477921 0 -0.042794452744440513 -0.023054214951569649 0 -0.042176952676299916 -0.023247637625373282 0 -0.041984548767495918 -0.022720742887558917 0 -0.041787762649836004 -0.023031355356949675 0 -0.042176952676299916 -0.023247637625373282 0 -0.041984548767495918 -0.022720742887558917 0 -0.042483988686096208 -0.022343291271477921 0 -0.041984548767495918 -0.022720742887558917 0 -0.041952744635984342 -0.022188008959407372 0 -0.042483988686096208 -0.022343291271477921 0 -0.056156680143669604 -0.026577746276424521 0 -0.056386266183649662 -0.02669802893530732 0 -0.056255292885342055 -0.026870973690027042 0 -0.056317373953218675 -0.026566166185045051 0 -0.056156680143669604 -0.026577746276424521 0 -0.056386266183649662 -0.02669802893530732 0 -0.041984548767495918 -0.022720742887558917 0 -0.041519950050545915 -0.022929784067396871 0 -0.041787762649836004 -0.023031355356949675 0 -0.041984548767495918 -0.022720742887558917 0 -0.041952744635984342 -0.022188008959407372 0 -0.041519950050545915 -0.022929784067396871 0 -0.042533098644676103 -0.022933658153945293 0 -0.048297873132188446 -0.0251513147670544 0 -0.056386266183649662 -0.02669802893530732 0 -0.056613084918788262 -0.026803235034982189 0 -0.056412884632560105 -0.026904612413724292 0 -0.056386266183649662 -0.02669802893530732 0 -0.056722836348117374 -0.026624199876442736 0 -0.056433425473762941 -0.026504620117573909 0 -0.056317373953218675 -0.026566166185045051 0 -0.056386266183649662 -0.02669802893530732 0 -0.056433425473762941 -0.026504620117573909 0 -0.056386266183649662 -0.02669802893530732 0 -0.056722836348117374 -0.026624199876442736 0 -0.056613084918788262 -0.026803235034982189 0 -0.056722836348117374 -0.026624199876442736 0 -0.057108712244870602 -0.026523483991134009 0 -0.05694902196565451 -0.027045308864623894 0 -0.056722836348117374 -0.026624199876442736 0 -0.056613084918788262 -0.026803235034982189 0 -0.05694902196565451 -0.027045308864623894 0 -0.056722836348117374 -0.026624199876442736 0 -0.057108712244870602 -0.026523483991134009 0 -0.056789419796714202 -0.02631745350326067 0 -0.057020571135411681 -0.026027554316476693 0 -0.057108712244870602 -0.026523483991134009 0 -0.056789419796714202 -0.02631745350326067 0 -0.056656060863342614 -0.026136342459682251 0 -0.056789419796714202 -0.02631745350326067 0 -0.056554614530759315 -0.026358709729550601 0 -0.05637207672915804 -0.026212502352837227 0 -0.056338726042541261 -0.026448845678510122 0 -0.056414120058578737 -0.026381793580812857 0 -0.05637207672915804 -0.026212502352837227 0 -0.056554614530759315 -0.026358709729550601 0 -0.056414120058578737 -0.026381793580812857 0 -0.056554614530759315 -0.026358709729550601 0 -0.056414120058578737 -0.026381793580812857 0 -0.056433425473762941 -0.026504620117573909 0 -0.056338726042541261 -0.026448845678510122 0 -0.056414120058578737 -0.026381793580812857 0 -0.056433425473762941 -0.026504620117573909 0 -0.056722836348117374 -0.026624199876442736 0 -0.056789419796714202 -0.02631745350326067 0 -0.056554614530759315 -0.026358709729550601 0 -0.056722836348117374 -0.026624199876442736 0 -0.056554614530759315 -0.026358709729550601 0 -0.056433425473762941 -0.026504620117573909 0 -0.022002280944814989 -0.028853949985793631 0 -0.023941850504634966 -0.029188302427082896 0 -0.02387599289128425 -0.027511937380860507 0 -0.022002280944814989 -0.028853949985793631 0 -0.022234702393643457 -0.026154878936728659 0 -0.02387599289128425 -0.027511937380860507 0 -0.023316306404517463 -0.030433384556733965 0 -0.022002280944814989 -0.028853949985793631 0 -0.023941850504634966 -0.029188302427082896 0 -0.033598127884324855 -0.027099249768051652 0 -0.033920258984970808 -0.024774803967807697 0 -0.045222989118378375 -0.025276474036853992 0 -0.044523009638934852 -0.023840631079443023 0 -0.045539348992317624 -0.023466673492829038 0 -0.045222989118378375 -0.025276474036853992 0 -0.043766222538490156 -0.0245096662879037 0 -0.044523009638934852 -0.023840631079443023 0 -0.044070891289670906 -0.026422399719325473 0 -0.045222989118378375 -0.025276474036853992 0 -0.043545240732789744 -0.02547319754895595 0 -0.045222989118378375 -0.025276474036853992 0 -0.043766222538490156 -0.0245096662879037 0 -0.043545240732789744 -0.02547319754895595 0 -0.044070891289670906 -0.026422399719325473 0 -0.042855500562617173 -0.025969583357432133 0 -0.043545240732789744 -0.02547319754895595 0 -0.042141050280379969 -0.02452810985023476 0 -0.042855500562617173 -0.025969583357432133 0 -0.043023550101889567 -0.024910882255773346 0 -0.042855500562617173 -0.025969583357432133 0 -0.043545240732789744 -0.02547319754895595 0 -0.043023550101889567 -0.024910882255773346 0 -0.043766222538490156 -0.0245096662879037 0 -0.043545240732789744 -0.02547319754895595 0 -0.043023550101889567 -0.024910882255773346 0 -0.043766222538490156 -0.0245096662879037 0 -0.043023550101889567 -0.024910882255773346 0 -0.042909834880877552 -0.023922483511872004 0 -0.042141050280379969 -0.02452810985023476 0 -0.043023550101889567 -0.024910882255773346 0 -0.042909834880877552 -0.023922483511872004 0 -0.043766222538490156 -0.0245096662879037 0 -0.042909834880877552 -0.023922483511872004 0 -0.043642016885593389 -0.023353861403498741 0 -0.042909834880877552 -0.023922483511872004 0 -0.042794452744440513 -0.023054214951569649 0 -0.043642016885593389 -0.023353861403498741 0 -0.042483988686096208 -0.022343291271477921 0 -0.042794452744440513 -0.023054214951569649 0 -0.043101067279980497 -0.021974381118066693 0 -0.042794452744440513 -0.023054214951569649 0 -0.043642016885593389 -0.023353861403498741 0 -0.043101067279980497 -0.021974381118066693 0 -0.044461767339225619 -0.022569270648778474 0 -0.043642016885593389 -0.023353861403498741 0 -0.043101067279980497 -0.021974381118066693 0 -0.044799826154821761 -0.022672463648775849 0 -0.042218106288622749 -0.021510444818813684 0 -0.043766222538490156 -0.0245096662879037 0 -0.044523009638934852 -0.023840631079443023 0 -0.043642016885593389 -0.023353861403498741 0 -0.044461767339225619 -0.022569270648778474 0 -0.044523009638934852 -0.023840631079443023 0 -0.043642016885593389 -0.023353861403498741 0 -0.044461767339225619 -0.022569270648778474 0 -0.044523009638934852 -0.023840631079443023 0 -0.045539348992317624 -0.023466673492829038 0 -0.044461767339225619 -0.022569270648778474 0 -0.045539348992317624 -0.023466673492829038 0 -0.045817174108732754 -0.021578320251049363 0 -0.022234702393643457 -0.026154878936728659 0 -0.022712175451877183 -0.023316877410968242 0 -0.024276668959439467 -0.025236719901309528 0 -0.033920258984970808 -0.024774803967807697 0 -0.03409573839218194 -0.022534450960514232 0 -0.022234702393643457 -0.026154878936728659 0 -0.024276668959439467 -0.025236719901309528 0 -0.02387599289128425 -0.027511937380860507 0 -0.04598744697364579 -0.019895511579647265 0 -0.045817174108732754 -0.021578320251049363 0 -0.045262072327048104 -0.020578442060980178 0 -0.023306089548514482 -0.020568155751892435 0 -0.022712175451877183 -0.023316877410968242 0 -0.024032261177886038 -0.021983192893768544 0 -0.035935634834496501 -0.020010036661593369 0 -0.03409573839218194 -0.022534450960514232 0 -0.044461767339225619 -0.022569270648778474 0 -0.045817174108732754 -0.021578320251049363 0 -0.044295294394638925 -0.020921931612868542 0 -0.045817174108732754 -0.021578320251049363 0 -0.045262072327048104 -0.020578442060980178 0 -0.044295294394638925 -0.020921931612868542 0 -0.04598744697364579 -0.019895511579647265 0 -0.045262072327048104 -0.020578442060980178 0 -0.044748240162759259 -0.019880592547497203 0 -0.045262072327048104 -0.020578442060980178 0 -0.044748240162759259 -0.019880592547497203 0 -0.044295294394638925 -0.020921931612868542 0 -0.035935634834496501 -0.020010036661593369 0 -0.047126640820766355 -0.019115175084022468 0 -0.044748240162759259 -0.019880592547497203 0 -0.044295294394638925 -0.020921931612868542 0 -0.043514909585098988 -0.019746383026864638 0 -0.047126640820766355 -0.019115175084022468 0 -0.043317361199409293 -0.019281421682173054 0 -0.044461767339225619 -0.022569270648778474 0 -0.044295294394638925 -0.020921931612868542 0 -0.043233406556042318 -0.0214565936439788 0 -0.044295294394638925 -0.020921931612868542 0 -0.043233406556042318 -0.0214565936439788 0 -0.042935158044493597 -0.020339991074447776 0 -0.042935158044493597 -0.020339991074447776 0 -0.043514909585098988 -0.019746383026864638 0 -0.042288529486060787 -0.019252759391532769 0 -0.044295294394638925 -0.020921931612868542 0 -0.042935158044493597 -0.020339991074447776 0 -0.043514909585098988 -0.019746383026864638 0 -0.043317361199409293 -0.019281421682173054 0 -0.042530151070767346 -0.01926479904767852 0 -0.044151860136729684 -0.018841696530933028 0 -0.04374453575844886 -0.017898764883913496 0 -0.042288529486060787 -0.019252759391532769 0 -0.044151860136729684 -0.018841696530933028 0 -0.04374453575844886 -0.017898764883913496 0 -0.044880641793670746 -0.017959526767216266 0 -0.043778847959521569 -0.016891258808690149 0 -0.044760711070335205 -0.016951904498088029 0 -0.044277190723003026 -0.016098261265258956 0 -0.04374453575844886 -0.017898764883913496 0 -0.043778847959521569 -0.016891258808690149 0 -0.044760711070335205 -0.016951904498088029 0 -0.04374453575844886 -0.017898764883913496 0 -0.043778847959521569 -0.016891258808690149 0 -0.042549155770821349 -0.017810588296486799 0 -0.044760711070335205 -0.016951904498088029 0 -0.045647940613812839 -0.016909317920397921 0 -0.045320173475001467 -0.016427562511079314 0 -0.04374453575844886 -0.017898764883913496 0 -0.044760711070335205 -0.016951904498088029 0 -0.044880641793670746 -0.017959526767216266 0 -0.044760711070335205 -0.016951904498088029 0 -0.045434483500344645 -0.01749828284374693 0 -0.045647940613812839 -0.016909317920397921 0 -0.044760711070335205 -0.016951904498088029 0 -0.044880641793670746 -0.017959526767216266 0 -0.045434483500344645 -0.01749828284374693 0 -0.045412149267360667 -0.018486600109149199 0 -0.044151860136729684 -0.018841696530933028 0 -0.044880641793670746 -0.017959526767216266 0 -0.044880641793670746 -0.017959526767216266 0 -0.045406483228689273 -0.018023277656264058 0 -0.045434483500344645 -0.01749828284374693 0 -0.045412149267360667 -0.018486600109149199 0 -0.044880641793670746 -0.017959526767216266 0 -0.045406483228689273 -0.018023277656264058 0 -0.046013600575050377 -0.018297890127955841 0 -0.045412149267360667 -0.018486600109149199 0 -0.045816456610368227 -0.018116293381521448 0 -0.045412149267360667 -0.018486600109149199 0 -0.045816456610368227 -0.018116293381521448 0 -0.045406483228689273 -0.018023277656264058 0 -0.045816456610368227 -0.018116293381521448 0 -0.045406483228689273 -0.018023277656264058 0 -0.045434483500344645 -0.01749828284374693 0 -0.045816456610368227 -0.018116293381521448 0 -0.045434483500344645 -0.01749828284374693 0 -0.04621564630057446 -0.017070986848945872 0 -0.045647940613812839 -0.016909317920397921 0 -0.04621564630057446 -0.017070986848945872 0 -0.045853608206382783 -0.016438225365039156 0 -0.045434483500344645 -0.01749828284374693 0 -0.045647940613812839 -0.016909317920397921 0 -0.04621564630057446 -0.017070986848945872 0 -0.02839792334856886 -0.017256041679003544 0 -0.03519556397209482 -0.018725456556482206 0 -0.045689956296030287 -0.017714739989303206 0 -0.045932055983778558 -0.017506902644367505 0 -0.045943112749828999 -0.017942246405049267 0 -0.024724791971882425 -0.01876583678954289 0 -0.024591665555650434 -0.019770039747712471 0 -0.024983087923862574 -0.019634304773483439 0 -0.024518468802794065 -0.020565801096227711 0 -0.024591665555650434 -0.019770039747712471 0 -0.024988874261018604 -0.020129209955841547 0 -0.046013600575050377 -0.018297890127955841 0 -0.045816456610368227 -0.018116293381521448 0 -0.045943112749828999 -0.017942246405049267 0 -0.035935634834496501 -0.020010036661593369 0 -0.03519556397209482 -0.018725456556482206 0 -0.045862380074595456 -0.017865982859065526 0 -0.045928273674579814 -0.017802917037692059 0 -0.045816456610368227 -0.018116293381521448 0 -0.045689956296030287 -0.017714739989303206 0 -0.045943112749828999 -0.017942246405049267 0 -0.056461606680842304 -0.027313024892858705 0 -0.05694902196565451 -0.027045308864623894 0 -0.056323439070917095 -0.027101274150290348 0 -0.062903442315308769 -0.0196554505093346 0 -0.06339278773612872 -0.021394230789847663 0 -0.063678741635403546 -0.01937492896319171 0 -0.054327047594267638 -0.01804568386624316 0 -0.061021009294874709 -0.024934529902323196 0 -0.064561525953757859 -0.019949425382007911 0 -0.06339278773612872 -0.021394230789847663 0 -0.063678741635403546 -0.01937492896319171 0 -0.056613084918788262 -0.026803235034982189 0 -0.05694902196565451 -0.027045308864623894 0 -0.056412884632560105 -0.026904612413724292 0 -0.05694902196565451 -0.027045308864623894 0 -0.056412884632560105 -0.026904612413724292 0 -0.056323439070917095 -0.027101274150290348 0 -0.048297873132188446 -0.0251513147670544 0 -0.046728716549652681 -0.020840169040472752 0 -0.056156680143669604 -0.026577746276424521 0 -0.056255292885342055 -0.026870973690027042 0 -0.055996680359892796 -0.027069432640061657 0 -0.041952744635984342 -0.022188008959407372 0 -0.041658073673346452 -0.022861939449119562 0 -0.041934268646031635 -0.021341478617077924 0 -0.056386266183649662 -0.02669802893530732 0 -0.056412884632560105 -0.026904612413724292 0 -0.056255292885342055 -0.026870973690027042 0 -0.056255292885342055 -0.026870973690027042 0 -0.055996680359892796 -0.027069432640061657 0 -0.056323439070917095 -0.027101274150290348 0 -0.056412884632560105 -0.026904612413724292 0 -0.056255292885342055 -0.026870973690027042 0 -0.056323439070917095 -0.027101274150290348 0 -0.041952744635984342 -0.022188008959407372 0 -0.042483988686096208 -0.022343291271477921 0 -0.041934268646031635 -0.021341478617077924 0 -0.043233406556042318 -0.0214565936439788 0 -0.042935158044493597 -0.020339991074447776 0 -0.041819806690942041 -0.020506307208795801 0 -0.042483988686096208 -0.022343291271477921 0 -0.043101067279980497 -0.021974381118066693 0 -0.041934268646031635 -0.021341478617077924 0 -0.042218106288622749 -0.021510444818813684 0 -0.046728716549652681 -0.020840169040472752 0 -0.042935158044493597 -0.020339991074447776 0 -0.042288529486060787 -0.019252759391532769 0 -0.041819806690942041 -0.020506307208795801 0 -0.046728716549652681 -0.020840169040472752 0 -0.04426741674267004 -0.013805027640267675 0 -0.046767281511373361 -0.011593554245233281 0 -0.046819460249998938 -0.011708534814484108 0 -0.046556927438518518 -0.01184359713555397 0 -0.042288529486060787 -0.019252759391532769 0 -0.041819806690942041 -0.020506307208795801 0 -0.042549155770821349 -0.017810588296486799 0 -0.056461606680842304 -0.027313024892858705 0 -0.055996680359892796 -0.027069432640061657 0 -0.056323439070917095 -0.027101274150290348 0 -0.047044728300749933 -0.011676042827202436 0 -0.046767281511373361 -0.011593554245233281 0 -0.046819460249998938 -0.011708534814484108 0 -0.054327047594267638 -0.01804568386624316 0 -0.046728716549652681 -0.020840169040472752 0 -0.047044728300749933 -0.011676042827202436 0 -0.046966254782128666 -0.011695667912191182 0 -0.046819460249998938 -0.011708534814484108 0 -0.046966254782128666 -0.011695667912191182 0 -0.046819460249998938 -0.011708534814484108 0 -0.046783177840086815 -0.011812827003395239 0 -0.046783177840086815 -0.011812827003395239 0 -0.046556927438518518 -0.01184359713555397 0 -0.046693971816136257 -0.011955319624225087 0 -0.046819460249998938 -0.011708534814484108 0 -0.046783177840086815 -0.011812827003395239 0 -0.046556927438518518 -0.01184359713555397 0 -0.046966254782128666 -0.011695667912191182 0 -0.046783177840086815 -0.011812827003395239 0 -0.046977687943564231 -0.011816754381573012 0 -0.046783177840086815 -0.011812827003395239 0 -0.046977687943564231 -0.011816754381573012 0 -0.04690772566920666 -0.011963513816270799 0 -0.04374453575844886 -0.017898764883913496 0 -0.042288529486060787 -0.019252759391532769 0 -0.042549155770821349 -0.017810588296486799 0 -0.04426741674267004 -0.013805027640267675 0 -0.044722475087053494 -0.014342627394904568 0 -0.043778847959521569 -0.016891258808690149 0 -0.042549155770821349 -0.017810588296486799 0 -0.043480554925791705 -0.015770169510424429 0 -0.046556927438518518 -0.01184359713555397 0 -0.04647229339650899 -0.012070620225883056 0 -0.045916652997993579 -0.012228454716729292 0 -0.046556927438518518 -0.01184359713555397 0 -0.04647229339650899 -0.012070620225883056 0 -0.046693971816136257 -0.011955319624225087 0 -0.046783177840086815 -0.011812827003395239 0 -0.04690772566920666 -0.011963513816270799 0 -0.046693971816136257 -0.011955319624225087 0 -0.04647229339650899 -0.012070620225883056 0 -0.046693971816136257 -0.011955319624225087 0 -0.046726639006867403 -0.012141112602936897 0 -0.04690772566920666 -0.011963513816270799 0 -0.046726639006867403 -0.012141112602936897 0 -0.047079936821679616 -0.012061172750774896 0 -0.04690772566920666 -0.011963513816270799 0 -0.046693971816136257 -0.011955319624225087 0 -0.046726639006867403 -0.012141112602936897 0 -0.046726639006867403 -0.012141112602936897 0 -0.047079936821679616 -0.012061172750774896 0 -0.047134376495500382 -0.012306974141243945 0 -0.047079936821679616 -0.012061172750774896 0 -0.047426651912954872 -0.012017413071686167 0 -0.047134376495500382 -0.012306974141243945 0 -0.047079936821679616 -0.012061172750774896 0 -0.047426651912954872 -0.012017413071686167 0 -0.047241712689431586 -0.011864698627933155 0 -0.047426651912954872 -0.012017413071686167 0 -0.047241712689431586 -0.011864698627933155 0 -0.047697024136135004 -0.011893982758355051 0 -0.04690772566920666 -0.011963513816270799 0 -0.047079936821679616 -0.012061172750774896 0 -0.047241712689431586 -0.011864698627933155 0 -0.046977687943564231 -0.011816754381573012 0 -0.047241712689431586 -0.011864698627933155 0 -0.047186541257346795 -0.011711690018411533 0 -0.046977687943564231 -0.011816754381573012 0 -0.04690772566920666 -0.011963513816270799 0 -0.047241712689431586 -0.011864698627933155 0 -0.047241712689431586 -0.011864698627933155 0 -0.047186541257346795 -0.011711690018411533 0 -0.047618483861256354 -0.011651573457125124 0 -0.054327047594267638 -0.01804568386624316 0 -0.055384541820444375 -0.015357011422051509 0 -0.047191606255023083 -0.011477751950147901 0 -0.047186541257346795 -0.011711690018411533 0 -0.047618483861256354 -0.011651573457125124 0 -0.047191606255023083 -0.011477751950147901 0 -0.046966254782128666 -0.011695667912191182 0 -0.047186541257346795 -0.011711690018411533 0 -0.054327047594267638 -0.01804568386624316 0 -0.050352271141715386 -0.015075118527721133 0 -0.046966254782128666 -0.011695667912191182 0 -0.046977687943564231 -0.011816754381573012 0 -0.047186541257346795 -0.011711690018411533 0 -0.062903442315308769 -0.0196554505093346 0 -0.062737973514821618 -0.018776466221023465 0 -0.063678741635403546 -0.01937492896319171 0 -0.047241712689431586 -0.011864698627933155 0 -0.047618483861256354 -0.011651573457125124 0 -0.047697024136135004 -0.011893982758355051 0 -0.058728180897219352 -0.013988351070090735 0 -0.055384541820444375 -0.015357011422051509 0 -0.048096650462998672 -0.011872630083453026 0 -0.047618483861256354 -0.011651573457125124 0 -0.047697024136135004 -0.011893982758355051 0 -0.060426249305423251 -0.0057910152032127444 0 -0.060157703968817998 -0.0055725836479061748 0 -0.059763756490307289 -0.0058531671008855883 0 -0.048096650462998672 -0.011872630083453026 0 -0.047697024136135004 -0.011893982758355051 0 -0.047985399656471368 -0.012031289105492258 0 -0.047426651912954872 -0.012017413071686167 0 -0.047697024136135004 -0.011893982758355051 0 -0.047985399656471368 -0.012031289105492258 0 -0.047426651912954872 -0.012017413071686167 0 -0.047985399656471368 -0.012031289105492258 0 -0.047134376495500382 -0.012306974141243945 0 -0.051720729767707939 -0.0089379775881156757 0 -0.050487386149391217 -0.010986168064506271 0 -0.04886883351771263 -0.010622115502729894 0 -0.055212197811521056 -0.011137384299639806 0 -0.046901952719620658 -0.011609477119413823 0 -0.055212197811521056 -0.011137384299639806 0 -0.05543791414585475 -0.0076669817476376313 0 -0.059763756490307289 -0.0058531671008855883 0 -0.059908839551126726 -0.0064486670632824157 0 -0.060331717698891764 -0.0061256474047488739 0 -0.059763756490307289 -0.0058531671008855883 0 -0.059908839551126726 -0.0064486670632824157 0 -0.058756539952907853 -0.0066997719112447916 0 -0.061603410809675713 -0.0064690984169385951 0 -0.060078081657535219 -0.0067283841975212047 0 -0.059908839551126726 -0.0064486670632824157 0 -0.059542497795757592 -0.0075624747859013791 0 -0.060670746074170126 -0.0064605994531074474 0 -0.059908839551126726 -0.0064486670632824157 0 -0.058756539952907853 -0.0066997719112447916 0 -0.059542497795757592 -0.0075624747859013791 0 -0.049273071627023886 -0.012866146442111034 0 -0.048497904204521651 -0.011955853947979477 0 -0.047698337545522808 -0.012889657872680595 0 -0.050487386149391217 -0.010986168064506271 0 -0.048497904204521651 -0.011955853947979477 0 -0.04886883351771263 -0.010622115502729894 0 -0.050487386149391217 -0.010986168064506271 0 -0.049273071627023886 -0.012866146442111034 0 -0.048497904204521651 -0.011955853947979477 0 -0.05543791414585475 -0.0076669817476376313 0 -0.053819820349780195 -0.010484295048135072 0 -0.046901952719620658 -0.011609477119413823 0 -0.046918398971409626 -0.012294125908813472 0 -0.048497904204521651 -0.011955853947979477 0 -0.04886883351771263 -0.010622115502729894 0 -0.046381146546516414 -0.012487891459536736 0 -0.046726639006867403 -0.012141112602936897 0 -0.046330701408286247 -0.012237254533087957 0 -0.046381146546516414 -0.012487891459536736 0 -0.046726639006867403 -0.012141112602936897 0 -0.047134376495500382 -0.012306974141243945 0 -0.046381146546516414 -0.012487891459536736 0 -0.04647229339650899 -0.012070620225883056 0 -0.046726639006867403 -0.012141112602936897 0 -0.046330701408286247 -0.012237254533087957 0 -0.04647229339650899 -0.012070620225883056 0 -0.046330701408286247 -0.012237254533087957 0 -0.045916652997993579 -0.012228454716729292 0 -0.046330701408286247 -0.012237254533087957 0 -0.045916652997993579 -0.012228454716729292 0 -0.046381146546516414 -0.012487891459536736 0 -0.045916652997993579 -0.012228454716729292 0 -0.046381146546516414 -0.012487891459536736 0 -0.046010484985673269 -0.013442531641213566 0 -0.045916652997993579 -0.012228454716729292 0 -0.046010484985673269 -0.013442531641213566 0 -0.044792608162199904 -0.014549984490882018 0 -0.044722475087053494 -0.014342627394904568 0 -0.044751161505701235 -0.014474589029506253 0 -0.046010484985673269 -0.013442531641213566 0 -0.046782226036596319 -0.013241688631993263 0 -0.04658736920844201 -0.014049463073879659 0 -0.046381146546516414 -0.012487891459536736 0 -0.046010484985673269 -0.013442531641213566 0 -0.046782226036596319 -0.013241688631993263 0 -0.048497904204521651 -0.011955853947979477 0 -0.046381146546516414 -0.012487891459536736 0 -0.047698337545522808 -0.012889657872680595 0 -0.046381146546516414 -0.012487891459536736 0 -0.047698337545522808 -0.012889657872680595 0 -0.046782226036596319 -0.013241688631993263 0 -0.047698337545522808 -0.012889657872680595 0 -0.046782226036596319 -0.013241688631993263 0 -0.047627856201875242 -0.013715732173626894 0 -0.049273071627023886 -0.012866146442111034 0 -0.047698337545522808 -0.012889657872680595 0 -0.047627856201875242 -0.013715732173626894 0 -0.051791525328840633 -0.0077637092854694169 0 -0.043004552134317982 -0.0097283194200353477 0 -0.042957602710028367 -0.0031195471503336326 0 -0.043023207815422251 -0.0031341960675461246 0 -0.042883499792284681 -0.0030949402931005738 0 -0.04658736920844201 -0.014049463073879659 0 -0.048131521441965489 -0.014572596274056434 0 -0.045756483842581623 -0.015155486777754903 0 -0.047627856201875242 -0.013715732173626894 0 -0.04658736920844201 -0.014049463073879659 0 -0.048131521441965489 -0.014572596274056434 0 -0.046782226036596319 -0.013241688631993263 0 -0.047627856201875242 -0.013715732173626894 0 -0.04658736920844201 -0.014049463073879659 0 -0.042957602710028367 -0.0031195471503336326 0 -0.043023207815422251 -0.0031341960675461246 0 -0.043004790525960943 -0.0031591814090489501 0 -0.051791525328840633 -0.0077637092854694169 0 -0.05010296341614788 -0.0033011158225571772 0 -0.046010484985673269 -0.013442531641213566 0 -0.045707313093153602 -0.014289504291844914 0 -0.044792608162199904 -0.014549984490882018 0 -0.046010484985673269 -0.013442531641213566 0 -0.04658736920844201 -0.014049463073879659 0 -0.045707313093153602 -0.014289504291844914 0 -0.04658736920844201 -0.014049463073879659 0 -0.045707313093153602 -0.014289504291844914 0 -0.045756483842581623 -0.015155486777754903 0 -0.045707313093153602 -0.014289504291844914 0 -0.045756483842581623 -0.015155486777754903 0 -0.044792608162199904 -0.014549984490882018 0 -0.042883499792284681 -0.0030949402931005738 0 -0.04288383127976117 -0.0029722099776980236 0 -0.043101377726578113 -0.0030459901100852262 0 -0.042883499792284681 -0.0030949402931005738 0 -0.042875425173416887 -0.0030353363559854638 0 -0.04288383127976117 -0.0029722099776980236 0 -0.05010296341614788 -0.0033011158225571772 0 -0.046327720515106877 -0.002027723657748756 0 -0.042875425173416887 -0.0030353363559854638 0 -0.042900138725844514 -0.0031036861668336203 0 -0.04275155117523028 -0.0027923404046730576 0 -0.0466015914845389 -0.0016117552823434428 0 -0.05010296341614788 -0.0033011158225571772 0 -0.042957602710028367 -0.0031195471503336326 0 -0.042883499792284681 -0.0030949402931005738 0 -0.042875425173416887 -0.0030353363559854638 0 -0.042957602710028367 -0.0031195471503336326 0 -0.042875425173416887 -0.0030353363559854638 0 -0.042900138725844514 -0.0031036861668336203 0 -0.05010296341614788 -0.0033011158225571772 0 -0.055845057427097687 -0.0024935986860085278 0 -0.060922195523137622 -0.0060174816055082207 0 -0.060920411021077425 -0.0060077843764906333 0 -0.060926423496278762 -0.0058772243248102632 0 -0.060908591366376073 -0.0060124627836977704 0 -0.060922195523137622 -0.0060174816055082207 0 -0.060926423496278762 -0.0058772243248102632 0 -0.060910050480448279 -0.0060522776846211514 0 -0.060908591366376073 -0.0060124627836977704 0 -0.060922195523137622 -0.0060174816055082207 0 -0.060902321712377104 -0.0059687444607795454 0 -0.060920411021077425 -0.0060077843764906333 0 -0.060926423496278762 -0.0058772243248102632 0 -0.060902321712377104 -0.0059687444607795454 0 -0.060898419827171486 -0.0060740151856702746 0 -0.060875916311751328 -0.0059811182981769385 0 -0.060902321712377104 -0.0059687444607795454 0 -0.060920411021077425 -0.0060077843764906333 0 -0.060898419827171486 -0.0060740151856702746 0 -0.060920411021077425 -0.0060077843764906333 0 -0.060898419827171486 -0.0060740151856702746 0 -0.060949237568536228 -0.0061655351504007923 0 -0.060898419827171486 -0.0060740151856702746 0 -0.060949237568536228 -0.0061655351504007923 0 -0.060797704037128218 -0.0061626824996874009 0 -0.049273071627023886 -0.012866146442111034 0 -0.047627856201875242 -0.013715732173626894 0 -0.048131521441965489 -0.014572596274056434 0 -0.058756539952907853 -0.0066997719112447916 0 -0.057550806022708477 -0.0085113149618895115 0 -0.059542497795757592 -0.0075624747859013791 0 -0.060910050480448279 -0.0060522776846211514 0 -0.060922195523137622 -0.0060174816055082207 0 -0.060949237568536228 -0.0061655351504007923 0 -0.051791525328840633 -0.0077637092854694169 0 -0.061603410809675713 -0.0064690984169385951 0 -0.053819820349780195 -0.010484295048135072 0 -0.051791525328840633 -0.0077637092854694169 0 -0.060922195523137622 -0.0060174816055082207 0 -0.060920411021077425 -0.0060077843764906333 0 -0.060949237568536228 -0.0061655351504007923 0 -0.022921312629160983 -0.010450266923057849 0 -0.024694990792694771 -0.010354417278000318 0 -0.024323773953992156 -0.012988149298040829 0 -0.041177047618200222 -0.013387215492934163 0 -0.033739717902833248 -0.0070499752199885933 0 -0.022553199422058051 -0.013820797666977455 0 -0.022921312629160983 -0.010450266923057849 0 -0.024323773953992156 -0.012988149298040829 0 -0.045030158770654714 -0.0068556485679452349 0 -0.044188182526245942 -0.0056465809949635386 0 -0.045292420656686865 -0.0052861481496299526 0 -0.02839792334856886 -0.017256041679003544 0 -0.024270200565646237 -0.01314999589386797 0 -0.045689956296030287 -0.017714739989303206 0 -0.045932055983778558 -0.017506902644367505 0 -0.045671632173105395 -0.017195439949352759 0 -0.04621564630057446 -0.017070986848945872 0 -0.046396709377007135 -0.015986129205232739 0 -0.045853608206382783 -0.016438225365039156 0 -0.045928273674579814 -0.017802917037692059 0 -0.041177047618200222 -0.013387215492934163 0 -0.023990056547990316 -0.015490510696672 0 -0.022553199422058051 -0.013820797666977455 0 -0.024323773953992156 -0.012988149298040829 0 -0.02839792334856886 -0.017256041679003544 0 -0.041177047618200222 -0.013387215492934163 0 -0.046396709377007135 -0.015986129205232739 0 -0.045853608206382783 -0.016438225365039156 0 -0.045382870179270375 -0.015817058101062084 0 -0.045647940613812839 -0.016909317920397921 0 -0.045853608206382783 -0.016438225365039156 0 -0.045320173475001467 -0.016427562511079314 0 -0.045853608206382783 -0.016438225365039156 0 -0.045320173475001467 -0.016427562511079314 0 -0.045382870179270375 -0.015817058101062084 0 -0.045382870179270375 -0.015817058101062084 0 -0.045609935273743699 -0.015135683170671585 0 -0.044988392685639728 -0.015127764748141148 0 -0.046396709377007135 -0.015986129205232739 0 -0.045382870179270375 -0.015817058101062084 0 -0.045609935273743699 -0.015135683170671585 0 -0.041177047618200222 -0.013387215492934163 0 -0.045233833668899347 -0.010411172970361449 0 -0.044988392685639728 -0.015127764748141148 0 -0.044710312428880031 -0.015575564638687983 0 -0.044712212918711407 -0.014911557684226409 0 -0.045382870179270375 -0.015817058101062084 0 -0.044988392685639728 -0.015127764748141148 0 -0.044710312428880031 -0.015575564638687983 0 -0.045382870179270375 -0.015817058101062084 0 -0.044710312428880031 -0.015575564638687983 0 -0.044873479712922097 -0.01612836591163367 0 -0.045320173475001467 -0.016427562511079314 0 -0.045382870179270375 -0.015817058101062084 0 -0.044873479712922097 -0.01612836591163367 0 -0.044760711070335205 -0.016951904498088029 0 -0.045320173475001467 -0.016427562511079314 0 -0.044873479712922097 -0.01612836591163367 0 -0.044760711070335205 -0.016951904498088029 0 -0.044873479712922097 -0.01612836591163367 0 -0.044277190723003026 -0.016098261265258956 0 -0.044710312428880031 -0.015575564638687983 0 -0.044873479712922097 -0.01612836591163367 0 -0.044277190723003026 -0.016098261265258956 0 -0.044710312428880031 -0.015575564638687983 0 -0.044277190723003026 -0.016098261265258956 0 -0.044360376104861959 -0.015313228117820496 0 -0.043778847959521569 -0.016891258808690149 0 -0.043480554925791705 -0.015770169510424429 0 -0.044277190723003026 -0.016098261265258956 0 -0.043480554925791705 -0.015770169510424429 0 -0.044277190723003026 -0.016098261265258956 0 -0.044360376104861959 -0.015313228117820496 0 -0.043480554925791705 -0.015770169510424429 0 -0.044360376104861959 -0.015313228117820496 0 -0.044792608162199904 -0.014549984490882018 0 -0.044360376104861959 -0.015313228117820496 0 -0.044712212918711407 -0.014911557684226409 0 -0.044792608162199904 -0.014549984490882018 0 -0.044710312428880031 -0.015575564638687983 0 -0.044360376104861959 -0.015313228117820496 0 -0.044712212918711407 -0.014911557684226409 0 -0.044792608162199904 -0.014549984490882018 0 -0.044649700346896123 -0.014945288520426297 0 -0.044823825329891556 -0.014663180131058148 0 -0.044712212918711407 -0.014911557684226409 0 -0.044792608162199904 -0.014549984490882018 0 -0.044823825329891556 -0.014663180131058148 0 -0.045756483842581623 -0.015155486777754903 0 -0.044792608162199904 -0.014549984490882018 0 -0.044649700346896123 -0.014945288520426297 0 -0.04288383127976117 -0.0029722099776980236 0 -0.043101377726578113 -0.0030459901100852262 0 -0.042996978062640523 -0.0029025082365178316 0 -0.043004552134317982 -0.0097283194200353477 0 -0.044193489961798414 -0.0060115103105461906 0 -0.043201350505685528 -0.0033559829677797096 0 -0.043398918928171881 -0.0033584066907385592 0 -0.043244438096338565 -0.0030775531976882735 0 -0.043398918928171881 -0.0033584066907385592 0 -0.043778873266214262 -0.0038554295703101074 0 -0.043932579495634394 -0.0029726240683739494 0 -0.044193489961798414 -0.0060115103105461906 0 -0.044352533107781353 -0.010025547148617387 0 -0.042919968314319747 -0.0035533078205524848 0 -0.043398918928171881 -0.0033584066907385592 0 -0.043778873266214262 -0.0038554295703101074 0 -0.042919968314319747 -0.0035533078205524848 0 -0.043778873266214262 -0.0038554295703101074 0 -0.043533338623252281 -0.0045449782161824 0 -0.044193489961798414 -0.0060115103105461906 0 -0.043769861200869911 -0.0046944611178617148 0 -0.044988392685639728 -0.015127764748141148 0 -0.044712212918711407 -0.014911557684226409 0 -0.044823825329891556 -0.014663180131058148 0 -0.045609935273743699 -0.015135683170671585 0 -0.044988392685639728 -0.015127764748141148 0 -0.044823825329891556 -0.014663180131058148 0 -0.044188182526245942 -0.0056465809949635386 0 -0.044460387845518166 -0.004512373488935283 0 -0.045292420656686865 -0.0052861481496299526 0 -0.043778873266214262 -0.0038554295703101074 0 -0.043533338623252281 -0.0045449782161824 0 -0.044460387845518166 -0.004512373488935283 0 -0.044188182526245942 -0.0056465809949635386 0 -0.043533338623252281 -0.0045449782161824 0 -0.044460387845518166 -0.004512373488935283 0 -0.045233833668899347 -0.010411172970361449 0 -0.044352533107781353 -0.010025547148617387 0 -0.043778873266214262 -0.0038554295703101074 0 -0.044452639526787935 -0.0036708865210404399 0 -0.043932579495634394 -0.0029726240683739494 0 -0.043778873266214262 -0.0038554295703101074 0 -0.044460387845518166 -0.004512373488935283 0 -0.044452639526787935 -0.0036708865210404399 0 -0.044452639526787935 -0.0036708865210404399 0 -0.045432896306310901 -0.0038990612487517238 0 -0.044836698105238035 -0.0030317507158358027 0 -0.044460387845518166 -0.004512373488935283 0 -0.044452639526787935 -0.0036708865210404399 0 -0.045432896306310901 -0.0038990612487517238 0 -0.044460387845518166 -0.004512373488935283 0 -0.045432896306310901 -0.0038990612487517238 0 -0.045292420656686865 -0.0052861481496299526 0 -0.033917802318222535 -0.0067422517404195402 0 -0.033739717902833248 -0.0070499752199885933 0 -0.023319518442352746 -0.0058061278240388548 0 -0.022921312629160983 -0.010450266923057849 0 -0.024582357576629479 -0.0073862897688929969 0 -0.044793630589372753 0.019966477733807185 0 -0.045176281007095725 0.020260771273310427 0 -0.044363968272293698 0.020522805173493357 0 -0.044793630589372753 0.019966477733807185 0 -0.044363968272293698 0.020522805173493357 0 -0.044162854692095958 0.019892075941654909 0 -0.033917802318222535 -0.0067422517404195402 0 -0.039353075815857445 0.0083190955365560065 0 -0.045432896306310901 -0.0038990612487517238 0 -0.044836698105238035 -0.0030317507158358027 0 -0.045562839323771712 -0.0026472199569912694 0 -0.044836698105238035 -0.0030317507158358027 0 -0.044445750527580492 -0.0023552500977434975 0 -0.045562839323771712 -0.0026472199569912694 0 -0.045923854400652928 0.0087640915257738081 0 -0.039353075815857445 0.0083190955365560065 0 -0.044836698105238035 -0.0030317507158358027 0 -0.043932579495634394 -0.0029726240683739494 0 -0.044445750527580492 -0.0023552500977434975 0 -0.044452639526787935 -0.0036708865210404399 0 -0.044836698105238035 -0.0030317507158358027 0 -0.043932579495634394 -0.0029726240683739494 0 -0.045176281007095725 0.020260771273310427 0 -0.045818394232801415 0.019966397784914668 0 -0.045326225207359128 0.019699621253148641 0 -0.044793630589372753 0.019966477733807185 0 -0.045176281007095725 0.020260771273310427 0 -0.045326225207359128 0.019699621253148641 0 -0.045923854400652928 0.0087640915257738081 0 -0.044199428285506007 0.0089945536971524041 0 -0.043932579495634394 -0.0029726240683739494 0 -0.044445750527580492 -0.0023552500977434975 0 -0.043539364487791415 -0.0021747031668981343 0 -0.043932579495634394 -0.0029726240683739494 0 -0.043539364487791415 -0.0021747031668981343 0 -0.043351186725644565 -0.0027311394322630249 0 -0.043398918928171881 -0.0033584066907385592 0 -0.043932579495634394 -0.0029726240683739494 0 -0.043351186725644565 -0.0027311394322630249 0 -0.043398918928171881 -0.0033584066907385592 0 -0.043351186725644565 -0.0027311394322630249 0 -0.043244438096338565 -0.0030775531976882735 0 -0.043351186725644565 -0.0027311394322630249 0 -0.042996978062640523 -0.0029025082365178316 0 -0.043078182834423787 -0.0025407142775090495 0 -0.043351186725644565 -0.0027311394322630249 0 -0.043244438096338565 -0.0030775531976882735 0 -0.042996978062640523 -0.0029025082365178316 0 -0.043201350505685528 -0.0033559829677797096 0 -0.043244438096338565 -0.0030775531976882735 0 -0.042996978062640523 -0.0029025082365178316 0 -0.044193489961798414 -0.0060115103105461906 0 -0.042414962658264006 -0.0024656769090725698 0 -0.044199428285506007 0.0089945536971524041 0 -0.046107826785345057 0.0090298928895693846 0 -0.043539364487791415 -0.0021747031668981343 0 -0.043351186725644565 -0.0027311394322630249 0 -0.043078182834423787 -0.0025407142775090495 0 -0.043539364487791415 -0.0021747031668981343 0 -0.043078182834423787 -0.0025407142775090495 0 -0.042941552893556688 -0.0020296586488588119 0 -0.046060787774808577 0.019416048313239075 0 -0.0458017338923013 0.019618996775533956 0 -0.046277391952131791 0.019713560201724673 0 -0.045818394232801415 0.019966397784914668 0 -0.0458017338923013 0.019618996775533956 0 -0.046277391952131791 0.019713560201724673 0 -0.047413602773056396 0.022424168668589779 0 -0.046107826785345057 0.0090298928895693846 0 -0.046060787774808577 0.019416048313239075 0 -0.046062180070010568 0.019179308868204677 0 -0.046031784801618743 0.019346575422690991 0 -0.046060787774808577 0.019416048313239075 0 -0.046031784801618743 0.019346575422690991 0 -0.046071421156926771 0.019396161406623886 0 -0.046060787774808577 0.019416048313239075 0 -0.045763361975581826 0.019404145442390653 0 -0.046071421156926771 0.019396161406623886 0 -0.046060787774808577 0.019416048313239075 0 -0.045763361975581826 0.019404145442390653 0 -0.0458017338923013 0.019618996775533956 0 -0.045818394232801415 0.019966397784914668 0 -0.0458017338923013 0.019618996775533956 0 -0.045326225207359128 0.019699621253148641 0 -0.045763361975581826 0.019404145442390653 0 -0.0458017338923013 0.019618996775533956 0 -0.045326225207359128 0.019699621253148641 0 -0.045763361975581826 0.019404145442390653 0 -0.045193706666282099 0.019339047008024704 0 -0.045483178903310127 0.019187844791075132 0 -0.045763361975581826 0.019404145442390653 0 -0.045326225207359128 0.019699621253148641 0 -0.045193706666282099 0.019339047008024704 0 -0.045193706666282099 0.019339047008024704 0 -0.044674606826426433 0.019193262281558217 0 -0.044725481337625855 0.019540356505228663 0 -0.045193706666282099 0.019339047008024704 0 -0.044674606826426433 0.019193262281558217 0 -0.045001164184889086 0.01905009290865264 0 -0.044674606826426433 0.019193262281558217 0 -0.044725481337625855 0.019540356505228663 0 -0.044181097734556661 0.01925078420387907 0 -0.044793630589372753 0.019966477733807185 0 -0.044725481337625855 0.019540356505228663 0 -0.044162854692095958 0.019892075941654909 0 -0.044793630589372753 0.019966477733807185 0 -0.045326225207359128 0.019699621253148641 0 -0.044725481337625855 0.019540356505228663 0 -0.045326225207359128 0.019699621253148641 0 -0.045193706666282099 0.019339047008024704 0 -0.044725481337625855 0.019540356505228663 0 -0.04972917139807724 0.0014040664177570415 0 -0.050586224387414509 0.0021484900466791626 0 -0.049944370050045872 0.0024627664628434141 0 -0.04972917139807724 0.0014040664177570415 0 -0.049944370050045872 0.0024627664628434141 0 -0.049290206234388012 0.0027101298618780558 0 -0.04972917139807724 0.0014040664177570415 0 -0.048986504940856435 0.0024298191939794893 0 -0.049290206234388012 0.0027101298618780558 0 -0.060876881475901361 -0.0057975934821135481 0 -0.060926423496278762 -0.0058772243248102632 0 -0.060871489160322069 -0.0057050663461134582 0 -0.055845057427097687 -0.0024935986860085278 0 -0.057566213252601819 -0.00044309154987388596 0 -0.060876881475901361 -0.0057975934821135481 0 -0.060926423496278762 -0.0058772243248102632 0 -0.060892789683725121 -0.0058784946048841876 0 -0.060902321712377104 -0.0059687444607795454 0 -0.060926423496278762 -0.0058772243248102632 0 -0.060892789683725121 -0.0058784946048841876 0 -0.050511058670736186 0.00034109173618972948 0 -0.04972917139807724 0.0014040664177570415 0 -0.05106949336164391 0.001438486300186802 0 -0.04972917139807724 0.0014040664177570415 0 -0.05106949336164391 0.001438486300186802 0 -0.050586224387414509 0.0021484900466791626 0 -0.042996978062640523 -0.0029025082365178316 0 -0.043078182834423787 -0.0025407142775090495 0 -0.04275155117523028 -0.0027923404046730576 0 -0.042875425173416887 -0.0030353363559854638 0 -0.04288383127976117 -0.0029722099776980236 0 -0.04275155117523028 -0.0027923404046730576 0 -0.04288383127976117 -0.0029722099776980236 0 -0.042996978062640523 -0.0029025082365178316 0 -0.04275155117523028 -0.0027923404046730576 0 -0.046327720515106877 -0.002027723657748756 0 -0.046107826785345057 0.0090298928895693846 0 -0.043078182834423787 -0.0025407142775090495 0 -0.04275155117523028 -0.0027923404046730576 0 -0.042941552893556688 -0.0020296586488588119 0 -0.05106949336164391 0.001438486300186802 0 -0.050586224387414509 0.0021484900466791626 0 -0.051596346741911867 0.0025429643072663287 0 -0.050586224387414509 0.0021484900466791626 0 -0.050589921814337281 0.0028866382086042931 0 -0.049944370050045872 0.0024627664628434141 0 -0.050586224387414509 0.0021484900466791626 0 -0.050589921814337281 0.0028866382086042931 0 -0.051596346741911867 0.0025429643072663287 0 -0.048524600692029837 0.010887928299988182 0 -0.046107826785345057 0.0090298928895693846 0 -0.045920572429531903 0.01921259246182427 0 -0.046062180070010568 0.019179308868204677 0 -0.046031784801618743 0.019346575422690991 0 -0.046031784801618743 0.019346575422690991 0 -0.046048805514125518 0.019465485947971813 0 -0.046071421156926771 0.019396161406623886 0 -0.046031784801618743 0.019346575422690991 0 -0.045954741036523028 0.019371035207014751 0 -0.046048805514125518 0.019465485947971813 0 -0.045920572429531903 0.01921259246182427 0 -0.046031784801618743 0.019346575422690991 0 -0.045954741036523028 0.019371035207014751 0 -0.045920572429531903 0.01921259246182427 0 -0.045870558198881813 0.019324512166957665 0 -0.045954741036523028 0.019371035207014751 0 -0.045870558198881813 0.019324512166957665 0 -0.045954741036523028 0.019371035207014751 0 -0.045830510786441202 0.019475135531190436 0 -0.045920572429531903 0.01921259246182427 0 -0.045870558198881813 0.019324512166957665 0 -0.045772899284414297 0.019242317427826897 0 -0.048882467730711421 0.021823799868805612 0 -0.048025782026858116 0.020372851145167663 0 -0.048667055704751612 0.020631094291433068 0 -0.045870558198881813 0.019324512166957665 0 -0.045772899284414297 0.019242317427826897 0 -0.045825329303737207 0.019411315176284544 0 -0.049201385471045953 0.014195416038059544 0 -0.046793049532864908 0.020460363603630304 0 -0.050589921814337281 0.0028866382086042931 0 -0.049596505763419091 0.0032613927740710214 0 -0.049944370050045872 0.0024627664628434141 0 -0.049596505763419091 0.0032613927740710214 0 -0.049944370050045872 0.0024627664628434141 0 -0.049290206234388012 0.0027101298618780558 0 -0.048524600692029837 0.010887928299988182 0 -0.049201385471045953 0.014195416038059544 0 -0.052183502034617649 0.010447199950745093 0 -0.052401662458019908 0.010654745074803726 0 -0.052587655262698825 0.010582264061802463 0 -0.055655044970627135 0.0026855876602449331 0 -0.05613226281373801 0.0034324087465210733 0 -0.056519208896729359 0.0017708850200304927 0 -0.055655044970627135 0.0026855876602449331 0 -0.055215327350528205 0.0023635062308974639 0 -0.056456726782549413 0.0018445925218826197 0 -0.055655044970627135 0.0026855876602449331 0 -0.055215327350528205 0.0023635062308974639 0 -0.05613226281373801 0.0034324087465210733 0 -0.049219372202155436 0.0027413106939861488 0 -0.048986504940856435 0.0024298191939794893 0 -0.049290206234388012 0.0027101298618780558 0 -0.052346597721921538 0.0034380724717528004 0 -0.052021238641128315 0.0035104100447003734 0 -0.056025397162510419 0.0026752757134440594 0 -0.055232165338365169 0.0037879211460386409 0 -0.052346597721921538 0.0034380724717528004 0 -0.057566213252601819 -0.00044309154987388596 0 -0.049201385471045953 0.014195416038059544 0 -0.052346597721921538 0.0034380724717528004 0 -0.049596505763419091 0.0032613927740710214 0 -0.049214343250413448 0.0027469745361732184 0 -0.049290206234388012 0.0027101298618780558 0 -0.052346597721921538 0.0034380724717528004 0 -0.055232165338365169 0.0037879211460386409 0 -0.049201385471045953 0.014195416038059544 0 -0.051239125399704863 0.016039050618308303 0 -0.048882467730711421 0.021823799868805612 0 -0.048667055704751612 0.020631094291433068 0 -0.049660740580816161 0.020438492025916959 0 -0.048882467730711421 0.021823799868805612 0 -0.050593974038684313 0.021356615715996702 0 -0.049660740580816161 0.020438492025916959 0 -0.052183502034617649 0.010447199950745093 0 -0.052600166902446857 0.010317076519012761 0 -0.052587655262698825 0.010582264061802463 0 -0.051239125399704863 0.016039050618308303 0 -0.054674801911550587 0.012277258241060575 0 -0.058042337390056938 0.002020904120990887 0 -0.056629973401789838 0.0034891479015656465 0 -0.057367483547840561 0.0031679413511818181 0 -0.052600166902446857 0.010317076519012761 0 -0.053018344938467001 0.010208305018555278 0 -0.052587655262698825 0.010582264061802463 0 -0.050593974038684313 0.021356615715996702 0 -0.052319832311562335 0.020573313333667957 0 -0.05119785244626001 0.019898122443038815 0 -0.054674801911550587 0.012277258241060575 0 -0.055232165338365169 0.0037879211460386409 0 -0.062849522885135095 -0.0017884297200090815 0 -0.063574289592139691 -0.0015737182151873068 0 -0.06253601493857186 -0.00094600352690891966 0 -0.059554455740154846 0.0010868250789495416 0 -0.060851731399752806 0.0005268375644510529 0 -0.058220398210544977 0.0020334093052416895 0 -0.057710805951005931 0.0026599326999518346 0 -0.058724644630831858 0.0022163542021614311 0 -0.058042337390056938 0.002020904120990887 0 -0.058220398210544977 0.0020334093052416895 0 -0.057367483547840561 0.0031679413511818181 0 -0.057535385055251541 0.0028539062440772829 0 -0.059554455740154846 0.0010868250789495416 0 -0.062849522885135095 -0.0017884297200090815 0 -0.063267146854182485 -0.001972381694376153 0 -0.063574289592139691 -0.0015737182151873068 0 -0.062849522885135095 -0.0017884297200090815 0 -0.063175758201918758 -0.002291449850830401 0 -0.063267146854182485 -0.001972381694376153 0 -0.062849522885135095 -0.0017884297200090815 0 -0.063175758201918758 -0.002291449850830401 0 -0.06264077617219059 -0.002625629077313596 0 -0.055232165338365169 0.0037879211460386409 0 -0.059554455740154846 0.0010868250789495416 0 -0.05613226281373801 0.0034324087465210733 0 -0.056519208896729359 0.0017708850200304927 0 -0.058086623408946929 0.0010875602542197629 0 -0.063267146854182485 -0.001972381694376153 0 -0.063574289592139691 -0.0015737182151873068 0 -0.06354569897803998 -0.0021699362056808551 0 -0.063175758201918758 -0.002291449850830401 0 -0.063267146854182485 -0.001972381694376153 0 -0.06354569897803998 -0.0021699362056808551 0 -0.064074735476066708 -0.0022693999658945055 0 -0.063574289592139691 -0.0015737182151873068 0 -0.06354569897803998 -0.0021699362056808551 0 -0.057566213252601819 -0.00044309154987388596 0 -0.059554455740154846 0.0010868250789495416 0 -0.060876881475901361 -0.0057975934821135481 0 -0.060871489160322069 -0.0057050663461134582 0 -0.060811421938068717 -0.0057787643710158322 0 -0.057566213252601819 -0.00044309154987388596 0 -0.061740359836799992 -0.0046735234536992368 0 -0.064074735476066708 -0.0022693999658945055 0 -0.06354569897803998 -0.0021699362056808551 0 -0.063722392765561964 -0.0027194496289753762 0 -0.061001818173740847 -0.0051501732566071393 0 -0.061740359836799992 -0.0046735234536992368 0 -0.060876881475901361 -0.0057975934821135481 0 -0.060901343641144079 -0.0058284481747210544 0 -0.06089630819201091 -0.0058277553130692836 0 -0.060901343641144079 -0.0058284481747210544 0 -0.060930225499031522 -0.0058169017908843374 0 -0.06089630819201091 -0.0058277553130692836 0 -0.061740359836799992 -0.0046735234536992368 0 -0.060984649929838895 -0.0056339175681795976 0 -0.063175758201918758 -0.002291449850830401 0 -0.06354569897803998 -0.0021699362056808551 0 -0.063722392765561964 -0.0027194496289753762 0 -0.061740359836799992 -0.0046735234536992368 0 -0.061935510706553128 -0.0041206495802127612 0 -0.060930225499031522 -0.0058169017908843374 0 -0.061068276358368624 -0.0057112779211762202 0 -0.060952529689876848 -0.0058099396842541239 0 -0.060911505764128314 -0.0058422273577164036 0 -0.060930225499031522 -0.0058169017908843374 0 -0.061068276358368624 -0.0057112779211762202 0 -0.063175758201918758 -0.002291449850830401 0 -0.063722392765561964 -0.0027194496289753762 0 -0.06264077617219059 -0.002625629077313596 0 -0.061068276358368624 -0.0057112779211762202 0 -0.060952529689876848 -0.0058099396842541239 0 -0.060988364959039976 -0.0057474132274264568 0 -0.060952529689876848 -0.0058099396842541239 0 -0.060988364959039976 -0.0057474132274264568 0 -0.060901676680138593 -0.0059125023418659349 0 -0.060952529689876848 -0.0058099396842541239 0 -0.060901505387303712 -0.0058946230132360267 0 -0.060901676680138593 -0.0059125023418659349 0 -0.060952529689876848 -0.0058099396842541239 0 -0.060901505387303712 -0.0058946230132360267 0 -0.060907025634807051 -0.0058481872411908055 0 -0.060901505387303712 -0.0058946230132360267 0 -0.060892789683725121 -0.0058784946048841876 0 -0.060907025634807051 -0.0058481872411908055 0 -0.060901505387303712 -0.0058946230132360267 0 -0.060892789683725121 -0.0058784946048841876 0 -0.060875916311751328 -0.0059811182981769385 0 -0.060876881475901361 -0.0057975934821135481 0 -0.060892789683725121 -0.0058784946048841876 0 -0.06089630819201091 -0.0058277553130692836 0 -0.060892789683725121 -0.0058784946048841876 0 -0.06089630819201091 -0.0058277553130692836 0 -0.060907025634807051 -0.0058481872411908055 0 -0.060930225499031522 -0.0058169017908843374 0 -0.060952529689876848 -0.0058099396842541239 0 -0.060907025634807051 -0.0058481872411908055 0 -0.060930225499031522 -0.0058169017908843374 0 -0.06089630819201091 -0.0058277553130692836 0 -0.060907025634807051 -0.0058481872411908055 0 -0.061069450569690029 -0.0056317674331061475 0 -0.060205282056172107 -0.0053775897765255569 0 -0.060211404641539588 -0.0068512732915958783 0 -0.06109605655147779 -0.0057149743754749127 0 -0.061331995364953158 -0.0070998478000454121 0 -0.061069450569690029 -0.0056317674331061475 0 -0.060211404641539588 -0.0068512732915958783 0 -0.061887263173143102 -0.0080351900540275526 0 -0.060988364959039976 -0.0057474132274264568 0 -0.060901676680138593 -0.0059125023418659349 0 -0.060798527143856744 -0.0059780955437750295 0 -0.060988364959039976 -0.0057474132274264568 0 -0.061069450569690029 -0.0056317674331061475 0 -0.060798527143856744 -0.0059780955437750295 0 -0.061935510706553128 -0.0041206495802127612 0 -0.061055426626573178 -0.0038353413964901176 0 -0.061068276358368624 -0.0057112779211762202 0 -0.061058272708415073 -0.0055827379662272214 0 -0.060993961959120324 -0.0050688187419281735 0 -0.060988364959039976 -0.0057474132274264568 0 -0.061058272708415073 -0.0055827379662272214 0 -0.061069450569690029 -0.0056317674331061475 0 -0.06264077617219059 -0.002625629077313596 0 -0.061310031281520766 -0.0026278309959536471 0 -0.06210806377862902 -0.0020395461219504755 0 -0.061068276358368624 -0.0057112779211762202 0 -0.060988364959039976 -0.0057474132274264568 0 -0.061058272708415073 -0.0055827379662272214 0 -0.061058272708415073 -0.0055827379662272214 0 -0.060993961959120324 -0.0050688187419281735 0 -0.061069450569690029 -0.0056317674331061475 0 -0.060993961959120324 -0.0050688187419281735 0 -0.061069450569690029 -0.0056317674331061475 0 -0.060205282056172107 -0.0053775897765255569 0 -0.061310031281520766 -0.0026278309959536471 0 -0.06210806377862902 -0.0020395461219504755 0 -0.06153755520239429 -0.001394076868198747 0 -0.061310031281520766 -0.0026278309959536471 0 -0.060643456955047852 -0.0017751203918685119 0 -0.06153755520239429 -0.001394076868198747 0 -0.062849522885135095 -0.0017884297200090815 0 -0.06264077617219059 -0.002625629077313596 0 -0.06210806377862902 -0.0020395461219504755 0 -0.06210806377862902 -0.0020395461219504755 0 -0.062270104157655409 -0.0015459608127189894 0 -0.06153755520239429 -0.001394076868198747 0 -0.062849522885135095 -0.0017884297200090815 0 -0.06210806377862902 -0.0020395461219504755 0 -0.062270104157655409 -0.0015459608127189894 0 -0.058220398210544977 0.0020334093052416895 0 -0.058724644630831858 0.0022163542021614311 0 -0.059149444185068768 0.0015862064037283597 0 -0.062270104157655409 -0.0015459608127189894 0 -0.06253601493857186 -0.00094600352690891966 0 -0.06153755520239429 -0.001394076868198747 0 -0.060851731399752806 0.0005268375644510529 0 -0.060264871274257351 0.0008330029739872987 0 -0.06253601493857186 -0.00094600352690891966 0 -0.06153755520239429 -0.001394076868198747 0 -0.061249325000468736 -4.0432963112058687e-05 0 -0.062849522885135095 -0.0017884297200090815 0 -0.062270104157655409 -0.0015459608127189894 0 -0.06253601493857186 -0.00094600352690891966 0 -0.060729753449494731 -0.00090313943180007287 0 -0.06153755520239429 -0.001394076868198747 0 -0.061249325000468736 -4.0432963112058687e-05 0 -0.060643456955047852 -0.0017751203918685119 0 -0.060729753449494731 -0.00090313943180007287 0 -0.06153755520239429 -0.001394076868198747 0 -0.060729753449494731 -0.00090313943180007287 0 -0.060034525692983447 -0.0002316054311446487 0 -0.061249325000468736 -4.0432963112058687e-05 0 -0.060729753449494731 -0.00090313943180007287 0 -0.060034525692983447 -0.0002316054311446487 0 -0.059814060474754169 -0.0012180841850903321 0 -0.060643456955047852 -0.0017751203918685119 0 -0.060729753449494731 -0.00090313943180007287 0 -0.059814060474754169 -0.0012180841850903321 0 -0.060034525692983447 -0.0002316054311446487 0 -0.059814060474754169 -0.0012180841850903321 0 -0.059021547431642681 -0.00012409131128674627 0 -0.059021547431642681 -0.00012409131128674627 0 -0.058671938829421184 -0.001519927192305389 0 -0.057474901849375724 -0.00024995484722492367 0 -0.059814060474754169 -0.0012180841850903321 0 -0.059021547431642681 -0.00012409131128674627 0 -0.058671938829421184 -0.001519927192305389 0 -0.058671938829421184 -0.001519927192305389 0 -0.059604108835317797 -0.0026853715313850659 0 -0.057497680700124162 -0.0029105682315878592 0 -0.059433323776733833 -0.0033546164842570086 0 -0.057566063565024417 -0.0029460061008215205 0 -0.060643456955047852 -0.0017751203918685119 0 -0.059814060474754169 -0.0012180841850903321 0 -0.059604108835317797 -0.0026853715313850659 0 -0.061310031281520766 -0.0026278309959536471 0 -0.060643456955047852 -0.0017751203918685119 0 -0.059604108835317797 -0.0026853715313850659 0 -0.059814060474754169 -0.0012180841850903321 0 -0.058671938829421184 -0.001519927192305389 0 -0.059604108835317797 -0.0026853715313850659 0 -0.061055426626573178 -0.0038353413964901176 0 -0.059433323776733833 -0.0033546164842570086 0 -0.054999812916025015 -0.00094218036617141451 0 -0.057474901849375724 -0.00024995484722492367 0 -0.056062978783280683 0.00054278764236082575 0 -0.054999812916025015 -0.00094218036617141451 0 -0.057474901849375724 -0.00024995484722492367 0 -0.057497680700124162 -0.0029105682315878592 0 -0.058671938829421184 -0.001519927192305389 0 -0.057474901849375724 -0.00024995484722492367 0 -0.057497680700124162 -0.0029105682315878592 0 -0.054999812916025015 -0.00094218036617141451 0 -0.057497680700124162 -0.0029105682315878592 0 -0.054999710781067378 -0.0039482317981489731 0 -0.057497680700124162 -0.0029105682315878592 0 -0.056923215544050151 -0.0058139680958468323 0 -0.058787144079507504 -0.0054520506413774945 0 -0.057497680700124162 -0.0029105682315878592 0 -0.054999710781067378 -0.0039482317981489731 0 -0.056923215544050151 -0.0058139680958468323 0 -0.056923215544050151 -0.0058139680958468323 0 -0.058531730492440336 -0.0075111676320385101 0 -0.056622415061730678 -0.0079406499843914062 0 -0.056923215544050151 -0.0058139680958468323 0 -0.054999719716412751 -0.0069539428127522486 0 -0.056622415061730678 -0.0079406499843914062 0 -0.054999710781067378 -0.0039482317981489731 0 -0.056923215544050151 -0.0058139680958468323 0 -0.054999719716412751 -0.0069539428127522486 0 -0.060993961959120324 -0.0050688187419281735 0 -0.05946473693488824 -0.0040393677359509281 0 -0.060205282056172107 -0.0053775897765255569 0 -0.05946473693488824 -0.0040393677359509281 0 -0.060205282056172107 -0.0053775897765255569 0 -0.058787144079507504 -0.0054520506413774945 0 -0.05946473693488824 -0.0040393677359509281 0 -0.057497680700124162 -0.0029105682315878592 0 -0.058787144079507504 -0.0054520506413774945 0 -0.056923215544050151 -0.0058139680958468323 0 -0.058787144079507504 -0.0054520506413774945 0 -0.058531730492440336 -0.0075111676320385101 0 -0.058787144079507504 -0.0054520506413774945 0 -0.060211404641539588 -0.0068512732915958783 0 -0.058531730492440336 -0.0075111676320385101 0 -0.060205282056172107 -0.0053775897765255569 0 -0.058787144079507504 -0.0054520506413774945 0 -0.060211404641539588 -0.0068512732915958783 0 -0.060211404641539588 -0.0068512732915958783 0 -0.058531730492440336 -0.0075111676320385101 0 -0.059888573681059862 -0.0097792664411879612 0 -0.058531730492440336 -0.0075111676320385101 0 -0.059888573681059862 -0.0097792664411879612 0 -0.057632041540250895 -0.0099542837608706143 0 -0.054999719716412751 -0.0069539428127522486 0 -0.056622415061730678 -0.0079406499843914062 0 -0.054999726297954604 -0.0099595559938638039 0 -0.058531730492440336 -0.0075111676320385101 0 -0.056622415061730678 -0.0079406499843914062 0 -0.057632041540250895 -0.0099542837608706143 0 -0.056622415061730678 -0.0079406499843914062 0 -0.057632041540250895 -0.0099542837608706143 0 -0.054999726297954604 -0.0099595559938638039 0 -0.054999726297954604 -0.0099595559938638039 0 -0.056922537116651316 -0.012249618054748734 0 -0.054999797057189694 -0.012965050748291717 0 -0.057632041540250895 -0.0099542837608706143 0 -0.054999726297954604 -0.0099595559938638039 0 -0.056922537116651316 -0.012249618054748734 0 -0.05826216368698283 -0.01397125269933246 0 -0.056537649169081126 -0.014613127741503917 0 -0.056922537116651316 -0.012249618054748734 0 -0.056537649169081126 -0.014613127741503917 0 -0.056922537116651316 -0.012249618054748734 0 -0.054999797057189694 -0.012965050748291717 0 -0.059888573681059862 -0.0097792664411879612 0 -0.058624477419184327 -0.012341667226696499 0 -0.060603587441438317 -0.01275537206724668 0 -0.057632041540250895 -0.0099542837608706143 0 -0.056922537116651316 -0.012249618054748734 0 -0.058624477419184327 -0.012341667226696499 0 -0.059888573681059862 -0.0097792664411879612 0 -0.057632041540250895 -0.0099542837608706143 0 -0.058624477419184327 -0.012341667226696499 0 -0.05826216368698283 -0.01397125269933246 0 -0.056922537116651316 -0.012249618054748734 0 -0.058624477419184327 -0.012341667226696499 0 -0.057795258830870486 -0.014270243084029806 0 -0.058565134342245473 -0.012528850754993217 0 -0.057340367242675522 -0.014509746634181135 0 -0.058624477419184327 -0.012341667226696499 0 -0.058874005071407789 -0.014155980097003681 0 -0.058624477419184327 -0.012341667226696499 0 -0.058874005071407789 -0.014155980097003681 0 -0.060603587441438317 -0.01275537206724668 0 -0.059848428257451708 -0.014936019473346239 0 -0.058874005071407789 -0.014155980097003681 0 -0.060603587441438317 -0.01275537206724668 0 -0.060557359185147853 -0.014558080585535973 0 -0.059848428257451708 -0.014936019473346239 0 -0.060603587441438317 -0.01275537206724668 0 -0.059888573681059862 -0.0097792664411879612 0 -0.060603587441438317 -0.01275537206724668 0 -0.062287581129365666 -0.010850412495007873 0 -0.061615769492964705 -0.0081442892873031698 0 -0.060992951591076622 -0.011933642901027925 0 -0.060794434170100844 -0.006246243482782049 0 -0.060916195263601772 -0.0060879820979252465 0 -0.060781170113215703 -0.006265095350486102 0 -0.060603587441438317 -0.01275537206724668 0 -0.062287581129365666 -0.010850412495007873 0 -0.062777047641321332 -0.014026345948415809 0 -0.060557359185147853 -0.014558080585535973 0 -0.060603587441438317 -0.01275537206724668 0 -0.061426600825135916 -0.014074043291360061 0 -0.061235827221897972 -0.013377731660923422 0 -0.060992951591076622 -0.011933642901027925 0 -0.060426249305423251 -0.0057910152032127444 0 -0.060715064193684984 -0.0058093395061366822 0 -0.060675063352823445 -0.0061180738481320072 0 -0.060916195263601772 -0.0060879820979252465 0 -0.060675063352823445 -0.0061180738481320072 0 -0.060781170113215703 -0.006265095350486102 0 -0.060715064193684984 -0.0058093395061366822 0 -0.060916195263601772 -0.0060879820979252465 0 -0.060675063352823445 -0.0061180738481320072 0 -0.060426249305423251 -0.0057910152032127444 0 -0.059763756490307289 -0.0058531671008855883 0 -0.060331717698891764 -0.0061256474047488739 0 -0.060426249305423251 -0.0057910152032127444 0 -0.060675063352823445 -0.0061180738481320072 0 -0.060331717698891764 -0.0061256474047488739 0 -0.060675063352823445 -0.0061180738481320072 0 -0.060331717698891764 -0.0061256474047488739 0 -0.060670746074170126 -0.0064605994531074474 0 -0.059908839551126726 -0.0064486670632824157 0 -0.060331717698891764 -0.0061256474047488739 0 -0.060670746074170126 -0.0064605994531074474 0 -0.060670746074170126 -0.0064605994531074474 0 -0.060781170113215703 -0.006265095350486102 0 -0.060807778011201574 -0.0061500029898854617 0 -0.060675063352823445 -0.0061180738481320072 0 -0.060670746074170126 -0.0064605994531074474 0 -0.060781170113215703 -0.006265095350486102 0 -0.060794434170100844 -0.006246243482782049 0 -0.060781170113215703 -0.006265095350486102 0 -0.060807778011201574 -0.0061500029898854617 0 -0.060807778011201574 -0.0061500029898854617 0 -0.060797704037128218 -0.0061626824996874009 0 -0.060856166210763139 -0.0060168690699638179 0 -0.060949237568536228 -0.0061655351504007923 0 -0.060670746074170126 -0.0064605994531074474 0 -0.060797704037128218 -0.0061626824996874009 0 -0.060670746074170126 -0.0064605994531074474 0 -0.060807778011201574 -0.0061500029898854617 0 -0.060797704037128218 -0.0061626824996874009 0 -0.060898419827171486 -0.0060740151856702746 0 -0.060797704037128218 -0.0061626824996874009 0 -0.060875916311751328 -0.0059811182981769385 0 -0.060797704037128218 -0.0061626824996874009 0 -0.060856166210763139 -0.0060168690699638179 0 -0.060875916311751328 -0.0059811182981769385 0 -0.060901505387303712 -0.0058946230132360267 0 -0.060856166210763139 -0.0060168690699638179 0 -0.060875916311751328 -0.0059811182981769385 0 -0.060902321712377104 -0.0059687444607795454 0 -0.060892789683725121 -0.0058784946048841876 0 -0.060875916311751328 -0.0059811182981769385 0 -0.060807778011201574 -0.0061500029898854617 0 -0.060856166210763139 -0.0060168690699638179 0 -0.060901676680138593 -0.0059125023418659349 0 -0.060901505387303712 -0.0058946230132360267 0 -0.060856166210763139 -0.0060168690699638179 0 -0.060901676680138593 -0.0059125023418659349 0 -0.060807778011201574 -0.0061500029898854617 0 -0.060901676680138593 -0.0059125023418659349 0 -0.060798527143856744 -0.0059780955437750295 0 -0.060211404641539588 -0.0068512732915958783 0 -0.059888573681059862 -0.0097792664411879612 0 -0.061887263173143102 -0.0080351900540275526 0 -0.059888573681059862 -0.0097792664411879612 0 -0.062287581129365666 -0.010850412495007873 0 -0.061887263173143102 -0.0080351900540275526 0 -0.061615769492964705 -0.0081442892873031698 0 -0.061331995364953158 -0.0070998478000454121 0 -0.060794434170100844 -0.006246243482782049 0 -0.060807778011201574 -0.0061500029898854617 0 -0.060798527143856744 -0.0059780955437750295 0 -0.012601173668604446 -0.0014760916697362696 0 -0.012629439739386393 -0.0015413034434591519 0 -0.012887749627518182 -0.0012748091254167178 0 -0.012601173668604446 -0.0014760916697362696 0 -0.012517946874896064 -0.0015682334755997554 0 -0.012587909199098612 -0.0014964191112006241 0 -0.012601173668604446 -0.0014760916697362696 0 -0.012887749627518182 -0.0012748091254167178 0 -0.012570412654531812 -0.0011961968538148583 0 -0.017795578892475811 -0.0055671573590884297 0 -0.015119865839095199 -0.0047540110650859642 0 -0.012466335441471122 -0.00039124606192518188 0 -0.015119865839095199 -0.0047540110650859642 0 -0.012601173668604446 -0.0014760916697362696 0 -0.012517946874896064 -0.0015682334755997554 0 -0.012444250090897706 -0.0017000665512501025 0 -0.012517946874896064 -0.0015682334755997554 0 -0.012444250090897706 -0.0017000665512501025 0 -0.012425661960898388 -0.0020084413343972071 0 -0.012518522973719786 -0.0015979422742354475 0 -0.012517946874896064 -0.0015682334755997554 0 -0.012425661960898388 -0.0020084413343972071 0 -0.012518522973719786 -0.0015979422742354475 0 -0.012608922783395886 -0.0014397988679885924 0 -0.012546078779438013 -0.0013584699876719925 0 -0.012518522973719786 -0.0015979422742354475 0 -0.012517946874896064 -0.0015682334755997554 0 -0.012608922783395886 -0.0014397988679885924 0 -0.012517946874896064 -0.0015682334755997554 0 -0.012587909199098612 -0.0014964191112006241 0 -0.012608922783395886 -0.0014397988679885924 0 -0.012726463228468276 -0.0014596421493267737 0 -0.012629439739386393 -0.0015413034434591519 0 -0.012921238494674053 -0.0015333957671388729 0 -0.012587909199098612 -0.0014964191112006241 0 -0.012608922783395886 -0.0014397988679885924 0 -0.012640306731734208 -0.0014956894667956871 0 -0.016580113819014686 0.00043513322247836319 0 -0.012921238494674053 -0.0015333957671388729 0 -0.013366870580643611 -0.0019154549696443807 0 -0.014224468806205297 -0.00012699128684486475 0 -0.013117686411956068 -0.0015342964870870685 0 -0.012608922783395886 -0.0014397988679885924 0 -0.012726463228468276 -0.0014596421493267737 0 -0.012640306731734208 -0.0014956894667956871 0 -0.012608922783395886 -0.0014397988679885924 0 -0.012726463228468276 -0.0014596421493267737 0 -0.01263381692850531 -0.0012819819959780457 0 -0.012608922783395886 -0.0014397988679885924 0 -0.01263381692850531 -0.0012819819959780457 0 -0.012546078779438013 -0.0013584699876719925 0 -0.012726463228468276 -0.0014596421493267737 0 -0.012744394631418179 -0.0013919254490689173 0 -0.012921238494674053 -0.0015333957671388729 0 -0.012726463228468276 -0.0014596421493267737 0 -0.01263381692850531 -0.0012819819959780457 0 -0.012744394631418179 -0.0013919254490689173 0 -0.01688952827626557 -0.00103473909496467 0 -0.016580113819014686 0.00043513322247836319 0 -0.013366870580643611 -0.0019154549696443807 0 -0.012726463228468276 -0.0014596421493267737 0 -0.012640306731734208 -0.0014956894667956871 0 -0.012629439739386393 -0.0015413034434591519 0 -0.012601173668604446 -0.0014760916697362696 0 -0.012640306731734208 -0.0014956894667956871 0 -0.012629439739386393 -0.0015413034434591519 0 -0.012601173668604446 -0.0014760916697362696 0 -0.012587909199098612 -0.0014964191112006241 0 -0.012640306731734208 -0.0014956894667956871 0 -0.019336017599388619 0.0014476639532025361 0 -0.02388788841013469 0.0034775041696126037 0 -0.024516929904044683 0.0053762065721188771 0 -0.026437629028107784 0.0059063730946374796 0 -0.02655573924695441 0.0043920917629106391 0 -0.016580113819014686 0.00043513322247836319 0 -0.020792856854728144 7.5411828345790742e-06 0 -0.020954678653420235 0.0025387801403486459 0 -0.01688952827626557 -0.00103473909496467 0 -0.016580113819014686 0.00043513322247836319 0 -0.020792856854728144 7.5411828345790742e-06 0 -0.020792856854728144 7.5411828345790742e-06 0 -0.020954678653420235 0.0025387801403486459 0 -0.024804102341863421 0.001169464163417734 0 -0.026437629028107784 0.0059063730946374796 0 -0.028308082951187596 0.006409669553873453 0 -0.02846430136334643 0.005405603274997845 0 -0.02388788841013469 0.0034775041696126037 0 -0.027983298011637878 -0.0028697194562996957 0 -0.026437629028107784 0.0059063730946374796 0 -0.028050723016177025 0.0043316360822020722 0 -0.02846430136334643 0.005405603274997845 0 -0.022415150735232432 -0.0099480789331503512 0 -0.022460624395775345 -0.0099623086628992039 0 -0.022404800707878487 -0.0099682137204420828 0 -0.020194523757633503 -0.0040472268915078312 0 -0.027983298011637878 -0.0028697194562996957 0 -0.023148702137292559 -0.0069610020588983827 0 -0.026070159525543413 -0.005542486049168174 0 -0.028110652360533034 -0.0087050980745571847 0 -0.020194523757633503 -0.0040472268915078312 0 -0.027884446994204611 -0.012975903809945634 0 -0.022415150735232432 -0.0099480789331503512 0 -0.022386613037949043 -0.0099247069711536195 0 -0.022404800707878487 -0.0099682137204420828 0 -0.012629439739386393 -0.0015413034434591519 0 -0.013316540523356709 -0.0014210758146799946 0 -0.012887749627518182 -0.0012748091254167178 0 -0.014224468806205297 -0.00012699128684486475 0 -0.020194523757633503 -0.0040472268915078312 0 -0.020194523757633503 -0.0040472268915078312 0 -0.017795578892475811 -0.0055671573590884297 0 -0.022386613037949043 -0.0099247069711536195 0 -0.022404800707878487 -0.0099682137204420828 0 -0.022418932927262547 -0.0099672327322694876 0 -0.027884446994204611 -0.012975903809945634 0 -0.026363210525158599 -0.014128761151964443 0 -0.030645306661305494 -0.017896952486131178 0 -0.030852301354639663 -0.018383968040024373 0 -0.03058831455710587 -0.018370200490857004 0 -0.030852301354639663 -0.018383968040024373 0 -0.030747988836819673 -0.018811521396135168 0 -0.03058831455710587 -0.018370200490857004 0 -0.030747988836819673 -0.018811521396135168 0 -0.03058831455710587 -0.018370200490857004 0 -0.030436264037267038 -0.01918999881022285 0 -0.026363210525158599 -0.014128761151964443 0 -0.027246794397281428 -0.01494786480908184 0 -0.030852301354639663 -0.018383968040024373 0 -0.030747988836819673 -0.018811521396135168 0 -0.030937418422400415 -0.018947073123103991 0 -0.02242852836717401 -0.01008431205085164 0 -0.022418932927262547 -0.0099672327322694876 0 -0.022512243667062389 -0.010024377548499802 0 -0.015119865839095199 -0.0047540110650859642 0 -0.016667568430488555 -0.0058041088667778193 0 -0.022404800707878487 -0.0099682137204420828 0 -0.02242852836717401 -0.01008431205085164 0 -0.022418932927262547 -0.0099672327322694876 0 -0.022418932927262547 -0.0099672327322694876 0 -0.022422049110397312 -0.0099002579846454389 0 -0.022512243667062389 -0.010024377548499802 0 -0.022386613037949043 -0.0099247069711536195 0 -0.022418932927262547 -0.0099672327322694876 0 -0.022422049110397312 -0.0099002579846454389 0 -0.015119865839095199 -0.0047540110650859642 0 -0.011699877543854393 -0.0021727492241988694 0 -0.011524280250414853 -0.002555059109698814 0 -0.012155712979563336 -0.0027483251089635472 0 -0.011681765127641531 -0.0033582826703870503 0 -0.016667568430488555 -0.0058041088667778193 0 -0.023820311679770875 -0.012909911391737743 0 -0.011681765127641531 -0.0033582826703870503 0 -0.012314166136063977 -0.0033832486053087846 0 -0.011902142242738754 -0.004330961150462876 0 -0.02242852836717401 -0.01008431205085164 0 -0.022512243667062389 -0.010024377548499802 0 -0.022589970593897161 -0.010290645066020088 0 -0.012155712979563336 -0.0027483251089635472 0 -0.011681765127641531 -0.0033582826703870503 0 -0.012314166136063977 -0.0033832486053087846 0 -0.012314166136063977 -0.0033832486053087846 0 -0.012840018856495631 -0.0028280990986741098 0 -0.012789599817846956 -0.0040297169216004184 0 -0.013334672397350157 -0.0035835716765442532 0 -0.012840018856495631 -0.0028280990986741098 0 -0.012789599817846956 -0.0040297169216004184 0 -0.012840018856495631 -0.0028280990986741098 0 -0.013569144959082102 -0.0025479118134091616 0 -0.012994189044118453 -0.0019061589943593265 0 -0.013334672397350157 -0.0035835716765442532 0 -0.012840018856495631 -0.0028280990986741098 0 -0.013569144959082102 -0.0025479118134091616 0 -0.012425661960898388 -0.0020084413343972071 0 -0.012692230584720403 -0.0021010483451303257 0 -0.012840018856495631 -0.0028280990986741098 0 -0.012692230584720403 -0.0021010483451303257 0 -0.012840018856495631 -0.0028280990986741098 0 -0.012994189044118453 -0.0019061589943593265 0 -0.012155712979563336 -0.0027483251089635472 0 -0.012314166136063977 -0.0033832486053087846 0 -0.012840018856495631 -0.0028280990986741098 0 -0.011699877543854393 -0.0021727492241988694 0 -0.013071216728992023 -0.0028280941299069708 0 -0.012425661960898388 -0.0020084413343972071 0 -0.012692230584720403 -0.0021010483451303257 0 -0.012588031537459451 -0.0016921590677743405 0 -0.013334672397350157 -0.0035835716765442532 0 -0.013671725891392447 -0.0036128192494692536 0 -0.01377381677941086 -0.0045464263660340556 0 -0.013334672397350157 -0.0035835716765442532 0 -0.013671725891392447 -0.0036128192494692536 0 -0.013569144959082102 -0.0025479118134091616 0 -0.013671725891392447 -0.0036128192494692536 0 -0.013569144959082102 -0.0025479118134091616 0 -0.014833664082829701 -0.0019125048167942104 0 -0.013671725891392447 -0.0036128192494692536 0 -0.014833664082829701 -0.0019125048167942104 0 -0.016204772718107455 -0.0023603214765791146 0 -0.013569144959082102 -0.0025479118134091616 0 -0.014833664082829701 -0.0019125048167942104 0 -0.013731266980254783 -0.0011122624398774729 0 -0.014833664082829701 -0.0019125048167942104 0 -0.014679528520044205 -0.00064633133494347984 0 -0.013731266980254783 -0.0011122624398774729 0 -0.014679528520044205 -0.00064633133494347984 0 -0.013731266980254783 -0.0011122624398774729 0 -0.013904846640234359 0.00030622060857265126 0 -0.014679528520044205 -0.00064633133494347984 0 -0.013904846640234359 0.00030622060857265126 0 -0.014768096035852753 0.00069377415587207629 0 -0.014679528520044205 -0.00064633133494347984 0 -0.015577301422613871 0.0004741749179653995 0 -0.016622759781438439 -0.00013450353679950798 0 -0.014833664082829701 -0.0019125048167942104 0 -0.014679528520044205 -0.00064633133494347984 0 -0.016622759781438439 -0.00013450353679950798 0 -0.014679528520044205 -0.00064633133494347984 0 -0.015577301422613871 0.0004741749179653995 0 -0.014768096035852753 0.00069377415587207629 0 -0.012518522973719786 -0.0015979422742354475 0 -0.012546078779438013 -0.0013584699876719925 0 -0.012588031537459451 -0.0016921590677743405 0 -0.012806531780387447 -0.0013061064793046615 0 -0.012546078779438013 -0.0013584699876719925 0 -0.012588031537459451 -0.0016921590677743405 0 -0.012518522973719786 -0.0015979422742354475 0 -0.012425661960898388 -0.0020084413343972071 0 -0.012588031537459451 -0.0016921590677743405 0 -0.012692230584720403 -0.0021010483451303257 0 -0.012588031537459451 -0.0016921590677743405 0 -0.012994189044118453 -0.0019061589943593265 0 -0.012806531780387447 -0.0013061064793046615 0 -0.012588031537459451 -0.0016921590677743405 0 -0.012994189044118453 -0.0019061589943593265 0 -0.012806531780387447 -0.0013061064793046615 0 -0.013731266980254783 -0.0011122624398774729 0 -0.012994189044118453 -0.0019061589943593265 0 -0.013569144959082102 -0.0025479118134091616 0 -0.013731266980254783 -0.0011122624398774729 0 -0.012994189044118453 -0.0019061589943593265 0 -0.013731266980254783 -0.0011122624398774729 0 -0.01306387241429805 -0.00055794203496976338 0 -0.013904846640234359 0.00030622060857265126 0 -0.012806531780387447 -0.0013061064793046615 0 -0.013731266980254783 -0.0011122624398774729 0 -0.01306387241429805 -0.00055794203496976338 0 -0.01306387241429805 -0.00055794203496976338 0 -0.013002940250043329 0.00060244343270793928 0 -0.013904846640234359 0.00030622060857265126 0 -0.012819596979630065 0.0012754983403000704 0 -0.01904367814617617 0.0048231409301145427 0 -0.01306387241429805 -0.00055794203496976338 0 -0.012183417351621907 0.00012895052519290904 0 -0.013002940250043329 0.00060244343270793928 0 -0.01306387241429805 -0.00055794203496976338 0 -0.01253918098434185 -0.0010610834998103123 0 -0.012441839863985281 -0.00046088626586628968 0 -0.012806531780387447 -0.0013061064793046615 0 -0.012546078779438013 -0.0013584699876719925 0 -0.01253918098434185 -0.0010610834998103123 0 -0.012806531780387447 -0.0013061064793046615 0 -0.01306387241429805 -0.00055794203496976338 0 -0.01253918098434185 -0.0010610834998103123 0 -0.01263381692850531 -0.0012819819959780457 0 -0.012546078779438013 -0.0013584699876719925 0 -0.01253918098434185 -0.0010610834998103123 0 -0.016123754103652275 -0.00035549078078780651 0 -0.01904367814617617 0.0048231409301145427 0 -0.01263381692850531 -0.0012819819959780457 0 -0.012744394631418179 -0.0013919254490689173 0 -0.012300658649156082 -0.0012972322140761144 0 -0.01263381692850531 -0.0012819819959780457 0 -0.01253918098434185 -0.0010610834998103123 0 -0.012300658649156082 -0.0012972322140761144 0 -0.012744394631418179 -0.0013919254490689173 0 -0.012300658649156082 -0.0012972322140761144 0 -0.012921238494674053 -0.0015333957671388729 0 -0.032122379374896079 0.01443253049833762 0 -0.031849044504819971 0.015239875526038314 0 -0.031846964772067436 0.016715350016324824 0 -0.012183417351621907 0.00012895052519290904 0 -0.012784100137463464 0.0014446651409354807 0 -0.012128255992530047 0.0024198431498915203 0 -0.01904367814617617 0.0048231409301145427 0 -0.022328255294174267 0.01031769828604852 0 -0.012183417351621907 0.00012895052519290904 0 -0.012784100137463464 0.0014446651409354807 0 -0.013002940250043329 0.00060244343270793928 0 -0.032122379374896079 0.01443253049833762 0 -0.031849044504819971 0.015239875526038314 0 -0.030947044355642401 0.014931881565629459 0 -0.013904846640234359 0.00030622060857265126 0 -0.013443080578770595 0.0015043482486394749 0 -0.014329194512917198 0.0018774183631955234 0 -0.013002940250043329 0.00060244343270793928 0 -0.013904846640234359 0.00030622060857265126 0 -0.013443080578770595 0.0015043482486394749 0 -0.012784100137463464 0.0014446651409354807 0 -0.013002940250043329 0.00060244343270793928 0 -0.013443080578770595 0.0015043482486394749 0 -0.013140009611983213 0.0025317366563980376 0 -0.014329194512917198 0.0018774183631955234 0 -0.014230070136304241 0.0032016972603108236 0 -0.013443080578770595 0.0015043482486394749 0 -0.013140009611983213 0.0025317366563980376 0 -0.014329194512917198 0.0018774183631955234 0 -0.012784100137463464 0.0014446651409354807 0 -0.013443080578770595 0.0015043482486394749 0 -0.013140009611983213 0.0025317366563980376 0 -0.013140009611983213 0.0025317366563980376 0 -0.012128255992530047 0.0024198431498915203 0 -0.013090559403381073 0.0036009052376836906 0 -0.012784100137463464 0.0014446651409354807 0 -0.013140009611983213 0.0025317366563980376 0 -0.012128255992530047 0.0024198431498915203 0 -0.015577301422613871 0.0004741749179653995 0 -0.015166921633915668 0.0016354057659790646 0 -0.016081748519760245 0.0015219373412119852 0 -0.015577301422613871 0.0004741749179653995 0 -0.014768096035852753 0.00069377415587207629 0 -0.015166921633915668 0.0016354057659790646 0 -0.013904846640234359 0.00030622060857265126 0 -0.014768096035852753 0.00069377415587207629 0 -0.014329194512917198 0.0018774183631955234 0 -0.014768096035852753 0.00069377415587207629 0 -0.014329194512917198 0.0018774183631955234 0 -0.015166921633915668 0.0016354057659790646 0 -0.014329194512917198 0.0018774183631955234 0 -0.014956529513266448 0.0027074080251481259 0 -0.014230070136304241 0.0032016972603108236 0 -0.014329194512917198 0.0018774183631955234 0 -0.014956529513266448 0.0027074080251481259 0 -0.015166921633915668 0.0016354057659790646 0 -0.014956529513266448 0.0027074080251481259 0 -0.015166921633915668 0.0016354057659790646 0 -0.01579475422664342 0.0027382510130388713 0 -0.016081748519760245 0.0015219373412119852 0 -0.01579475422664342 0.0027382510130388713 0 -0.016345745808118709 0.0023561404599715579 0 -0.015166921633915668 0.0016354057659790646 0 -0.016081748519760245 0.0015219373412119852 0 -0.01579475422664342 0.0027382510130388713 0 -0.016150713386397446 0.0038021958696818148 0 -0.01579475422664342 0.0027382510130388713 0 -0.015278709660840842 0.003945091173658319 0 -0.014956529513266448 0.0027074080251481259 0 -0.01579475422664342 0.0027382510130388713 0 -0.015278709660840842 0.003945091173658319 0 -0.016150713386397446 0.0038021958696818148 0 -0.01579475422664342 0.0027382510130388713 0 -0.016451532258956396 0.0030943047177367858 0 -0.014956529513266448 0.0027074080251481259 0 -0.015278709660840842 0.003945091173658319 0 -0.014230070136304241 0.0032016972603108236 0 -0.013924290489951722 0.0029827127488182047 0 -0.016021856805366552 0.0058762526423964193 0 -0.015278709660840842 0.003945091173658319 0 -0.015104151858336671 0.0059064248771724549 0 -0.013974614188374257 0.0054782933750719496 0 -0.015278709660840842 0.003945091173658319 0 -0.014230070136304241 0.0032016972603108236 0 -0.014450237423398857 0.0048200126534814714 0 -0.014821883302175428 0.0040512489328499287 0 -0.016021856805366552 0.0058762526423964193 0 -0.015278709660840842 0.003945091173658319 0 -0.01596244141906367 0.0050856015142396963 0 -0.015104151858336671 0.0059064248771724549 0 -0.016150713386397446 0.0038021958696818148 0 -0.015278709660840842 0.003945091173658319 0 -0.01596244141906367 0.0050856015142396963 0 -0.012128255992530047 0.0024198431498915203 0 -0.013090559403381073 0.0036009052376836906 0 -0.012262490819951614 0.0045548278824157733 0 -0.013140009611983213 0.0025317366563980376 0 -0.013090559403381073 0.0036009052376836906 0 -0.014230070136304241 0.0032016972603108236 0 -0.013090559403381073 0.0036009052376836906 0 -0.014230070136304241 0.0032016972603108236 0 -0.013598203845383921 0.0051307850309495039 0 -0.014230070136304241 0.0032016972603108236 0 -0.013598203845383921 0.0051307850309495039 0 -0.015074719820930995 0.0055304081468305283 0 -0.013090559403381073 0.0036009052376836906 0 -0.013598203845383921 0.0051307850309495039 0 -0.012262490819951614 0.0045548278824157733 0 -0.013598203845383921 0.0051307850309495039 0 -0.012262490819951614 0.0045548278824157733 0 -0.012467604363783925 0.006560210218227891 0 -0.031515744749362196 0.01871699606286905 0 -0.03029467569427954 0.018398319212010211 0 -0.030245312450952116 0.019710947673170824 0 -0.03029467569427954 0.018398319212010211 0 -0.029449086217387725 0.01906841346989718 0 -0.030245312450952116 0.019710947673170824 0 -0.03029467569427954 0.018398319212010211 0 -0.030598756153551183 0.017021762371118052 0 -0.029493375866429698 0.017332798442936538 0 -0.03029467569427954 0.018398319212010211 0 -0.029493375866429698 0.017332798442936538 0 -0.029578896157633035 0.018326926138818828 0 -0.031846964772067436 0.016715350016324824 0 -0.031515744749362196 0.01871699606286905 0 -0.030598756153551183 0.017021762371118052 0 -0.022328255294174267 0.01031769828604852 0 -0.0217577361000993 0.01009714232313468 0 -0.031515744749362196 0.01871699606286905 0 -0.03029467569427954 0.018398319212010211 0 -0.030598756153551183 0.017021762371118052 0 -0.031846964772067436 0.016715350016324824 0 -0.03098988702949557 0.016115325545115012 0 -0.030598756153551183 0.017021762371118052 0 -0.031849044504819971 0.015239875526038314 0 -0.031846964772067436 0.016715350016324824 0 -0.03098988702949557 0.016115325545115012 0 -0.03098988702949557 0.016115325545115012 0 -0.030598756153551183 0.017021762371118052 0 -0.029548526076383055 0.016439502594624712 0 -0.030598756153551183 0.017021762371118052 0 -0.029548526076383055 0.016439502594624712 0 -0.029493375866429698 0.017332798442936538 0 -0.03098988702949557 0.016115325545115012 0 -0.031221473322325249 0.015167681749852197 0 -0.029548526076383055 0.016439502594624712 0 -0.024516929904044683 0.0053762065721188771 0 -0.022586655111461518 0.004807787010305385 0 -0.025193634736781871 0.0036266934490013321 0 -0.023964059596961306 0.0079703180957455735 0 -0.02797794630922399 0.0097047432429631757 0 -0.019336017599388619 0.0014476639532025361 0 -0.023964059596961306 0.0079703180957455735 0 -0.01904367814617617 0.0048231409301145427 0 -0.023964059596961306 0.0079703180957455735 0 -0.012300658649156082 -0.0012972322140761144 0 -0.012921238494674053 -0.0015333957671388729 0 -0.013366870580643611 -0.0019154549696443807 0 -0.032779971695173007 0.0134657560986675 0 -0.023964059596961306 0.0079703180957455735 0 -0.031849044504819971 0.015239875526038314 0 -0.03098988702949557 0.016115325545115012 0 -0.031221473322325249 0.015167681749852197 0 -0.026437629028107784 0.0059063730946374796 0 -0.02655573924695441 0.0043920917629106391 0 -0.028050723016177025 0.0043316360822020722 0 -0.02655573924695441 0.0043920917629106391 0 -0.027711433259710261 0.002537704792097402 0 -0.028050723016177025 0.0043316360822020722 0 -0.024516929904044683 0.0053762065721188771 0 -0.02655573924695441 0.0043920917629106391 0 -0.025193634736781871 0.0036266934490013321 0 -0.029548526076383055 0.016439502594624712 0 -0.028854766830889611 0.01716612891867194 0 -0.029493375866429698 0.017332798442936538 0 -0.029548526076383055 0.016439502594624712 0 -0.028854766830889611 0.01716612891867194 0 -0.028732667343713793 0.017132115767020194 0 -0.02797794630922399 0.0097047432429631757 0 -0.028533450959937035 0.013364529726063877 0 -0.02655573924695441 0.0043920917629106391 0 -0.025193634736781871 0.0036266934490013321 0 -0.027711433259710261 0.002537704792097402 0 -0.029028653548799563 0.014059108634179251 0 -0.028533450959937035 0.013364529726063877 0 -0.028569030662921345 0.017742211458567404 0 -0.02947616960094912 0.017349096552545865 0 -0.028854766830889611 0.01716612891867194 0 -0.028917901040740192 0.01726951991724816 0 -0.028833116746832924 0.017109608783097138 0 -0.028854766830889611 0.01716612891867194 0 -0.028833116746832924 0.017109608783097138 0 -0.029493375866429698 0.017332798442936538 0 -0.02817408023248074 0.018429601421548064 0 -0.029053542556636142 0.018437492569654799 0 -0.028581254249679403 0.019047274426610805 0 -0.02817408023248074 0.018429601421548064 0 -0.029493375866429698 0.017332798442936538 0 -0.029053542556636142 0.018437492569654799 0 -0.029493375866429698 0.017332798442936538 0 -0.029053542556636142 0.018437492569654799 0 -0.029578896157633035 0.018326926138818828 0 -0.029053542556636142 0.018437492569654799 0 -0.029578896157633035 0.018326926138818828 0 -0.029449086217387725 0.01906841346989718 0 -0.03029467569427954 0.018398319212010211 0 -0.029578896157633035 0.018326926138818828 0 -0.029449086217387725 0.01906841346989718 0 -0.029053542556636142 0.018437492569654799 0 -0.029449086217387725 0.01906841346989718 0 -0.028581254249679403 0.019047274426610805 0 -0.029449086217387725 0.01906841346989718 0 -0.028581254249679403 0.019047274426610805 0 -0.02869171622953513 0.019855237769457832 0 -0.029449086217387725 0.01906841346989718 0 -0.02869171622953513 0.019855237769457832 0 -0.029412761742185673 0.019782919530678136 0 -0.029449086217387725 0.01906841346989718 0 -0.029412761742185673 0.019782919530678136 0 -0.030245312450952116 0.019710947673170824 0 -0.02817408023248074 0.018429601421548064 0 -0.028581254249679403 0.019047274426610805 0 -0.027845041269545186 0.019404563604794468 0 -0.028581254249679403 0.019047274426610805 0 -0.028276090821505277 0.019556758900263736 0 -0.027845041269545186 0.019404563604794468 0 -0.028581254249679403 0.019047274426610805 0 -0.02869171622953513 0.019855237769457832 0 -0.028276090821505277 0.019556758900263736 0 -0.02869171622953513 0.019855237769457832 0 -0.028276090821505277 0.019556758900263736 0 -0.027983016318355047 0.019927795443949074 0 -0.028276090821505277 0.019556758900263736 0 -0.027983016318355047 0.019927795443949074 0 -0.027845041269545186 0.019404563604794468 0 -0.027983016318355047 0.019927795443949074 0 -0.027282687651691836 0.019966463104884952 0 -0.027845041269545186 0.019404563604794468 0 -0.02817408023248074 0.018429601421548064 0 -0.027845041269545186 0.019404563604794468 0 -0.026940533089072266 0.019379319093292987 0 -0.027282687651691836 0.019966463104884952 0 -0.027845041269545186 0.019404563604794468 0 -0.026940533089072266 0.019379319093292987 0 -0.028917901040740192 0.01726951991724816 0 -0.028833116746832924 0.017109608783097138 0 -0.029645311595990976 0.017101964464980381 0 -0.028533450959937035 0.013364529726063877 0 -0.029671957677807805 0.017246823992674885 0 -0.028569030662921345 0.017742211458567404 0 -0.028489680017005754 0.017937083944955304 0 -0.028833116746832924 0.017109608783097138 0 -0.029645311595990976 0.017101964464980381 0 -0.029811612756204961 0.01646138218512086 0 -0.029645311595990976 0.017101964464980381 0 -0.029811612756204961 0.01646138218512086 0 -0.030732444002241045 0.01661151996689535 0 -0.029952398338753357 0.016956350105063165 0 -0.03056542425841165 0.017215107841436296 0 -0.030732444002241045 0.01661151996689535 0 -0.029671957677807805 0.017246823992674885 0 -0.030712672366359915 0.016601999911401974 0 -0.028489680017005754 0.017937083944955304 0 -0.028309360641591803 0.017717324624669791 0 -0.026940533089072266 0.019379319093292987 0 -0.026302041433761848 0.020152301774031874 0 -0.026661151896667984 0.020179240567669107 0 -0.029811612756204961 0.01646138218512086 0 -0.031160126388642354 0.015897338768583957 0 -0.030732444002241045 0.01661151996689535 0 -0.027282687651691836 0.019966463104884952 0 -0.026940533089072266 0.019379319093292987 0 -0.026661151896667984 0.020179240567669107 0 -0.031160126388642354 0.015897338768583957 0 -0.031775443550252157 0.016581165639356937 0 -0.030732444002241045 0.01661151996689535 0 -0.031160126388642354 0.015897338768583957 0 -0.031921736485053323 0.015724582330033536 0 -0.032393946165591887 0.015440186326397877 0 -0.031921736485053323 0.015724582330033536 0 -0.031775443550252157 0.016581165639356937 0 -0.032523707502656839 0.016101084980183828 0 -0.031160126388642354 0.015897338768583957 0 -0.031921736485053323 0.015724582330033536 0 -0.031775443550252157 0.016581165639356937 0 -0.031775443550252157 0.016581165639356937 0 -0.032115176650620761 0.017477726570515478 0 -0.033158619088409419 0.016768251386382931 0 -0.031775443550252157 0.016581165639356937 0 -0.031268762589400256 0.017207545270137653 0 -0.032115176650620761 0.017477726570515478 0 -0.031775443550252157 0.016581165639356937 0 -0.030732444002241045 0.01661151996689535 0 -0.031268762589400256 0.017207545270137653 0 -0.03056542425841165 0.017215107841436296 0 -0.030732444002241045 0.01661151996689535 0 -0.031268762589400256 0.017207545270137653 0 -0.03056542425841165 0.017215107841436296 0 -0.031268762589400256 0.017207545270137653 0 -0.031208780916934721 0.018102117173067582 0 -0.031268762589400256 0.017207545270137653 0 -0.032115176650620761 0.017477726570515478 0 -0.031208780916934721 0.018102117173067582 0 -0.035935254377349658 0.014027381482494706 0 -0.035997487786882026 0.012765435050027803 0 -0.035367339230661349 0.013830235183126401 0 -0.035935254377349658 0.014027381482494706 0 -0.035997487786882026 0.012765435050027803 0 -0.036885981854442473 0.013071259144380955 0 -0.033765833397408476 0.016832343109711431 0 -0.032739633699952163 0.0069006629261856222 0 -0.034233488155148067 -0.010260569297114851 0 -0.036437831770253733 -0.01115061417720959 0 -0.03266656380504402 -0.011399470143643337 0 -0.038467215084797127 0.0066950665987705917 0 -0.032739633699952163 0.0069006629261856222 0 -0.036912565527592006 -0.011469378489125716 0 -0.036000314732873413 -0.010312039179947026 0 -0.040289283117253653 -0.0064854229496124341 0 -0.034233488155148067 -0.010260569297114851 0 -0.036000314732873413 -0.010312039179947026 0 -0.03453866983590418 -0.0083743716049955105 0 -0.034233488155148067 -0.010260569297114851 0 -0.036437831770253733 -0.01115061417720959 0 -0.036000314732873413 -0.010312039179947026 0 -0.038467215084797127 0.0066950665987705917 0 -0.040596709074175764 4.1841890279427847e-06 0 -0.034233488155148067 -0.010260569297114851 0 -0.03266656380504402 -0.011399470143643337 0 -0.031992499699735132 -0.0098403352695044053 0 -0.03266656380504402 -0.011399470143643337 0 -0.032748466514514664 -0.009833067187988126 0 -0.031992499699735132 -0.0098403352695044053 0 -0.032739633699952163 0.0069006629261856222 0 -0.032383730755204378 -0.0033087556965742354 0 -0.030474588923066034 0.0049936573202178361 0 -0.029266377368292917 0.0046898352791839839 0 -0.029723785429413091 0.0032497397976063167 0 -0.031694271272763669 0.0039507727662470146 0 -0.030474588923066034 0.0049936573202178361 0 -0.029723785429413091 0.0032497397976063167 0 -0.029266377368292917 0.0046898352791839839 0 -0.028050723016177025 0.0043316360822020722 0 -0.029723785429413091 0.0032497397976063167 0 -0.029266377368292917 0.0046898352791839839 0 -0.028050723016177025 0.0043316360822020722 0 -0.02846430136334643 0.005405603274997845 0 -0.027711433259710261 0.002537704792097402 0 -0.028050723016177025 0.0043316360822020722 0 -0.029723785429413091 0.0032497397976063167 0 -0.029133710242471324 0.017289262038034381 0 -0.029952398338753357 0.016956350105063165 0 -0.030136316749343143 0.017690697567790299 0 -0.028533450959937035 0.013364529726063877 0 -0.02969390951298943 0.010488846163772913 0 -0.03056542425841165 0.017215107841436296 0 -0.031208780916934721 0.018102117173067582 0 -0.030136316749343143 0.017690697567790299 0 -0.032739633699952163 0.0069006629261856222 0 -0.02969390951298943 0.010488846163772913 0 -0.029952398338753357 0.016956350105063165 0 -0.03056542425841165 0.017215107841436296 0 -0.030136316749343143 0.017690697567790299 0 -0.044181097734556661 0.01925078420387907 0 -0.043557785700925625 0.019377113963258804 0 -0.044162854692095958 0.019892075941654909 0 -0.044725481337625855 0.019540356505228663 0 -0.044181097734556661 0.01925078420387907 0 -0.044162854692095958 0.019892075941654909 0 -0.044181097734556661 0.01925078420387907 0 -0.044435555990323228 0.01892138063771975 0 -0.043959301955899137 0.018903413684177302 0 -0.044674606826426433 0.019193262281558217 0 -0.044181097734556661 0.01925078420387907 0 -0.044435555990323228 0.01892138063771975 0 -0.044181097734556661 0.01925078420387907 0 -0.043709835246520376 0.019069171286563439 0 -0.043959301955899137 0.018903413684177302 0 -0.044181097734556661 0.01925078420387907 0 -0.043709835246520376 0.019069171286563439 0 -0.043557785700925625 0.019377113963258804 0 -0.043709835246520376 0.019069171286563439 0 -0.043341102547158748 0.019025621953816754 0 -0.043557785700925625 0.019377113963258804 0 -0.043709835246520376 0.019069171286563439 0 -0.043615435303887111 0.018902317436626247 0 -0.043959301955899137 0.018903413684177302 0 -0.043709835246520376 0.019069171286563439 0 -0.043615435303887111 0.018902317436626247 0 -0.043341102547158748 0.019025621953816754 0 -0.03803649685085695 0.017026246178172999 0 -0.040635810128432419 0.016811871079480879 0 -0.043341102547158748 0.019025621953816754 0 -0.043026743478071318 0.018878220926078323 0 -0.043308182873583685 0.018839670432298242 0 -0.043615435303887111 0.018902317436626247 0 -0.043341102547158748 0.019025621953816754 0 -0.043308182873583685 0.018839670432298242 0 -0.043341102547158748 0.019025621953816754 0 -0.043013499577553911 0.019274609970665494 0 -0.043026743478071318 0.018878220926078323 0 -0.043341102547158748 0.019025621953816754 0 -0.043013499577553911 0.019274609970665494 0 -0.043557785700925625 0.019377113963258804 0 -0.043013499577553911 0.019274609970665494 0 -0.043557785700925625 0.019377113963258804 0 -0.043019719053592476 0.019936357120322185 0 -0.043557785700925625 0.019377113963258804 0 -0.043019719053592476 0.019936357120322185 0 -0.044162854692095958 0.019892075941654909 0 -0.043013499577553911 0.019274609970665494 0 -0.042158491954382371 0.019272927341695695 0 -0.043019719053592476 0.019936357120322185 0 -0.034410335845519058 0.015910236149598113 0 -0.0335925224482835 0.015840074550349938 0 -0.033158619088409419 0.016768251386382931 0 -0.043013499577553911 0.019274609970665494 0 -0.042158491954382371 0.019272927341695695 0 -0.043026743478071318 0.018878220926078323 0 -0.03803649685085695 0.017026246178172999 0 -0.033774720481795903 0.015693539897476072 0 -0.038709997207747648 0.016770212017622257 0 -0.03803649685085695 0.017026246178172999 0 -0.034848554947831324 0.014793657536258687 0 -0.034435756797175504 0.015580955341140405 0 -0.03508311618896371 0.014877930879735617 0 -0.031775443550252157 0.016581165639356937 0 -0.032523707502656839 0.016101084980183828 0 -0.033158619088409419 0.016768251386382931 0 -0.033019048815413593 0.015857106164849442 0 -0.032523707502656839 0.016101084980183828 0 -0.033158619088409419 0.016768251386382931 0 -0.0335925224482835 0.015840074550349938 0 -0.033019048815413593 0.015857106164849442 0 -0.033158619088409419 0.016768251386382931 0 -0.0335925224482835 0.015840074550349938 0 -0.033019048815413593 0.015857106164849442 0 -0.03338203467984209 0.015514518081697919 0 -0.031921736485053323 0.015724582330033536 0 -0.032523707502656839 0.016101084980183828 0 -0.032739171351854515 0.015399977937375036 0 -0.033019048815413593 0.015857106164849442 0 -0.032523707502656839 0.016101084980183828 0 -0.032739171351854515 0.015399977937375036 0 -0.033765833397408476 0.016832343109711431 0 -0.033774720481795903 0.015693539897476072 0 -0.038709997207747648 0.016770212017622257 0 -0.037544802963656559 0.018407921008725337 0 -0.035935254377349658 0.014027381482494706 0 -0.03508311618896371 0.014877930879735617 0 -0.035367339230661349 0.013830235183126401 0 -0.034848554947831324 0.014793657536258687 0 -0.03508311618896371 0.014877930879735617 0 -0.035367339230661349 0.013830235183126401 0 -0.040092470098310365 0.020565444487867339 0 -0.041156142164125047 0.019847940672173329 0 -0.041976525358865466 0.020332110050676984 0 -0.038467215084797127 0.0066950665987705917 0 -0.037544802963656559 0.018407921008725337 0 -0.040092470098310365 0.020565444487867339 0 -0.041976525358865466 0.020332110050676984 0 -0.041883837772612696 0.021261939556613544 0 -0.038467215084797127 0.0066950665987705917 0 -0.039340158107803461 0.00052522499950740406 0 -0.041976525358865466 0.020332110050676984 0 -0.043195583573739843 0.020971743819074167 0 -0.041883837772612696 0.021261939556613544 0 -0.042158491954382371 0.019272927341695695 0 -0.041156142164125047 0.019847940672173329 0 -0.041976525358865466 0.020332110050676984 0 -0.042158491954382371 0.019272927341695695 0 -0.041976525358865466 0.020332110050676984 0 -0.043019719053592476 0.019936357120322185 0 -0.043019719053592476 0.019936357120322185 0 -0.043195583573739843 0.020971743819074167 0 -0.043647368057540548 0.020359832657105843 0 -0.041976525358865466 0.020332110050676984 0 -0.043019719053592476 0.019936357120322185 0 -0.043195583573739843 0.020971743819074167 0 -0.035717794920921725 0.010977052614216484 0 -0.039340158107803461 0.00052522499950740406 0 -0.030822610297759418 -0.00088363043499910796 0 -0.024528966471689992 0.0012672149098038061 0 -0.026992092422106619 -0.0041797199467868123 0 -0.035717794920921725 0.010977052614216484 0 -0.039353075815857445 0.0083190955365560065 0 -0.043195583573739843 0.020971743819074167 0 -0.044147386509598312 0.020634728669898288 0 -0.043647368057540548 0.020359832657105843 0 -0.043019719053592476 0.019936357120322185 0 -0.043647368057540548 0.020359832657105843 0 -0.044162854692095958 0.019892075941654909 0 -0.039353075815857445 0.0083190955365560065 0 -0.04530601503415399 0.024675563433408425 0 -0.044147386509598312 0.020634728669898288 0 -0.043647368057540548 0.020359832657105843 0 -0.044162854692095958 0.019892075941654909 0 -0.026824459139391976 -0.0086832950274397351 0 -0.024582357576629479 -0.0073862897688929969 0 -0.0279516842511713 -0.0063463462898147218 0 -0.022921312629160983 -0.010450266923057849 0 -0.025166651938900962 -0.0089264683549020347 0 -0.024582357576629479 -0.0073862897688929969 0 -0.022921312629160983 -0.010450266923057849 0 -0.025166651938900962 -0.0089264683549020347 0 -0.024694990792694771 -0.010354417278000318 0 -0.025166651938900962 -0.0089264683549020347 0 -0.024694990792694771 -0.010354417278000318 0 -0.026824459139391976 -0.0086832950274397351 0 -0.025166651938900962 -0.0089264683549020347 0 -0.026824459139391976 -0.0086832950274397351 0 -0.024582357576629479 -0.0073862897688929969 0 -0.023319518442352746 -0.0058061278240388548 0 -0.024582357576629479 -0.0073862897688929969 0 -0.026992092422106619 -0.0041797199467868123 0 -0.025483781480933981 -0.0071220599761259371 0 -0.028256114072997433 -0.0064085431945119778 0 -0.023319518442352746 -0.0058061278240388548 0 -0.024528966471689992 0.0012672149098038061 0 -0.026992092422106619 -0.0041797199467868123 0 -0.024582357576629479 -0.0073862897688929969 0 -0.026992092422106619 -0.0041797199467868123 0 -0.030968424299430555 -0.00541323533537984 0 -0.028256114072997433 -0.0064085431945119778 0 -0.039340158107803461 0.00052522499950740406 0 -0.030822610297759418 -0.00088363043499910796 0 -0.030968424299430555 -0.00541323533537984 0 -0.037337460696829174 -0.0030730725101801638 0 -0.030822610297759418 -0.00088363043499910796 0 -0.026992092422106619 -0.0041797199467868123 0 -0.030968424299430555 -0.00541323533537984 0 -0.026824459139391976 -0.0086832950274397351 0 -0.030797013563083668 -0.008120645542822387 0 -0.029679940191636136 -0.011061596578448327 0 -0.026824459139391976 -0.0086832950274397351 0 -0.0279516842511713 -0.0063463462898147218 0 -0.030797013563083668 -0.008120645542822387 0 -0.030797013563083668 -0.008120645542822387 0 -0.034111934125407029 -0.011224134217896236 0 -0.029679940191636136 -0.011061596578448327 0 -0.030797013563083668 -0.008120645542822387 0 -0.031535891595968431 -0.0051273466705715415 0 -0.034689516922114721 -0.0062858118531735532 0 -0.0279516842511713 -0.0063463462898147218 0 -0.030797013563083668 -0.008120645542822387 0 -0.031535891595968431 -0.0051273466705715415 0 -0.036912565527592006 -0.011469378489125716 0 -0.045994791007623187 -0.0081230798126238502 0 -0.040289283117253653 -0.0064854229496124341 0 -0.039340158107803461 0.00052522499950740406 0 -0.038160754821638984 -0.0066643673524543106 0 -0.030797013563083668 -0.008120645542822387 0 -0.034689516922114721 -0.0062858118531735532 0 -0.034111934125407029 -0.011224134217896236 0 -0.034689516922114721 -0.0062858118531735532 0 -0.034111934125407029 -0.011224134217896236 0 -0.037762343500862945 -0.0074147383427322806 0 -0.027593735525573808 -0.017031387722685282 0 -0.028074504460333789 -0.018246034622576585 0 -0.028835985092647856 -0.017482847170212326 0 -0.027593735525573808 -0.017031387722685282 0 -0.028074504460333789 -0.018246034622576585 0 -0.026730832395308084 -0.018324266164348711 0 -0.028074504460333789 -0.018246034622576585 0 -0.026730832395308084 -0.018324266164348711 0 -0.027662432091939193 -0.019111195185194909 0 -0.034111934125407029 -0.011224134217896236 0 -0.030261709925497277 -0.015230722606876353 0 -0.029679940191636136 -0.011061596578448327 0 -0.030959356877550467 -0.014190099252370818 0 -0.02843722238728872 -0.016765036267742672 0 -0.030261709925497277 -0.015230722606876353 0 -0.029679940191636136 -0.011061596578448327 0 -0.026677281744615811 -0.012310773719785163 0 -0.026824459139391976 -0.0086832950274397351 0 -0.029679940191636136 -0.011061596578448327 0 -0.026677281744615811 -0.012310773719785163 0 -0.030261709925497277 -0.015230722606876353 0 -0.026595963908871926 -0.015796691786626346 0 -0.026677281744615811 -0.012310773719785163 0 -0.023262396117459908 -0.016614147345520146 0 -0.026595963908871926 -0.015796691786626346 0 -0.023884268237885087 -0.013481041227384336 0 -0.026595963908871926 -0.015796691786626346 0 -0.023884268237885087 -0.013481041227384336 0 -0.026677281744615811 -0.012310773719785163 0 -0.024588332148154465 -0.010788303538828446 0 -0.024270200565646237 -0.01314999589386797 0 -0.024694990792694771 -0.010354417278000318 0 -0.023884268237885087 -0.013481041227384336 0 -0.026677281744615811 -0.012310773719785163 0 -0.024694990792694771 -0.010354417278000318 0 -0.026824459139391976 -0.0086832950274397351 0 -0.026677281744615811 -0.012310773719785163 0 -0.030141803966667019 -0.016738640202939317 0 -0.030767740443551735 -0.01696438192228988 0 -0.03095680857595208 -0.016447337635818782 0 -0.03373946014895287 -0.014636422895317034 0 -0.037248799256750197 -0.013230311767769207 0 -0.034585732127958679 -0.012742358100594094 0 -0.030141803966667019 -0.016738640202939317 0 -0.029996736545805171 -0.017167171693531109 0 -0.030409362249872635 -0.017701891760698134 0 -0.032060960944806781 -0.015764031744571472 0 -0.031313432819993652 -0.0090367297214727603 0 -0.030141803966667019 -0.016738640202939317 0 -0.030767740443551735 -0.01696438192228988 0 -0.030409362249872635 -0.017701891760698134 0 -0.031650030590717165 -0.017010271617940161 0 -0.030767740443551735 -0.01696438192228988 0 -0.03095680857595208 -0.016447337635818782 0 -0.031650030590717165 -0.017010271617940161 0 -0.030767740443551735 -0.01696438192228988 0 -0.030409362249872635 -0.017701891760698134 0 -0.026070159525543413 -0.005542486049168174 0 -0.02926460476692604 -0.0083491409540134304 0 -0.028110652360533034 -0.0087050980745571847 0 -0.027884446994204611 -0.012975903809945634 0 -0.031313432819993652 -0.0090367297214727603 0 -0.030748137187692332 -0.0042189033670657072 0 -0.032264787177512945 -0.0055553723499454479 0 -0.029534381286093092 -0.0045952785543194171 0 -0.029266377368292917 0.0046898352791839839 0 -0.029239428153135603 0.0060663710546586544 0 -0.02846430136334643 0.005405603274997845 0 -0.037248799256750197 -0.013230311767769207 0 -0.036109863323993713 -0.012237715689602829 0 -0.034585732127958679 -0.012742358100594094 0 -0.029239428153135603 0.0060663710546586544 0 -0.028308082951187596 0.006409669553873453 0 -0.02846430136334643 0.005405603274997845 0 -0.032072112565659026 -0.005605783820749958 0 -0.027983298011637878 -0.0028697194562996957 0 -0.031313432819993652 -0.0090367297214727603 0 -0.032072112565659026 -0.005605783820749958 0 -0.031313432819993652 -0.0090367297214727603 0 -0.027983298011637878 -0.0028697194562996957 0 -0.030474588923066034 0.0049936573202178361 0 -0.029266377368292917 0.0046898352791839839 0 -0.029239428153135603 0.0060663710546586544 0 -0.032748466514514664 -0.009833067187988126 0 -0.036296979165429705 -0.012155090585005374 0 -0.035138964410735191 -0.011886528968356848 0 -0.032383730755204378 -0.0033087556965742354 0 -0.032072112565659026 -0.005605783820749958 0 -0.036109863323993713 -0.012237715689602829 0 -0.035138964410735191 -0.011886528968356848 0 -0.034585732127958679 -0.012742358100594094 0 -0.032072112565659026 -0.005605783820749958 0 -0.034707142481870831 -0.0076302461619740386 0 -0.035138964410735191 -0.011886528968356848 0 -0.034585732127958679 -0.012742358100594094 0 -0.033789134085143342 -0.011616692258020155 0 -0.034585732127958679 -0.012742358100594094 0 -0.033789134085143342 -0.011616692258020155 0 -0.032738580801998096 -0.012034508345761757 0 -0.03373946014895287 -0.014636422895317034 0 -0.034585732127958679 -0.012742358100594094 0 -0.032738580801998096 -0.012034508345761757 0 -0.032748466514514664 -0.009833067187988126 0 -0.035138964410735191 -0.011886528968356848 0 -0.033789134085143342 -0.011616692258020155 0 -0.032748466514514664 -0.009833067187988126 0 -0.033789134085143342 -0.011616692258020155 0 -0.032738580801998096 -0.012034508345761757 0 -0.031992499699735132 -0.0098403352695044053 0 -0.031115072189827973 -0.012296847797209515 0 -0.032738580801998096 -0.012034508345761757 0 -0.032748466514514664 -0.009833067187988126 0 -0.031992499699735132 -0.0098403352695044053 0 -0.032738580801998096 -0.012034508345761757 0 -0.031992499699735132 -0.0098403352695044053 0 -0.03453866983590418 -0.0083743716049955105 0 -0.035008706156564998 -0.0052127880585152433 0 -0.034233488155148067 -0.010260569297114851 0 -0.031992499699735132 -0.0098403352695044053 0 -0.03453866983590418 -0.0083743716049955105 0 -0.031822397144456158 -0.009575935545666419 0 -0.032733348715196224 -0.010307234309706996 0 -0.031992499699735132 -0.0098403352695044053 0 -0.031115072189827973 -0.012296847797209515 0 -0.028084065171281362 -0.013036340876106325 0 -0.031115072189827973 -0.012296847797209515 0 -0.028084065171281362 -0.013036340876106325 0 -0.031349368527494995 -0.014399532095910406 0 -0.031115072189827973 -0.012296847797209515 0 -0.032738580801998096 -0.012034508345761757 0 -0.031349368527494995 -0.014399532095910406 0 -0.038160754821638984 -0.0066643673524543106 0 -0.032733348715196224 -0.010307234309706996 0 -0.040289283117253653 -0.0064854229496124341 0 -0.03453866983590418 -0.0083743716049955105 0 -0.035008706156564998 -0.0052127880585152433 0 -0.036000314732873413 -0.010312039179947026 0 -0.040289283117253653 -0.0064854229496124341 0 -0.03453866983590418 -0.0083743716049955105 0 -0.027593735525573808 -0.017031387722685282 0 -0.028974963856595769 -0.01463117746113919 0 -0.029754148428041742 -0.016344861136597305 0 -0.030959356877550467 -0.014190099252370818 0 -0.032733348715196224 -0.010307234309706996 0 -0.032060960944806781 -0.015764031744571472 0 -0.029857834139648851 -0.016315591206383154 0 -0.03373946014895287 -0.014636422895317034 0 -0.031349368527494995 -0.014399532095910406 0 -0.029754148428041742 -0.016344861136597305 0 -0.030141803966667019 -0.016738640202939317 0 -0.029754148428041742 -0.016344861136597305 0 -0.029996736545805171 -0.017167171693531109 0 -0.03373946014895287 -0.014636422895317034 0 -0.032738580801998096 -0.012034508345761757 0 -0.031349368527494995 -0.014399532095910406 0 -0.032733348715196224 -0.010307234309706996 0 -0.03046119944226678 -0.013685597447642014 0 -0.028974963856595769 -0.01463117746113919 0 -0.031349368527494995 -0.014399532095910406 0 -0.029754148428041742 -0.016344861136597305 0 -0.029754148428041742 -0.016344861136597305 0 -0.029996736545805171 -0.017167171693531109 0 -0.029590790889163204 -0.017359871392461017 0 -0.029996736545805171 -0.017167171693531109 0 -0.029590790889163204 -0.017359871392461017 0 -0.029802311199620613 -0.018000256183777388 0 -0.027593735525573808 -0.017031387722685282 0 -0.029754148428041742 -0.016344861136597305 0 -0.028835985092647856 -0.017482847170212326 0 -0.029754148428041742 -0.016344861136597305 0 -0.029590790889163204 -0.017359871392461017 0 -0.028835985092647856 -0.017482847170212326 0 -0.029590790889163204 -0.017359871392461017 0 -0.028835985092647856 -0.017482847170212326 0 -0.029139067273504609 -0.018208775429821546 0 -0.028074504460333789 -0.018246034622576585 0 -0.028835985092647856 -0.017482847170212326 0 -0.029139067273504609 -0.018208775429821546 0 -0.028074504460333789 -0.018246034622576585 0 -0.029139067273504609 -0.018208775429821546 0 -0.028593549023383395 -0.019006886287665177 0 -0.029139067273504609 -0.018208775429821546 0 -0.029314019383542462 -0.018906558264450462 0 -0.028593549023383395 -0.019006886287665177 0 -0.029802311199620613 -0.018000256183777388 0 -0.029923752575539225 -0.018944410138403492 0 -0.029314019383542462 -0.018906558264450462 0 -0.029139067273504609 -0.018208775429821546 0 -0.029802311199620613 -0.018000256183777388 0 -0.029314019383542462 -0.018906558264450462 0 -0.029590790889163204 -0.017359871392461017 0 -0.029139067273504609 -0.018208775429821546 0 -0.029802311199620613 -0.018000256183777388 0 -0.029802311199620613 -0.018000256183777388 0 -0.030265815825993397 -0.018461910537947109 0 -0.029923752575539225 -0.018944410138403492 0 -0.029802311199620613 -0.018000256183777388 0 -0.030265815825993397 -0.018461910537947109 0 -0.030409362249872635 -0.017701891760698134 0 -0.029996736545805171 -0.017167171693531109 0 -0.029802311199620613 -0.018000256183777388 0 -0.030409362249872635 -0.017701891760698134 0 -0.030645306661305494 -0.017896952486131178 0 -0.030409362249872635 -0.017701891760698134 0 -0.03058831455710587 -0.018370200490857004 0 -0.027884446994204611 -0.012975903809945634 0 -0.031249145330840101 -0.01848463153967473 0 -0.030265815825993397 -0.018461910537947109 0 -0.03058831455710587 -0.018370200490857004 0 -0.030436264037267038 -0.01918999881022285 0 -0.030265815825993397 -0.018461910537947109 0 -0.030409362249872635 -0.017701891760698134 0 -0.03058831455710587 -0.018370200490857004 0 -0.030436264037267038 -0.01918999881022285 0 -0.030244621126524946 -0.019867764905658038 0 -0.030550814542101068 -0.019783163035538429 0 -0.030436264037267038 -0.01918999881022285 0 -0.030244621126524946 -0.019867764905658038 0 -0.029866390420383103 -0.019675232661209199 0 -0.030244621126524946 -0.019867764905658038 0 -0.029866390420383103 -0.019675232661209199 0 -0.029488472432349977 -0.020806992794197721 0 -0.030265815825993397 -0.018461910537947109 0 -0.030436264037267038 -0.01918999881022285 0 -0.029923752575539225 -0.018944410138403492 0 -0.030436264037267038 -0.01918999881022285 0 -0.029866390420383103 -0.019675232661209199 0 -0.029923752575539225 -0.018944410138403492 0 -0.029866390420383103 -0.019675232661209199 0 -0.029314019383542462 -0.018906558264450462 0 -0.029079328902801297 -0.019762316784511708 0 -0.029866390420383103 -0.019675232661209199 0 -0.029923752575539225 -0.018944410138403492 0 -0.029314019383542462 -0.018906558264450462 0 -0.028593549023383395 -0.019006886287665177 0 -0.029079328902801297 -0.019762316784511708 0 -0.028236190682488716 -0.01970470044422265 0 -0.029314019383542462 -0.018906558264450462 0 -0.028593549023383395 -0.019006886287665177 0 -0.029079328902801297 -0.019762316784511708 0 -0.029079328902801297 -0.019762316784511708 0 -0.028774233785877148 -0.020448488998562258 0 -0.028236190682488716 -0.01970470044422265 0 -0.029866390420383103 -0.019675232661209199 0 -0.029079328902801297 -0.019762316784511708 0 -0.029488472432349977 -0.020806992794197721 0 -0.029488472432349977 -0.020806992794197721 0 -0.0286169728243434 -0.021126834841273066 0 -0.028979503690259034 -0.021624288331544842 0 -0.029488472432349977 -0.020806992794197721 0 -0.028774233785877148 -0.020448488998562258 0 -0.0286169728243434 -0.021126834841273066 0 -0.029079328902801297 -0.019762316784511708 0 -0.029488472432349977 -0.020806992794197721 0 -0.028774233785877148 -0.020448488998562258 0 -0.028774233785877148 -0.020448488998562258 0 -0.0286169728243434 -0.021126834841273066 0 -0.028102557361668324 -0.020536342091448077 0 -0.028979503690259034 -0.021624288331544842 0 -0.029831249729884157 -0.021703583927025673 0 -0.028502264074453235 -0.022524294492119724 0 -0.0286169728243434 -0.021126834841273066 0 -0.028979503690259034 -0.021624288331544842 0 -0.02829007965218077 -0.021909898169388802 0 -0.028979503690259034 -0.021624288331544842 0 -0.02829007965218077 -0.021909898169388802 0 -0.028502264074453235 -0.022524294492119724 0 -0.029488472432349977 -0.020806992794197721 0 -0.028979503690259034 -0.021624288331544842 0 -0.029831249729884157 -0.021703583927025673 0 -0.030196747185999594 -0.021086592801183805 0 -0.030253845620785591 -0.0211662341338416 0 -0.029831249729884157 -0.021703583927025673 0 -0.029488472432349977 -0.020806992794197721 0 -0.030196747185999594 -0.021086592801183805 0 -0.029831249729884157 -0.021703583927025673 0 -0.030174137154684123 -0.020673149924041203 0 -0.030462358242208623 -0.020451223595565851 0 -0.030196747185999594 -0.021086592801183805 0 -0.030253845620785591 -0.0211662341338416 0 -0.030270825998011865 -0.020924506993665257 0 -0.030244621126524946 -0.019867764905658038 0 -0.030254974636248155 -0.020253495308221233 0 -0.030550814542101068 -0.019783163035538429 0 -0.030244621126524946 -0.019867764905658038 0 -0.029488472432349977 -0.020806992794197721 0 -0.030254974636248155 -0.020253495308221233 0 -0.029499734213705879 -0.020757059405356014 0 -0.030174137154684123 -0.020673149924041203 0 -0.024518468802794065 -0.020565801096227711 0 -0.024988874261018604 -0.020129209955841547 0 -0.025009607283444694 -0.020622587527641623 0 -0.025365122910841881 -0.020193288787984702 0 -0.025854062592185485 -0.020233635431447412 0 -0.025009607283444694 -0.020622587527641623 0 -0.025365122910841881 -0.020193288787984702 0 -0.024988874261018604 -0.020129209955841547 0 -0.025009607283444694 -0.020622587527641623 0 -0.025365122910841881 -0.020193288787984702 0 -0.025640936508388015 -0.01983016652591562 0 -0.024988874261018604 -0.020129209955841547 0 -0.025365122910841881 -0.020193288787984702 0 -0.025640936508388015 -0.01983016652591562 0 -0.02579483072828951 -0.019920496229665036 0 -0.025640936508388015 -0.01983016652591562 0 -0.025775089877415131 -0.019271977333104855 0 -0.025880690386023059 -0.019645949994310952 0 -0.024591665555650434 -0.019770039747712471 0 -0.024988874261018604 -0.020129209955841547 0 -0.024983087923862574 -0.019634304773483439 0 -0.025640936508388015 -0.01983016652591562 0 -0.024988874261018604 -0.020129209955841547 0 -0.024983087923862574 -0.019634304773483439 0 -0.024724791971882425 -0.01876583678954289 0 -0.025640936508388015 -0.01983016652591562 0 -0.024983087923862574 -0.019634304773483439 0 -0.023262396117459908 -0.016614147345520146 0 -0.026595963908871926 -0.015796691786626346 0 -0.025306876368228929 -0.01791300959974701 0 -0.023262396117459908 -0.016614147345520146 0 -0.025640936508388015 -0.01983016652591562 0 -0.025306876368228929 -0.01791300959974701 0 -0.026595963908871926 -0.015796691786626346 0 -0.025306876368228929 -0.01791300959974701 0 -0.025775089877415131 -0.019271977333104855 0 -0.02839792334856886 -0.017256041679003544 0 -0.024431221459598362 -0.019320988511984771 0 -0.025640936508388015 -0.01983016652591562 0 -0.025306876368228929 -0.01791300959974701 0 -0.025775089877415131 -0.019271977333104855 0 -0.030261709925497277 -0.015230722606876353 0 -0.026595963908871926 -0.015796691786626346 0 -0.025775089877415131 -0.019271977333104855 0 -0.02843722238728872 -0.016765036267742672 0 -0.025947809806860088 -0.019162829487425714 0 -0.026730832395308084 -0.018324266164348711 0 -0.026239093231334679 -0.019502629144061701 0 -0.026854101118306592 -0.019506322199234857 0 -0.026730832395308084 -0.018324266164348711 0 -0.025775089877415131 -0.019271977333104855 0 -0.026239093231334679 -0.019502629144061701 0 -0.025775089877415131 -0.019271977333104855 0 -0.026239093231334679 -0.019502629144061701 0 -0.025880690386023059 -0.019645949994310952 0 -0.026239093231334679 -0.019502629144061701 0 -0.026407495780631927 -0.020067265164370417 0 -0.026854101118306592 -0.019506322199234857 0 -0.026239093231334679 -0.019502629144061701 0 -0.025854062592185485 -0.020233635431447412 0 -0.026407495780631927 -0.020067265164370417 0 -0.026239093231334679 -0.019502629144061701 0 -0.02579483072828951 -0.019920496229665036 0 -0.025854062592185485 -0.020233635431447412 0 -0.025640936508388015 -0.01983016652591562 0 -0.025880690386023059 -0.019645949994310952 0 -0.02579483072828951 -0.019920496229665036 0 -0.026239093231334679 -0.019502629144061701 0 -0.025880690386023059 -0.019645949994310952 0 -0.02579483072828951 -0.019920496229665036 0 -0.025365122910841881 -0.020193288787984702 0 -0.02579483072828951 -0.019920496229665036 0 -0.025854062592185485 -0.020233635431447412 0 -0.025854062592185485 -0.020233635431447412 0 -0.026407495780631927 -0.020067265164370417 0 -0.026137235265814043 -0.020843307963568106 0 -0.026407495780631927 -0.020067265164370417 0 -0.026866704925685467 -0.020345529115905689 0 -0.026137235265814043 -0.020843307963568106 0 -0.026866704925685467 -0.020345529115905689 0 -0.027488086739232614 -0.019952605710780377 0 -0.027460312215645228 -0.020707169934290358 0 -0.026407495780631927 -0.020067265164370417 0 -0.026866704925685467 -0.020345529115905689 0 -0.026854101118306592 -0.019506322199234857 0 -0.026866704925685467 -0.020345529115905689 0 -0.027488086739232614 -0.019952605710780377 0 -0.026854101118306592 -0.019506322199234857 0 -0.026730832395308084 -0.018324266164348711 0 -0.026854101118306592 -0.019506322199234857 0 -0.027662432091939193 -0.019111195185194909 0 -0.027488086739232614 -0.019952605710780377 0 -0.026854101118306592 -0.019506322199234857 0 -0.027662432091939193 -0.019111195185194909 0 -0.028593549023383395 -0.019006886287665177 0 -0.027662432091939193 -0.019111195185194909 0 -0.028236190682488716 -0.01970470044422265 0 -0.028074504460333789 -0.018246034622576585 0 -0.028593549023383395 -0.019006886287665177 0 -0.027662432091939193 -0.019111195185194909 0 -0.027488086739232614 -0.019952605710780377 0 -0.027662432091939193 -0.019111195185194909 0 -0.028236190682488716 -0.01970470044422265 0 -0.027488086739232614 -0.019952605710780377 0 -0.028102557361668324 -0.020536342091448077 0 -0.027460312215645228 -0.020707169934290358 0 -0.027488086739232614 -0.019952605710780377 0 -0.028236190682488716 -0.01970470044422265 0 -0.028102557361668324 -0.020536342091448077 0 -0.028774233785877148 -0.020448488998562258 0 -0.028236190682488716 -0.01970470044422265 0 -0.028102557361668324 -0.020536342091448077 0 -0.028102557361668324 -0.020536342091448077 0 -0.027885764153730126 -0.021306843827568079 0 -0.027460312215645228 -0.020707169934290358 0 -0.0286169728243434 -0.021126834841273066 0 -0.027885764153730126 -0.021306843827568079 0 -0.02829007965218077 -0.021909898169388802 0 -0.0286169728243434 -0.021126834841273066 0 -0.028102557361668324 -0.020536342091448077 0 -0.027885764153730126 -0.021306843827568079 0 -0.02829007965218077 -0.021909898169388802 0 -0.027872224419310049 -0.0229162509777475 0 -0.028502264074453235 -0.022524294492119724 0 -0.02829007965218077 -0.021909898169388802 0 -0.027684585425974156 -0.022096721363021266 0 -0.027872224419310049 -0.0229162509777475 0 -0.027885764153730126 -0.021306843827568079 0 -0.02829007965218077 -0.021909898169388802 0 -0.027684585425974156 -0.022096721363021266 0 -0.027885764153730126 -0.021306843827568079 0 -0.027684585425974156 -0.022096721363021266 0 -0.026780036284522867 -0.02171423582086144 0 -0.027684585425974156 -0.022096721363021266 0 -0.026780036284522867 -0.02171423582086144 0 -0.026323851747990644 -0.024562989154977476 0 -0.026866704925685467 -0.020345529115905689 0 -0.026780036284522867 -0.02171423582086144 0 -0.027460312215645228 -0.020707169934290358 0 -0.027885764153730126 -0.021306843827568079 0 -0.026780036284522867 -0.02171423582086144 0 -0.027460312215645228 -0.020707169934290358 0 -0.026780036284522867 -0.02171423582086144 0 -0.026137235265814043 -0.020843307963568106 0 -0.025308272191928043 -0.022637453440028647 0 -0.026137235265814043 -0.020843307963568106 0 -0.025308272191928043 -0.022637453440028647 0 -0.025009607283444694 -0.020622587527641623 0 -0.026866704925685467 -0.020345529115905689 0 -0.026780036284522867 -0.02171423582086144 0 -0.026137235265814043 -0.020843307963568106 0 -0.025854062592185485 -0.020233635431447412 0 -0.026137235265814043 -0.020843307963568106 0 -0.025009607283444694 -0.020622587527641623 0 -0.026780036284522867 -0.02171423582086144 0 -0.025308272191928043 -0.022637453440028647 0 -0.026323851747990644 -0.024562989154977476 0 -0.022712175451877183 -0.023316877410968242 0 -0.025308272191928043 -0.022637453440028647 0 -0.024032261177886038 -0.021983192893768544 0 -0.035935634834496501 -0.020010036661593369 0 -0.021229698658086764 -0.020575492896285564 0 -0.025308272191928043 -0.022637453440028647 0 -0.024032261177886038 -0.021983192893768544 0 -0.025009607283444694 -0.020622587527641623 0 -0.023306089548514482 -0.020568155751892435 0 -0.024032261177886038 -0.021983192893768544 0 -0.025009607283444694 -0.020622587527641623 0 -0.024276668959439467 -0.025236719901309528 0 -0.025530022815549076 -0.026803669258761841 0 -0.02387599289128425 -0.027511937380860507 0 -0.022712175451877183 -0.023316877410968242 0 -0.025308272191928043 -0.022637453440028647 0 -0.024276668959439467 -0.025236719901309528 0 -0.025308272191928043 -0.022637453440028647 0 -0.024276668959439467 -0.025236719901309528 0 -0.026323851747990644 -0.024562989154977476 0 -0.026323851747990644 -0.024562989154977476 0 -0.025530022815549076 -0.026803669258761841 0 -0.027193511874895611 -0.026960500831295128 0 -0.024276668959439467 -0.025236719901309528 0 -0.026323851747990644 -0.024562989154977476 0 -0.025530022815549076 -0.026803669258761841 0 -0.026323851747990644 -0.024562989154977476 0 -0.027193511874895611 -0.026960500831295128 0 -0.028137066504049364 -0.026285706942042925 0 -0.026276110309399494 -0.024542104909237923 0 -0.028083501674439643 -0.024711299043624537 0 -0.026323851747990644 -0.024562989154977476 0 -0.027872224419310049 -0.0229162509777475 0 -0.028302517828863189 -0.023181890850634324 0 -0.027684585425974156 -0.022096721363021266 0 -0.026323851747990644 -0.024562989154977476 0 -0.027872224419310049 -0.0229162509777475 0 -0.027872224419310049 -0.0229162509777475 0 -0.028302517828863189 -0.023181890850634324 0 -0.028502264074453235 -0.022524294492119724 0 -0.027193511874895611 -0.026960500831295128 0 -0.028137066504049364 -0.026285706942042925 0 -0.028432955575346603 -0.027490522416550464 0 -0.027925861703795438 -0.028182258298478379 0 -0.028081301445838605 -0.029577611559284938 0 -0.02849690704041008 -0.028497650695277845 0 -0.027193511874895611 -0.026960500831295128 0 -0.027925861703795438 -0.028182258298478379 0 -0.027219878553293459 -0.02886517610416825 0 -0.027193511874895611 -0.026960500831295128 0 -0.027925861703795438 -0.028182258298478379 0 -0.028432955575346603 -0.027490522416550464 0 -0.027925861703795438 -0.028182258298478379 0 -0.028081301445838605 -0.029577611559284938 0 -0.027219878553293459 -0.02886517610416825 0 -0.027390081520225693 -0.030126750283820811 0 -0.028081301445838605 -0.029577611559284938 0 -0.027219878553293459 -0.02886517610416825 0 -0.027219878553293459 -0.02886517610416825 0 -0.026360698551260553 -0.030008490203321841 0 -0.026315546097565947 -0.028256791224319892 0 -0.027390081520225693 -0.030126750283820811 0 -0.027219878553293459 -0.02886517610416825 0 -0.026360698551260553 -0.030008490203321841 0 -0.027193511874895611 -0.026960500831295128 0 -0.027219878553293459 -0.02886517610416825 0 -0.026315546097565947 -0.028256791224319892 0 -0.025530022815549076 -0.026803669258761841 0 -0.027193511874895611 -0.026960500831295128 0 -0.026315546097565947 -0.028256791224319892 0 -0.025530022815549076 -0.026803669258761841 0 -0.026315546097565947 -0.028256791224319892 0 -0.025228259497395111 -0.028770218365429829 0 -0.026360698551260553 -0.030008490203321841 0 -0.025228259497395111 -0.028770218365429829 0 -0.024991400249445295 -0.030167944615394689 0 -0.026360698551260553 -0.030008490203321841 0 -0.026315546097565947 -0.028256791224319892 0 -0.025228259497395111 -0.028770218365429829 0 -0.023316306404517463 -0.030433384556733965 0 -0.023941850504634966 -0.029188302427082896 0 -0.024991400249445295 -0.030167944615394689 0 -0.025228259497395111 -0.028770218365429829 0 -0.023941850504634966 -0.029188302427082896 0 -0.024991400249445295 -0.030167944615394689 0 -0.025228259497395111 -0.028770218365429829 0 -0.023941850504634966 -0.029188302427082896 0 -0.02387599289128425 -0.027511937380860507 0 -0.025530022815549076 -0.026803669258761841 0 -0.025228259497395111 -0.028770218365429829 0 -0.02387599289128425 -0.027511937380860507 0 -0.029608262550634427 -0.027070078796638076 0 -0.029648982003256295 -0.028105927254553763 0 -0.030515161853179207 -0.027717130968355461 0 -0.0298613401697864 -0.024734015586310717 0 -0.029305024029815118 -0.02477529509740458 0 -0.030488656194370824 -0.027682509688803442 0 -0.029608262550634427 -0.027070078796638076 0 -0.030515161853179207 -0.027717130968355461 0 -0.029434247524056146 -0.021965338868101227 0 -0.029546047935578898 -0.021522548744634811 0 -0.029158523472341082 -0.022066484638245395 0 -0.029434247524056146 -0.021965338868101227 0 -0.029546047935578898 -0.021522548744634811 0 -0.0299052869952969 -0.02146300777070272 0 -0.029922231592731965 -0.021327630805848295 0 -0.029459468951602799 -0.021909297655019665 0 -0.029434247524056146 -0.021965338868101227 0 -0.029158523472341082 -0.022066484638245395 0 -0.029067246525016029 -0.022452329853650237 0 -0.029158523472341082 -0.022066484638245395 0 -0.028502264074453235 -0.022524294492119724 0 -0.029067246525016029 -0.022452329853650237 0 -0.028302517828863189 -0.023181890850634324 0 -0.028502264074453235 -0.022524294492119724 0 -0.029067246525016029 -0.022452329853650237 0 -0.029459468951602799 -0.021909297655019665 0 -0.028536565687105435 -0.022422675859901105 0 -0.028083501674439643 -0.024711299043624537 0 -0.029305024029815118 -0.02477529509740458 0 -0.028432955575346603 -0.027490522416550464 0 -0.029608262550634427 -0.027070078796638076 0 -0.029025090590238844 -0.027959793536396427 0 -0.028137066504049364 -0.026285706942042925 0 -0.028432955575346603 -0.027490522416550464 0 -0.029608262550634427 -0.027070078796638076 0 -0.029608262550634427 -0.027070078796638076 0 -0.029648982003256295 -0.028105927254553763 0 -0.029025090590238844 -0.027959793536396427 0 -0.029648982003256295 -0.028105927254553763 0 -0.029025090590238844 -0.027959793536396427 0 -0.028925335665421898 -0.029033203622942986 0 -0.029648982003256295 -0.028105927254553763 0 -0.029554454970198086 -0.029063840332065126 0 -0.028925335665421898 -0.029033203622942986 0 -0.028432955575346603 -0.027490522416550464 0 -0.029025090590238844 -0.027959793536396427 0 -0.02849690704041008 -0.028497650695277845 0 -0.027925861703795438 -0.028182258298478379 0 -0.028432955575346603 -0.027490522416550464 0 -0.02849690704041008 -0.028497650695277845 0 -0.029025090590238844 -0.027959793536396427 0 -0.02849690704041008 -0.028497650695277845 0 -0.028925335665421898 -0.029033203622942986 0 -0.028081301445838605 -0.029577611559284938 0 -0.02849690704041008 -0.028497650695277845 0 -0.028925335665421898 -0.029033203622942986 0 -0.028081301445838605 -0.029577611559284938 0 -0.02852735848654114 -0.029946948769934461 0 -0.028925335665421898 -0.029033203622942986 0 -0.028081301445838605 -0.029577611559284938 0 -0.02852735848654114 -0.029946948769934461 0 -0.028240404902943921 -0.030869268099692773 0 -0.029554454970198086 -0.029063840332065126 0 -0.028925335665421898 -0.029033203622942986 0 -0.029182041090461325 -0.030497625382065161 0 -0.02852735848654114 -0.029946948769934461 0 -0.028925335665421898 -0.029033203622942986 0 -0.029182041090461325 -0.030497625382065161 0 -0.030277843736698291 -0.029182249134969692 0 -0.031658996546602675 -0.029817022505983157 0 -0.030192244220282549 -0.030733093679439039 0 -0.030277843736698291 -0.029182249134969692 0 -0.029182041090461325 -0.030497625382065161 0 -0.030192244220282549 -0.030733093679439039 0 -0.029554454970198086 -0.029063840332065126 0 -0.030277843736698291 -0.029182249134969692 0 -0.029182041090461325 -0.030497625382065161 0 -0.029648982003256295 -0.028105927254553763 0 -0.030277843736698291 -0.029182249134969692 0 -0.030515161853179207 -0.027717130968355461 0 -0.029648982003256295 -0.028105927254553763 0 -0.029554454970198086 -0.029063840332065126 0 -0.030277843736698291 -0.029182249134969692 0 -0.030515161853179207 -0.027717130968355461 0 -0.030259552655274184 -0.02633064122622935 0 -0.02996488122085508 -0.027241491702297286 0 -0.030488656194370824 -0.027682509688803442 0 -0.030515161853179207 -0.027717130968355461 0 -0.02996488122085508 -0.027241491702297286 0 -0.030483957834069771 -0.02783247398412798 0 -0.031259030590913936 -0.027714297620072263 0 -0.030277843736698291 -0.029182249134969692 0 -0.030515161853179207 -0.027717130968355461 0 -0.031658996546602675 -0.029817022505983157 0 -0.030259552655274184 -0.02633064122622935 0 -0.029048281791735669 -0.026505989599779987 0 -0.02996488122085508 -0.027241491702297286 0 -0.030259552655274184 -0.02633064122622935 0 -0.029048281791735669 -0.026505989599779987 0 -0.029219958943336431 -0.025733280096222558 0 -0.029048281791735669 -0.026505989599779987 0 -0.028227213285323061 -0.02635103591038146 0 -0.028475940717047163 -0.026969493596617662 0 -0.029048281791735669 -0.026505989599779987 0 -0.028475940717047163 -0.026969493596617662 0 -0.029206060075764637 -0.027710772255680666 0 -0.029048281791735669 -0.026505989599779987 0 -0.02996488122085508 -0.027241491702297286 0 -0.029206060075764637 -0.027710772255680666 0 -0.02130452440313757 -0.010830466055152053 0 -0.022496169128070877 -0.011119108191914525 0 -0.021956503468863159 -0.0085815788950956758 0 -0.027662276324815473 -0.026645541030089547 0 -0.028227213285323061 -0.02635103591038146 0 -0.0275003682425215 -0.025830474952204419 0 -0.025186095234555412 -0.019535252925693355 0 -0.022862413257495429 -0.013100097187656288 0 -0.020428546612634841 -0.010624088237443046 0 -0.019838182564761643 -0.010042998007840942 0 -0.019636435519878575 -0.011237449874661621 0 -0.020428546612634841 -0.010624088237443046 0 -0.019838182564761643 -0.010042998007840942 0 -0.020600276272174454 -0.0088741890481817635 0 -0.019838182564761643 -0.010042998007840942 0 -0.019525572192510551 -0.009299652718114412 0 -0.020600276272174454 -0.0088741890481817635 0 -0.021073034100701458 -0.010291286989966088 0 -0.022862413257495429 -0.013100097187656288 0 -0.027662276324815473 -0.026645541030089547 0 -0.028227213285323061 -0.02635103591038146 0 -0.028475940717047163 -0.026969493596617662 0 -0.029048281791735669 -0.026505989599779987 0 -0.028227213285323061 -0.02635103591038146 0 -0.028401272569580402 -0.025722422450229755 0 -0.027662276324815473 -0.026645541030089547 0 -0.028475940717047163 -0.026969493596617662 0 -0.027824066683371843 -0.027462829719407719 0 -0.028475940717047163 -0.026969493596617662 0 -0.027824066683371843 -0.027462829719407719 0 -0.029206060075764637 -0.027710772255680666 0 -0.025186095234555412 -0.019535252925693355 0 -0.029023258636579591 -0.020813651238992814 0 -0.022496169128070877 -0.011119108191914525 0 -0.020400868078657867 -0.013333080937186806 0 -0.023219282809477267 -0.014153625314123374 0 -0.029023258636579591 -0.020813651238992814 0 -0.020652334315630266 -0.013133127783490175 0 -0.020400868078657867 -0.013333080937186806 0 -0.023219282809477267 -0.014153625314123374 0 -0.018154912814433075 -0.013280330517483665 0 -0.020428546612634841 -0.010624088237443046 0 -0.020400868078657867 -0.013333080937186806 0 -0.019636435519878575 -0.011237449874661621 0 -0.021073034100701458 -0.010291286989966088 0 -0.02034499455005909 -0.013220628698826802 0 -0.02130452440313757 -0.010830466055152053 0 -0.022496169128070877 -0.011119108191914525 0 -0.020400868078657867 -0.013333080937186806 0 -0.030161478962405671 -0.019180326053168759 0 -0.030418408863677374 -0.018890093372345786 0 -0.029699048421693193 -0.01879041548167688 0 -0.030161478962405671 -0.019180326053168759 0 -0.030418408863677374 -0.018890093372345786 0 -0.030635510197804462 -0.01934534653479866 0 -0.029023258636579591 -0.020813651238992814 0 -0.029794884492582489 -0.025299856697428257 0 -0.0311815132290175 -0.02191774368872746 0 -0.031108200379260049 -0.021237309821830839 0 -0.030501012930193624 -0.021321684256371664 0 -0.029023258636579591 -0.020813651238992814 0 -0.030810808759690344 -0.020286400093331013 0 -0.0311815132290175 -0.02191774368872746 0 -0.030061996477674054 -0.021780904199037877 0 -0.030501012930193624 -0.021321684256371664 0 -0.030810808759690344 -0.020286400093331013 0 -0.030824423671881273 -0.020144150508585101 0 -0.030635510197804462 -0.01934534653479866 0 -0.030534423986519826 -0.019795868686909111 0 -0.030809303968911749 -0.020104039598383208 0 -0.030656305681412217 -0.020818309395440458 0 -0.031108200379260049 -0.021237309821830839 0 -0.030809303968911749 -0.020104039598383208 0 -0.030656305681412217 -0.020818309395440458 0 -0.030501012930193624 -0.021321684256371664 0 -0.030380457348238205 -0.020786330152751758 0 -0.030656305681412217 -0.020818309395440458 0 -0.031108200379260049 -0.021237309821830839 0 -0.030501012930193624 -0.021321684256371664 0 -0.030656305681412217 -0.020818309395440458 0 -0.030565079136153136 -0.020481383833331385 0 -0.030809303968911749 -0.020104039598383208 0 -0.030656305681412217 -0.020818309395440458 0 -0.030565079136153136 -0.020481383833331385 0 -0.030380457348238205 -0.020786330152751758 0 -0.030161478962405671 -0.019180326053168759 0 -0.030635510197804462 -0.01934534653479866 0 -0.030265907236096786 -0.019584326563655108 0 -0.030635510197804462 -0.01934534653479866 0 -0.030534423986519826 -0.019795868686909111 0 -0.030265907236096786 -0.019584326563655108 0 -0.030534423986519826 -0.019795868686909111 0 -0.030265907236096786 -0.019584326563655108 0 -0.030477685701963082 -0.019807049953853861 0 -0.029434247524056146 -0.021965338868101227 0 -0.030061996477674054 -0.021780904199037877 0 -0.0299052869952969 -0.02146300777070272 0 -0.030488656194370824 -0.027682509688803442 0 -0.02996488122085508 -0.027241491702297286 0 -0.029206060075764637 -0.027710772255680666 0 -0.0298613401697864 -0.024734015586310717 0 -0.029794884492582489 -0.025299856697428257 0 -0.030061996477674054 -0.021780904199037877 0 -0.030501012930193624 -0.021321684256371664 0 -0.0299052869952969 -0.02146300777070272 0 -0.030501012930193624 -0.021321684256371664 0 -0.030380457348238205 -0.020786330152751758 0 -0.0299052869952969 -0.02146300777070272 0 -0.029922231592731965 -0.021327630805848295 0 -0.030372421405506257 -0.020872943306981952 0 -0.029546047935578898 -0.021522548744634811 0 -0.030380457348238205 -0.020786330152751758 0 -0.0299052869952969 -0.02146300777070272 0 -0.030253845620785591 -0.0211662341338416 0 -0.030380457348238205 -0.020786330152751758 0 -0.030270825998011865 -0.020924506993665257 0 -0.030583774104934042 -0.020014938467074223 0 -0.030550814542101068 -0.019783163035538429 0 -0.030650367832042898 -0.019883209564674584 0 -0.030254974636248155 -0.020253495308221233 0 -0.030583774104934042 -0.020014938467074223 0 -0.030550814542101068 -0.019783163035538429 0 -0.030550814542101068 -0.019783163035538429 0 -0.030650367832042898 -0.019883209564674584 0 -0.030684603435005672 -0.019634481131561628 0 -0.030650367832042898 -0.019883209564674584 0 -0.030713780365727934 -0.019724553540760754 0 -0.030684603435005672 -0.019634481131561628 0 -0.030650367832042898 -0.019883209564674584 0 -0.030700917148900497 -0.019892880138796282 0 -0.030713780365727934 -0.019724553540760754 0 -0.030462358242208623 -0.020451223595565851 0 -0.030742340259949891 -0.020190554010644419 0 -0.030565079136153136 -0.020481383833331385 0 -0.030270825998011865 -0.020924506993665257 0 -0.03072027090989763 -0.020109834090872289 0 -0.030565079136153136 -0.020481383833331385 0 -0.030380457348238205 -0.020786330152751758 0 -0.030270825998011865 -0.020924506993665257 0 -0.030583774104934042 -0.020014938467074223 0 -0.030650367832042898 -0.019883209564674584 0 -0.03072027090989763 -0.020109834090872289 0 -0.030650367832042898 -0.019883209564674584 0 -0.03072027090989763 -0.020109834090872289 0 -0.030700917148900497 -0.019892880138796282 0 -0.030565079136153136 -0.020481383833331385 0 -0.030809303968911749 -0.020104039598383208 0 -0.03072027090989763 -0.020109834090872289 0 -0.030534423986519826 -0.019795868686909111 0 -0.030809303968911749 -0.020104039598383208 0 -0.030637812814815507 -0.019932080399341641 0 -0.030809303968911749 -0.020104039598383208 0 -0.03072027090989763 -0.020109834090872289 0 -0.030722730750065489 -0.020010712095211672 0 -0.030809303968911749 -0.020104039598383208 0 -0.030722730750065489 -0.020010712095211672 0 -0.030637812814815507 -0.019932080399341641 0 -0.030722730750065489 -0.020010712095211672 0 -0.030637812814815507 -0.019932080399341641 0 -0.030647626339361175 -0.019911569461593257 0 -0.03072027090989763 -0.020109834090872289 0 -0.030722730750065489 -0.020010712095211672 0 -0.030703931960933011 -0.019948590954885981 0 -0.030703931960933011 -0.019948590954885981 0 -0.030647626339361175 -0.019911569461593257 0 -0.030659449766412619 -0.01984840431446902 0 -0.030703931960933011 -0.019948590954885981 0 -0.030700917148900497 -0.019892880138796282 0 -0.030659449766412619 -0.01984840431446902 0 -0.03072027090989763 -0.020109834090872289 0 -0.030703931960933011 -0.019948590954885981 0 -0.030700917148900497 -0.019892880138796282 0 -0.030722730750065489 -0.020010712095211672 0 -0.030703931960933011 -0.019948590954885981 0 -0.030647626339361175 -0.019911569461593257 0 -0.030265907236096786 -0.019584326563655108 0 -0.030477685701963082 -0.019807049953853861 0 -0.030267908379650835 -0.019715888058884072 0 -0.030534423986519826 -0.019795868686909111 0 -0.030477685701963082 -0.019807049953853861 0 -0.030637812814815507 -0.019932080399341641 0 -0.030477685701963082 -0.019807049953853861 0 -0.030637812814815507 -0.019932080399341641 0 -0.030647626339361175 -0.019911569461593257 0 -0.030477685701963082 -0.019807049953853861 0 -0.030647626339361175 -0.019911569461593257 0 -0.030522026712978351 -0.019819271692350406 0 -0.030647626339361175 -0.019911569461593257 0 -0.030522026712978351 -0.019819271692350406 0 -0.030659449766412619 -0.01984840431446902 0 -0.030477685701963082 -0.019807049953853861 0 -0.030522026712978351 -0.019819271692350406 0 -0.030267908379650835 -0.019715888058884072 0 -0.030522026712978351 -0.019819271692350406 0 -0.030400799967017562 -0.019776854866790081 0 -0.030267908379650835 -0.019715888058884072 0 -0.030522026712978351 -0.019819271692350406 0 -0.030584695386087161 -0.019788698131016962 0 -0.030400799967017562 -0.019776854866790081 0 -0.030522026712978351 -0.019819271692350406 0 -0.030584695386087161 -0.019788698131016962 0 -0.030659449766412619 -0.01984840431446902 0 -0.030584695386087161 -0.019788698131016962 0 -0.030659449766412619 -0.01984840431446902 0 -0.030704361573684034 -0.019719760739921415 0 -0.030584695386087161 -0.019788698131016962 0 -0.030704361573684034 -0.019719760739921415 0 -0.030518893946237607 -0.019773489052982585 0 -0.030584695386087161 -0.019788698131016962 0 -0.030518893946237607 -0.019773489052982585 0 -0.030400799967017562 -0.019776854866790081 0 -0.030700917148900497 -0.019892880138796282 0 -0.030659449766412619 -0.01984840431446902 0 -0.030704361573684034 -0.019719760739921415 0 -0.030700917148900497 -0.019892880138796282 0 -0.030713780365727934 -0.019724553540760754 0 -0.030704361573684034 -0.019719760739921415 0 -0.030713780365727934 -0.019724553540760754 0 -0.030802502135643926 -0.019429415209323422 0 -0.030704361573684034 -0.019719760739921415 0 -0.030802502135643926 -0.019429415209323422 0 -0.030704361573684034 -0.019719760739921415 0 -0.030874654665505506 -0.019392784194983768 0 -0.032031530024793711 -0.022636896949815542 0 -0.023820311679770875 -0.012909911391737743 0 -0.030704361573684034 -0.019719760739921415 0 -0.030518893946237607 -0.019773489052982585 0 -0.030874654665505506 -0.019392784194983768 0 -0.030518893946237607 -0.019773489052982585 0 -0.030413919056945082 -0.019799815622676662 0 -0.030269716904649135 -0.019836754652838056 0 -0.030937418422400415 -0.018947073123103991 0 -0.030802502135643926 -0.019429415209323422 0 -0.030874654665505506 -0.019392784194983768 0 -0.027246794397281428 -0.01494786480908184 0 -0.023820311679770875 -0.012909911391737743 0 -0.030747988836819673 -0.018811521396135168 0 -0.030937418422400415 -0.018947073123103991 0 -0.030719339868929673 -0.019278894601234442 0 -0.030937418422400415 -0.018947073123103991 0 -0.030802502135643926 -0.019429415209323422 0 -0.030719339868929673 -0.019278894601234442 0 -0.030747988836819673 -0.018811521396135168 0 -0.030436264037267038 -0.01918999881022285 0 -0.030719339868929673 -0.019278894601234442 0 -0.030550814542101068 -0.019783163035538429 0 -0.030719339868929673 -0.019278894601234442 0 -0.030684603435005672 -0.019634481131561628 0 -0.030436264037267038 -0.01918999881022285 0 -0.030550814542101068 -0.019783163035538429 0 -0.030719339868929673 -0.019278894601234442 0 -0.030713780365727934 -0.019724553540760754 0 -0.030802502135643926 -0.019429415209323422 0 -0.030684603435005672 -0.019634481131561628 0 -0.030802502135643926 -0.019429415209323422 0 -0.030719339868929673 -0.019278894601234442 0 -0.030684603435005672 -0.019634481131561628 0 -0.012226310073984378 -0.0045106091266423447 0 -0.016784584353822254 -0.013462915879919487 0 -0.011574872763624055 -0.0067452075186592627 0 -0.013772755877320504 -0.0069051939479668201 0 -0.012627019916899209 -0.0091793421934601768 0 -0.013772755877320504 -0.0069051939479668201 0 -0.012627019916899209 -0.0091793421934601768 0 -0.014782766878789096 -0.0084667738028170476 0 -0.013671725891392447 -0.0036128192494692536 0 -0.013772755877320504 -0.0069051939479668201 0 -0.015752486386667226 -0.005047986924723173 0 -0.013671725891392447 -0.0036128192494692536 0 -0.011574872763624055 -0.0067452075186592627 0 -0.013772755877320504 -0.0069051939479668201 0 -0.013618529961246526 -0.0042328997412541544 0 -0.012226310073984378 -0.0045106091266423447 0 -0.01377381677941086 -0.0045464263660340556 0 -0.012789599817846956 -0.0040297169216004184 0 -0.012684187794509146 -0.005082522894980711 0 -0.013334672397350157 -0.0035835716765442532 0 -0.01377381677941086 -0.0045464263660340556 0 -0.012789599817846956 -0.0040297169216004184 0 -0.012314166136063977 -0.0033832486053087846 0 -0.011902142242738754 -0.004330961150462876 0 -0.012789599817846956 -0.0040297169216004184 0 -0.011902142242738754 -0.004330961150462876 0 -0.012789599817846956 -0.0040297169216004184 0 -0.012684187794509146 -0.005082522894980711 0 -0.023820311679770875 -0.012909911391737743 0 -0.021750216110188857 -0.0123530029238226 0 -0.01377381677941086 -0.0045464263660340556 0 -0.012684187794509146 -0.005082522894980711 0 -0.01352556682723512 -0.0059097651237901821 0 -0.021750216110188857 -0.0123530029238226 0 -0.016784584353822254 -0.013462915879919487 0 -0.030269716904649135 -0.019836754652838056 0 -0.029858974068767669 -0.019746465450347358 0 -0.030130841896895945 -0.019731922952616183 0 -0.030269716904649135 -0.019836754652838056 0 -0.030400799967017562 -0.019776854866790081 0 -0.030130841896895945 -0.019731922952616183 0 -0.030518893946237607 -0.019773489052982585 0 -0.030269716904649135 -0.019836754652838056 0 -0.030400799967017562 -0.019776854866790081 0 -0.030130841896895945 -0.019731922952616183 0 -0.030267908379650835 -0.019715888058884072 0 -0.029822553068002883 -0.019460430105852106 0 -0.030400799967017562 -0.019776854866790081 0 -0.030130841896895945 -0.019731922952616183 0 -0.030267908379650835 -0.019715888058884072 0 -0.029858974068767669 -0.019746465450347358 0 -0.030130841896895945 -0.019731922952616183 0 -0.029822553068002883 -0.019460430105852106 0 -0.016784584353822254 -0.013462915879919487 0 -0.023699411077841369 -0.018235106736474094 0 -0.016784584353822254 -0.013462915879919487 0 -0.011503953380459238 -0.012941952748673227 0 -0.010576989896854521 -0.0095093223164945152 0 -0.012627019916899209 -0.0091793421934601768 0 -0.012119884897589016 -0.011179839479452907 0 -0.014800619923174944 -0.01708833592367362 0 -0.012518199812509862 -0.01509347814298987 0 -0.015677243750770096 -0.014394866481478174 0 -0.011574872763624055 -0.0067452075186592627 0 -0.010576989896854521 -0.0095093223164945152 0 -0.012627019916899209 -0.0091793421934601768 0 -0.012627019916899209 -0.0091793421934601768 0 -0.012119884897589016 -0.011179839479452907 0 -0.013114188863652287 -0.011425718151491734 0 -0.012518199812509862 -0.01509347814298987 0 -0.011685244641778321 -0.01313801534185517 0 -0.012693125789228691 -0.013260663338640262 0 -0.012518199812509862 -0.01509347814298987 0 -0.011685244641778321 -0.01313801534185517 0 -0.011216192160067478 -0.012598486997931604 0 -0.011503953380459238 -0.012941952748673227 0 -0.011722452325644233 -0.012835989629699779 0 -0.012518199812509862 -0.01509347814298987 0 -0.014065396355902026 -0.01338257546953274 0 -0.012693125789228691 -0.013260663338640262 0 -0.012518199812509862 -0.01509347814298987 0 -0.014065396355902026 -0.01338257546953274 0 -0.015677243750770096 -0.014394866481478174 0 -0.014065396355902026 -0.01338257546953274 0 -0.013265951167963716 -0.012293893196395936 0 -0.012693125789228691 -0.013260663338640262 0 -0.014065396355902026 -0.01338257546953274 0 -0.014282341142529664 -0.012486984743066481 0 -0.013265951167963716 -0.012293893196395936 0 -0.014065396355902026 -0.01338257546953274 0 -0.014282341142529664 -0.012486984743066481 0 -0.015130957318325108 -0.012568997174234341 0 -0.013265951167963716 -0.012293893196395936 0 -0.011985546123002238 -0.01253367715727806 0 -0.012693125789228691 -0.013260663338640262 0 -0.011985546123002238 -0.01253367715727806 0 -0.011685244641778321 -0.01313801534185517 0 -0.011024661558312212 -0.01252057394406818 0 -0.011985546123002238 -0.01253367715727806 0 -0.011685244641778321 -0.01313801534185517 0 -0.012693125789228691 -0.013260663338640262 0 -0.030265907236096786 -0.019584326563655108 0 -0.030267908379650835 -0.019715888058884072 0 -0.029822553068002883 -0.019460430105852106 0 -0.030161478962405671 -0.019180326053168759 0 -0.030265907236096786 -0.019584326563655108 0 -0.029822553068002883 -0.019460430105852106 0 -0.014065396355902026 -0.01338257546953274 0 -0.015677243750770096 -0.014394866481478174 0 -0.015130957318325108 -0.012568997174234341 0 -0.023699411077841369 -0.018235106736474094 0 -0.020652334315630266 -0.013133127783490175 0 -0.015677243750770096 -0.014394866481478174 0 -0.015130957318325108 -0.012568997174234341 0 -0.016400908712094597 -0.011970076710531796 0 -0.030161478962405671 -0.019180326053168759 0 -0.029822553068002883 -0.019460430105852106 0 -0.029699048421693193 -0.01879041548167688 0 -0.020400868078657867 -0.013333080937186806 0 -0.019636435519878575 -0.011237449874661621 0 -0.018572977323707988 -0.011574357053302467 0 -0.020400868078657867 -0.013333080937186806 0 -0.018154912814433075 -0.013280330517483665 0 -0.018572977323707988 -0.011574357053302467 0 -0.020652334315630266 -0.013133127783490175 0 -0.019525712697642094 -0.012357032390428404 0 -0.018265583219892433 -0.012701758322770026 0 -0.018572977323707988 -0.011574357053302467 0 -0.017602016906929082 -0.011127477621959094 0 -0.018265583219892433 -0.012701758322770026 0 -0.016261725851472057 -0.011175693900522669 0 -0.01438888494006482 -0.011646871008128329 0 -0.015130957318325108 -0.012568997174234341 0 -0.016400908712094597 -0.011970076710531796 0 -0.01438888494006482 -0.011646871008128329 0 -0.020652334315630266 -0.013133127783490175 0 -0.013171392463592547 -0.01145096314369628 0 -0.018265583219892433 -0.012701758322770026 0 -0.017602016906929082 -0.011127477621959094 0 -0.016261725851472057 -0.011175693900522669 0 -0.017602016906929082 -0.011127477621959094 0 -0.016261725851472057 -0.011175693900522669 0 -0.017017951823902939 -0.010240668608300205 0 -0.016261725851472057 -0.011175693900522669 0 -0.016083020332937674 -0.0099080883390658646 0 -0.015073954364998749 -0.010208545153594085 0 -0.016261725851472057 -0.011175693900522669 0 -0.016083020332937674 -0.0099080883390658646 0 -0.017017951823902939 -0.010240668608300205 0 -0.016083020332937674 -0.0099080883390658646 0 -0.016062910783791441 -0.0091539710328198513 0 -0.016881325561573006 -0.0092994030478532833 0 -0.016083020332937674 -0.0099080883390658646 0 -0.016062910783791441 -0.0091539710328198513 0 -0.015505396840845675 -0.0093991328071969353 0 -0.016881325561573006 -0.0092994030478532833 0 -0.017017951823902939 -0.010240668608300205 0 -0.017923210437022018 -0.010041332369743215 0 -0.016881325561573006 -0.0092994030478532833 0 -0.017923210437022018 -0.010041332369743215 0 -0.017803487128533531 -0.0091029282770495861 0 -0.016083020332937674 -0.0099080883390658646 0 -0.016881325561573006 -0.0092994030478532833 0 -0.017017951823902939 -0.010240668608300205 0 -0.017602016906929082 -0.011127477621959094 0 -0.017017951823902939 -0.010240668608300205 0 -0.017923210437022018 -0.010041332369743215 0 -0.018572977323707988 -0.011574357053302467 0 -0.017923210437022018 -0.010041332369743215 0 -0.019056511674283978 -0.010260829935643003 0 -0.018572977323707988 -0.011574357053302467 0 -0.017602016906929082 -0.011127477621959094 0 -0.017923210437022018 -0.010041332369743215 0 -0.017923210437022018 -0.010041332369743215 0 -0.018621062780813831 -0.0093144841282558864 0 -0.019056511674283978 -0.010260829935643003 0 -0.017923210437022018 -0.010041332369743215 0 -0.018621062780813831 -0.0093144841282558864 0 -0.017803487128533531 -0.0091029282770495861 0 -0.019838182564761643 -0.010042998007840942 0 -0.019525572192510551 -0.009299652718114412 0 -0.019056511674283978 -0.010260829935643003 0 -0.018621062780813831 -0.0093144841282558864 0 -0.019525572192510551 -0.009299652718114412 0 -0.019056511674283978 -0.010260829935643003 0 -0.019636435519878575 -0.011237449874661621 0 -0.018572977323707988 -0.011574357053302467 0 -0.019056511674283978 -0.010260829935643003 0 -0.019838182564761643 -0.010042998007840942 0 -0.019636435519878575 -0.011237449874661621 0 -0.019056511674283978 -0.010260829935643003 0 -0.012392029401756191 -0.011286607875995816 0 -0.013535360684475006 -0.010883283054346674 0 -0.012396924617471236 -0.0092487674200140632 0 -0.012392029401756191 -0.011286607875995816 0 -0.012396924617471236 -0.0092487674200140632 0 -0.011127575276459219 -0.0099706507785606528 0 -0.010671746571931559 -0.010884868309707564 0 -0.011504760739257271 -0.011784196163435342 0 -0.011127575276459219 -0.0099706507785606528 0 -0.012392029401756191 -0.011286607875995816 0 -0.011504760739257271 -0.011784196163435342 0 -0.011127575276459219 -0.0099706507785606528 0 -0.010671746571931559 -0.010884868309707564 0 -0.011127575276459219 -0.0099706507785606528 0 -0.0099276432720450756 -0.009848091433475396 0 -0.011504760739257271 -0.011784196163435342 0 -0.011024661558312212 -0.01252057394406818 0 -0.010174057326453215 -0.011395846381945768 0 -0.011985546123002238 -0.01253367715727806 0 -0.011504760739257271 -0.011784196163435342 0 -0.011024661558312212 -0.01252057394406818 0 -0.010671746571931559 -0.010884868309707564 0 -0.011504760739257271 -0.011784196163435342 0 -0.010174057326453215 -0.011395846381945768 0 -0.013265951167963716 -0.012293893196395936 0 -0.011985546123002238 -0.01253367715727806 0 -0.012392029401756191 -0.011286607875995816 0 -0.011985546123002238 -0.01253367715727806 0 -0.012392029401756191 -0.011286607875995816 0 -0.011504760739257271 -0.011784196163435342 0 -0.014282341142529664 -0.012486984743066481 0 -0.013265951167963716 -0.012293893196395936 0 -0.01438888494006482 -0.011646871008128329 0 -0.013265951167963716 -0.012293893196395936 0 -0.01438888494006482 -0.011646871008128329 0 -0.013535360684475006 -0.010883283054346674 0 -0.013265951167963716 -0.012293893196395936 0 -0.012392029401756191 -0.011286607875995816 0 -0.013535360684475006 -0.010883283054346674 0 -0.014282341142529664 -0.012486984743066481 0 -0.015130957318325108 -0.012568997174234341 0 -0.01438888494006482 -0.011646871008128329 0 -0.01438888494006482 -0.011646871008128329 0 -0.013535360684475006 -0.010883283054346674 0 -0.015073954364998749 -0.010208545153594085 0 -0.016261725851472057 -0.011175693900522669 0 -0.01438888494006482 -0.011646871008128329 0 -0.015073954364998749 -0.010208545153594085 0 -0.013535360684475006 -0.010883283054346674 0 -0.013611924814824901 -0.0096877124258056956 0 -0.015073954364998749 -0.010208545153594085 0 -0.015231224597737085 -0.010295501050175904 0 -0.014127818520709042 -0.0063252138567851694 0 -0.015073954364998749 -0.010208545153594085 0 -0.013457507658976197 -0.008223580430370768 0 -0.013796226452797782 -0.0059667880925743048 0 -0.015073954364998749 -0.010208545153594085 0 -0.015505396840845675 -0.0093991328071969353 0 -0.015037209554633063 -0.0088290496459640603 0 -0.015073954364998749 -0.010208545153594085 0 -0.015037209554633063 -0.0088290496459640603 0 -0.014941955279950904 -0.0088039486595959705 0 -0.013611924814824901 -0.0096877124258056956 0 -0.015073954364998749 -0.010208545153594085 0 -0.013457507658976197 -0.008223580430370768 0 -0.013535360684475006 -0.010883283054346674 0 -0.013611924814824901 -0.0096877124258056956 0 -0.012396924617471236 -0.0092487674200140632 0 -0.013611924814824901 -0.0096877124258056956 0 -0.013457507658976197 -0.008223580430370768 0 -0.012396924617471236 -0.0092487674200140632 0 -0.016083020332937674 -0.0099080883390658646 0 -0.015073954364998749 -0.010208545153594085 0 -0.015505396840845675 -0.0093991328071969353 0 -0.016062910783791441 -0.0091539710328198513 0 -0.015505396840845675 -0.0093991328071969353 0 -0.015499482977680714 -0.00889699529583045 0 -0.013457507658976197 -0.008223580430370768 0 -0.01304426754228335 -0.0069972649672434533 0 -0.013796226452797782 -0.0059667880925743048 0 -0.013457507658976197 -0.008223580430370768 0 -0.01304426754228335 -0.0069972649672434533 0 -0.012502586266125564 -0.0078306059449017636 0 -0.01304426754228335 -0.0069972649672434533 0 -0.012502586266125564 -0.0078306059449017636 0 -0.012111871136411946 -0.0068407749130811298 0 -0.012502586266125564 -0.0078306059449017636 0 -0.011032566006795291 -0.0077056965323461018 0 -0.012111871136411946 -0.0068407749130811298 0 -0.012502586266125564 -0.0078306059449017636 0 -0.012396924617471236 -0.0092487674200140632 0 -0.011032566006795291 -0.0077056965323461018 0 -0.013457507658976197 -0.008223580430370768 0 -0.012502586266125564 -0.0078306059449017636 0 -0.012396924617471236 -0.0092487674200140632 0 -0.012396924617471236 -0.0092487674200140632 0 -0.011127575276459219 -0.0099706507785606528 0 -0.011032566006795291 -0.0077056965323461018 0 -0.011127575276459219 -0.0099706507785606528 0 -0.011032566006795291 -0.0077056965323461018 0 -0.0095247301868708872 -0.0084651028063985109 0 -0.011127575276459219 -0.0099706507785606528 0 -0.0095247301868708872 -0.0084651028063985109 0 -0.0099276432720450756 -0.009848091433475396 0 -0.011032566006795291 -0.0077056965323461018 0 -0.0089979420375945682 -0.0070445885332222598 0 -0.0095247301868708872 -0.0084651028063985109 0 -0.011032566006795291 -0.0077056965323461018 0 -0.0099039723202197141 -0.0057834426031194586 0 -0.0089979420375945682 -0.0070445885332222598 0 -0.011879114681799155 -0.0044450851125186607 0 -0.013796226452797782 -0.0059667880925743048 0 -0.012050895523537377 -0.001859210918766812 0 -0.011032566006795291 -0.0077056965323461018 0 -0.0099039723202197141 -0.0057834426031194586 0 -0.01130363174787209 -0.0059265954294442482 0 -0.014127818520709042 -0.0063252138567851694 0 -0.0095973979167226116 -0.012869624713886205 0 -0.0099039723202197141 -0.0057834426031194586 0 -0.01130363174787209 -0.0059265954294442482 0 -0.010668716001269053 -0.0049735891982970078 0 -0.011032566006795291 -0.0077056965323461018 0 -0.012111871136411946 -0.0068407749130811298 0 -0.01130363174787209 -0.0059265954294442482 0 -0.012558309152124979 -0.0058369534860145365 0 -0.011879114681799155 -0.0044450851125186607 0 -0.013796226452797782 -0.0059667880925743048 0 -0.012111871136411946 -0.0068407749130811298 0 -0.012558309152124979 -0.0058369534860145365 0 -0.01130363174787209 -0.0059265954294442482 0 -0.012111871136411946 -0.0068407749130811298 0 -0.012558309152124979 -0.0058369534860145365 0 -0.01300862473245021 -0.0063211017209565297 0 -0.01304426754228335 -0.0069972649672434533 0 -0.012111871136411946 -0.0068407749130811298 0 -0.01300862473245021 -0.0063211017209565297 0 -0.012558309152124979 -0.0058369534860145365 0 -0.01130363174787209 -0.0059265954294442482 0 -0.011879114681799155 -0.0044450851125186607 0 -0.01130363174787209 -0.0059265954294442482 0 -0.011879114681799155 -0.0044450851125186607 0 -0.010668716001269053 -0.0049735891982970078 0 -0.011879114681799155 -0.0044450851125186607 0 -0.010905035802801713 -0.0040705354106635927 0 -0.011438714870274235 -0.0027109805647354914 0 -0.010905035802801713 -0.0040705354106635927 0 -0.011438714870274235 -0.0027109805647354914 0 -0.0092769895519980074 -0.0044196918887792758 0 -0.0099039723202197141 -0.0057834426031194586 0 -0.010668716001269053 -0.0049735891982970078 0 -0.0092769895519980074 -0.0044196918887792758 0 -0.010905035802801713 -0.0040705354106635927 0 -0.010668716001269053 -0.0049735891982970078 0 -0.0092769895519980074 -0.0044196918887792758 0 -0.011879114681799155 -0.0044450851125186607 0 -0.010905035802801713 -0.0040705354106635927 0 -0.010668716001269053 -0.0049735891982970078 0 -0.015037209554633063 -0.0088290496459640603 0 -0.014941955279950904 -0.0088039486595959705 0 -0.014544068008617198 -0.0084412407883681095 0 -0.014812571132243203 -0.0067655262167941191 0 -0.010955865325834832 -0.015105967807440047 0 -0.015037209554633063 -0.0088290496459640603 0 -0.015138297112585453 -0.008382079209860966 0 -0.014488811102949171 -0.0075105145445940082 0 -0.015499482977680714 -0.00889699529583045 0 -0.01550353721195521 -0.0084739788808655594 0 -0.016211580119836481 -0.0084922560890817768 0 -0.015505396840845675 -0.0093991328071969353 0 -0.015499482977680714 -0.00889699529583045 0 -0.015037209554633063 -0.0088290496459640603 0 -0.015499482977680714 -0.00889699529583045 0 -0.015292465661639878 -0.0086552449473951305 0 -0.015037209554633063 -0.0088290496459640603 0 -0.015499482977680714 -0.00889699529583045 0 -0.015292465661639878 -0.0086552449473951305 0 -0.01550353721195521 -0.0084739788808655594 0 -0.015292465661639878 -0.0086552449473951305 0 -0.015037209554633063 -0.0088290496459640603 0 -0.015138297112585453 -0.008382079209860966 0 -0.01304426754228335 -0.0069972649672434533 0 -0.01300862473245021 -0.0063211017209565297 0 -0.013796226452797782 -0.0059667880925743048 0 -0.012558309152124979 -0.0058369534860145365 0 -0.01300862473245021 -0.0063211017209565297 0 -0.013796226452797782 -0.0059667880925743048 0 -0.015159036657563867 -0.008053233010061835 0 -0.015138297112585453 -0.008382079209860966 0 -0.015348659073186789 -0.008264293302547826 0 -0.015159036657563867 -0.008053233010061835 0 -0.015590808874417564 -0.0081441171904434121 0 -0.015824628704936332 -0.0077888434350144777 0 -0.015590808874417564 -0.0081441171904434121 0 -0.01550353721195521 -0.0084739788808655594 0 -0.016211580119836481 -0.0084922560890817768 0 -0.015292465661639878 -0.0086552449473951305 0 -0.015138297112585453 -0.008382079209860966 0 -0.01550353721195521 -0.0084739788808655594 0 -0.015138297112585453 -0.008382079209860966 0 -0.015348659073186789 -0.008264293302547826 0 -0.01550353721195521 -0.0084739788808655594 0 -0.015348659073186789 -0.008264293302547826 0 -0.015590808874417564 -0.0081441171904434121 0 -0.01550353721195521 -0.0084739788808655594 0 -0.015159036657563867 -0.008053233010061835 0 -0.015348659073186789 -0.008264293302547826 0 -0.015590808874417564 -0.0081441171904434121 0 -0.013130933846897178 -0.024456293300111127 0 -0.01253948149824337 -0.025067193844539277 0 -0.01157537841863269 -0.024465686252590314 0 -0.013312613450482768 -0.01346716858260689 0 -0.016977092480695656 -0.016135932561825501 0 -0.01253948149824337 -0.025067193844539277 0 -0.013471407579076788 -0.024450560829429424 0 -0.012904844876280134 -0.026091628096140265 0 -0.015026781852434154 -0.0077137038521791256 0 -0.015824628704936332 -0.0077888434350144777 0 -0.015936572028931045 -0.0075661512883415313 0 -0.013312613450482768 -0.01346716858260689 0 -0.015536367313762707 -0.0082934498239519427 0 -0.015159036657563867 -0.008053233010061835 0 -0.014748059849997892 -0.0075061581785206355 0 -0.015824628704936332 -0.0077888434350144777 0 -0.015159036657563867 -0.008053233010061835 0 -0.014748059849997892 -0.0075061581785206355 0 -0.014488811102949171 -0.0075105145445940082 0 -0.015159036657563867 -0.008053233010061835 0 -0.015138297112585453 -0.008382079209860966 0 -0.014488811102949171 -0.0075105145445940082 0 -0.013130933846897178 -0.024456293300111127 0 -0.01253948149824337 -0.025067193844539277 0 -0.013471407579076788 -0.024450560829429424 0 -0.01253948149824337 -0.025067193844539277 0 -0.011619706734611141 -0.025100063937856389 0 -0.01157537841863269 -0.024465686252590314 0 -0.0091509374545025758 -0.014541411162995932 0 -0.009042017425312323 -0.014291363685936316 0 -0.0053936720958233549 -0.014550331613084283 0 -0.011438714870274235 -0.0027109805647354914 0 -0.012050895523537377 -0.001859210918766812 0 -0.007259076502879807 -0.0026689713848061345 0 -0.014941955279950904 -0.0088039486595959705 0 -0.014544068008617198 -0.0084412407883681095 0 -0.014495476661185183 -0.0084453100182791986 0 -0.0043423750672859128 -0.022959258326455807 0 -0.0044554026066748872 -0.023091610409001099 0 -0.0046171749107847488 -0.024419981605996503 0 -0.011879114681799155 -0.0044450851125186607 0 -0.011438714870274235 -0.0027109805647354914 0 -0.012050895523537377 -0.001859210918766812 0 -0.010955865325834832 -0.015105967807440047 0 -0.0086284095654786813 -0.016742728589506744 0 -0.0087803320203848605 -0.016354707708039106 0 -0.0077341365757000596 -0.016358946644727347 0 -0.0072772240507969774 -0.015302449328873905 0 -0.010955865325834832 -0.015105967807440047 0 -0.0095973979167226116 -0.012869624713886205 0 -0.013312613450482768 -0.01346716858260689 0 -0.010955865325834832 -0.015105967807440047 0 -0.0095973979167226116 -0.012869624713886205 0 -0.0086284095654786813 -0.016742728589506744 0 -0.014368091919608765 -0.026724022587095931 0 -0.012904844876280134 -0.026091628096140265 0 -0.012382682394017842 -0.027631733936290679 0 -0.0043423750672859128 -0.022959258326455807 0 -0.0045817358314799404 -0.024769258526014144 0 -0.0046171749107847488 -0.024419981605996503 0 -0.010955865325834832 -0.015105967807440047 0 -0.0095710646720533876 -0.027476751731213701 0 -0.0086284095654786813 -0.016742728589506744 0 -0.0046588459892498513 -0.025276422875577378 0 -0.013471407579076788 -0.024450560829429424 0 -0.014368091919608765 -0.026724022587095931 0 -0.012904844876280134 -0.026091628096140265 0 -0.0037552139331562605 -0.023370372370537098 0 -0.004297690314198235 -0.024665685532751173 0 -0.0047640050774600644 -0.024545949070687884 0 -0.018643961175035834 -0.029251708975799449 0 -0.020988360688380038 -0.027405218599077678 0 -0.012904844876280134 -0.026091628096140265 0 -0.012382682394017842 -0.027631733936290679 0 -0.011619706734611141 -0.025100063937856389 0 -0.01253948149824337 -0.025067193844539277 0 -0.012904844876280134 -0.026091628096140265 0 -0.011619706734611141 -0.025100063937856389 0 -0.025582598547601056 -0.031012474787097167 0 -0.025270064288409239 -0.031157057764533674 0 -0.024866185772750755 -0.029245953508400355 0 -0.0046588459892498513 -0.025276422875577378 0 -0.0046656241308173328 -0.025221573698109141 0 -0.0045817358314799404 -0.024769258526014144 0 -0.0046171749107847488 -0.024419981605996503 0 -0.0047915296374003531 -0.025615357948395798 0 -0.014368091919608765 -0.026724022587095931 0 -0.013833280033538248 -0.028337518784911215 0 -0.015141103186963876 -0.02879771858351483 0 -0.014368091919608765 -0.026724022587095931 0 -0.012382682394017842 -0.027631733936290679 0 -0.013833280033538248 -0.028337518784911215 0 -0.026084192616852343 -0.032585439634599582 0 -0.026123596845954715 -0.032586006003294532 0 -0.026161465789609484 -0.032619659355109763 0 -0.026073548341604792 -0.032616411272095309 0 -0.026084192616852343 -0.032585439634599582 0 -0.026161465789609484 -0.032619659355109763 0 -0.026073548341604792 -0.032616411272095309 0 -0.026046407378658071 -0.032591739599126306 0 -0.026084192616852343 -0.032585439634599582 0 -0.026011339325911702 -0.032643841335807201 0 -0.026073548341604792 -0.032616411272095309 0 -0.026046407378658071 -0.032591739599126306 0 -0.026046407378658071 -0.032591739599126306 0 -0.02605725207828602 -0.032521986819827653 0 -0.026084192616852343 -0.032585439634599582 0 -0.026289092985447994 -0.032735480741153067 0 -0.020988360688380038 -0.027405218599077678 0 -0.026011339325911702 -0.032643841335807201 0 -0.026046407378658071 -0.032591739599126306 0 -0.026069867758190486 -0.032484128504225801 0 -0.026046407378658071 -0.032591739599126306 0 -0.02605725207828602 -0.032521986819827653 0 -0.026069867758190486 -0.032484128504225801 0 -0.02605725207828602 -0.032521986819827653 0 -0.026084192616852343 -0.032585439634599582 0 -0.026064581341710583 -0.032493220181265041 0 -0.026084192616852343 -0.032585439634599582 0 -0.026064581341710583 -0.032493220181265041 0 -0.026123596845954715 -0.032586006003294532 0 -0.018810077907697467 -0.0067263046225354822 0 -0.019092579271950447 -0.0080212475128773764 0 -0.017744492479563841 -0.007673787666404132 0 -0.022556186784854132 -0.019494609308124463 0 -0.019749506558489081 -0.016876310212748567 0 -0.02605725207828602 -0.032521986819827653 0 -0.026064581341710583 -0.032493220181265041 0 -0.026042937097899298 -0.03243772778573633 0 -0.015824628704936332 -0.0077888434350144777 0 -0.015936572028931045 -0.0075661512883415313 0 -0.016211580119836481 -0.0084922560890817768 0 -0.018810077907697467 -0.0067263046225354822 0 -0.016327502240569884 -0.0067342218701601378 0 -0.017744492479563841 -0.007673787666404132 0 -0.02605725207828602 -0.032521986819827653 0 -0.026069867758190486 -0.032484128504225801 0 -0.026042937097899298 -0.03243772778573633 0 -0.020988360688380038 -0.027405218599077678 0 -0.019749506558489081 -0.016876310212748567 0 -0.020411685632383068 -0.026203768767220248 0 -0.017103558978296178 -0.016060706345200553 0 -0.019477676384013577 -0.0160569646900795 0 -0.020988360688380038 -0.027405218599077678 0 -0.016977092480695656 -0.016135932561825501 0 -0.016327502240569884 -0.0067342218701601378 0 -0.0166066049535862 -0.0076442802378773773 0 -0.017744492479563841 -0.007673787666404132 0 -0.016389214867862833 -0.0068381043449094112 0 -0.016239102725825027 -0.0068333378012858598 0 -0.0166066049535862 -0.0076442802378773773 0 -0.019749506558489081 -0.016876310212748567 0 -0.016635534120337785 -0.00752003985318797 0 -0.019749506558489081 -0.016876310212748567 0 -0.016977092480695656 -0.016135932561825501 0 -0.016977092480695656 -0.016135932561825501 0 -0.015948181467638125 -0.0056149103430722675 0 -0.016239102725825027 -0.0068333378012858598 0 -0.0166066049535862 -0.0076442802378773773 0 -0.016211580119836481 -0.0084922560890817768 0 -0.0166066049535862 -0.0076442802378773773 0 -0.017297748439594651 -0.0083955630936889195 0 -0.016211580119836481 -0.0084922560890817768 0 -0.015590808874417564 -0.0081441171904434121 0 -0.015824628704936332 -0.0077888434350144777 0 -0.016211580119836481 -0.0084922560890817768 0 -0.0166066049535862 -0.0076442802378773773 0 -0.017297748439594651 -0.0083955630936889195 0 -0.017744492479563841 -0.007673787666404132 0 -0.016881325561573006 -0.0092994030478532833 0 -0.017297748439594651 -0.0083955630936889195 0 -0.016211580119836481 -0.0084922560890817768 0 -0.016881325561573006 -0.0092994030478532833 0 -0.017297748439594651 -0.0083955630936889195 0 -0.017803487128533531 -0.0091029282770495861 0 -0.016062910783791441 -0.0091539710328198513 0 -0.016881325561573006 -0.0092994030478532833 0 -0.016211580119836481 -0.0084922560890817768 0 -0.016062910783791441 -0.0091539710328198513 0 -0.015499482977680714 -0.00889699529583045 0 -0.016211580119836481 -0.0084922560890817768 0 -0.018810077907697467 -0.0067263046225354822 0 -0.019092579271950447 -0.0080212475128773764 0 -0.020390388746174104 -0.0079571976232346141 0 -0.017297748439594651 -0.0083955630936889195 0 -0.017744492479563841 -0.007673787666404132 0 -0.01831650876420025 -0.008522427191794241 0 -0.019092579271950447 -0.0080212475128773764 0 -0.017744492479563841 -0.007673787666404132 0 -0.01831650876420025 -0.008522427191794241 0 -0.017297748439594651 -0.0083955630936889195 0 -0.01831650876420025 -0.008522427191794241 0 -0.017803487128533531 -0.0091029282770495861 0 -0.018621062780813831 -0.0093144841282558864 0 -0.01831650876420025 -0.008522427191794241 0 -0.017803487128533531 -0.0091029282770495861 0 -0.018621062780813831 -0.0093144841282558864 0 -0.019525572192510551 -0.009299652718114412 0 -0.019066429681651568 -0.0087433549738792291 0 -0.018621062780813831 -0.0093144841282558864 0 -0.01831650876420025 -0.008522427191794241 0 -0.019066429681651568 -0.0087433549738792291 0 -0.019092579271950447 -0.0080212475128773764 0 -0.01831650876420025 -0.008522427191794241 0 -0.019066429681651568 -0.0087433549738792291 0 -0.019092579271950447 -0.0080212475128773764 0 -0.019066429681651568 -0.0087433549738792291 0 -0.019758197325952472 -0.0085847876823276839 0 -0.019525572192510551 -0.009299652718114412 0 -0.019066429681651568 -0.0087433549738792291 0 -0.019758197325952472 -0.0085847876823276839 0 -0.020390388746174104 -0.0079571976232346141 0 -0.020592917171867606 -0.0090288271321846345 0 -0.02121199023778466 -0.0068352219030558938 0 -0.022862413257495429 -0.013100097187656288 0 -0.024437762366700141 -0.024543089144152697 0 -0.019758197325952472 -0.0085847876823276839 0 -0.020390388746174104 -0.0079571976232346141 0 -0.020600276272174454 -0.0088741890481817635 0 -0.019525572192510551 -0.009299652718114412 0 -0.019758197325952472 -0.0085847876823276839 0 -0.020600276272174454 -0.0088741890481817635 0 -0.019092579271950447 -0.0080212475128773764 0 -0.019758197325952472 -0.0085847876823276839 0 -0.020390388746174104 -0.0079571976232346141 0 -0.021061121399613341 -0.0078855846867284737 0 -0.022862413257495429 -0.013100097187656288 0 -0.028227213285323061 -0.02635103591038146 0 -0.0275003682425215 -0.025830474952204419 0 -0.028401272569580402 -0.025722422450229755 0 -0.0275003682425215 -0.025830474952204419 0 -0.028401272569580402 -0.025722422450229755 0 -0.027735083308786258 -0.024976308580675403 0 -0.024437762366700141 -0.024543089144152697 0 -0.027977138056982136 -0.029173806862918272 0 -0.026178496324788067 -0.032971858399189313 0 -0.02646455990596381 -0.033019551936127683 0 -0.026422035276253163 -0.032836999213467936 0 -0.028401272569580402 -0.025722422450229755 0 -0.027735083308786258 -0.024976308580675403 0 -0.028706014813567528 -0.025029753827025651 0 -0.022556186784854132 -0.019494609308124463 0 -0.024437762366700141 -0.024543089144152697 0 -0.026064581341710583 -0.032493220181265041 0 -0.02607884172471845 -0.032502958667893253 0 -0.026123596845954715 -0.032586006003294532 0 -0.018810077907697467 -0.0067263046225354822 0 -0.020390388746174104 -0.0079571976232346141 0 -0.02121199023778466 -0.0068352219030558938 0 -0.031259030590913936 -0.027714297620072263 0 -0.028660143906992959 -0.030716365613841595 0 -0.030259552655274184 -0.02633064122622935 0 -0.029219958943336431 -0.025733280096222558 0 -0.029680708173152912 -0.025072831140072985 0 -0.029048281791735669 -0.026505989599779987 0 -0.028401272569580402 -0.025722422450229755 0 -0.029219958943336431 -0.025733280096222558 0 -0.028401272569580402 -0.025722422450229755 0 -0.029219958943336431 -0.025733280096222558 0 -0.028706014813567528 -0.025029753827025651 0 -0.027977138056982136 -0.029173806862918272 0 -0.028660143906992959 -0.030716365613841595 0 -0.029219958943336431 -0.025733280096222558 0 -0.028706014813567528 -0.025029753827025651 0 -0.029680708173152912 -0.025072831140072985 0 -0.02646455990596381 -0.033019551936127683 0 -0.026760425828070943 -0.033022965173659061 0 -0.026659740178741509 -0.03284245660516321 0 -0.026976829881892404 -0.03319703153743226 0 -0.026659740178741509 -0.03284245660516321 0 -0.027229657998678471 -0.032748449532539352 0 -0.028660143906992959 -0.030716365613841595 0 -0.026764253859357837 -0.033361795680985504 0 -0.026659740178741509 -0.03284245660516321 0 -0.026600477479766974 -0.032696142078750268 0 -0.027229657998678471 -0.032748449532539352 0 -0.026659740178741509 -0.03284245660516321 0 -0.026422035276253163 -0.032836999213467936 0 -0.026600477479766974 -0.032696142078750268 0 -0.02646455990596381 -0.033019551936127683 0 -0.026659740178741509 -0.03284245660516321 0 -0.026422035276253163 -0.032836999213467936 0 -0.026422035276253163 -0.032836999213467936 0 -0.026600477479766974 -0.032696142078750268 0 -0.026226943489924371 -0.032667582173987228 0 -0.026600477479766974 -0.032696142078750268 0 -0.026226943489924371 -0.032667582173987228 0 -0.026358821176411636 -0.032643827353722329 0 -0.026600477479766974 -0.032696142078750268 0 -0.026707849415596917 -0.032648641416466902 0 -0.027088948071505716 -0.032683063514918294 0 -0.026600477479766974 -0.032696142078750268 0 -0.027229657998678471 -0.032748449532539352 0 -0.027088948071505716 -0.032683063514918294 0 -0.02607884172471845 -0.032502958667893253 0 -0.026123596845954715 -0.032586006003294532 0 -0.026226943489924371 -0.032667582173987228 0 -0.026178496324788067 -0.032971858399189313 0 -0.026422035276253163 -0.032836999213467936 0 -0.026226943489924371 -0.032667582173987228 0 -0.024437762366700141 -0.024543089144152697 0 -0.026405757597876126 -0.036114486326235672 0 -0.026123596845954715 -0.032586006003294532 0 -0.026226943489924371 -0.032667582173987228 0 -0.026161465789609484 -0.032619659355109763 0 -0.026226943489924371 -0.032667582173987228 0 -0.026161465789609484 -0.032619659355109763 0 -0.026200379254168179 -0.032647608027196885 0 -0.026161465789609484 -0.032619659355109763 0 -0.026200379254168179 -0.032647608027196885 0 -0.026239492170036422 -0.032608996950496218 0 -0.026226943489924371 -0.032667582173987228 0 -0.026200379254168179 -0.032647608027196885 0 -0.026358821176411636 -0.032643827353722329 0 -0.026200379254168179 -0.032647608027196885 0 -0.026175484391671933 -0.032755255430721102 0 -0.026146911089535527 -0.032909598936928443 0 -0.026200379254168179 -0.032647608027196885 0 -0.026358821176411636 -0.032643827353722329 0 -0.026175484391671933 -0.032755255430721102 0 -0.026200379254168179 -0.032647608027196885 0 -0.026146911089535527 -0.032909598936928443 0 -0.026239492170036422 -0.032608996950496218 0 -0.026600477479766974 -0.032696142078750268 0 -0.026707849415596917 -0.032648641416466902 0 -0.026358821176411636 -0.032643827353722329 0 -0.026707849415596917 -0.032648641416466902 0 -0.026358821176411636 -0.032643827353722329 0 -0.026414768426733137 -0.032659776746897892 0 -0.026707849415596917 -0.032648641416466902 0 -0.026414768426733137 -0.032659776746897892 0 -0.026586910842813685 -0.032630325730467265 0 -0.026175484391671933 -0.032755255430721102 0 -0.026414768426733137 -0.032659776746897892 0 -0.026280748647610232 -0.032725322599135714 0 -0.026358821176411636 -0.032643827353722329 0 -0.026175484391671933 -0.032755255430721102 0 -0.026414768426733137 -0.032659776746897892 0 -0.026280748647610232 -0.032725322599135714 0 -0.026586910842813685 -0.032630325730467265 0 -0.026352984741417514 -0.032701781867774331 0 -0.026414768426733137 -0.032659776746897892 0 -0.026280748647610232 -0.032725322599135714 0 -0.026586910842813685 -0.032630325730467265 0 -0.026002517554644517 -0.032924495747514833 0 -0.026352984741417514 -0.032701781867774331 0 -0.026080055886653342 -0.032884682976627548 0 -0.026280748647610232 -0.032725322599135714 0 -0.026002517554644517 -0.032924495747514833 0 -0.026352984741417514 -0.032701781867774331 0 -0.026175484391671933 -0.032755255430721102 0 -0.026280748647610232 -0.032725322599135714 0 -0.026002517554644517 -0.032924495747514833 0 -0.026175484391671933 -0.032755255430721102 0 -0.026002517554644517 -0.032924495747514833 0 -0.026013939624202533 -0.033064608263906704 0 -0.026002517554644517 -0.032924495747514833 0 -0.025828144055718164 -0.033410829642086012 0 -0.026013939624202533 -0.033064608263906704 0 -0.026002517554644517 -0.032924495747514833 0 -0.025828144055718164 -0.033410829642086012 0 -0.025661136451861147 -0.033318870361919585 0 -0.026002517554644517 -0.032924495747514833 0 -0.026080055886653342 -0.032884682976627548 0 -0.025661136451861147 -0.033318870361919585 0 -0.025127946743390774 -0.033033281630299421 0 -0.025272995588450781 -0.033678857825321158 0 -0.025661136451861147 -0.033318870361919585 0 -0.025680463206198944 -0.033025261325833062 0 -0.025724483906736966 -0.033244494677571484 0 -0.026146911089535527 -0.032909598936928443 0 -0.026296148534977949 -0.033264679810287294 0 -0.02637354628342941 -0.032985603330776922 0 -0.026175484391671933 -0.032755255430721102 0 -0.026146911089535527 -0.032909598936928443 0 -0.026013939624202533 -0.033064608263906704 0 -0.026146911089535527 -0.032909598936928443 0 -0.026013939624202533 -0.033064608263906704 0 -0.026049189560215406 -0.033415343578513827 0 -0.025828144055718164 -0.033410829642086012 0 -0.026013939624202533 -0.033064608263906704 0 -0.026049189560215406 -0.033415343578513827 0 -0.026146911089535527 -0.032909598936928443 0 -0.026049189560215406 -0.033415343578513827 0 -0.026296148534977949 -0.033264679810287294 0 -0.026049189560215406 -0.033415343578513827 0 -0.026296148534977949 -0.033264679810287294 0 -0.026292957773358574 -0.033583544316617184 0 -0.026296148534977949 -0.033264679810287294 0 -0.026578718633455106 -0.033189221768330959 0 -0.026556301122216016 -0.033482885355007153 0 -0.026296148534977949 -0.033264679810287294 0 -0.026556301122216016 -0.033482885355007153 0 -0.026292957773358574 -0.033583544316617184 0 -0.026296148534977949 -0.033264679810287294 0 -0.02637354628342941 -0.032985603330776922 0 -0.026578718633455106 -0.033189221768330959 0 -0.02637354628342941 -0.032985603330776922 0 -0.026741456655506583 -0.032947916827904919 0 -0.026578718633455106 -0.033189221768330959 0 -0.026741456655506583 -0.032947916827904919 0 -0.026578718633455106 -0.033189221768330959 0 -0.026823149008656993 -0.033253339234944571 0 -0.026578718633455106 -0.033189221768330959 0 -0.026690253200601852 -0.033358436247619701 0 -0.026823149008656993 -0.033253339234944571 0 -0.026578718633455106 -0.033189221768330959 0 -0.026690253200601852 -0.033358436247619701 0 -0.026556301122216016 -0.033482885355007153 0 -0.026690253200601852 -0.033358436247619701 0 -0.026556301122216016 -0.033482885355007153 0 -0.026742945255033231 -0.033508381064401495 0 -0.026690253200601852 -0.033358436247619701 0 -0.026742945255033231 -0.033508381064401495 0 -0.026814608155556537 -0.033389106417844178 0 -0.026954209704871616 -0.033370103912349285 0 -0.027093510241537475 -0.033253233801993631 0 -0.026823149008656993 -0.033253339234944571 0 -0.026742945255033231 -0.033508381064401495 0 -0.026890512543037984 -0.033523264023084982 0 -0.026805853003040756 -0.033649796683925468 0 -0.026742945255033231 -0.033508381064401495 0 -0.026890512543037984 -0.033523264023084982 0 -0.026814608155556537 -0.033389106417844178 0 -0.026890512543037984 -0.033523264023084982 0 -0.026954209704871616 -0.033370103912349285 0 -0.026814608155556537 -0.033389106417844178 0 -0.026954209704871616 -0.033370103912349285 0 -0.026814608155556537 -0.033389106417844178 0 -0.026823149008656993 -0.033253339234944571 0 -0.026690253200601852 -0.033358436247619701 0 -0.026814608155556537 -0.033389106417844178 0 -0.026823149008656993 -0.033253339234944571 0 -0.026890512543037984 -0.033523264023084982 0 -0.026954209704871616 -0.033370103912349285 0 -0.027130472958940308 -0.033429415413812731 0 -0.026954209704871616 -0.033370103912349285 0 -0.027130472958940308 -0.033429415413812731 0 -0.027093510241537475 -0.033253233801993631 0 -0.021735916898458187 -0.033229661656352424 0 -0.013360342217059607 -0.03506944983668929 0 -0.018428137274054315 -0.033575395987379728 0 -0.018864983455863526 -0.034870687557553216 0 -0.017650133886188364 -0.034254303030901552 0 -0.018490075852991766 -0.034936580496448794 0 -0.021735916898458187 -0.033229661656352424 0 -0.018490075852991766 -0.034936580496448794 0 -0.013360342217059607 -0.03506944983668929 0 -0.02584613379574199 -0.032471334310746523 0 -0.025844111823510603 -0.03235252133502016 0 -0.025974882845376326 -0.03219019123955752 0 -0.021735916898458187 -0.033229661656352424 0 -0.019329098686822036 -0.030894307025378639 0 -0.013907227606289877 -0.032279289842961897 0 -0.014414564700785686 -0.031296171151587768 0 -0.014715778013575102 -0.032701324170479946 0 -0.013907227606289877 -0.032279289842961897 0 -0.014414564700785686 -0.031296171151587768 0 -0.013158836627154938 -0.030035581904233777 0 -0.025809805537970187 -0.032287018730217852 0 -0.02584613379574199 -0.032471334310746523 0 -0.025844111823510603 -0.03235252133502016 0 -0.026741456655506583 -0.032947916827904919 0 -0.027093510241537475 -0.033253233801993631 0 -0.026823149008656993 -0.033253339234944571 0 -0.027295808005451682 -0.032763491055827432 0 -0.021735916898458187 -0.033229661656352424 0 -0.025809805537970187 -0.032287018730217852 0 -0.025844111823510603 -0.03235252133502016 0 -0.025727812424803629 -0.032347645841910293 0 -0.025844111823510603 -0.03235252133502016 0 -0.025974882845376326 -0.03219019123955752 0 -0.025727812424803629 -0.032347645841910293 0 -0.014414564700785686 -0.031296171151587768 0 -0.013158836627154938 -0.030035581904233777 0 -0.01471158922100041 -0.030150925477088569 0 -0.013158836627154938 -0.030035581904233777 0 -0.013833280033538248 -0.028337518784911215 0 -0.01471158922100041 -0.030150925477088569 0 -0.025582598547601056 -0.031012474787097167 0 -0.025270064288409239 -0.031157057764533674 0 -0.025974882845376326 -0.03219019123955752 0 -0.012382682394017842 -0.027631733936290679 0 -0.013158836627154938 -0.030035581904233777 0 -0.013833280033538248 -0.028337518784911215 0 -0.025270064288409239 -0.031157057764533674 0 -0.025974882845376326 -0.03219019123955752 0 -0.025727812424803629 -0.032347645841910293 0 -0.018643961175035834 -0.029251708975799449 0 -0.019329098686822036 -0.030894307025378639 0 -0.026289092985447994 -0.032735480741153067 0 -0.025529374400010837 -0.03191973320844161 0 -0.025727812424803629 -0.032347645841910293 0 -0.025989743775594907 -0.032521340946994257 0 -0.025973029234608425 -0.032548637792459464 0 -0.026011339325911702 -0.032643841335807201 0 -0.025727812424803629 -0.032347645841910293 0 -0.025973029234608425 -0.032548637792459464 0 -0.026073548341604792 -0.032616411272095309 0 -0.025989743775594907 -0.032521340946994257 0 -0.025973029234608425 -0.032548637792459464 0 -0.026011339325911702 -0.032643841335807201 0 -0.026073548341604792 -0.032616411272095309 0 -0.025973029234608425 -0.032548637792459464 0 -0.026073548341604792 -0.032616411272095309 0 -0.025989743775594907 -0.032521340946994257 0 -0.026239492170036422 -0.032608996950496218 0 -0.026073548341604792 -0.032616411272095309 0 -0.026161465789609484 -0.032619659355109763 0 -0.026239492170036422 -0.032608996950496218 0 -0.026146911089535527 -0.032909598936928443 0 -0.02637354628342941 -0.032985603330776922 0 -0.026239492170036422 -0.032608996950496218 0 -0.02637354628342941 -0.032985603330776922 0 -0.026741456655506583 -0.032947916827904919 0 -0.026239492170036422 -0.032608996950496218 0 -0.025809805537970187 -0.032287018730217852 0 -0.025989743775594907 -0.032521340946994257 0 -0.026239492170036422 -0.032608996950496218 0 -0.027295808005451682 -0.032763491055827432 0 -0.025814942584805808 -0.032490523458434242 0 -0.025809805537970187 -0.032287018730217852 0 -0.025727812424803629 -0.032347645841910293 0 -0.025989743775594907 -0.032521340946994257 0 -0.026345266371121272 -0.035290704019609556 0 -0.025962454308439856 -0.035454652014299544 0 -0.025718537257710471 -0.034738129638722762 0 -0.026872028182659154 -0.035494356028872256 0 -0.026345266371121272 -0.035290704019609556 0 -0.025718537257710471 -0.034738129638722762 0 -0.025034396014836788 -0.035371631401205909 0 -0.025968557738672647 -0.034780686792883979 0 -0.026345266371121272 -0.035290704019609556 0 -0.025962454308439856 -0.035454652014299544 0 -0.026697977251277843 -0.035226790378392284 0 -0.027110556929173423 -0.035392219272086793 0 -0.026872028182659154 -0.035494356028872256 0 -0.026345266371121272 -0.035290704019609556 0 -0.025962454308439856 -0.035454652014299544 0 -0.025930838162350461 -0.033659044822516991 0 -0.025679058575383537 -0.035680253215479761 0 -0.025833877106609043 -0.033644707131459353 0 -0.026329744397278785 -0.034315345744012848 0 -0.025962454308439856 -0.035454652014299544 0 -0.025930838162350461 -0.033659044822516991 0 -0.025718537257710471 -0.034738129638722762 0 -0.025930838162350461 -0.033659044822516991 0 -0.025881326124845189 -0.032212655491048472 0 -0.026894417612228608 -0.032817735403429645 0 -0.025930838162350461 -0.033659044822516991 0 -0.025718537257710471 -0.034738129638722762 0 -0.024912583594205798 -0.03299439688403636 0 -0.024099264871925392 -0.033739770156529757 0 -0.02396659342362778 -0.035100793699629415 0 -0.025718537257710471 -0.034738129638722762 0 -0.024099264871925392 -0.033739770156529757 0 -0.025718537257710471 -0.034738129638722762 0 -0.024912583594205798 -0.03299439688403636 0 -0.02355337883335442 -0.032133988474738341 0 -0.024099264871925392 -0.033739770156529757 0 -0.024912583594205798 -0.03299439688403636 0 -0.025930838162350461 -0.033659044822516991 0 -0.024912583594205798 -0.03299439688403636 0 -0.025881326124845189 -0.032212655491048472 0 -0.024912583594205798 -0.03299439688403636 0 -0.024769090682681232 -0.031521706595769007 0 -0.025881326124845189 -0.032212655491048472 0 -0.02355337883335442 -0.032133988474738341 0 -0.024912583594205798 -0.03299439688403636 0 -0.024769090682681232 -0.031521706595769007 0 -0.023316306404517463 -0.030433384556733965 0 -0.024769090682681232 -0.031521706595769007 0 -0.024991400249445295 -0.030167944615394689 0 -0.024769090682681232 -0.031521706595769007 0 -0.024991400249445295 -0.030167944615394689 0 -0.025736342903155955 -0.031082776236805231 0 -0.026360698551260553 -0.030008490203321841 0 -0.024991400249445295 -0.030167944615394689 0 -0.025736342903155955 -0.031082776236805231 0 -0.026360698551260553 -0.030008490203321841 0 -0.025736342903155955 -0.031082776236805231 0 -0.026522613285616423 -0.031520560392857 0 -0.025736342903155955 -0.031082776236805231 0 -0.025881326124845189 -0.032212655491048472 0 -0.026522613285616423 -0.031520560392857 0 -0.025881326124845189 -0.032212655491048472 0 -0.026522613285616423 -0.031520560392857 0 -0.026894417612228608 -0.032817735403429645 0 -0.024769090682681232 -0.031521706595769007 0 -0.025736342903155955 -0.031082776236805231 0 -0.025881326124845189 -0.032212655491048472 0 -0.026522613285616423 -0.031520560392857 0 -0.027277483567937078 -0.031458469324797803 0 -0.026894417612228608 -0.032817735403429645 0 -0.027390081520225693 -0.030126750283820811 0 -0.026360698551260553 -0.030008490203321841 0 -0.026909184916430563 -0.030809179739522696 0 -0.027390081520225693 -0.030126750283820811 0 -0.026909184916430563 -0.030809179739522696 0 -0.027277483567937078 -0.031458469324797803 0 -0.026360698551260553 -0.030008490203321841 0 -0.026522613285616423 -0.031520560392857 0 -0.026909184916430563 -0.030809179739522696 0 -0.026522613285616423 -0.031520560392857 0 -0.026909184916430563 -0.030809179739522696 0 -0.027277483567937078 -0.031458469324797803 0 -0.027390081520225693 -0.030126750283820811 0 -0.027757327043487105 -0.030847202009330135 0 -0.027277483567937078 -0.031458469324797803 0 -0.027390081520225693 -0.030126750283820811 0 -0.028081301445838605 -0.029577611559284938 0 -0.027757327043487105 -0.030847202009330135 0 -0.027757327043487105 -0.030847202009330135 0 -0.027789820455072792 -0.032141420677106652 0 -0.027277483567937078 -0.031458469324797803 0 -0.027789820455072792 -0.032141420677106652 0 -0.027277483567937078 -0.031458469324797803 0 -0.026894417612228608 -0.032817735403429645 0 -0.027789820455072792 -0.032141420677106652 0 -0.026894417612228608 -0.032817735403429645 0 -0.027672722813991635 -0.032852395119517985 0 -0.026894417612228608 -0.032817735403429645 0 -0.027183745990178896 -0.033122599092685522 0 -0.027672722813991635 -0.032852395119517985 0 -0.025930838162350461 -0.033659044822516991 0 -0.026894417612228608 -0.032817735403429645 0 -0.027183745990178896 -0.033122599092685522 0 -0.027183745990178896 -0.033122599092685522 0 -0.027672722813991635 -0.032852395119517985 0 -0.027748353515313292 -0.032878172323180632 0 -0.027672722813991635 -0.032852395119517985 0 -0.02775906520113423 -0.032789330751274208 0 -0.027748353515313292 -0.032878172323180632 0 -0.027672722813991635 -0.032852395119517985 0 -0.02775906520113423 -0.032789330751274208 0 -0.028104959861699013 -0.032624861251579575 0 -0.02775906520113423 -0.032789330751274208 0 -0.028104959861699013 -0.032624861251579575 0 -0.02760469760085003 -0.032695010499556421 0 -0.028104959861699013 -0.032624861251579575 0 -0.028755298014176082 -0.032287810786726656 0 -0.027993225827200586 -0.032613011979680945 0 -0.027789820455072792 -0.032141420677106652 0 -0.027672722813991635 -0.032852395119517985 0 -0.028104959861699013 -0.032624861251579575 0 -0.027789820455072792 -0.032141420677106652 0 -0.028104959861699013 -0.032624861251579575 0 -0.028285875660023722 -0.031968229220739518 0 -0.027789820455072792 -0.032141420677106652 0 -0.028285875660023722 -0.031968229220739518 0 -0.028240404902943921 -0.030869268099692773 0 -0.027757327043487105 -0.030847202009330135 0 -0.027789820455072792 -0.032141420677106652 0 -0.028240404902943921 -0.030869268099692773 0 -0.02852735848654114 -0.029946948769934461 0 -0.028240404902943921 -0.030869268099692773 0 -0.029182041090461325 -0.030497625382065161 0 -0.028081301445838605 -0.029577611559284938 0 -0.027757327043487105 -0.030847202009330135 0 -0.028240404902943921 -0.030869268099692773 0 -0.028285875660023722 -0.031968229220739518 0 -0.028240404902943921 -0.030869268099692773 0 -0.029182041090461325 -0.030497625382065161 0 -0.028104959861699013 -0.032624861251579575 0 -0.028285875660023722 -0.031968229220739518 0 -0.028755298014176082 -0.032287810786726656 0 -0.028285875660023722 -0.031968229220739518 0 -0.029182041090461325 -0.030497625382065161 0 -0.028755298014176082 -0.032287810786726656 0 -0.02865883628090973 -0.032382565305709009 0 -0.029513690937479093 -0.032689636857229219 0 -0.028755298014176082 -0.032287810786726656 0 -0.030192244220282549 -0.030733093679439039 0 -0.030983979982727922 -0.032230053377810867 0 -0.028755298014176082 -0.032287810786726656 0 -0.027646280239564218 -0.033064137394590187 0 -0.027993225827200586 -0.032613011979680945 0 -0.029182041090461325 -0.030497625382065161 0 -0.028755298014176082 -0.032287810786726656 0 -0.030192244220282549 -0.030733093679439039 0 -0.031658996546602675 -0.029817022505983157 0 -0.032757448068368979 -0.032196559454031826 0 -0.030983979982727922 -0.032230053377810867 0 -0.031658996546602675 -0.029817022505983157 0 -0.030192244220282549 -0.030733093679439039 0 -0.030983979982727922 -0.032230053377810867 0 -0.028660143906992959 -0.030716365613841595 0 -0.029513690937479093 -0.032689636857229219 0 -0.026976829881892404 -0.03319703153743226 0 -0.027646280239564218 -0.033064137394590187 0 -0.027229657998678471 -0.032748449532539352 0 -0.027646280239564218 -0.033064137394590187 0 -0.027229657998678471 -0.032748449532539352 0 -0.027993225827200586 -0.032613011979680945 0 -0.028104959861699013 -0.032624861251579575 0 -0.027993225827200586 -0.032613011979680945 0 -0.02760469760085003 -0.032695010499556421 0 -0.027229657998678471 -0.032748449532539352 0 -0.027993225827200586 -0.032613011979680945 0 -0.02760469760085003 -0.032695010499556421 0 -0.027229657998678471 -0.032748449532539352 0 -0.02760469760085003 -0.032695010499556421 0 -0.027088948071505716 -0.032683063514918294 0 -0.02760469760085003 -0.032695010499556421 0 -0.027088948071505716 -0.032683063514918294 0 -0.027040567889455289 -0.032651115583855514 0 -0.026707849415596917 -0.032648641416466902 0 -0.027040567889455289 -0.032651115583855514 0 -0.026586910842813685 -0.032630325730467265 0 -0.026707849415596917 -0.032648641416466902 0 -0.027088948071505716 -0.032683063514918294 0 -0.027040567889455289 -0.032651115583855514 0 -0.027040567889455289 -0.032651115583855514 0 -0.027355077499091388 -0.032673145884557213 0 -0.026864037479040377 -0.032535829934576418 0 -0.02775906520113423 -0.032789330751274208 0 -0.02760469760085003 -0.032695010499556421 0 -0.027355077499091388 -0.032673145884557213 0 -0.02760469760085003 -0.032695010499556421 0 -0.027040567889455289 -0.032651115583855514 0 -0.027355077499091388 -0.032673145884557213 0 -0.027355077499091388 -0.032673145884557213 0 -0.026864037479040377 -0.032535829934576418 0 -0.027562371124072144 -0.032487060855805036 0 -0.027040567889455289 -0.032651115583855514 0 -0.026864037479040377 -0.032535829934576418 0 -0.026586910842813685 -0.032630325730467265 0 -0.026864037479040377 -0.032535829934576418 0 -0.026586910842813685 -0.032630325730467265 0 -0.026352984741417514 -0.032701781867774331 0 -0.026864037479040377 -0.032535829934576418 0 -0.026352984741417514 -0.032701781867774331 0 -0.026384534731404875 -0.032692040547792289 0 -0.026352984741417514 -0.032701781867774331 0 -0.026384534731404875 -0.032692040547792289 0 -0.026080055886653342 -0.032884682976627548 0 -0.026866351913220083 -0.0325841240243109 0 -0.025376086776141234 -0.032381974920881129 0 -0.025376086776141234 -0.032381974920881129 0 -0.025680463206198944 -0.033025261325833062 0 -0.024659906484632177 -0.032700221171809526 0 -0.025127946743390774 -0.033033281630299421 0 -0.024777186231882253 -0.033608741890419402 0 -0.025376086776141234 -0.032381974920881129 0 -0.020428829754411761 -0.041683799495073247 0 -0.022509065344774409 -0.035411031041620314 0 -0.022513382626621396 -0.035446937570789663 0 -0.022594723724854836 -0.035660356015234873 0 -0.017666968635434988 -0.044887037228591387 0 -0.017203669741662826 -0.046168281024838109 0 -0.017412368832329422 -0.045667425592989419 0 -0.022470684347186694 -0.035481597420694511 0 -0.022513382626621396 -0.035446937570789663 0 -0.022594723724854836 -0.035660356015234873 0 -0.017666968635434988 -0.044887037228591387 0 -0.017772831259556074 -0.04566930503753238 0 -0.017412368832329422 -0.045667425592989419 0 -0.020392480107878849 -0.038383741352314538 0 -0.020428829754411761 -0.041683799495073247 0 -0.017666968635434988 -0.044887037228591387 0 -0.017772831259556074 -0.04566930503753238 0 -0.018818708076847615 -0.045900166008619459 0 -0.020392480107878849 -0.038383741352314538 0 -0.02161208952084856 -0.03727885468014222 0 -0.022497607377916159 -0.035454895929540882 0 -0.022513382626621396 -0.035446937570789663 0 -0.022538131166075642 -0.03542525860111246 0 -0.022513382626621396 -0.035446937570789663 0 -0.022538131166075642 -0.03542525860111246 0 -0.022586451253557249 -0.035404604770902535 0 -0.022563595725338767 -0.0354005532521122 0 -0.022538131166075642 -0.03542525860111246 0 -0.022586451253557249 -0.035404604770902535 0 -0.022497607377916159 -0.035454895929540882 0 -0.022546897649077271 -0.035394753110487634 0 -0.02253805355657508 -0.035334754553041046 0 -0.022563595725338767 -0.0354005532521122 0 -0.022586451253557249 -0.035404604770902535 0 -0.022675297284171787 -0.035364550413151147 0 -0.022497607377916159 -0.035454895929540882 0 -0.022563595725338767 -0.0354005532521122 0 -0.022538131166075642 -0.03542525860111246 0 -0.022497607377916159 -0.035454895929540882 0 -0.022563595725338767 -0.0354005532521122 0 -0.022546897649077271 -0.035394753110487634 0 -0.022563595725338767 -0.0354005532521122 0 -0.022546897649077271 -0.035394753110487634 0 -0.022675297284171787 -0.035364550413151147 0 -0.022509065344774409 -0.035411031041620314 0 -0.022586451253557249 -0.035404604770902535 0 -0.022884447507191746 -0.035533434095216726 0 -0.026864037479040377 -0.032535829934576418 0 -0.026766916514958095 -0.031925470343845311 0 -0.027562371124072144 -0.032487060855805036 0 -0.025376086776141234 -0.032381974920881129 0 -0.025121025437231034 -0.034185638616790845 0 -0.022509065344774409 -0.035411031041620314 0 -0.022513382626621396 -0.035446937570789663 0 -0.022586451253557249 -0.035404604770902535 0 -0.022997082412894991 -0.035261752668589441 0 -0.022675297284171787 -0.035364550413151147 0 -0.022884447507191746 -0.035533434095216726 0 -0.022586451253557249 -0.035404604770902535 0 -0.022675297284171787 -0.035364550413151147 0 -0.022884447507191746 -0.035533434095216726 0 -0.022497607377916159 -0.035454895929540882 0 -0.02253805355657508 -0.035334754553041046 0 -0.022353851774055886 -0.035316558471426937 0 -0.020392480107878849 -0.038383741352314538 0 -0.019812920675112169 -0.040843606910130711 0 -0.022997082412894991 -0.035261752668589441 0 -0.022675297284171787 -0.035364550413151147 0 -0.02253805355657508 -0.035334754553041046 0 -0.022546897649077271 -0.035394753110487634 0 -0.022675297284171787 -0.035364550413151147 0 -0.02253805355657508 -0.035334754553041046 0 -0.022997082412894991 -0.035261752668589441 0 -0.02253805355657508 -0.035334754553041046 0 -0.022793752339768023 -0.03521705882324621 0 -0.02253805355657508 -0.035334754553041046 0 -0.022793752339768023 -0.03521705882324621 0 -0.022353851774055886 -0.035316558471426937 0 -0.023380019790608747 -0.035053798042349565 0 -0.022793752339768023 -0.03521705882324621 0 -0.022876104111727875 -0.03506577083674834 0 -0.022997082412894991 -0.035261752668589441 0 -0.023380019790608747 -0.035053798042349565 0 -0.022793752339768023 -0.03521705882324621 0 -0.022997082412894991 -0.035261752668589441 0 -0.023380019790608747 -0.035053798042349565 0 -0.023712644004529413 -0.035221498058025692 0 -0.022997082412894991 -0.035261752668589441 0 -0.023712644004529413 -0.035221498058025692 0 -0.022884447507191746 -0.035533434095216726 0 -0.025121025437231034 -0.034185638616790845 0 -0.025881432416007513 -0.034224160935639666 0 -0.023712644004529413 -0.035221498058025692 0 -0.022884447507191746 -0.035533434095216726 0 -0.024059598030840703 -0.035675051103563421 0 -0.02775906520113423 -0.032789330751274208 0 -0.027562371124072144 -0.032487060855805036 0 -0.027748353515313292 -0.032878172323180632 0 -0.02775906520113423 -0.032789330751274208 0 -0.027355077499091388 -0.032673145884557213 0 -0.027562371124072144 -0.032487060855805036 0 -0.026329744397278785 -0.034315345744012848 0 -0.025881432416007513 -0.034224160935639666 0 -0.025679058575383537 -0.035680253215479761 0 -0.024059598030840703 -0.035675051103563421 0 -0.024921021876878512 -0.035154939844882091 0 -0.025962454308439856 -0.035454652014299544 0 -0.025679058575383537 -0.035680253215479761 0 -0.024921021876878512 -0.035154939844882091 0 -0.025962454308439856 -0.035454652014299544 0 -0.024921021876878512 -0.035154939844882091 0 -0.026000224839041471 -0.034657443722953769 0 -0.024921021876878512 -0.035154939844882091 0 -0.024764875520560142 -0.034763046742968394 0 -0.026000224839041471 -0.034657443722953769 0 -0.023712644004529413 -0.035221498058025692 0 -0.024059598030840703 -0.035675051103563421 0 -0.024921021876878512 -0.035154939844882091 0 -0.023380019790608747 -0.035053798042349565 0 -0.023712644004529413 -0.035221498058025692 0 -0.024119844476687347 -0.034962561155205761 0 -0.023712644004529413 -0.035221498058025692 0 -0.024921021876878512 -0.035154939844882091 0 -0.024119844476687347 -0.034962561155205761 0 -0.023380019790608747 -0.035053798042349565 0 -0.024119844476687347 -0.034962561155205761 0 -0.024101066521501312 -0.034743205190388607 0 -0.026325122104676545 -0.034096012220760773 0 -0.027303738842629131 -0.033466802694596162 0 -0.024119844476687347 -0.034962561155205761 0 -0.024764875520560142 -0.034763046742968394 0 -0.024101066521501312 -0.034743205190388607 0 -0.024921021876878512 -0.035154939844882091 0 -0.024119844476687347 -0.034962561155205761 0 -0.024764875520560142 -0.034763046742968394 0 -0.026325122104676545 -0.034096012220760773 0 -0.026116731890270469 -0.0346741664601532 0 -0.027707294886258289 -0.032723868956628148 0 -0.027647494787201507 -0.03258277141020751 0 -0.026000224839041471 -0.034657443722953769 0 -0.027707294886258289 -0.032723868956628148 0 -0.028604664629765242 -0.033055221175535783 0 -0.030138427405094939 -0.033424212758442803 0 -0.027707294886258289 -0.032723868956628148 0 -0.027647494787201507 -0.03258277141020751 0 -0.028604664629765242 -0.033055221175535783 0 -0.027998760601097034 -0.032685357709817113 0 -0.027920326921259481 -0.031784772599798748 0 -0.027647494787201507 -0.03258277141020751 0 -0.027647494787201507 -0.03258277141020751 0 -0.028006089584533274 -0.032501127534865698 0 -0.028604664629765242 -0.033055221175535783 0 -0.027920326921259481 -0.031784772599798748 0 -0.027647494787201507 -0.03258277141020751 0 -0.028006089584533274 -0.032501127534865698 0 -0.027998760601097034 -0.032685357709817113 0 -0.027647494787201507 -0.03258277141020751 0 -0.02728297745206712 -0.034172651642744599 0 -0.027647494787201507 -0.03258277141020751 0 -0.02728297745206712 -0.034172651642744599 0 -0.026000224839041471 -0.034657443722953769 0 -0.02728297745206712 -0.034172651642744599 0 -0.026000224839041471 -0.034657443722953769 0 -0.026697977251277843 -0.035226790378392284 0 -0.02783973343140967 -0.035483796344377164 0 -0.02728297745206712 -0.034172651642744599 0 -0.026697977251277843 -0.035226790378392284 0 -0.025962454308439856 -0.035454652014299544 0 -0.026000224839041471 -0.034657443722953769 0 -0.026697977251277843 -0.035226790378392284 0 -0.027110556929173423 -0.035392219272086793 0 -0.026345266371121272 -0.035290704019609556 0 -0.026697977251277843 -0.035226790378392284 0 -0.028494909081522232 -0.04269080318902288 0 -0.029350642848983408 -0.03899545475086736 0 -0.028079400428215533 -0.038922818952767113 0 -0.025559229334538296 -0.039311026863612993 0 -0.028494909081522232 -0.04269080318902288 0 -0.028079400428215533 -0.038922818952767113 0 -0.032215984244302477 -0.043719127497956922 0 -0.034442416170301873 -0.040428209093072327 0 -0.034199180404018328 -0.047172556446565463 0 -0.029042299296595762 -0.041838728798514281 0 -0.03117211208262138 -0.040314838117495005 0 -0.028494909081522232 -0.04269080318902288 0 -0.029350642848983408 -0.03899545475086736 0 -0.030812758630757785 -0.037709881852883861 0 -0.028549538199831092 -0.044492695644147214 0 -0.029476284096075899 -0.048657663188807494 0 -0.028494909081522232 -0.04269080318902288 0 -0.032215984244302477 -0.043719127497956922 0 -0.033828185263512375 -0.0402503348759852 0 -0.028494909081522232 -0.04269080318902288 0 -0.033828185263512375 -0.0402503348759852 0 -0.033957593728582876 -0.039314875494363341 0 -0.032215984244302477 -0.043719127497956922 0 -0.033828185263512375 -0.0402503348759852 0 -0.034442416170301873 -0.040428209093072327 0 -0.033828185263512375 -0.0402503348759852 0 -0.034362652066240201 -0.040420903060590194 0 -0.033957593728582876 -0.039314875494363341 0 -0.029296182187526346 -0.044443351883759294 0 -0.028549538199831092 -0.044492695644147214 0 -0.029350642848983408 -0.03899545475086736 0 -0.029940298613503519 -0.037588543270039881 0 -0.030812758630757785 -0.037709881852883861 0 -0.029350642848983408 -0.03899545475086736 0 -0.029940298613503519 -0.037588543270039881 0 -0.029256143482310638 -0.037604902688461936 0 -0.029940298613503519 -0.037588543270039881 0 -0.029256143482310638 -0.037604902688461936 0 -0.029684544591586301 -0.036671742242800287 0 -0.030812758630757785 -0.037709881852883861 0 -0.030776887675477843 -0.03752578922115217 0 -0.030513055587806037 -0.036381878544483097 0 -0.030812758630757785 -0.037709881852883861 0 -0.030513055587806037 -0.036381878544483097 0 -0.030261279371720885 -0.037082477620441694 0 -0.028549538199831092 -0.044492695644147214 0 -0.029960029526101661 -0.041426644199713036 0 -0.034362652066240201 -0.040420903060590194 0 -0.033957593728582876 -0.039314875494363341 0 -0.034308963810377083 -0.039057975942772882 0 -0.03117211208262138 -0.040314838117495005 0 -0.029960029526101661 -0.041426644199713036 0 -0.029940298613503519 -0.037588543270039881 0 -0.030812758630757785 -0.037709881852883861 0 -0.030261279371720885 -0.037082477620441694 0 -0.030513055587806037 -0.036381878544483097 0 -0.029684544591586301 -0.036671742242800287 0 -0.029760203468488157 -0.035444161036100978 0 -0.030513055587806037 -0.036381878544483097 0 -0.030261279371720885 -0.037082477620441694 0 -0.029684544591586301 -0.036671742242800287 0 -0.029940298613503519 -0.037588543270039881 0 -0.030261279371720885 -0.037082477620441694 0 -0.029684544591586301 -0.036671742242800287 0 -0.028494767075428171 -0.036999834157220267 0 -0.027866180818600053 -0.035776975115178085 0 -0.028871851511834544 -0.035552663819444781 0 -0.029256143482310638 -0.037604902688461936 0 -0.029684544591586301 -0.036671742242800287 0 -0.028494767075428171 -0.036999834157220267 0 -0.029684544591586301 -0.036671742242800287 0 -0.028494767075428171 -0.036999834157220267 0 -0.028871851511834544 -0.035552663819444781 0 -0.029256143482310638 -0.037604902688461936 0 -0.028494767075428171 -0.036999834157220267 0 -0.028079400428215533 -0.038922818952767113 0 -0.029350642848983408 -0.03899545475086736 0 -0.029256143482310638 -0.037604902688461936 0 -0.028079400428215533 -0.038922818952767113 0 -0.025559229334538296 -0.039311026863612993 0 -0.026962996984445417 -0.037403202804397469 0 -0.028079400428215533 -0.038922818952767113 0 -0.028494767075428171 -0.036999834157220267 0 -0.026962996984445417 -0.037403202804397469 0 -0.028079400428215533 -0.038922818952767113 0 -0.026926333105864883 -0.035716462437459455 0 -0.026962996984445417 -0.037403202804397469 0 -0.027866180818600053 -0.035776975115178085 0 -0.028494767075428171 -0.036999834157220267 0 -0.026962996984445417 -0.037403202804397469 0 -0.027866180818600053 -0.035776975115178085 0 -0.027400110726430026 -0.034428793717532657 0 -0.026926333105864883 -0.035716462437459455 0 -0.027866180818600053 -0.035776975115178085 0 -0.027400110726430026 -0.034428793717532657 0 -0.027866180818600053 -0.035776975115178085 0 -0.028229199860378196 -0.034297246968349834 0 -0.027866180818600053 -0.035776975115178085 0 -0.028871851511834544 -0.035552663819444781 0 -0.028229199860378196 -0.034297246968349834 0 -0.028871851511834544 -0.035552663819444781 0 -0.028229199860378196 -0.034297246968349834 0 -0.028918184851828777 -0.03422216524619065 0 -0.028229199860378196 -0.034297246968349834 0 -0.028323986633066553 -0.033404540913036025 0 -0.028918184851828777 -0.03422216524619065 0 -0.027400110726430026 -0.034428793717532657 0 -0.028229199860378196 -0.034297246968349834 0 -0.027764844739876639 -0.033247455879109017 0 -0.028229199860378196 -0.034297246968349834 0 -0.027764844739876639 -0.033247455879109017 0 -0.028323986633066553 -0.033404540913036025 0 -0.027764844739876639 -0.033247455879109017 0 -0.028323986633066553 -0.033404540913036025 0 -0.028006089584533274 -0.032501127534865698 0 -0.028323986633066553 -0.033404540913036025 0 -0.028006089584533274 -0.032501127534865698 0 -0.028604664629765242 -0.033055221175535783 0 -0.028604664629765242 -0.033055221175535783 0 -0.029602110315277937 -0.034220758977295061 0 -0.030138427405094939 -0.033424212758442803 0 -0.028604664629765242 -0.033055221175535783 0 -0.029602110315277937 -0.034220758977295061 0 -0.028918184851828777 -0.03422216524619065 0 -0.028323986633066553 -0.033404540913036025 0 -0.028604664629765242 -0.033055221175535783 0 -0.028918184851828777 -0.03422216524619065 0 -0.029602110315277937 -0.034220758977295061 0 -0.029760203468488157 -0.035444161036100978 0 -0.030609798561405513 -0.035195954034619718 0 -0.029602110315277937 -0.034220758977295061 0 -0.028918184851828777 -0.03422216524619065 0 -0.029760203468488157 -0.035444161036100978 0 -0.029684544591586301 -0.036671742242800287 0 -0.028871851511834544 -0.035552663819444781 0 -0.029760203468488157 -0.035444161036100978 0 -0.028871851511834544 -0.035552663819444781 0 -0.028918184851828777 -0.03422216524619065 0 -0.029760203468488157 -0.035444161036100978 0 -0.030513055587806037 -0.036381878544483097 0 -0.029760203468488157 -0.035444161036100978 0 -0.030609798561405513 -0.035195954034619718 0 -0.027303738842629131 -0.033466802694596162 0 -0.024793900300324825 -0.038980152919546068 0 -0.029602110315277937 -0.034220758977295061 0 -0.030609798561405513 -0.035195954034619718 0 -0.030138427405094939 -0.033424212758442803 0 -0.030609798561405513 -0.035195954034619718 0 -0.030138427405094939 -0.033424212758442803 0 -0.031810852621919634 -0.035744850812307195 0 -0.030513055587806037 -0.036381878544483097 0 -0.030609798561405513 -0.035195954034619718 0 -0.031810852621919634 -0.035744850812307195 0 -0.023380019790608747 -0.035053798042349565 0 -0.024101066521501312 -0.034743205190388607 0 -0.022921897892394891 -0.034743853350931268 0 -0.024101066521501312 -0.034743205190388607 0 -0.023709424408312196 -0.034116765448569737 0 -0.022921897892394891 -0.034743853350931268 0 -0.020119189843606472 -0.044585568757897424 0 -0.019179376580737286 -0.043751493238054238 0 -0.019061185286849521 -0.045510259604464386 0 -0.024793900300324825 -0.038980152919546068 0 -0.020515422340333486 -0.0402869731998644 0 -0.025286947583034885 -0.043578510416333677 0 -0.025187587213116237 -0.043869960975050706 0 -0.025401785625355541 -0.044115325764400727 0 -0.020119189843606472 -0.044585568757897424 0 -0.019179376580737286 -0.043751493238054238 0 -0.019482148766277033 -0.042977375684615932 0 -0.024793900300324825 -0.038980152919546068 0 -0.020263166904621141 -0.050089436440146379 0 -0.029960029526101661 -0.041426644199713036 0 -0.024793900300324825 -0.038980152919546068 0 -0.024990764281614758 -0.043828490510275105 0 -0.025286947583034885 -0.043578510416333677 0 -0.025187587213116237 -0.043869960975050706 0 -0.030776887675477843 -0.03752578922115217 0 -0.030513055587806037 -0.036381878544483097 0 -0.031810852621919634 -0.035744850812307195 0 -0.024994862677905676 -0.043921668915747329 0 -0.024990764281614758 -0.043828490510275105 0 -0.025187587213116237 -0.043869960975050706 0 -0.024339632314572469 -0.049584008169133546 0 -0.025181876768552845 -0.050495028475512502 0 -0.024337328270787294 -0.051063842156133396 0 -0.024994862677905676 -0.043921668915747329 0 -0.025187587213116237 -0.043869960975050706 0 -0.025401785625355541 -0.044115325764400727 0 -0.024339632314572469 -0.049584008169133546 0 -0.025181876768552845 -0.050495028475512502 0 -0.025982313196572175 -0.050173326240370179 0 -0.028549538199831092 -0.044492695644147214 0 -0.020263166904621141 -0.050089436440146379 0 -0.025181876768552845 -0.050495028475512502 0 -0.026011541246479575 -0.050267214865195364 0 -0.025982313196572175 -0.050173326240370179 0 -0.021377557101885582 -0.053402234426303166 0 -0.020263166904621141 -0.050089436440146379 0 -0.020820143304525841 -0.059418764372165964 0 -0.020859660938334548 -0.059547465290665923 0 -0.01890621434182695 -0.058797057680473261 0 -0.011605901274882043 -0.052455010685133405 0 -0.013523314639399741 -0.051954546897507517 0 -0.01403993128952327 -0.053343319941792297 0 -0.011605901274882043 -0.052455010685133405 0 -0.013523314639399741 -0.051954546897507517 0 -0.013351666921621099 -0.04999637687266828 0 -0.020263166904621141 -0.050089436440146379 0 -0.015874926348734695 -0.056545713353358965 0 -0.014998675202249699 -0.05199098705931629 0 -0.015995045754007356 -0.054238096062709185 0 -0.01403993128952327 -0.053343319941792297 0 -0.013523314639399741 -0.051954546897507517 0 -0.014998675202249699 -0.05199098705931629 0 -0.01403993128952327 -0.053343319941792297 0 -0.013351666921621099 -0.04999637687266828 0 -0.016724199727672449 -0.048121015554267177 0 -0.0162603042944812 -0.050388475909658337 0 -0.013523314639399741 -0.051954546897507517 0 -0.014998675202249699 -0.05199098705931629 0 -0.013351666921621099 -0.04999637687266828 0 -0.014998675202249699 -0.05199098705931629 0 -0.013351666921621099 -0.04999637687266828 0 -0.0162603042944812 -0.050388475909658337 0 -0.019179376580737286 -0.043751493238054238 0 -0.018323304983018388 -0.044146437291149331 0 -0.019061185286849521 -0.045510259604464386 0 -0.019179376580737286 -0.043751493238054238 0 -0.019482148766277033 -0.042977375684615932 0 -0.018323304983018388 -0.044146437291149331 0 -0.020263166904621141 -0.050089436440146379 0 -0.015183825462939756 -0.046848031733001658 0 -0.018323304983018388 -0.044146437291149331 0 -0.019061185286849521 -0.045510259604464386 0 -0.016498430066267406 -0.046290395404879461 0 -0.023380019790608747 -0.035053798042349565 0 -0.022921897892394891 -0.034743853350931268 0 -0.022876104111727875 -0.03506577083674834 0 -0.020515422340333486 -0.0402869731998644 0 -0.019812920675112169 -0.040843606910130711 0 -0.022921897892394891 -0.034743853350931268 0 -0.022876104111727875 -0.03506577083674834 0 -0.022353851774055886 -0.035316558471426937 0 -0.022793752339768023 -0.03521705882324621 0 -0.022876104111727875 -0.03506577083674834 0 -0.022353851774055886 -0.035316558471426937 0 -0.019061185286849521 -0.045510259604464386 0 -0.017203669741662826 -0.046168281024838109 0 -0.016498430066267406 -0.046290395404879461 0 -0.017203669741662826 -0.046168281024838109 0 -0.017412368832329422 -0.045667425592989419 0 -0.017241894205672514 -0.045987731896803462 0 -0.017203669741662826 -0.046168281024838109 0 -0.016498430066267406 -0.046290395404879461 0 -0.017241894205672514 -0.045987731896803462 0 -0.013351666921621099 -0.04999637687266828 0 -0.016498430066267406 -0.046290395404879461 0 -0.016724199727672449 -0.048121015554267177 0 -0.015183825462939756 -0.046848031733001658 0 -0.016624063104853912 -0.046369659055915009 0 -0.016724199727672449 -0.048121015554267177 0 -0.017431969301998047 -0.049157179352877771 0 -0.01779681181626748 -0.047362813729637396 0 -0.016498430066267406 -0.046290395404879461 0 -0.016724199727672449 -0.048121015554267177 0 -0.017205310797870431 -0.046613968268366966 0 -0.016724199727672449 -0.048121015554267177 0 -0.01779681181626748 -0.047362813729637396 0 -0.017205310797870431 -0.046613968268366966 0 -0.016498430066267406 -0.046290395404879461 0 -0.017205310797870431 -0.046613968268366966 0 -0.017241894205672514 -0.045987731896803462 0 -0.017205310797870431 -0.046613968268366966 0 -0.017824446844405907 -0.046197571980817718 0 -0.017241894205672514 -0.045987731896803462 0 -0.01779681181626748 -0.047362813729637396 0 -0.017824446844405907 -0.046197571980817718 0 -0.018818708076847615 -0.045900166008619459 0 -0.01779681181626748 -0.047362813729637396 0 -0.017205310797870431 -0.046613968268366966 0 -0.017824446844405907 -0.046197571980817718 0 -0.017824446844405907 -0.046197571980817718 0 -0.017772831259556074 -0.04566930503753238 0 -0.018818708076847615 -0.045900166008619459 0 -0.017824446844405907 -0.046197571980817718 0 -0.017772831259556074 -0.04566930503753238 0 -0.017241894205672514 -0.045987731896803462 0 -0.017772831259556074 -0.04566930503753238 0 -0.017412368832329422 -0.045667425592989419 0 -0.017241894205672514 -0.045987731896803462 0 -0.020428829754411761 -0.041683799495073247 0 -0.02152785398961567 -0.043033316724386719 0 -0.025127946743390774 -0.033033281630299421 0 -0.024777186231882253 -0.033608741890419402 0 -0.025272995588450781 -0.033678857825321158 0 -0.01779681181626748 -0.047362813729637396 0 -0.018818708076847615 -0.045900166008619459 0 -0.01898730277861238 -0.049221464921882827 0 -0.020428829754411761 -0.041683799495073247 0 -0.017696503954955183 -0.052189133421478531 0 -0.016747029849470019 -0.050524380294576766 0 -0.01699618321211762 -0.052315660679553608 0 -0.01768865398532907 -0.051777272570910152 0 -0.017431969301998047 -0.049157179352877771 0 -0.01779681181626748 -0.047362813729637396 0 -0.01898730277861238 -0.049221464921882827 0 -0.017696503954955183 -0.052189133421478531 0 -0.017632628593485359 -0.052371393435988359 0 -0.01699618321211762 -0.052315660679553608 0 -0.017489262980979692 -0.053266408586429323 0 -0.017595703426293564 -0.052776769455763033 0 -0.01898730277861238 -0.049221464921882827 0 -0.017383085514929158 -0.050943930204924326 0 -0.017489262980979692 -0.053266408586429323 0 -0.017431969301998047 -0.049157179352877771 0 -0.01898730277861238 -0.049221464921882827 0 -0.017383085514929158 -0.050943930204924326 0 -0.017431969301998047 -0.049157179352877771 0 -0.017383085514929158 -0.050943930204924326 0 -0.0162603042944812 -0.050388475909658337 0 -0.016724199727672449 -0.048121015554267177 0 -0.017431969301998047 -0.049157179352877771 0 -0.0162603042944812 -0.050388475909658337 0 -0.017383085514929158 -0.050943930204924326 0 -0.0162603042944812 -0.050388475909658337 0 -0.016616797306265953 -0.052351690291181273 0 -0.014998675202249699 -0.05199098705931629 0 -0.0162603042944812 -0.050388475909658337 0 -0.016616797306265953 -0.052351690291181273 0 -0.014998675202249699 -0.05199098705931629 0 -0.016616797306265953 -0.052351690291181273 0 -0.015995045754007356 -0.054238096062709185 0 -0.016616797306265953 -0.052351690291181273 0 -0.017489262980979692 -0.053266408586429323 0 -0.015995045754007356 -0.054238096062709185 0 -0.017383085514929158 -0.050943930204924326 0 -0.016616797306265953 -0.052351690291181273 0 -0.017489262980979692 -0.053266408586429323 0 -0.017489262980979692 -0.053266408586429323 0 -0.016715390720018396 -0.055462137258726937 0 -0.015995045754007356 -0.054238096062709185 0 -0.016807302274687456 -0.055593372185841657 0 -0.016830930237364986 -0.055823358889899019 0 -0.016715390720018396 -0.055462137258726937 0 -0.017239704772266239 -0.057422020964839872 0 -0.017312914538739257 -0.056732152113597653 0 -0.016715390720018396 -0.055462137258726937 0 -0.017312914538739257 -0.056732152113597653 0 -0.016502353819571464 -0.05618034611942755 0 -0.016715390720018396 -0.055462137258726937 0 -0.016001774780658281 -0.055883666478991283 0 -0.016502353819571464 -0.05618034611942755 0 -0.016001774780658281 -0.055883666478991283 0 -0.014178508647460732 -0.055001115407978876 0 -0.016502353819571464 -0.05618034611942755 0 -0.014178508647460732 -0.055001115407978876 0 -0.016502353819571464 -0.05618034611942755 0 -0.017402342459410296 -0.054998956759825829 0 -0.017312914538739257 -0.056732152113597653 0 -0.016502353819571464 -0.05618034611942755 0 -0.018535484604390962 -0.056532945954179188 0 -0.016502353819571464 -0.05618034611942755 0 -0.018535484604390962 -0.056532945954179188 0 -0.017402342459410296 -0.054998956759825829 0 -0.018535484604390962 -0.056532945954179188 0 -0.017402342459410296 -0.054998956759825829 0 -0.020097893168933699 -0.056143387600933702 0 -0.017402342459410296 -0.054998956759825829 0 -0.020097893168933699 -0.056143387600933702 0 -0.020634390017659078 -0.054999583102358349 0 -0.018535484604390962 -0.056532945954179188 0 -0.020097893168933699 -0.056143387600933702 0 -0.020946894553826353 -0.057285764307532842 0 -0.018839795801838512 -0.057575624704661071 0 -0.02051973729840436 -0.058494193615208814 0 -0.020946894553826353 -0.057285764307532842 0 -0.018535484604390962 -0.056532945954179188 0 -0.018839795801838512 -0.057575624704661071 0 -0.020946894553826353 -0.057285764307532842 0 -0.017239704772266239 -0.057422020964839872 0 -0.017312914538739257 -0.056732152113597653 0 -0.018839795801838512 -0.057575624704661071 0 -0.017312914538739257 -0.056732152113597653 0 -0.018535484604390962 -0.056532945954179188 0 -0.018839795801838512 -0.057575624704661071 0 -0.017239704772266239 -0.057422020964839872 0 -0.018839795801838512 -0.057575624704661071 0 -0.01890621434182695 -0.058797057680473261 0 -0.016830930237364986 -0.055823358889899019 0 -0.015874926348734695 -0.056545713353358965 0 -0.020820143304525841 -0.059418764372165964 0 -0.01890621434182695 -0.058797057680473261 0 -0.02051973729840436 -0.058494193615208814 0 -0.018839795801838512 -0.057575624704661071 0 -0.01890621434182695 -0.058797057680473261 0 -0.02051973729840436 -0.058494193615208814 0 -0.021377557101885582 -0.053402234426303166 0 -0.023532825578875254 -0.055033882140741536 0 -0.020847380653712441 -0.059456006240951563 0 -0.02051973729840436 -0.058494193615208814 0 -0.021990852412785734 -0.058293687163386704 0 -0.025181876768552845 -0.050495028475512502 0 -0.026011541246479575 -0.050267214865195364 0 -0.025215600348508897 -0.051403731795688183 0 -0.021377557101885582 -0.053402234426303166 0 -0.021408822585896912 -0.059771165422485763 0 -0.025181876768552845 -0.050495028475512502 0 -0.025215600348508897 -0.051403731795688183 0 -0.024337328270787294 -0.051063842156133396 0 -0.023532825578875254 -0.055033882140741536 0 -0.026061963174433385 -0.055163123079421089 0 -0.025215600348508897 -0.051403731795688183 0 -0.024369016464161397 -0.05260741205433489 0 -0.024337328270787294 -0.051063842156133396 0 -0.021990852412785734 -0.058293687163386704 0 -0.020946894553826353 -0.057285764307532842 0 -0.023317250653581555 -0.057237378541509162 0 -0.02051973729840436 -0.058494193615208814 0 -0.021990852412785734 -0.058293687163386704 0 -0.020946894553826353 -0.057285764307532842 0 -0.020097893168933699 -0.056143387600933702 0 -0.020946894553826353 -0.057285764307532842 0 -0.022157462637715491 -0.056058926788221365 0 -0.020634390017659078 -0.054999583102358349 0 -0.022157462637715491 -0.056058926788221365 0 -0.023864188221739767 -0.054999222604719511 0 -0.020097893168933699 -0.056143387600933702 0 -0.020634390017659078 -0.054999583102358349 0 -0.022157462637715491 -0.056058926788221365 0 -0.022157462637715491 -0.056058926788221365 0 -0.023864188221739767 -0.054999222604719511 0 -0.024208882736982022 -0.055182897249303586 0 -0.022157462637715491 -0.056058926788221365 0 -0.024208882736982022 -0.055182897249303586 0 -0.023317250653581555 -0.057237378541509162 0 -0.020946894553826353 -0.057285764307532842 0 -0.022157462637715491 -0.056058926788221365 0 -0.023317250653581555 -0.057237378541509162 0 -0.028269674266561153 -0.055820478490574185 0 -0.026061963174433385 -0.055163123079421089 0 -0.023565632652464828 -0.056621378113319604 0 -0.026061963174433385 -0.055163123079421089 0 -0.027186187419882851 -0.055708372743144989 0 -0.028436807588020547 -0.053469461692358465 0 -0.0329585109135659 -0.052804147388730759 0 -0.024208882736982022 -0.055182897249303586 0 -0.027186187419882851 -0.055708372743144989 0 -0.024407006948654143 -0.059404511438652476 0 -0.023864188221739767 -0.054999222604719511 0 -0.024208882736982022 -0.055182897249303586 0 -0.027101512526696778 -0.054999478976675877 0 -0.024208882736982022 -0.055182897249303586 0 -0.027186187419882851 -0.055708372743144989 0 -0.027101512526696778 -0.054999478976675877 0 -0.027951020819527859 -0.054934591345923052 0 -0.027186187419882851 -0.055708372743144989 0 -0.027101512526696778 -0.054999478976675877 0 -0.027951020819527859 -0.054934591345923052 0 -0.027186187419882851 -0.055708372743144989 0 -0.028436807588020547 -0.053469461692358465 0 -0.027979983219306358 -0.052069343534329411 0 -0.028436807588020547 -0.053469461692358465 0 -0.029364624611212965 -0.049360116715219143 0 -0.028436807588020547 -0.053469461692358465 0 -0.0329585109135659 -0.052804147388730759 0 -0.029364624611212965 -0.049360116715219143 0 -0.026061963174433385 -0.055163123079421089 0 -0.029476284096075899 -0.048657663188807494 0 -0.0329585109135659 -0.052804147388730759 0 -0.034199180404018328 -0.047172556446565463 0 -0.029364624611212965 -0.049360116715219143 0 -0.032215984244302477 -0.043719127497956922 0 -0.034199180404018328 -0.047172556446565463 0 -0.029364624611212965 -0.049360116715219143 0 -0.024896601151780051 -0.043762586319399222 0 -0.028494909081522232 -0.04269080318902288 0 -0.029364624611212965 -0.049360116715219143 0 -0.028494909081522232 -0.04269080318902288 0 -0.032215984244302477 -0.043719127497956922 0 -0.029364624611212965 -0.049360116715219143 0 -0.022861427213183905 -0.036863216845761569 0 -0.019204054899204286 -0.035628783220036382 0 -0.020216826315980704 -0.039185733290042643 0 -0.019204054899204286 -0.035628783220036382 0 -0.017679878408619575 -0.038964913046311576 0 -0.020216826315980704 -0.039185733290042643 0 -0.024247160232810889 -0.035626848324685059 0 -0.02332476976800426 -0.036980655660304632 0 -0.024247160232810889 -0.035626848324685059 0 -0.018689760647665237 -0.035941318919778836 0 -0.026149172854423502 -0.034933933916870073 0 -0.026613703927182784 -0.034282908603770347 0 -0.025999809994986002 -0.034426635558611821 0 -0.023380959649464555 -0.035463829691665873 0 -0.023815218285766476 -0.035058423380332777 0 -0.022735809858696554 -0.034688737886595003 0 -0.024247160232810889 -0.035626848324685059 0 -0.024155369107556023 -0.035587735473746537 0 -0.023380959649464555 -0.035463829691665873 0 -0.022735809858696554 -0.034688737886595003 0 -0.020771707853735378 -0.034878329455100346 0 -0.023815218285766476 -0.035058423380332777 0 -0.022735809858696554 -0.034688737886595003 0 -0.023658505147588452 -0.034415350045330292 0 -0.022735809858696554 -0.034688737886595003 0 -0.023658505147588452 -0.034415350045330292 0 -0.022634811434708704 -0.033762416849343349 0 -0.023658505147588452 -0.034415350045330292 0 -0.022634811434708704 -0.033762416849343349 0 -0.024386354266688243 -0.034004821768901509 0 -0.022735809858696554 -0.034688737886595003 0 -0.022033804914744951 -0.034096404921578657 0 -0.022634811434708704 -0.033762416849343349 0 -0.018192552739464303 -0.037029232989365633 0 -0.020958500049394667 -0.035930779354832444 0 -0.022735809858696554 -0.034688737886595003 0 -0.022033804914744951 -0.034096404921578657 0 -0.020771707853735378 -0.034878329455100346 0 -0.018329185202258531 -0.03611327875216875 0 -0.016818835257806568 -0.036194621925358439 0 -0.015921926572348349 -0.035614942504315621 0 -0.018192552739464303 -0.037029232989365633 0 -0.013736030264575455 -0.039180636536914573 0 -0.018329185202258531 -0.03611327875216875 0 -0.017239636219158017 -0.036792663121182387 0 -0.016818835257806568 -0.036194621925358439 0 -0.018192552739464303 -0.037029232989365633 0 -0.018689760647665237 -0.035941318919778836 0 -0.017239636219158017 -0.036792663121182387 0 -0.016818835257806568 -0.036194621925358439 0 -0.015796946552984449 -0.036288755757104843 0 -0.016818835257806568 -0.036194621925358439 0 -0.015796946552984449 -0.036288755757104843 0 -0.015921926572348349 -0.035614942504315621 0 -0.018689760647665237 -0.035941318919778836 0 -0.015694708525429438 -0.036213153541322637 0 -0.017517218506729833 -0.036782644771208739 0 -0.015990537502589663 -0.036249853965304807 0 -0.015819363656780668 -0.037096940644009237 0 -0.015990537502589663 -0.036249853965304807 0 -0.015220467744378506 -0.036654093092868316 0 -0.015819363656780668 -0.037096940644009237 0 -0.015990537502589663 -0.036249853965304807 0 -0.01432855540590766 -0.035741467615248726 0 -0.015220467744378506 -0.036654093092868316 0 -0.015694708525429438 -0.036213153541322637 0 -0.014571835306118018 -0.035820795226988812 0 -0.015796946552984449 -0.036288755757104843 0 -0.01432855540590766 -0.035741467615248726 0 -0.015921926572348349 -0.035614942504315621 0 -0.015220467744378506 -0.036654093092868316 0 -0.014592110945005368 -0.036842830602919902 0 -0.014901856156184664 -0.037559001863355042 0 -0.01432855540590766 -0.035741467615248726 0 -0.015220467744378506 -0.036654093092868316 0 -0.014592110945005368 -0.036842830602919902 0 -0.014508793522022754 -0.037023842743686329 0 -0.013119174812665052 -0.038082597649451391 0 -0.014592110945005368 -0.036842830602919902 0 -0.014901856156184664 -0.037559001863355042 0 -0.013701871042771025 -0.038404440777594459 0 -0.014901856156184664 -0.037559001863355042 0 -0.015300477562178429 -0.038267794727861966 0 -0.015819363656780668 -0.037096940644009237 0 -0.015220467744378506 -0.036654093092868316 0 -0.014901856156184664 -0.037559001863355042 0 -0.015819363656780668 -0.037096940644009237 0 -0.014901856156184664 -0.037559001863355042 0 -0.015300477562178429 -0.038267794727861966 0 -0.013701871042771025 -0.038404440777594459 0 -0.017517218506729833 -0.036782644771208739 0 -0.015300477562178429 -0.038267794727861966 0 -0.015819363656780668 -0.037096940644009237 0 -0.018689760647665237 -0.035941318919778836 0 -0.015276197090992516 -0.038282088561817064 0 -0.019204054899204286 -0.035628783220036382 0 -0.015300477562178429 -0.038267794727861966 0 -0.017679878408619575 -0.038964913046311576 0 -0.017679878408619575 -0.038964913046311576 0 -0.015376412364628885 -0.03981295488261135 0 -0.017615672760134947 -0.041408689910158482 0 -0.015300477562178429 -0.038267794727861966 0 -0.017679878408619575 -0.038964913046311576 0 -0.015376412364628885 -0.03981295488261135 0 -0.01606349136165772 -0.037630977346384389 0 -0.02223749785941442 -0.035924666242316362 0 -0.017056019120617126 -0.035655505255627523 0 -0.016243349380188267 -0.036498770740432021 0 -0.015883717418436204 -0.035504400361344099 0 -0.017056019120617126 -0.035655505255627523 0 -0.016113863288245739 -0.035025442952303136 0 -0.015883717418436204 -0.035504400361344099 0 -0.015300477562178429 -0.038267794727861966 0 -0.015376412364628885 -0.03981295488261135 0 -0.013701871042771025 -0.038404440777594459 0 -0.01606349136165772 -0.037630977346384389 0 -0.013119174812665052 -0.038082597649451391 0 -0.017056019120617126 -0.035655505255627523 0 -0.017996115222875655 -0.03629541258236503 0 -0.016243349380188267 -0.036498770740432021 0 -0.016597503542589809 -0.037497213509211785 0 -0.017996115222875655 -0.03629541258236503 0 -0.016243349380188267 -0.036498770740432021 0 -0.018490075852991766 -0.034936580496448794 0 -0.012779945397045887 -0.036460792008614205 0 -0.018490075852991766 -0.034936580496448794 0 -0.02223749785941442 -0.035924666242316362 0 -0.026890512543037984 -0.033523264023084982 0 -0.027130472958940308 -0.033429415413812731 0 -0.026844281104783478 -0.033796584824135244 0 -0.026802542065326108 -0.033760399756903009 0 -0.026844281104783478 -0.033796584824135244 0 -0.026805853003040756 -0.033649796683925468 0 -0.024036200678939284 -0.036016209851900273 0 -0.02223749785941442 -0.035924666242316362 0 -0.026890512543037984 -0.033523264023084982 0 -0.026844281104783478 -0.033796584824135244 0 -0.026805853003040756 -0.033649796683925468 0 -0.026742945255033231 -0.033508381064401495 0 -0.026805853003040756 -0.033649796683925468 0 -0.026653378367649638 -0.033687042611619762 0 -0.026556301122216016 -0.033482885355007153 0 -0.026742945255033231 -0.033508381064401495 0 -0.026653378367649638 -0.033687042611619762 0 -0.026802542065326108 -0.033760399756903009 0 -0.026805853003040756 -0.033649796683925468 0 -0.026653378367649638 -0.033687042611619762 0 -0.026556301122216016 -0.033482885355007153 0 -0.026653378367649638 -0.033687042611619762 0 -0.026538010682361446 -0.033848544666957241 0 -0.026802542065326108 -0.033760399756903009 0 -0.026653378367649638 -0.033687042611619762 0 -0.026538010682361446 -0.033848544666957241 0 -0.026802542065326108 -0.033760399756903009 0 -0.026886797376642201 -0.033839526148000273 0 -0.026613703927182784 -0.034282908603770347 0 -0.026802542065326108 -0.033760399756903009 0 -0.026538010682361446 -0.033848544666957241 0 -0.026613703927182784 -0.034282908603770347 0 -0.017679878408619575 -0.038964913046311576 0 -0.017615672760134947 -0.041408689910158482 0 -0.020216826315980704 -0.039185733290042643 0 -0.02223749785941442 -0.035924666242316362 0 -0.02332476976800426 -0.036980655660304632 0 -0.026538010682361446 -0.033848544666957241 0 -0.026613703927182784 -0.034282908603770347 0 -0.026091923924548545 -0.033977998011652362 0 -0.026613703927182784 -0.034282908603770347 0 -0.025999809994986002 -0.034426635558611821 0 -0.026091923924548545 -0.033977998011652362 0 -0.026538010682361446 -0.033848544666957241 0 -0.026292957773358574 -0.033583544316617184 0 -0.026091923924548545 -0.033977998011652362 0 -0.026556301122216016 -0.033482885355007153 0 -0.026538010682361446 -0.033848544666957241 0 -0.026292957773358574 -0.033583544316617184 0 -0.026049189560215406 -0.033415343578513827 0 -0.026292957773358574 -0.033583544316617184 0 -0.026091923924548545 -0.033977998011652362 0 -0.026049189560215406 -0.033415343578513827 0 -0.025792917580594387 -0.033863839608168307 0 -0.026091923924548545 -0.033977998011652362 0 -0.025828144055718164 -0.033410829642086012 0 -0.026049189560215406 -0.033415343578513827 0 -0.025792917580594387 -0.033863839608168307 0 -0.025792917580594387 -0.033863839608168307 0 -0.025597366389190496 -0.034333316322014966 0 -0.025717025397710175 -0.034261087796416234 0 -0.025792917580594387 -0.033863839608168307 0 -0.025597366389190496 -0.034333316322014966 0 -0.025597394974920182 -0.03394889607800896 0 -0.025597366389190496 -0.034333316322014966 0 -0.025717025397710175 -0.034261087796416234 0 -0.02533822521849478 -0.034818033620162232 0 -0.025717025397710175 -0.034261087796416234 0 -0.025999809994986002 -0.034426635558611821 0 -0.02533822521849478 -0.034818033620162232 0 -0.025792917580594387 -0.033863839608168307 0 -0.025717025397710175 -0.034261087796416234 0 -0.026091923924548545 -0.033977998011652362 0 -0.025717025397710175 -0.034261087796416234 0 -0.025999809994986002 -0.034426635558611821 0 -0.026091923924548545 -0.033977998011652362 0 -0.025272995588450781 -0.033678857825321158 0 -0.025597394974920182 -0.03394889607800896 0 -0.025263650274929297 -0.034141486305089765 0 -0.024777186231882253 -0.033608741890419402 0 -0.025272995588450781 -0.033678857825321158 0 -0.025263650274929297 -0.034141486305089765 0 -0.025272995588450781 -0.033678857825321158 0 -0.025661136451861147 -0.033318870361919585 0 -0.025597394974920182 -0.03394889607800896 0 -0.025828144055718164 -0.033410829642086012 0 -0.025661136451861147 -0.033318870361919585 0 -0.025597394974920182 -0.03394889607800896 0 -0.025828144055718164 -0.033410829642086012 0 -0.025792917580594387 -0.033863839608168307 0 -0.025597394974920182 -0.03394889607800896 0 -0.025597394974920182 -0.03394889607800896 0 -0.025263650274929297 -0.034141486305089765 0 -0.025524652576506119 -0.034567095210805247 0 -0.025597366389190496 -0.034333316322014966 0 -0.025597394974920182 -0.03394889607800896 0 -0.025524652576506119 -0.034567095210805247 0 -0.01699618321211762 -0.052315660679553608 0 -0.01768865398532907 -0.051777272570910152 0 -0.017595703426293564 -0.052776769455763033 0 -0.02152785398961567 -0.043033316724386719 0 -0.021780263498741532 -0.043625228595490055 0 -0.01768865398532907 -0.051777272570910152 0 -0.017595703426293564 -0.052776769455763033 0 -0.018171785579813925 -0.052748828725431414 0 -0.017595703426293564 -0.052776769455763033 0 -0.018171785579813925 -0.052748828725431414 0 -0.017825444839432554 -0.053368763673620964 0 -0.021780263498741532 -0.043625228595490055 0 -0.022515930679282307 -0.043618721708595348 0 -0.017825444839432554 -0.053368763673620964 0 -0.018584784751690502 -0.053640395853727783 0 -0.017728994040886358 -0.054232856750704758 0 -0.018171785579813925 -0.052748828725431414 0 -0.017825444839432554 -0.053368763673620964 0 -0.018584784751690502 -0.053640395853727783 0 -0.017489262980979692 -0.053266408586429323 0 -0.017825444839432554 -0.053368763673620964 0 -0.017728994040886358 -0.054232856750704758 0 -0.017489262980979692 -0.053266408586429323 0 -0.017595703426293564 -0.052776769455763033 0 -0.017825444839432554 -0.053368763673620964 0 -0.023815218285766476 -0.035058423380332777 0 -0.02533822521849478 -0.034818033620162232 0 -0.024924516262753688 -0.034575319554446808 0 -0.023556787009667558 -0.035315548638296924 0 -0.023815218285766476 -0.035058423380332777 0 -0.02533822521849478 -0.034818033620162232 0 -0.024247160232810889 -0.035626848324685059 0 -0.025239383182913154 -0.034985649901418545 0 -0.026149172854423502 -0.034933933916870073 0 -0.025999809994986002 -0.034426635558611821 0 -0.02533822521849478 -0.034818033620162232 0 -0.025524652576506119 -0.034567095210805247 0 -0.025504158088149393 -0.034589810146452619 0 -0.025553979499083574 -0.034269527557252717 0 -0.025597366389190496 -0.034333316322014966 0 -0.02533822521849478 -0.034818033620162232 0 -0.025504158088149393 -0.034589810146452619 0 -0.025597366389190496 -0.034333316322014966 0 -0.025524652576506119 -0.034567095210805247 0 -0.025504158088149393 -0.034589810146452619 0 -0.02533822521849478 -0.034818033620162232 0 -0.025504158088149393 -0.034589810146452619 0 -0.024924516262753688 -0.034575319554446808 0 -0.025504158088149393 -0.034589810146452619 0 -0.025553979499083574 -0.034269527557252717 0 -0.024924516262753688 -0.034575319554446808 0 -0.025553979499083574 -0.034269527557252717 0 -0.024924516262753688 -0.034575319554446808 0 -0.024386354266688243 -0.034004821768901509 0 -0.025553979499083574 -0.034269527557252717 0 -0.024386354266688243 -0.034004821768901509 0 -0.024542419739704224 -0.032856188483854402 0 -0.023658505147588452 -0.034415350045330292 0 -0.024924516262753688 -0.034575319554446808 0 -0.024386354266688243 -0.034004821768901509 0 -0.023815218285766476 -0.035058423380332777 0 -0.023658505147588452 -0.034415350045330292 0 -0.024924516262753688 -0.034575319554446808 0 -0.020958500049394667 -0.035930779354832444 0 -0.01671673518893637 -0.047767264766589698 0 -0.017959173656976263 -0.041100168844886917 0 -0.016652184426134278 -0.039596235451096203 0 -0.016286194582274541 -0.040939812588859738 0 -0.022634811434708704 -0.033762416849343349 0 -0.024386354266688243 -0.034004821768901509 0 -0.024542419739704224 -0.032856188483854402 0 -0.018584784751690502 -0.053640395853727783 0 -0.019172645627137917 -0.054550850207578438 0 -0.018253633255606225 -0.054468685413552653 0 -0.022515930679282307 -0.043618721708595348 0 -0.01671673518893637 -0.047767264766589698 0 -0.019172645627137917 -0.054550850207578438 0 -0.018253633255606225 -0.054468685413552653 0 -0.018328607559583134 -0.05499799668979409 0 -0.019172645627137917 -0.054550850207578438 0 -0.018328607559583134 -0.05499799668979409 0 -0.017956639019288526 -0.055434949240393924 0 -0.0083605183900845054 -0.059911837554482046 0 -0.008405968038644426 -0.058696440595978408 0 -0.010526495296650923 -0.058662186574754666 0 -0.008405968038644426 -0.058696440595978408 0 -0.010526495296650923 -0.058662186574754666 0 -0.0088483666384551983 -0.057744400539016402 0 -0.01671673518893637 -0.047767264766589698 0 -0.01468659411538868 -0.057594537927607915 0 -0.018063001849669108 -0.054651159116238801 0 -0.01468659411538868 -0.057594537927607915 0 -0.008405968038644426 -0.058696440595978408 0 -0.0076476119837806042 -0.057913594227243348 0 -0.0088483666384551983 -0.057744400539016402 0 -0.008405968038644426 -0.058696440595978408 0 -0.0076476119837806042 -0.057913594227243348 0 -0.0070092832350708663 -0.058789415613191509 0 -0.0083605183900845054 -0.059911837554482046 0 -0.008405968038644426 -0.058696440595978408 0 -0.0070092832350708663 -0.058789415613191509 0 -0.01671673518893637 -0.047767264766589698 0 -0.011477376322600772 -0.048816233172799255 0 -0.017489262980979692 -0.053266408586429323 0 -0.016715390720018396 -0.055462137258726937 0 -0.017728994040886358 -0.054232856750704758 0 -0.016715390720018396 -0.055462137258726937 0 -0.017728994040886358 -0.054232856750704758 0 -0.017562256035104706 -0.055033024552130945 0 -0.018253633255606225 -0.054468685413552653 0 -0.018328607559583134 -0.05499799668979409 0 -0.017562256035104706 -0.055033024552130945 0 -0.018253633255606225 -0.054468685413552653 0 -0.017728994040886358 -0.054232856750704758 0 -0.017562256035104706 -0.055033024552130945 0 -0.018584784751690502 -0.053640395853727783 0 -0.018253633255606225 -0.054468685413552653 0 -0.017728994040886358 -0.054232856750704758 0 -0.018328607559583134 -0.05499799668979409 0 -0.017966084605281381 -0.055360843985510437 0 -0.017562256035104706 -0.055033024552130945 0 -0.017966084605281381 -0.055360843985510437 0 -0.017497065138859166 -0.055579789362553422 0 -0.017562256035104706 -0.055033024552130945 0 -0.01468659411538868 -0.057594537927607915 0 -0.017418332400561662 -0.055784746782258303 0 -0.017497065138859166 -0.055579789362553422 0 -0.017562256035104706 -0.055033024552130945 0 -0.016740761339346252 -0.055601823761576158 0 -0.016715390720018396 -0.055462137258726937 0 -0.017562256035104706 -0.055033024552130945 0 -0.016740761339346252 -0.055601823761576158 0 -0.016715390720018396 -0.055462137258726937 0 -0.016001774780658281 -0.055883666478991283 0 -0.016740761339346252 -0.055601823761576158 0 -0.016001774780658281 -0.055883666478991283 0 -0.016740761339346252 -0.055601823761576158 0 -0.016427719600591136 -0.055994456230438104 0 -0.017497065138859166 -0.055579789362553422 0 -0.016740761339346252 -0.055601823761576158 0 -0.016427719600591136 -0.055994456230438104 0 -0.018030999011378959 -0.055508154192896765 0 -0.017497065138859166 -0.055579789362553422 0 -0.016427719600591136 -0.055994456230438104 0 -0.01468659411538868 -0.057594537927607915 0 -0.014341644730302973 -0.056253972776470873 0 -0.010526495296650923 -0.058662186574754666 0 -0.012251142561769297 -0.056933235496444516 0 -0.010038747192655536 -0.056666576591580739 0 -0.012251142561769297 -0.056933235496444516 0 -0.011308435392476014 -0.054999907664083636 0 -0.010038747192655536 -0.056666576591580739 0 -0.016001774780658281 -0.055883666478991283 0 -0.014178508647460732 -0.055001115407978876 0 -0.016427719600591136 -0.055994456230438104 0 -0.014172900918985182 -0.055000184849790572 0 -0.014341644730302973 -0.056253972776470873 0 -0.014172269643731547 -0.054999987818363211 0 -0.012251142561769297 -0.056933235496444516 0 -0.011308435392476014 -0.054999907664083636 0 -0.0076476119837806042 -0.057913594227243348 0 -0.007630251075373789 -0.056495732161108501 0 -0.0065616050951983283 -0.057564077483600283 0 -0.0076476119837806042 -0.057913594227243348 0 -0.0088483666384551983 -0.057744400539016402 0 -0.007630251075373789 -0.056495732161108501 0 -0.010038747192655536 -0.056666576591580739 0 -0.0088483666384551983 -0.057744400539016402 0 -0.007630251075373789 -0.056495732161108501 0 -0.010526495296650923 -0.058662186574754666 0 -0.010038747192655536 -0.056666576591580739 0 -0.0088483666384551983 -0.057744400539016402 0 -0.010038747192655536 -0.056666576591580739 0 -0.0084447108180335153 -0.054999883127697977 0 -0.007630251075373789 -0.056495732161108501 0 -0.011308435392476014 -0.054999907664083636 0 -0.010038747192655536 -0.056666576591580739 0 -0.0084447108180335153 -0.054999883127697977 0 -0.0084447108180335153 -0.054999883127697977 0 -0.007630251075373789 -0.056495732161108501 0 -0.0055810037942157593 -0.054999932326110938 0 -0.007630251075373789 -0.056495732161108501 0 -0.0055810037942157593 -0.054999932326110938 0 -0.0059197593012077498 -0.056492352573744187 0 -0.0055810037942157593 -0.054999932326110938 0 -0.0059197593012077498 -0.056492352573744187 0 -0.0044988008882120446 -0.056575977652638415 0 -0.0055810037942157593 -0.054999932326110938 0 -0.0044988008882120446 -0.056575977652638415 0 -0.0027170383737581253 -0.054999863857312599 0 -0.01489751023663257 -0.037938365317778736 0 -0.014051346439934399 -0.0390795895751287 0 -0.012016801698267396 -0.0380843852524465 0 -0.0044988008882120446 -0.056575977652638415 0 -0.0061487770299167828 -0.057928860697894463 0 -0.0031945670020334846 -0.058043439918286269 0 -0.0080170467664397397 -0.053337638959054162 0 -0.008185706333634744 -0.047558933415726257 0 -0.0054470044557725656 -0.0567894999185184 0 -0.0080170467664397397 -0.053337638959054162 0 -0.0059197593012077498 -0.056492352573744187 0 -0.0044988008882120446 -0.056575977652638415 0 -0.005574214758278748 -0.05764887904951381 0 -0.007630251075373789 -0.056495732161108501 0 -0.0059197593012077498 -0.056492352573744187 0 -0.0065616050951983283 -0.057564077483600283 0 -0.0059197593012077498 -0.056492352573744187 0 -0.005574214758278748 -0.05764887904951381 0 -0.0065616050951983283 -0.057564077483600283 0 -0.0080170467664397397 -0.053337638959054162 0 -0.0061286597559512069 -0.055521998236328009 0 -0.0057512470449902209 -0.05759343831731193 0 -0.0065616050951983283 -0.057564077483600283 0 -0.0070092832350708663 -0.058789415613191509 0 -0.0076476119837806042 -0.057913594227243348 0 -0.0065616050951983283 -0.057564077483600283 0 -0.0070092832350708663 -0.058789415613191509 0 -0.01489751023663257 -0.037938365317778736 0 -0.016652184426134278 -0.039596235451096203 0 -0.015253417439932523 -0.040159146188743666 0 -0.016652184426134278 -0.039596235451096203 0 -0.015253417439932523 -0.040159146188743666 0 -0.016286194582274541 -0.040939812588859738 0 -0.0080170467664397397 -0.053337638959054162 0 -0.011477376322600772 -0.048816233172799255 0 -0.014051346439934399 -0.0390795895751287 0 -0.013780646980153544 -0.040489401779098835 0 -0.012016801698267396 -0.0380843852524465 0 -0.01489751023663257 -0.037938365317778736 0 -0.015253417439932523 -0.040159146188743666 0 -0.014051346439934399 -0.0390795895751287 0 -0.015253417439932523 -0.040159146188743666 0 -0.014051346439934399 -0.0390795895751287 0 -0.013780646980153544 -0.040489401779098835 0 -0.015638074474396052 -0.042735000168091578 0 -0.013611948078425855 -0.041602421802184555 0 -0.011411691604206802 -0.042533848980419689 0 -0.013780646980153544 -0.040489401779098835 0 -0.013611948078425855 -0.041602421802184555 0 -0.015148944252850795 -0.041442251862840673 0 -0.015253417439932523 -0.040159146188743666 0 -0.013780646980153544 -0.040489401779098835 0 -0.015148944252850795 -0.041442251862840673 0 -0.013780646980153544 -0.040489401779098835 0 -0.013611948078425855 -0.041602421802184555 0 -0.01189083098791514 -0.04046502390992375 0 -0.015638074474396052 -0.042735000168091578 0 -0.013611948078425855 -0.041602421802184555 0 -0.015148944252850795 -0.041442251862840673 0 -0.016234761444950212 -0.042262573083462159 0 -0.017959173656976263 -0.041100168844886917 0 -0.016286194582274541 -0.040939812588859738 0 -0.016234761444950212 -0.042262573083462159 0 -0.015148944252850795 -0.041442251862840673 0 -0.016286194582274541 -0.040939812588859738 0 -0.015638074474396052 -0.042735000168091578 0 -0.016234761444950212 -0.042262573083462159 0 -0.015148944252850795 -0.041442251862840673 0 -0.015253417439932523 -0.040159146188743666 0 -0.015148944252850795 -0.041442251862840673 0 -0.016286194582274541 -0.040939812588859738 0 -0.01432855540590766 -0.035741467615248726 0 -0.015921926572348349 -0.035614942504315621 0 -0.0134406629079149 -0.035109952702888442 0 -0.0097440326253102182 -0.040933882634323501 0 -0.011411691604206802 -0.042533848980419689 0 -0.0075414294767136248 -0.0419166844942339 0 -0.013736030264575455 -0.039180636536914573 0 -0.0089311383980119098 -0.040079048506121991 0 -0.013611948078425855 -0.041602421802184555 0 -0.011411691604206802 -0.042533848980419689 0 -0.01189083098791514 -0.04046502390992375 0 -0.0097440326253102182 -0.040933882634323501 0 -0.011411691604206802 -0.042533848980419689 0 -0.01189083098791514 -0.04046502390992375 0 -0.0097440326253102182 -0.040933882634323501 0 -0.01189083098791514 -0.04046502390992375 0 -0.01071692515780274 -0.039347938001253878 0 -0.01189083098791514 -0.04046502390992375 0 -0.01071692515780274 -0.039347938001253878 0 -0.012016801698267396 -0.0380843852524465 0 -0.013780646980153544 -0.040489401779098835 0 -0.01189083098791514 -0.04046502390992375 0 -0.012016801698267396 -0.0380843852524465 0 -0.01071692515780274 -0.039347938001253878 0 -0.0091961637082435717 -0.038295556273761376 0 -0.012016801698267396 -0.0380843852524465 0 -0.0096042619215270519 -0.036804080038206489 0 -0.0047948469581365425 -0.049612994284127687 0 -0.0097440326253102182 -0.040933882634323501 0 -0.01071692515780274 -0.039347938001253878 0 -0.0091961637082435717 -0.038295556273761376 0 -0.0097440326253102182 -0.040933882634323501 0 -0.0091349334560728787 -0.038258018103306889 0 -0.0077824439664729746 -0.039272161240527237 0 -0.0047948469581365425 -0.049612994284127687 0 -0.008185706333634744 -0.047558933415726257 0 -0.00064329311278158883 -0.058117750111020675 0 -0.0031945670020334846 -0.058043439918286269 0 -0.0019438161156135555 -0.056544421581303655 0 -0.0044988008882120446 -0.056575977652638415 0 -0.0031945670020334846 -0.058043439918286269 0 -0.0019438161156135555 -0.056544421581303655 0 -0.0044988008882120446 -0.056575977652638415 0 -0.0027170383737581253 -0.054999863857312599 0 -0.0019438161156135555 -0.056544421581303655 0 -0.0027170383737581253 -0.054999863857312599 0 -0.0019438161156135555 -0.056544421581303655 0 0.0001471329718710875 -0.054999931352318898 0 -0.0047948469581365425 -0.049612994284127687 0 0.0001480737152396699 -0.055014267485127992 0 -0.00064329311278158883 -0.058117750111020675 0 -0.0019438161156135555 -0.056544421581303655 0 0.0001471329718710875 -0.054999931352318898 0 0.00014734871831665575 -0.05499991419964266 0 0.0016416851446721323 -0.056493648532700329 0 0.0030704263504501743 -0.054999913512367139 0 0.00014734871831665575 -0.05499991419964266 0 0.0016416851446721323 -0.056493648532700329 0 0.0004371502226433813 -0.057683460795861223 0 0.0016416851446721323 -0.056493648532700329 0 0.0030704263504501743 -0.054999913512367139 0 0.0029621604914892006 -0.056963495984259004 0 -0.0020383470776365303 -0.050350329657479084 0 0.0033220697268564804 -0.053900636918479891 0 0.0029621604914892006 -0.056963495984259004 0 0.0011090621486464266 -0.058109552347992123 0 0.0037811759223012639 -0.058341583220457266 0 0.0016416851446721323 -0.056493648532700329 0 0.0029621604914892006 -0.056963495984259004 0 0.0011090621486464266 -0.058109552347992123 0 0.0016416851446721323 -0.056493648532700329 0 0.0011090621486464266 -0.058109552347992123 0 0.0004371502226433813 -0.057683460795861223 0 -0.00047193505358314106 -0.057941690263499088 0 0.00014734871831665575 -0.05499991419964266 0 0.0004371502226433813 -0.057683460795861223 0 -0.0020383470776365303 -0.050350329657479084 0 0.0015663033933969704 -0.054767460349859798 0 -0.0047948469581365425 -0.049612994284127687 0 -0.0020383470776365303 -0.050350329657479084 0 -0.00047193505358314106 -0.057941690263499088 0 0.0010401426654192785 -0.058012420414616392 0 0.0004371502226433813 -0.057683460795861223 0 0.0059938913756922303 -0.054999957165115312 0 0.0052254713049729807 -0.056868435757000763 0 0.0089582455655618214 -0.05682074067523156 0 0.0030704263504501743 -0.054999913512367139 0 0.0059938913756922303 -0.054999957165115312 0 0.0052254713049729807 -0.056868435757000763 0 0.0030704263504501743 -0.054999913512367139 0 0.0029621604914892006 -0.056963495984259004 0 0.0052254713049729807 -0.056868435757000763 0 0.0029621604914892006 -0.056963495984259004 0 0.0052254713049729807 -0.056868435757000763 0 0.0037811759223012639 -0.058341583220457266 0 0.0052254713049729807 -0.056868435757000763 0 0.006459899461364404 -0.058506340890960129 0 0.0037811759223012639 -0.058341583220457266 0 0.0059660543005535483 -0.049128418722794047 0 0.0034422182674966459 -0.051780418523221294 0 0.0075179297253491484 -0.051068427029182843 0 0.0020260482327576035 -0.048876397791510318 0 0.0034422182674966459 -0.051780418523221294 0 0.0007699521781755898 -0.050202542822286714 0 0.0023854652193866397 -0.045817458716741838 0 -0.0019007289534485024 -0.044587943443110949 0 0.0059660543005535483 -0.049128418722794047 0 0.0020260482327576035 -0.048876397791510318 0 0.0034422182674966459 -0.051780418523221294 0 0.0059297866100563677 -0.054002332554611565 0 0.0033220697268564804 -0.053900636918479891 0 0.00057570284438665791 -0.04268752148365474 0 0.0018700983953503618 -0.041184916885514573 0 -0.0011397312461762716 -0.041713333570915792 0 0.00057570284438665791 -0.04268752148365474 0 0.0035529543024869063 -0.042198280064419794 0 6.2374680839934638e-05 -0.044603366777089939 0 0.0023854652193866397 -0.045817458716741838 0 -0.0018899050331610903 -0.042221646187937195 0 0.00050308250201663049 -0.042239659401845916 0 -0.0030805885100933846 -0.040107655882094841 0 -0.0034401093176898222 -0.042911644044707542 0 0.00057570284438665791 -0.04268752148365474 0 0.0018700983953503618 -0.041184916885514573 0 0.0035529543024869063 -0.042198280064419794 0 0.0043994794673718404 -0.047730801402609886 0 0.0063015784472654161 -0.048869368171305078 0 0.0090887527426463475 -0.046910081487478286 0 0.0023854652193866397 -0.045817458716741838 0 0.009816882310818344 -0.049520629985409827 0 0.0023854652193866397 -0.045817458716741838 0 0.0078162931650285639 -0.047573412653863244 0 0.0078162931650285639 -0.047573412653863244 0 0.009816882310818344 -0.049520629985409827 0 -0.0075130380021051039 -0.040602017390762982 0 -0.0089311383980119098 -0.040079048506121991 0 -0.0057177510458777756 -0.041168824874663508 0 -0.0077824439664729746 -0.039272161240527237 0 -0.007306633327321975 -0.043571074891377272 0 -0.0057177510458777756 -0.041168824874663508 0 -0.0077824439664729746 -0.039272161240527237 0 -0.0062630814616849032 -0.039655316885959864 0 -0.0091349334560728787 -0.038258018103306889 0 -0.0066363749130789575 -0.038184535471193777 0 -0.0077824439664729746 -0.039272161240527237 0 -0.0066363749130789575 -0.038184535471193777 0 -0.0077824439664729746 -0.039272161240527237 0 -0.0062630814616849032 -0.039655316885959864 0 -0.0018834708260253596 -0.048656420695461722 0 0.0020260482327576035 -0.048876397791510318 0 0.0007699521781755898 -0.050202542822286714 0 -0.0066363749130789575 -0.038184535471193777 0 -0.0062630814616849032 -0.039655316885959864 0 -0.0030805885100933846 -0.040107655882094841 0 -0.0020383470776365303 -0.050350329657479084 0 -0.0019007289534485024 -0.044587943443110949 0 -0.0057177510458777756 -0.041168824874663508 0 -0.0030805885100933846 -0.040107655882094841 0 -0.0034401093176898222 -0.042911644044707542 0 -0.0057177510458777756 -0.041168824874663508 0 -0.0062630814616849032 -0.039655316885959864 0 -0.0030805885100933846 -0.040107655882094841 0 -0.0018899050331610903 -0.042221646187937195 0 -0.0089311383980119098 -0.040079048506121991 0 -0.0011397312461762716 -0.041713333570915792 0 -0.004006031826065971 -0.042249237391745846 0 -0.0014419003669798127 -0.043726838537003147 0 0.00057570284438665791 -0.04268752148365474 0 -0.0011397312461762716 -0.041713333570915792 0 -0.0014419003669798127 -0.043726838537003147 0 -0.0057177510458777756 -0.041168824874663508 0 -0.0034401093176898222 -0.042911644044707542 0 -0.007306633327321975 -0.043571074891377272 0 -0.0097440326253102182 -0.040933882634323501 0 -0.0077824439664729746 -0.039272161240527237 0 -0.0075414294767136248 -0.0419166844942339 0 -0.01432855540590766 -0.035741467615248726 0 -0.014592110945005368 -0.036842830602919902 0 -0.01303016550954373 -0.037880766058001468 0 -0.004006031826065971 -0.042249237391745846 0 -0.003370891381275185 -0.046799154687669618 0 -0.0014419003669798127 -0.043726838537003147 0 -0.0089311383980119098 -0.040079048506121991 0 -0.0049325663577904676 -0.041189258067525332 0 -0.01432855540590766 -0.035741467615248726 0 -0.0134406629079149 -0.035109952702888442 0 -0.01303016550954373 -0.037880766058001468 0 -0.014592110945005368 -0.036842830602919902 0 -0.01303016550954373 -0.037880766058001468 0 -0.013803687683402791 -0.038434108213326441 0 -0.007039789369616749 -0.039157631454789503 0 -0.0070053472994842832 -0.039045537441602877 0 -0.0069345652837981995 -0.039373841444984674 0 -0.0049325663577904676 -0.041189258067525332 0 -0.013119174812665052 -0.038082597649451391 0 -0.007039789369616749 -0.039157631454789503 0 -0.0070053472994842832 -0.039045537441602877 0 -0.0071926910787244273 -0.039163606394278697 0 -0.0049325663577904676 -0.041189258067525332 0 0.0020478166665362247 -0.046727766645091554 0 0.0026621548250325235 -0.043506919791597792 0 0.0016761552289088519 -0.043235942501796742 0 0.002551687843805054 -0.042560551814405198 0 0.0026621548250325235 -0.043506919791597792 0 0.0016761552289088519 -0.043235942501796742 0 0.0014002741362970931 -0.044508839681568185 0 -0.003370891381275185 -0.046799154687669618 0 -0.0014419003669798127 -0.043726838537003147 0 -5.8316608328987738e-05 -0.044489506730998933 0 -0.0015180517532821897 -0.044087847560349017 0 0.0020478166665362247 -0.046727766645091554 0 0.00057570284438665791 -0.04268752148365474 0 -0.0014419003669798127 -0.043726838537003147 0 6.2374680839934638e-05 -0.044603366777089939 0 0.0020478166665362247 -0.046727766645091554 0 0.0068577516558163088 -0.048808885625183471 0 0.0083665794623203806 -0.050767952807247177 0 0.0062501412914540248 -0.051628867072410128 0 0.0088730244103438875 -0.053027828999938069 0 0.0093694232076446532 -0.049473805530771998 0 0.0083665794623203806 -0.050767952807247177 0 0.0062501412914540248 -0.051628867072410128 0 0.0078162931650285639 -0.047573412653863244 0 0.0020478166665362247 -0.046727766645091554 0 0.0087569082002041804 -0.052511304522433487 0 0.0068577516558163088 -0.048808885625183471 0 0.0083665794623203806 -0.050767952807247177 0 0.0098751316050616472 -0.05243560336225693 0 0.0089964719395557741 -0.053218795724409504 0 0.0093694232076446532 -0.049473805530771998 0 0.010340821402272826 -0.051455536194115012 0 0.012285146355116247 -0.051350651631127682 0 0.0083665794623203806 -0.050767952807247177 0 0.010340821402272826 -0.051455536194115012 0 0.0098751316050616472 -0.05243560336225693 0 0.0093694232076446532 -0.049473805530771998 0 0.0083665794623203806 -0.050767952807247177 0 0.010340821402272826 -0.051455536194115012 0 0.010340821402272826 -0.051455536194115012 0 0.0098751316050616472 -0.05243560336225693 0 0.01142068648522435 -0.052851238763496788 0 0.0068577516558163088 -0.048808885625183471 0 0.0037762001209822775 -0.043761890027573885 0 0.0091709475895229414 -0.048727792571542979 0 0.0095923171641473411 -0.048973762873672569 0 0.0093240158391122256 -0.04767270710753959 0 0.00028480276639625301 -0.043961351754942105 0 0.00068314271245661137 -0.042898933304474265 0 -0.00022409844372031529 -0.042325789098711604 0 0.0098751316050616472 -0.05243560336225693 0 0.010178120764308263 -0.053823960768457524 0 0.01142068648522435 -0.052851238763496788 0 0.0098751316050616472 -0.05243560336225693 0 0.010178120764308263 -0.053823960768457524 0 0.0089964719395557741 -0.053218795724409504 0 0.013714235416441609 -0.050574049739900845 0 0.0068577516558163088 -0.048808885625183471 0 0.0016761552289088519 -0.043235942501796742 0 0.0014002741362970931 -0.044508839681568185 0 0.0010320372729929167 -0.043651434762892023 0 0.0016761552289088519 -0.043235942501796742 0 0.0010320372729929167 -0.043651434762892023 0 0.00068314271245661137 -0.042898933304474265 0 0.0014002741362970931 -0.044508839681568185 0 0.00028480276639625301 -0.043961351754942105 0 0.0010320372729929167 -0.043651434762892023 0 0.00028480276639625301 -0.043961351754942105 0 0.0010320372729929167 -0.043651434762892023 0 0.00068314271245661137 -0.042898933304474265 0 0.0007132495377978219 -0.042736369814727219 0 0.0016450208302779608 -0.041410512555371405 0 0.0016761552289088519 -0.043235942501796742 0 0.00068314271245661137 -0.042898933304474265 0 0.0016913725559916401 -0.042368608318447291 0 0.00068314271245661137 -0.042898933304474265 0 0.0011652097668810525 -0.041534401206756638 0 0.0016913725559916401 -0.042368608318447291 0 0.0091709475895229414 -0.048727792571542979 0 0.0091141766380324618 -0.047550747440619413 0 0.0093240158391122256 -0.04767270710753959 0 0.013714235416441609 -0.050574049739900845 0 0.01496827359415176 -0.05066144980318734 0 0.00068314271245661137 -0.042898933304474265 0 -0.00022409844372031529 -0.042325789098711604 0 0.00031776416433575784 -0.041081235974004204 0 0.01496827359415176 -0.05066144980318734 0 0.0092077510322464556 -0.046280793426675342 0 0.0037762001209822775 -0.043761890027573885 0 0.0092077510322464556 -0.046280793426675342 0 -0.00022409844372031529 -0.042325789098711604 0 0.00031776416433575784 -0.041081235974004204 0 -0.00079601590827038215 -0.040206225187474895 0 0.0091141766380324618 -0.047550747440619413 0 0.0093240158391122256 -0.04767270710753959 0 0.009083297090444295 -0.046371251744838499 0 0.00031776416433575784 -0.041081235974004204 0 0.00094655046551835314 -0.039616680457852292 0 -0.00079601590827038215 -0.040206225187474895 0 0.00068314271245661137 -0.042898933304474265 0 0.00031776416433575784 -0.041081235974004204 0 0.0017172920330796105 -0.040973603877330102 0 0.00031776416433575784 -0.041081235974004204 0 0.0017172920330796105 -0.040973603877330102 0 0.00094655046551835314 -0.039616680457852292 0 0.0011652097668810525 -0.041534401206756638 0 0.0024274677059031489 -0.041581882361688277 0 0.0017237764730269904 -0.040114008714575926 0 0.0011652097668810525 -0.041534401206756638 0 0.0024274677059031489 -0.041581882361688277 0 0.0016913725559916401 -0.042368608318447291 0 -0.0056057912252813766 -0.038929622650381281 0 -0.0076010014326763865 -0.036428960018188072 0 -0.0095205573753894355 -0.037049749931938644 0 -0.0092911341732567505 -0.036495970756454783 0 -0.0091136774285899263 -0.036863920538680803 0 -0.0092911341732567505 -0.036495970756454783 0 -0.0088060091532173 -0.036532477297591383 0 -0.009109592093181856 -0.035970220357617107 0 -0.0088060091532173 -0.036532477297591383 0 -0.0087369886984315932 -0.036876957366515195 0 -0.0091136774285899263 -0.036863920538680803 0 -0.0092911341732567505 -0.036495970756454783 0 -0.0088060091532173 -0.036532477297591383 0 -0.0091136774285899263 -0.036863920538680803 0 -0.0056057912252813766 -0.038929622650381281 0 -0.0023877685855085815 -0.041373942284364175 0 -0.012779945397045887 -0.036460792008614205 0 -0.0098933409242968756 -0.037354790307599729 0 -0.0068579668595166255 -0.039690282401027288 0 -0.0069345652837981995 -0.039373841444984674 0 -0.0070816346387658751 -0.039332365669730501 0 -0.0056057912252813766 -0.038929622650381281 0 -0.0098933409242968756 -0.037354790307599729 0 -0.007039789369616749 -0.039157631454789503 0 -0.0071926910787244273 -0.039163606394278697 0 -0.0071186019263530789 -0.039320822277416331 0 -0.0086324164987596 -0.038687282841112482 0 -0.0098933409242968756 -0.037354790307599729 0 -0.013119174812665052 -0.038082597649451391 0 -0.0098933409242968756 -0.037354790307599729 0 -0.0049325663577904676 -0.041189258067525332 0 -0.0023877685855085815 -0.041373942284364175 0 -0.007039789369616749 -0.039157631454789503 0 -0.0069345652837981995 -0.039373841444984674 0 -0.0070816346387658751 -0.039332365669730501 0 0.0016761552289088519 -0.043235942501796742 0 0.002551687843805054 -0.042560551814405198 0 0.0016913725559916401 -0.042368608318447291 0 0.0024274677059031489 -0.041581882361688277 0 0.002551687843805054 -0.042560551814405198 0 0.0016913725559916401 -0.042368608318447291 0 0.017352873233939258 -0.057593335659098861 0 0.01502506527418848 -0.056339146516621266 0 0.016779415387580515 -0.053800078060894714 0 0.019920928588298838 -0.054955275243154272 0 0.019848233589022209 -0.055513125739012854 0 0.021232092140653247 -0.055384837643619358 0 0.022125898147504874 -0.054436201661964667 0 0.022235552800277312 -0.056523804855860206 0 0.021232092140653247 -0.055384837643619358 0 0.022125898147504874 -0.054436201661964667 0 0.020993938701969132 -0.053695796824403841 0 0.019920928588298838 -0.054955275243154272 0 0.021278702268062562 -0.053871846701323889 0 0.02107490974397681 -0.05334342910471869 0 0.021065290612750295 -0.053235037745002205 0 0.020993938701969132 -0.053695796824403841 0 0.019920928588298838 -0.054955275243154272 0 0.020485511577049399 -0.053143025927428249 0 0.021066588155428969 -0.052901558165528745 0 0.021065290612750295 -0.053235037745002205 0 0.020833973936697735 -0.05294397633790944 0 0.021066588155428969 -0.052901558165528745 0 0.020833973936697735 -0.05294397633790944 0 0.020776348809382186 -0.052575940014335583 0 0.019920928588298838 -0.054955275243154272 0 0.017720294087642422 -0.054393659190583303 0 0.020833973936697735 -0.05294397633790944 0 0.020513053769902211 -0.052706743218272754 0 0.020776348809382186 -0.052575940014335583 0 0.020833973936697735 -0.05294397633790944 0 0.020513053769902211 -0.052706743218272754 0 0.020653146728429651 -0.052943981444408164 0 0.02010974864776003 -0.052501192355846243 0 0.020513053769902211 -0.052706743218272754 0 0.020253639361205361 -0.052794676276227546 0 0.019996524834394083 -0.052046224981833027 0 0.02010974864776003 -0.052501192355846243 0 0.020433624868836361 -0.052302726144394851 0 0.02010974864776003 -0.052501192355846243 0 0.020513053769902211 -0.052706743218272754 0 0.020433624868836361 -0.052302726144394851 0 0.020513053769902211 -0.052706743218272754 0 0.020433624868836361 -0.052302726144394851 0 0.020776348809382186 -0.052575940014335583 0 0.012685442838528568 -0.055094291057067736 0 0.01502506527418848 -0.056339146516621266 0 0.014375791502298091 -0.053456732657800342 0 0.016925558541794228 -0.053987163488528445 0 0.017720294087642422 -0.054393659190583303 0 0.012685442838528568 -0.055094291057067736 0 0.014375791502298091 -0.053456732657800342 0 0.012901254780253004 -0.052855309771025788 0 0.010178120764308263 -0.053823960768457524 0 0.012685442838528568 -0.055094291057067736 0 0.01142068648522435 -0.052851238763496788 0 0.013714235416441609 -0.050574049739900845 0 0.016925558541794228 -0.053987163488528445 0 0.012685442838528568 -0.055094291057067736 0 0.012901254780253004 -0.052855309771025788 0 0.01142068648522435 -0.052851238763496788 0 0.010340821402272826 -0.051455536194115012 0 0.01142068648522435 -0.052851238763496788 0 0.012285146355116247 -0.051350651631127682 0 0.012901254780253004 -0.052855309771025788 0 0.01142068648522435 -0.052851238763496788 0 0.012285146355116247 -0.051350651631127682 0 0.014375791502298091 -0.053456732657800342 0 0.013693524872757309 -0.051538056119168639 0 0.014988695736999994 -0.051757792380593567 0 0.014375791502298091 -0.053456732657800342 0 0.012901254780253004 -0.052855309771025788 0 0.013693524872757309 -0.051538056119168639 0 0.012901254780253004 -0.052855309771025788 0 0.012285146355116247 -0.051350651631127682 0 0.013693524872757309 -0.051538056119168639 0 0.012285146355116247 -0.051350651631127682 0 0.013693524872757309 -0.051538056119168639 0 0.013922034967494255 -0.050121316271546798 0 0.013693524872757309 -0.051538056119168639 0 0.014988695736999994 -0.051757792380593567 0 0.013922034967494255 -0.050121316271546798 0 0.014988695736999994 -0.051757792380593567 0 0.016779415387580515 -0.053800078060894714 0 0.016185297148939449 -0.050030214684661879 0 0.019848233589022209 -0.055513125739012854 0 0.016806655367895069 -0.053683433618876654 0 0.014375791502298091 -0.053456732657800342 0 0.014988695736999994 -0.051757792380593567 0 0.016779415387580515 -0.053800078060894714 0 0.01502506527418848 -0.056339146516621266 0 0.014375791502298091 -0.053456732657800342 0 0.016779415387580515 -0.053800078060894714 0 0.021232092140653247 -0.055384837643619358 0 0.022235552800277312 -0.056523804855860206 0 0.02110378041870406 -0.056448445474326203 0 0.022235552800277312 -0.056523804855860206 0 0.021287980500281592 -0.057402574436141537 0 0.02110378041870406 -0.056448445474326203 0 0.022235552800277312 -0.056523804855860206 0 0.021287980500281592 -0.057402574436141537 0 0.022362667500191558 -0.058295239889257174 0 0.016806655367895069 -0.053683433618876654 0 0.018755721981018124 -0.057852919508716467 0 0.021287980500281592 -0.057402574436141537 0 0.022362667500191558 -0.058295239889257174 0 0.020937726027981315 -0.058377239394964302 0 0.014875918285144103 -0.055984610652087645 0 0.018755721981018124 -0.057852919508716467 0 0.014989027896053624 -0.056184169068877583 0 0.016011854606528608 -0.05444431903879151 0 0.017436366647845605 -0.056137410048142343 0 0.016806655367895069 -0.053683433618876654 0 0.013628174952706799 -0.051575322350039213 0 0.014988695736999994 -0.051757792380593567 0 0.016185297148939449 -0.050030214684661879 0 0.013922034967494255 -0.050121316271546798 0 0.012766036777686819 -0.050327817589968522 0 0.012673628421555594 -0.050007888620721759 0 0.012499720836169303 -0.050098296594608599 0 0.016806655367895069 -0.053683433618876654 0 0.012768915556801645 -0.050272611481355506 0 0.014743986551614487 -0.054511068207718796 0 0.016011854606528608 -0.05444431903879151 0 0.014487039503275337 -0.052867430245114734 0 0.014989027896053624 -0.056184169068877583 0 0.014743986551614487 -0.054511068207718796 0 0.016011854606528608 -0.05444431903879151 0 0.012673628421555594 -0.050007888620721759 0 0.01261082335274891 -0.049961227011659601 0 0.012614955603916192 -0.049875961875602122 0 0.013628174952706799 -0.051575322350039213 0 0.01207120620985949 -0.0551719230653911 0 0.012673628421555594 -0.050007888620721759 0 0.01261082335274891 -0.049961227011659601 0 0.012499720836169303 -0.050098296594608599 0 0.013993595530207849 -0.057730473015476985 0 0.015279311051277005 -0.059293107260989054 0 0.01531690334609926 -0.057714740351313597 0 0.013993595530207849 -0.057730473015476985 0 0.014433219305828618 -0.056707851965986357 0 0.01531690334609926 -0.057714740351313597 0 0.012237749107210191 -0.050353657034430538 0 0.012768915556801645 -0.050272611481355506 0 0.011952502428087635 -0.050412084609228289 0 0.012227697749216353 -0.050127178718262985 0 0.012416292881175269 -0.050333365361719916 0 0.012285146355116247 -0.051350651631127682 0 0.011952502428087635 -0.050412084609228289 0 0.013922034967494255 -0.050121316271546798 0 0.010870457295835616 -0.050298421063845813 0 0.012285146355116247 -0.051350651631127682 0 0.011952502428087635 -0.050412084609228289 0 0.0078162931650285639 -0.047573412653863244 0 0.013168150994076325 -0.051987942972842545 0 0.010870457295835616 -0.050298421063845813 0 0.011952502428087635 -0.050412084609228289 0 0.011896812067823035 -0.049904510975221632 0 0.011952502428087635 -0.050412084609228289 0 0.012227697749216353 -0.050127178718262985 0 0.011896812067823035 -0.049904510975221632 0 0.012766036777686819 -0.050327817589968522 0 0.012416292881175269 -0.050333365361719916 0 0.012499720836169303 -0.050098296594608599 0 0.012227697749216353 -0.050127178718262985 0 0.012416292881175269 -0.050333365361719916 0 0.012499720836169303 -0.050098296594608599 0 0.01261082335274891 -0.049961227011659601 0 0.012499720836169303 -0.050098296594608599 0 0.012323510576766174 -0.049857280095828883 0 0.012997944877420869 -0.050268476467495112 0 0.010524700408943176 -0.051743736342183919 0 0.012323510576766174 -0.049857280095828883 0 0.012312586744274701 -0.050019861613944346 0 0.012098828172958159 -0.04997596796632732 0 0.012499720836169303 -0.050098296594608599 0 0.012323510576766174 -0.049857280095828883 0 0.012312586744274701 -0.050019861613944346 0 0.012227697749216353 -0.050127178718262985 0 0.012499720836169303 -0.050098296594608599 0 0.012312586744274701 -0.050019861613944346 0 0.012227697749216353 -0.050127178718262985 0 0.012312586744274701 -0.050019861613944346 0 0.012098828172958159 -0.04997596796632732 0 0.0059660543005535483 -0.049128418722794047 0 0.0099049012751400954 -0.049396147727346448 0 0.0075179297253491484 -0.051068427029182843 0 0.0059297866100563677 -0.054002332554611565 0 0.010524700408943176 -0.051743736342183919 0 0.012323510576766174 -0.049857280095828883 0 0.012098828172958159 -0.04997596796632732 0 0.01195271778932543 -0.049973291278341887 0 0.012227697749216353 -0.050127178718262985 0 0.012098828172958159 -0.04997596796632732 0 0.011896812067823035 -0.049904510975221632 0 0.010524700408943176 -0.051743736342183919 0 0.009816882310818344 -0.049520629985409827 0 0.011424172873421455 -0.049484927178150014 0 0.009816882310818344 -0.049520629985409827 0 0.0052254713049729807 -0.056868435757000763 0 0.006459899461364404 -0.058506340890960129 0 0.0089582455655618214 -0.05682074067523156 0 0.006459899461364404 -0.058506340890960129 0 0.0091149296947638445 -0.05863910208735653 0 0.0089582455655618214 -0.05682074067523156 0 0.010524700408943176 -0.051743736342183919 0 0.01207120620985949 -0.0551719230653911 0 0.01261082335274891 -0.049961227011659601 0 0.012470508075486783 -0.049973114382757075 0 0.012614955603916192 -0.049875961875602122 0 0.0091149296947638445 -0.05863910208735653 0 0.0089582455655618214 -0.05682074067523156 0 0.010791155258879593 -0.05743522073055015 0 0.0089582455655618214 -0.05682074067523156 0 0.010755970722521735 -0.057196335262407083 0 0.010791155258879593 -0.05743522073055015 0 0.0089172227046395887 -0.055000856359869586 0 0.011465607790743281 -0.056556704368739961 0 0.0089172092128421108 -0.05500000838100922 0 0.010841129168041816 -0.057281910447310944 0 0.010517133355356319 -0.054999978136471964 0 0.0089582455655618214 -0.05682074067523156 0 0.0089170216857140366 -0.054999914678460646 0 0.010755970722521735 -0.057196335262407083 0 0.0059938913756922303 -0.054999957165115312 0 0.0089582455655618214 -0.05682074067523156 0 0.0089170216857140366 -0.054999914678460646 0 0.014433219305828618 -0.056707851965986357 0 0.014088177060438786 -0.055754201922799812 0 0.015123965927955174 -0.056134864685727183 0 0.014433219305828618 -0.056707851965986357 0 0.012920877231168368 -0.056553690602824357 0 0.014088177060438786 -0.055754201922799812 0 0.013993595530207849 -0.057730473015476985 0 0.014433219305828618 -0.056707851965986357 0 0.012920877231168368 -0.056553690602824357 0 0.014875918285144103 -0.055984610652087645 0 0.01207120620985949 -0.0551719230653911 0 0.01207120620985949 -0.0551719230653911 0 0.013237077538706229 -0.056162778279092045 0 0.01085756768221716 -0.057267031629009923 0 0.010891496416728841 -0.057512105834960928 0 0.011511254356723781 -0.056188268857217429 0 0.011465607790743281 -0.056556704368739961 0 0.01207120620985949 -0.0551719230653911 0 0.010891496416728841 -0.057512105834960928 0 0.011511254356723781 -0.056188268857217429 0 0.012707265642886051 -0.056225882981987198 0 0.010517215922076167 -0.054999994772124909 0 0.011511254356723781 -0.056188268857217429 0 0.012479331325100991 -0.05499998686338483 0 0.011465607790743281 -0.056556704368739961 0 0.010517183558262007 -0.055001280261702847 0 0.01085756768221716 -0.057267031629009923 0 0.010517215922076167 -0.054999994772124909 0 0.011511254356723781 -0.056188268857217429 0 0.011511254356723781 -0.056188268857217429 0 0.012479331325100991 -0.05499998686338483 0 0.012707265642886051 -0.056225882981987198 0 0.012479331325100991 -0.05499998686338483 0 0.012707265642886051 -0.056225882981987198 0 0.0144415190767866 -0.055000001956835402 0 0.013237077538706229 -0.056162778279092045 0 0.014441563020136687 -0.055000090660607168 0 0.014088177060438786 -0.055754201922799812 0 0.014444448074611231 -0.054999806901961219 0 0.015123965927955174 -0.056134864685727183 0 0.014444448074611231 -0.054999806901961219 0 0.015123965927955174 -0.056134864685727183 0 0.016693112721698697 -0.056293239031882714 0 0.015123965927955174 -0.056134864685727183 0 0.016168371569121865 -0.057138400177651601 0 0.016693112721698697 -0.056293239031882714 0 0.014433219305828618 -0.056707851965986357 0 0.015123965927955174 -0.056134864685727183 0 0.016168371569121865 -0.057138400177651601 0 0.016168371569121865 -0.057138400177651601 0 0.016693112721698697 -0.056293239031882714 0 0.017745819549838563 -0.057562481892421503 0 0.014444448074611231 -0.054999806901961219 0 0.016693112721698697 -0.056293239031882714 0 0.017386410707623107 -0.054999605687962728 0 0.017386410707623107 -0.054999605687962728 0 0.020331308025115385 -0.054999811433654539 0 0.018888277019687292 -0.056948915470688588 0 0.016693112721698697 -0.056293239031882714 0 0.017386410707623107 -0.054999605687962728 0 0.018888277019687292 -0.056948915470688588 0 0.020331308025115385 -0.054999811433654539 0 0.018888277019687292 -0.056948915470688588 0 0.020762172689148806 -0.056767298869509521 0 0.018888277019687292 -0.056948915470688588 0 0.020762172689148806 -0.056767298869509521 0 0.01959693522847197 -0.058352517499474447 0 0.016693112721698697 -0.056293239031882714 0 0.018888277019687292 -0.056948915470688588 0 0.017745819549838563 -0.057562481892421503 0 0.018888277019687292 -0.056948915470688588 0 0.018813464529579979 -0.058102193308920955 0 0.017745819549838563 -0.057562481892421503 0 0.018813464529579979 -0.058102193308920955 0 0.018615010721303896 -0.058500688837084432 0 0.017745819549838563 -0.057562481892421503 0 0.018888277019687292 -0.056948915470688588 0 0.018813464529579979 -0.058102193308920955 0 0.01959693522847197 -0.058352517499474447 0 0.01959693522847197 -0.058352517499474447 0 0.018747949598184283 -0.057160721243861991 0 0.018970515655202705 -0.057868244260734863 0 0.018813464529579979 -0.058102193308920955 0 0.01959693522847197 -0.058352517499474447 0 0.018970515655202705 -0.057868244260734863 0 0.018615010721303896 -0.058500688837084432 0 0.019359303405386621 -0.05767057628525981 0 0.018970515655202705 -0.057868244260734863 0 0.018813464529579979 -0.058102193308920955 0 0.018615010721303896 -0.058500688837084432 0 0.018970515655202705 -0.057868244260734863 0 0.01831997221173191 -0.058862472709058269 0 0.018755721981018124 -0.057852919508716467 0 0.018615010721303896 -0.058500688837084432 0 0.020462646222898392 -0.057845765017932219 0 0.019359303405386621 -0.05767057628525981 0 0.018615010721303896 -0.058500688837084432 0 0.015279311051277005 -0.059293107260989054 0 0.016721529619423001 -0.058029620958602299 0 0.018615010721303896 -0.058500688837084432 0 0.021112819449219535 -0.058645346833638291 0 0.020462646222898392 -0.057845765017932219 0 0.018755721981018124 -0.057852919508716467 0 0.02051618174766787 -0.058491559712749525 0 0.014433219305828618 -0.056707851965986357 0 0.016168371569121865 -0.057138400177651601 0 0.01531690334609926 -0.057714740351313597 0 0.015279311051277005 -0.059293107260989054 0 0.016721529619423001 -0.058029620958602299 0 0.01531690334609926 -0.057714740351313597 0 0.016168371569121865 -0.057138400177651601 0 0.016721529619423001 -0.058029620958602299 0 0.01531690334609926 -0.057714740351313597 0 0.016168371569121865 -0.057138400177651601 0 0.016721529619423001 -0.058029620958602299 0 0.017745819549838563 -0.057562481892421503 0 0.018615010721303896 -0.058500688837084432 0 0.016721529619423001 -0.058029620958602299 0 0.017745819549838563 -0.057562481892421503 0 0.025113094711184787 -0.056794784438821168 0 0.025980870241020509 -0.057796818438758314 0 0.025704960119315109 -0.056225109154029555 0 0.024998891896496418 -0.056698099489347439 0 0.026622052944306571 -0.05669725037688772 0 0.024998891896496418 -0.056698099489347439 0 0.024172123291653719 -0.057321471712353612 0 0.025889227872711765 -0.058276449544099607 0 0.024998891896496418 -0.056698099489347439 0 0.026354295822506445 -0.057633151748451947 0 0.026622052944306571 -0.05669725037688772 0 0.025704960119315109 -0.056225109154029555 0 0.026419708705715708 -0.055695162267356005 0 0.027499798467363151 -0.055790424113382898 0 0.026221505516720249 -0.055000107575825269 0 0.02626181025808692 -0.055470811173614132 0 0.029166317334617678 -0.054999941159647465 0 0.026419708705715708 -0.055695162267356005 0 0.025615184877548665 -0.054981217625400543 0 0.027499798467363151 -0.055790424113382898 0 0.025615184877548665 -0.054981217625400543 0 0.025235207211277259 -0.055753094991992554 0 0.025738742949995834 -0.05568205217738513 0 0.026419708705715708 -0.055695162267356005 0 0.025615184877548665 -0.054981217625400543 0 0.025738742949995834 -0.05568205217738513 0 0.025704960119315109 -0.056225109154029555 0 0.026419708705715708 -0.055695162267356005 0 0.025738742949995834 -0.05568205217738513 0 0.025704960119315109 -0.056225109154029555 0 0.025235207211277259 -0.055753094991992554 0 0.025738742949995834 -0.05568205217738513 0 0.026221505516720249 -0.055000107575825269 0 0.023176783616261597 -0.055700329558486222 0 0.023275600422115024 -0.054999455660250975 0 0.025704960119315109 -0.056225109154029555 0 0.025235207211277259 -0.055753094991992554 0 0.024536218167721783 -0.056335328947219203 0 0.026221505516720249 -0.055000107575825269 0 0.02626181025808692 -0.055470811173614132 0 0.023176783616261597 -0.055700329558486222 0 0.025913387056921169 -0.055259472324869739 0 0.023364022187388055 -0.055658085195151551 0 0.025615184877548665 -0.054981217625400543 0 0.024455988819331202 -0.055704914240974644 0 0.023176783616261597 -0.055700329558486222 0 0.025615184877548665 -0.054981217625400543 0 0.025235207211277259 -0.055753094991992554 0 0.024455988819331202 -0.055704914240974644 0 0.025235207211277259 -0.055753094991992554 0 0.024455988819331202 -0.055704914240974644 0 0.024536218167721783 -0.056335328947219203 0 0.024455988819331202 -0.055704914240974644 0 0.023684405195954304 -0.056146163835078512 0 0.024536218167721783 -0.056335328947219203 0 0.024455988819331202 -0.055704914240974644 0 0.023684405195954304 -0.056146163835078512 0 0.023176783616261597 -0.055700329558486222 0 0.023684405195954304 -0.056146163835078512 0 0.024536218167721783 -0.056335328947219203 0 0.023495298466354439 -0.056742690648162217 0 0.024536218167721783 -0.056335328947219203 0 0.024172123291653719 -0.057321471712353612 0 0.023495298466354439 -0.056742690648162217 0 0.025704960119315109 -0.056225109154029555 0 0.024998891896496418 -0.056698099489347439 0 0.024536218167721783 -0.056335328947219203 0 0.024998891896496418 -0.056698099489347439 0 0.024536218167721783 -0.056335328947219203 0 0.024172123291653719 -0.057321471712353612 0 0.022636203843568278 -0.056415473976307307 0 0.020762172689148806 -0.056767298869509521 0 0.022583836994796908 -0.057608288946005282 0 0.022636203843568278 -0.056415473976307307 0 0.023495298466354439 -0.056742690648162217 0 0.022583836994796908 -0.057608288946005282 0 0.024172123291653719 -0.057321471712353612 0 0.023495298466354439 -0.056742690648162217 0 0.022583836994796908 -0.057608288946005282 0 0.023684405195954304 -0.056146163835078512 0 0.022636203843568278 -0.056415473976307307 0 0.023495298466354439 -0.056742690648162217 0 0.023684405195954304 -0.056146163835078512 0 0.022636203843568278 -0.056415473976307307 0 0.023176783616261597 -0.055700329558486222 0 0.023176783616261597 -0.055700329558486222 0 0.023275600422115024 -0.054999455660250975 0 0.02176450937509684 -0.055782621519018062 0 0.022636203843568278 -0.056415473976307307 0 0.023176783616261597 -0.055700329558486222 0 0.02176450937509684 -0.055782621519018062 0 0.020331308025115385 -0.054999811433654539 0 0.023275600422115024 -0.054999455660250975 0 0.02176450937509684 -0.055782621519018062 0 0.020331308025115385 -0.054999811433654539 0 0.02176450937509684 -0.055782621519018062 0 0.020762172689148806 -0.056767298869509521 0 0.022636203843568278 -0.056415473976307307 0 0.02176450937509684 -0.055782621519018062 0 0.020762172689148806 -0.056767298869509521 0 0.020762172689148806 -0.056767298869509521 0 0.01959693522847197 -0.058352517499474447 0 0.022583836994796908 -0.057608288946005282 0 0.019649056379466585 -0.058374627300643814 0 0.020796609161834144 -0.058660327161308021 0 0.01959693522847197 -0.058352517499474447 0 0.01829542540261915 -0.057546375542959438 0 0.018747949598184283 -0.057160721243861991 0 0.023132016495608049 -0.059798228579076428 0 0.022583836994796908 -0.057608288946005282 0 0.024144783372276369 -0.058522086639091898 0 0.01959693522847197 -0.058352517499474447 0 0.023132016495608049 -0.059798228579076428 0 0.022583836994796908 -0.057608288946005282 0 0.024172123291653719 -0.057321471712353612 0 0.024144783372276369 -0.058522086639091898 0 0.025889227872711765 -0.058276449544099607 0 0.024172123291653719 -0.057321471712353612 0 0.022583836994796908 -0.057608288946005282 0 0.024144783372276369 -0.058522086639091898 0 0.023132016495608049 -0.059798228579076428 0 0.024144783372276369 -0.058522086639091898 0 0.02497762019284297 -0.059291232982368387 0 0.020796609161834144 -0.058660327161308021 0 0.02159158744632024 -0.058627607528322592 0 0.023132016495608049 -0.059798228579076428 0 0.02497762019284297 -0.059291232982368387 0 0.025688046814739324 -0.060356074184904317 0 0.02497762019284297 -0.059291232982368387 0 0.025688046814739324 -0.060356074184904317 0 0.026843500211412331 -0.059707741322065272 0 0.02497762019284297 -0.059291232982368387 0 0.025889227872711765 -0.058276449544099607 0 0.026843500211412331 -0.059707741322065272 0 0.024144783372276369 -0.058522086639091898 0 0.02497762019284297 -0.059291232982368387 0 0.025889227872711765 -0.058276449544099607 0 0.018107328500230821 -0.056836383723740475 0 0.018099070335567003 -0.056560059608891225 0 0.018107647961675608 -0.056718643489018006 0 0.018060281886105891 -0.056925407156107728 0 0.018107328500230821 -0.056836383723740475 0 0.018107647961675608 -0.056718643489018006 0 0.01829542540261915 -0.057546375542959438 0 0.018060281886105891 -0.056925407156107728 0 0.018107328500230821 -0.056836383723740475 0 0.01829542540261915 -0.057546375542959438 0 0.018107328500230821 -0.056836383723740475 0 0.018263504922205822 -0.056712709066578874 0 0.018107328500230821 -0.056836383723740475 0 0.018263504922205822 -0.056712709066578874 0 0.018099070335567003 -0.056560059608891225 0 0.01829542540261915 -0.057546375542959438 0 0.018263504922205822 -0.056712709066578874 0 0.018747949598184283 -0.057160721243861991 0 0.018263504922205822 -0.056712709066578874 0 0.018747949598184283 -0.057160721243861991 0 0.01857665566355431 -0.056376022369900768 0 0.01857665566355431 -0.056376022369900768 0 0.018445478820875875 -0.055839189236274615 0 0.018771322675591062 -0.055871976267923396 0 0.01857665566355431 -0.056376022369900768 0 0.018445478820875875 -0.055839189236274615 0 0.018318589764342797 -0.056305825368548189 0 0.018445478820875875 -0.055839189236274615 0 0.018318589764342797 -0.056305825368548189 0 0.018200859333635661 -0.056227692492341698 0 0.019071586450933171 -0.054233133154072549 0 0.018852255364320648 -0.054488496441909451 0 0.018263504922205822 -0.056712709066578874 0 0.01857665566355431 -0.056376022369900768 0 0.018318589764342797 -0.056305825368548189 0 0.018318589764342797 -0.056305825368548189 0 0.018200859333635661 -0.056227692492341698 0 0.018099070335567003 -0.056560059608891225 0 0.018263504922205822 -0.056712709066578874 0 0.018318589764342797 -0.056305825368548189 0 0.018099070335567003 -0.056560059608891225 0 0.018200859333635661 -0.056227692492341698 0 0.018103669624556087 -0.056425457069789305 0 0.018099070335567003 -0.056560059608891225 0 0.019545580663019327 -0.05270031639107127 0 0.017588379183327393 -0.053323988986586891 0 0.017690679003729462 -0.051945353102817053 0 0.018852255364320648 -0.054488496441909451 0 0.017798535513274951 -0.054777634763838602 0 0.018103669624556087 -0.056425457069789305 0 0.018099070335567003 -0.056560059608891225 0 0.018098300968217008 -0.056527995534727704 0 0.01971201403173822 -0.056241486834572939 0 0.020259298733179339 -0.056943271189084418 0 0.020526733483300804 -0.055958788981964928 0 0.01971201403173822 -0.056241486834572939 0 0.020259298733179339 -0.056943271189084418 0 0.019345758627660168 -0.057135755498885714 0 0.02110378041870406 -0.056448445474326203 0 0.020259298733179339 -0.056943271189084418 0 0.020526733483300804 -0.055958788981964928 0 0.021287980500281592 -0.057402574436141537 0 0.02110378041870406 -0.056448445474326203 0 0.020259298733179339 -0.056943271189084418 0 0.021287980500281592 -0.057402574436141537 0 0.020259298733179339 -0.056943271189084418 0 0.020462646222898392 -0.057845765017932219 0 0.021287980500281592 -0.057402574436141537 0 0.020937726027981315 -0.058377239394964302 0 0.020462646222898392 -0.057845765017932219 0 0.020259298733179339 -0.056943271189084418 0 0.020462646222898392 -0.057845765017932219 0 0.019359303405386621 -0.05767057628525981 0 0.020259298733179339 -0.056943271189084418 0 0.019345758627660168 -0.057135755498885714 0 0.019359303405386621 -0.05767057628525981 0 0.019345758627660168 -0.057135755498885714 0 0.019359303405386621 -0.05767057628525981 0 0.018970515655202705 -0.057868244260734863 0 0.019345758627660168 -0.057135755498885714 0 0.018970515655202705 -0.057868244260734863 0 0.018951739991025552 -0.056654900835601811 0 0.018747949598184283 -0.057160721243861991 0 0.018970515655202705 -0.057868244260734863 0 0.018951739991025552 -0.056654900835601811 0 0.018747949598184283 -0.057160721243861991 0 0.01857665566355431 -0.056376022369900768 0 0.018951739991025552 -0.056654900835601811 0 0.01971201403173822 -0.056241486834572939 0 0.019345758627660168 -0.057135755498885714 0 0.018951739991025552 -0.056654900835601811 0 0.018951739991025552 -0.056654900835601811 0 0.019353790858396287 -0.055536324675019962 0 0.018771322675591062 -0.055871976267923396 0 0.01971201403173822 -0.056241486834572939 0 0.018951739991025552 -0.056654900835601811 0 0.019353790858396287 -0.055536324675019962 0 0.01857665566355431 -0.056376022369900768 0 0.018951739991025552 -0.056654900835601811 0 0.018771322675591062 -0.055871976267923396 0 0.019071586450933171 -0.054233133154072549 0 0.019381781447377212 -0.054070139276317403 0 0.018445478820875875 -0.055839189236274615 0 0.018771322675591062 -0.055871976267923396 0 0.018890073681332734 -0.055154580012891967 0 0.019353790858396287 -0.055536324675019962 0 0.018890073681332734 -0.055154580012891967 0 0.020058207531677939 -0.053906904911755399 0 0.019353790858396287 -0.055536324675019962 0 0.018771322675591062 -0.055871976267923396 0 0.018890073681332734 -0.055154580012891967 0 0.019381781447377212 -0.054070139276317403 0 0.020119382763976294 -0.053931369099261141 0 0.019353790858396287 -0.055536324675019962 0 0.020058207531677939 -0.053906904911755399 0 0.020288404469657326 -0.055094935935459395 0 0.01971201403173822 -0.056241486834572939 0 0.019353790858396287 -0.055536324675019962 0 0.020288404469657326 -0.055094935935459395 0 0.01971201403173822 -0.056241486834572939 0 0.020526733483300804 -0.055958788981964928 0 0.020288404469657326 -0.055094935935459395 0 0.021232092140653247 -0.055384837643619358 0 0.020526733483300804 -0.055958788981964928 0 0.020288404469657326 -0.055094935935459395 0 0.021232092140653247 -0.055384837643619358 0 0.02110378041870406 -0.056448445474326203 0 0.020526733483300804 -0.055958788981964928 0 0.021232092140653247 -0.055384837643619358 0 0.020288404469657326 -0.055094935935459395 0 0.020993938701969132 -0.053695796824403841 0 0.020058207531677939 -0.053906904911755399 0 0.020288404469657326 -0.055094935935459395 0 0.020993938701969132 -0.053695796824403841 0 0.020058207531677939 -0.053906904911755399 0 0.020669362363622368 -0.053241409281634802 0 0.020312762547561748 -0.052874804220606413 0 0.020993938701969132 -0.053695796824403841 0 0.020669362363622368 -0.053241409281634802 0 0.020979372556378672 -0.05321008501984844 0 0.020058207531677939 -0.053906904911755399 0 0.020993938701969132 -0.053695796824403841 0 0.020669362363622368 -0.053241409281634802 0 0.020312762547561748 -0.052874804220606413 0 0.020632845573727191 -0.052456333721856069 0 0.020856193073534684 -0.052929960731246888 0 0.020669362363622368 -0.053241409281634802 0 0.020312762547561748 -0.052874804220606413 0 0.020856193073534684 -0.052929960731246888 0 0.020312762547561748 -0.052874804220606413 0 0.019929876769735823 -0.052713315949576664 0 0.01988738217312053 -0.052427834492777201 0 0.020312762547561748 -0.052874804220606413 0 0.01988738217312053 -0.052427834492777201 0 0.020632845573727191 -0.052456333721856069 0 0.020312762547561748 -0.052874804220606413 0 0.019807474984454121 -0.052974773398911622 0 0.019929876769735823 -0.052713315949576664 0 0.020058207531677939 -0.053906904911755399 0 0.020312762547561748 -0.052874804220606413 0 0.019807474984454121 -0.052974773398911622 0 0.019667310287298834 -0.053000452021730156 0 0.019807474984454121 -0.052974773398911622 0 0.019638671818172262 -0.052610922633450956 0 0.019667310287298834 -0.053000452021730156 0 0.020058207531677939 -0.053906904911755399 0 0.019807474984454121 -0.052974773398911622 0 0.019635964493461742 -0.052618198733693999 0 0.019667310287298834 -0.053000452021730156 0 0.019638671818172262 -0.052610922633450956 0 0.019638671818172262 -0.052610922633450956 0 0.019764144914925501 -0.052592117365874984 0 0.019638933547360744 -0.052318550599619297 0 0.019638671818172262 -0.052610922633450956 0 0.019638933547360744 -0.052318550599619297 0 0.01953692098091659 -0.052248933586281264 0 0.019807474984454121 -0.052974773398911622 0 0.019638671818172262 -0.052610922633450956 0 0.019764144914925501 -0.052592117365874984 0 0.019807474984454121 -0.052974773398911622 0 0.019929876769735823 -0.052713315949576664 0 0.019764144914925501 -0.052592117365874984 0 0.019764144914925501 -0.052592117365874984 0 0.019763144025230103 -0.052357198509154032 0 0.019638933547360744 -0.052318550599619297 0 0.019764144914925501 -0.052592117365874984 0 0.01988738217312053 -0.052427834492777201 0 0.019763144025230103 -0.052357198509154032 0 0.019929876769735823 -0.052713315949576664 0 0.019764144914925501 -0.052592117365874984 0 0.01988738217312053 -0.052427834492777201 0 0.01988738217312053 -0.052427834492777201 0 0.019906472964256263 -0.052155872749154834 0 0.019734405163023504 -0.052146221511114803 0 0.01988738217312053 -0.052427834492777201 0 0.019763144025230103 -0.052357198509154032 0 0.019819992410666485 -0.052209956369671136 0 0.021437166624205778 -0.052206116286436594 0 0.019320693178652787 -0.04390199568551708 0 0.019763144025230103 -0.052357198509154032 0 0.019743614378377884 -0.052216151556338464 0 0.019638933547360744 -0.052318550599619297 0 0.019763144025230103 -0.052357198509154032 0 0.019743614378377884 -0.052216151556338464 0 0.019819992410666485 -0.052209956369671136 0 0.019344228520096936 -0.045375470306314641 0 0.019320693178652787 -0.04390199568551708 0 0.015336953489098018 -0.034355009544446639 0 0.014825433159219151 -0.034445190357086576 0 0.015464672479102781 -0.033464759339038294 0 0.017592899932127974 -0.040733999712161892 0 0.019320693178652787 -0.04390199568551708 0 0.019320693178652787 -0.04390199568551708 0 0.019141942324017551 -0.046650311334030317 0 0.019743614378377884 -0.052216151556338464 0 0.019782922302591446 -0.052224554094666545 0 0.019551284199395575 -0.052089740560629635 0 0.019743614378377884 -0.052216151556338464 0 0.019638933547360744 -0.052318550599619297 0 0.019551284199395575 -0.052089740560629635 0 0.023958226159944435 -0.041144003694588441 0 0.01885033762164583 -0.040350496842226975 0 0.021565034897601358 -0.036590827306380344 0 0.019320693178652787 -0.04390199568551708 0 0.017403650277389392 -0.035160813987993075 0 0.014825433159219151 -0.034445190357086576 0 0.014863163856011552 -0.032894566636867927 0 0.01352219609540474 -0.032304784228194626 0 0.014825433159219151 -0.034445190357086576 0 0.015464672479102781 -0.033464759339038294 0 0.014863163856011552 -0.032894566636867927 0 0.014863163856011552 -0.032894566636867927 0 0.01470701363766409 -0.031940891573173168 0 0.01352219609540474 -0.032304784228194626 0 0.015464672479102781 -0.033464759339038294 0 0.014863163856011552 -0.032894566636867927 0 0.015916202610964734 -0.03225468510328007 0 0.015464672479102781 -0.033464759339038294 0 0.016403182802945986 -0.033494043144311314 0 0.015916202610964734 -0.03225468510328007 0 0.015336953489098018 -0.034355009544446639 0 0.015464672479102781 -0.033464759339038294 0 0.016403182802945986 -0.033494043144311314 0 0.016403182802945986 -0.033494043144311314 0 0.017056801839714173 -0.032800537114462243 0 0.015916202610964734 -0.03225468510328007 0 0.017056801839714173 -0.032800537114462243 0 0.01763148680724607 -0.032642004104706197 0 0.017707926204160385 -0.033122627597484945 0 0.017056801839714173 -0.032800537114462243 0 0.017707926204160385 -0.033122627597484945 0 0.017227970964833941 -0.033432883969561782 0 0.017707926204160385 -0.033122627597484945 0 0.017638467584847949 -0.033514555326360683 0 0.018218681873283897 -0.033440889328691582 0 0.017638467584847949 -0.033514555326360683 0 0.017399836850703402 -0.034054219843057384 0 0.018218681873283897 -0.033440889328691582 0 0.017638467584847949 -0.033514555326360683 0 0.017227970964833941 -0.033432883969561782 0 0.017399836850703402 -0.034054219843057384 0 0.017707926204160385 -0.033122627597484945 0 0.017638467584847949 -0.033514555326360683 0 0.017227970964833941 -0.033432883969561782 0 0.016403182802945986 -0.033494043144311314 0 0.017227970964833941 -0.033432883969561782 0 0.017399836850703402 -0.034054219843057384 0 0.016403182802945986 -0.033494043144311314 0 0.017056801839714173 -0.032800537114462243 0 0.017227970964833941 -0.033432883969561782 0 0.016767127251251127 -0.035749759468430134 0 0.017952869661003408 -0.035648645567945059 0 0.017940728166156893 -0.035397222443806449 0 0.017592899932127974 -0.040733999712161892 0 0.017374167931633482 -0.034061789111677572 0 0.01988738217312053 -0.052427834492777201 0 0.019906472964256263 -0.052155872749154834 0 0.020632845573727191 -0.052456333721856069 0 0.017592899932127974 -0.040733999712161892 0 0.019433698212329941 -0.044480961088179199 0 0.015336953489098018 -0.034355009544446639 0 0.016403182802945986 -0.033494043144311314 0 0.017399836850703402 -0.034054219843057384 0 0.01914297480879731 -0.051336656622279257 0 0.02127188646500856 -0.048530426878495965 0 0.016863520625766269 -0.049088276900790144 0 0.01914297480879731 -0.051336656622279257 0 0.017690679003729462 -0.051945353102817053 0 0.016863520625766269 -0.049088276900790144 0 0.019545580663019327 -0.05270031639107127 0 0.01914297480879731 -0.051336656622279257 0 0.017690679003729462 -0.051945353102817053 0 0.019545580663019327 -0.05270031639107127 0 0.01914297480879731 -0.051336656622279257 0 0.01949811546727271 -0.052010812103741547 0 0.01914297480879731 -0.051336656622279257 0 0.01949811546727271 -0.052010812103741547 0 0.019394488135022449 -0.0518673405731448 0 0.019402417565572119 -0.051132723289978144 0 0.020045037417570896 -0.050666318405919036 0 0.01949811546727271 -0.052010812103741547 0 0.01953692098091659 -0.052248933586281264 0 0.019474933417787593 -0.052044357994181036 0 0.01949811546727271 -0.052010812103741547 0 0.019474933417787593 -0.052044357994181036 0 0.019394488135022449 -0.0518673405731448 0 0.019635964493461742 -0.052618198733693999 0 0.01949811546727271 -0.052010812103741547 0 0.01953692098091659 -0.052248933586281264 0 0.019635964493461742 -0.052618198733693999 0 0.019545580663019327 -0.05270031639107127 0 0.01949811546727271 -0.052010812103741547 0 0.019635964493461742 -0.052618198733693999 0 0.019638671818172262 -0.052610922633450956 0 0.01953692098091659 -0.052248933586281264 0 0.019638933547360744 -0.052318550599619297 0 0.01953692098091659 -0.052248933586281264 0 0.019551284199395575 -0.052089740560629635 0 0.01953692098091659 -0.052248933586281264 0 0.019551284199395575 -0.052089740560629635 0 0.019474933417787593 -0.052044357994181036 0 0.01885033762164583 -0.040350496842226975 0 0.013862805245708557 -0.039815453304249841 0 0.016422437316501882 -0.036038375481608931 0 0.01885033762164583 -0.040350496842226975 0 0.016422437316501882 -0.036038375481608931 0 0.021565034897601358 -0.036590827306380344 0 0.02408543865045432 -0.04575841115327671 0 0.022706576804442782 -0.042050981015745739 0 0.026589122135567751 -0.042058657724521907 0 0.019841170291921627 -0.044829715600099199 0 0.021544969187172785 -0.040979499741893681 0 0.019551284199395575 -0.052089740560629635 0 0.019451302762848347 -0.051936691117373777 0 0.019474933417787593 -0.052044357994181036 0 0.019451302762848347 -0.051936691117373777 0 0.019474933417787593 -0.052044357994181036 0 0.019394488135022449 -0.0518673405731448 0 0.019141942324017551 -0.046650311334030317 0 0.019841170291921627 -0.044829715600099199 0 0.02297533729442032 -0.04608899843388576 0 0.02127188646500856 -0.048530426878495965 0 0.01846773955947079 -0.045330911474989841 0 0.019841170291921627 -0.044829715600099199 0 0.020045037417570896 -0.050666318405919036 0 0.019841170291921627 -0.044829715600099199 0 0.020277776081310837 -0.045731310098555286 0 0.02408543865045432 -0.04575841115327671 0 0.01846773955947079 -0.045330911474989841 0 0.022706576804442782 -0.042050981015745739 0 0.01846773955947079 -0.045330911474989841 0 0.018829549728927895 -0.041529005066219316 0 0.022706576804442782 -0.042050981015745739 0 0.02127188646500856 -0.048530426878495965 0 0.01846773955947079 -0.045330911474989841 0 0.016863520625766269 -0.049088276900790144 0 0.02393786615311666 -0.023546959553243506 0 0.026597662575356663 -0.033098386118185309 0 0.026721844000011489 -0.0090879021890027042 0 0.026752509180983708 -0.0094987833450591759 0 0.02955365759370605 -0.011836271990955088 0 0.018829549728927895 -0.041529005066219316 0 0.021113447650372874 -0.038498114643885042 0 0.016650377235935147 -0.038606342237494408 0 0.026721844000011489 -0.0090879021890027042 0 0.030434371596277369 -0.01005027133023155 0 0.02955365759370605 -0.011836271990955088 0 0.018829549728927895 -0.041529005066219316 0 0.022706576804442782 -0.042050981015745739 0 0.021113447650372874 -0.038498114643885042 0 0.022706576804442782 -0.042050981015745739 0 0.021113447650372874 -0.038498114643885042 0 0.025027950262728811 -0.040236182820153794 0 0.026721844000011489 -0.0090879021890027042 0 0.026752509180983708 -0.0094987833450591759 0 0.026618522581217198 -0.0092845679134979636 0 0.021113447650372874 -0.038498114643885042 0 0.026461399191434486 -0.038271406001314248 0 0.025027950262728811 -0.040236182820153794 0 0.02393786615311666 -0.023546959553243506 0 0.024073421814853745 -0.020099882385519553 0 0.026721844000011489 -0.0090879021890027042 0 0.026618522581217198 -0.0092845679134979636 0 0.02652454310372291 -0.0093793438550559133 0 0.026461399191434486 -0.038271406001314248 0 0.025027950262728811 -0.040236182820153794 0 0.02734580316037534 -0.039644935712075842 0 0.022706576804442782 -0.042050981015745739 0 0.025027950262728811 -0.040236182820153794 0 0.026589122135567751 -0.042058657724521907 0 0.025027950262728811 -0.040236182820153794 0 0.02734580316037534 -0.039644935712075842 0 0.026589122135567751 -0.042058657724521907 0 0.016422437316501882 -0.036038375481608931 0 0.019154708151086969 -0.031980944644882082 0 0.021565034897601358 -0.036590827306380344 0 0.021544969187172785 -0.040979499741893681 0 0.018149350960093371 -0.020010273418956726 0 0.02734580316037534 -0.039644935712075842 0 0.026589122135567751 -0.042058657724521907 0 0.029358567105448003 -0.037778842250163834 0 0.018149350960093371 -0.020010273418956726 0 0.014892170453449627 -0.00095455722421037008 0 0.017613437765236568 -0.0046155968676977908 0 0.016870264300864024 -0.0047384601269051261 0 0.017207047093027963 -0.0054327441262157885 0 0.024073421814853745 -0.020099882385519553 0 0.018149350960093371 -0.020010273418956726 0 0.026304221895192558 -0.037871435853684014 0 0.02734580316037534 -0.039644935712075842 0 0.029358567105448003 -0.037778842250163834 0 0.024073421814853745 -0.020099882385519553 0 0.030188260165215638 -0.037810221912761358 0 0.016411408408572758 -0.0040695748226401065 0 0.017207047093027963 -0.0054327441262157885 0 0.016187776084041396 -0.0055460432092235079 0 0.017207047093027963 -0.0054327441262157885 0 0.016187776084041396 -0.0055460432092235079 0 0.016199538519027102 -0.0064332711349941486 0 0.017207047093027963 -0.0054327441262157885 0 0.017696159356155136 -0.0066726527623609984 0 0.016199538519027102 -0.0064332711349941486 0 0.017696159356155136 -0.0066726527623609984 0 0.016199538519027102 -0.0064332711349941486 0 0.01616854671195166 -0.0077998626316012169 0 0.017207047093027963 -0.0054327441262157885 0 0.017696159356155136 -0.0066726527623609984 0 0.018656938758653221 -0.0056659590321460444 0 0.017696159356155136 -0.0066726527623609984 0 0.018656938758653221 -0.0056659590321460444 0 0.020265382529065026 -0.0069780816704456813 0 0.026618522581217198 -0.0092845679134979636 0 0.02652454310372291 -0.0093793438550559133 0 0.026592785369408595 -0.009190720407905072 0 0.024073421814853745 -0.020099882385519553 0 0.021738888472306393 -0.0048672345587580093 0 0.017613437765236568 -0.0046155968676977908 0 0.017207047093027963 -0.0054327441262157885 0 0.018656938758653221 -0.0056659590321460444 0 0.026592785369408595 -0.009190720407905072 0 0.026685700872755395 -0.0092150176508119814 0 0.026808016254108991 -0.0090538642412838037 0 0.026618522581217198 -0.0092845679134979636 0 0.026592785369408595 -0.009190720407905072 0 0.026685700872755395 -0.0092150176508119814 0 0.026752509180983708 -0.0094987833450591759 0 0.026618522581217198 -0.0092845679134979636 0 0.026685700872755395 -0.0092150176508119814 0 0.026752509180983708 -0.0094987833450591759 0 0.026685700872755395 -0.0092150176508119814 0 0.026789962593906914 -0.009080823093964567 0 0.026685700872755395 -0.0092150176508119814 0 0.026789962593906914 -0.009080823093964567 0 0.026808016254108991 -0.0090538642412838037 0 0.021738888472306393 -0.0048672345587580093 0 0.023663147198571113 -0.0088465400405004294 0 0.026592785369408595 -0.009190720407905072 0 0.026808016254108991 -0.0090538642412838037 0 0.02648066200677545 -0.0095236062314980243 0 0.026808016254108991 -0.0090538642412838037 0 0.0273123228822151 -0.0097002256060854091 0 0.02648066200677545 -0.0095236062314980243 0 0.0270400411109489 -0.0096150941900456227 0 0.028643815750185722 -0.010113493444929305 0 0.026789962593906914 -0.009080823093964567 0 0.026808016254108991 -0.0090538642412838037 0 0.027352584336090797 -0.008330500655552818 0 0.026752509180983708 -0.0094987833450591759 0 0.026789962593906914 -0.009080823093964567 0 0.027352584336090797 -0.008330500655552818 0 0.011750710719378969 -0.020268313378456262 0 0.012611033359439807 -0.019715164458926366 0 0.013828005100764429 -0.020277130511732831 0 0.014867590625786518 -0.024561355285400047 0 0.015511920645918184 -0.025621556542765777 0 0.012611033359439807 -0.019715164458926366 0 0.013828005100764429 -0.020277130511732831 0 0.013656747749681349 -0.018586342032477408 0 0.016172570982011282 -0.030796781990305899 0 0.017797791127684062 -0.030840137022874876 0 0.017477314328882988 -0.031841358959814478 0 0.017056801839714173 -0.032800537114462243 0 0.017477314328882988 -0.031841358959814478 0 0.015916202610964734 -0.03225468510328007 0 0.01763148680724607 -0.032642004104706197 0 0.017477314328882988 -0.031841358959814478 0 0.018240973721467428 -0.032617898751697891 0 0.017056801839714173 -0.032800537114462243 0 0.01763148680724607 -0.032642004104706197 0 0.017477314328882988 -0.031841358959814478 0 0.016404785225169843 -0.030009388190911833 0 0.015916202610964734 -0.03225468510328007 0 0.015125228153694149 -0.031106279105826067 0 0.014867590625786518 -0.024561355285400047 0 0.015835024958016322 -0.034192009092772709 0 0.016172570982011282 -0.030796781990305899 0 0.017477314328882988 -0.031841358959814478 0 0.015916202610964734 -0.03225468510328007 0 0.015916202610964734 -0.03225468510328007 0 0.01470701363766409 -0.031940891573173168 0 0.015125228153694149 -0.031106279105826067 0 0.014863163856011552 -0.032894566636867927 0 0.015916202610964734 -0.03225468510328007 0 0.01470701363766409 -0.031940891573173168 0 0.01470701363766409 -0.031940891573173168 0 0.01401952100499429 -0.031153354780390354 0 0.01352219609540474 -0.032304784228194626 0 0.01401952100499429 -0.031153354780390354 0 0.015125228153694149 -0.031106279105826067 0 0.01445932736845223 -0.030018452004004013 0 0.01470701363766409 -0.031940891573173168 0 0.01401952100499429 -0.031153354780390354 0 0.015125228153694149 -0.031106279105826067 0 0.01204388480849243 -0.029579005914720343 0 0.01401952100499429 -0.031153354780390354 0 0.01352219609540474 -0.032304784228194626 0 0.018149350960093371 -0.020010273418956726 0 0.017403650277389392 -0.035160813987993075 0 0.01516134951625726 -0.0058670414147786532 0 0.014983081354606728 -0.0058992213986634899 0 0.014702002553956321 -0.00573227603376568 0 0.01204388480849243 -0.029579005914720343 0 0.01401952100499429 -0.031153354780390354 0 0.014653437476248201 -0.029685140358990041 0 0.018149350960093371 -0.020010273418956726 0 0.014197235977645281 -0.02037961462328005 0 0.014867590625786518 -0.024561355285400047 0 0.014197235977645281 -0.02037961462328005 0 0.01549743321099699 -0.01970514384603464 0 0.01158704647087971 -0.019655609958836133 0 0.013584638719482404 -0.014967957690072817 0 0.016404785225169843 -0.030009388190911833 0 0.015125228153694149 -0.031106279105826067 0 0.01445932736845223 -0.030018452004004013 0 0.012530456130985784 -0.032193671146872174 0 0.014197235977645281 -0.02037961462328005 0 0.014197235977645281 -0.02037961462328005 0 0.014081370243495929 -0.0088683936803280079 0 0.014702002553956321 -0.00573227603376568 0 0.014106661686594477 -0.0062256431627951067 0 0.014918598589209603 -0.0061447306432866984 0 0.01516134951625726 -0.0058670414147786532 0 0.014983081354606728 -0.0058992213986634899 0 0.014918598589209603 -0.0061447306432866984 0 0.018149350960093371 -0.020010273418956726 0 0.015527935680100583 -0.00077517217249019397 0 0.016411408408572758 -0.0040695748226401065 0 0.014918598589209603 -0.0061447306432866984 0 0.016187776084041396 -0.0055460432092235079 0 0.014983081354606728 -0.0058992213986634899 0 0.014702002553956321 -0.00573227603376568 0 0.014918598589209603 -0.0061447306432866984 0 0.014918598589209603 -0.0061447306432866984 0 0.016187776084041396 -0.0055460432092235079 0 0.016199538519027102 -0.0064332711349941486 0 0.016199538519027102 -0.0064332711349941486 0 0.015114670656545625 -0.0071271573557772153 0 0.01616854671195166 -0.0077998626316012169 0 0.014918598589209603 -0.0061447306432866984 0 0.016199538519027102 -0.0064332711349941486 0 0.015114670656545625 -0.0071271573557772153 0 0.014106661686594477 -0.0062256431627951067 0 0.014918598589209603 -0.0061447306432866984 0 0.014327717512183565 -0.0069024312347789329 0 0.014918598589209603 -0.0061447306432866984 0 0.015114670656545625 -0.0071271573557772153 0 0.014327717512183565 -0.0069024312347789329 0 0.015114670656545625 -0.0071271573557772153 0 0.014327717512183565 -0.0069024312347789329 0 0.014145957591415211 -0.007633977526697781 0 0.013584638719482404 -0.014967957690072817 0 0.016486979670564724 -0.014358841778013311 0 0.015575551813470088 -0.010313307344830783 0 0.014081370243495929 -0.0088683936803280079 0 0.01443518457370444 -0.010841790386007822 0 0.013682386318425239 -0.015670791151209243 0 0.013248142924042123 -0.015091144554523961 0 0.013815479915007702 -0.014862067356536807 0 0.014043410048078488 -0.013631943483988005 0 0.013504325971610257 -0.013445712773954092 0 0.013682386318425239 -0.015670791151209243 0 0.01443518457370444 -0.010841790386007822 0 0.014106661686594477 -0.0062256431627951067 0 0.014327717512183565 -0.0069024312347789329 0 0.013243110748052397 -0.0076734296246849252 0 0.01549743321099699 -0.01970514384603464 0 0.013584638719482404 -0.014967957690072817 0 0.016486979670564724 -0.014358841778013311 0 0.014867590625786518 -0.024561355285400047 0 0.013682386318425239 -0.015670791151209243 0 0.011750710719378969 -0.020268313378456262 0 0.012611033359439807 -0.019715164458926366 0 0.012226200226168158 -0.017831321529294862 0 0.012529499965393156 -0.020239441022240061 0 0.013682386318425239 -0.015670791151209243 0 0.012611033359439807 -0.019715164458926366 0 0.012161010377946231 -0.017773660404950653 0 0.013656747749681349 -0.018586342032477408 0 0.012161010377946231 -0.017773660404950653 0 0.013656747749681349 -0.018586342032477408 0 0.013311876399086597 -0.017152247702103888 0 0.013656747749681349 -0.018586342032477408 0 0.013311876399086597 -0.017152247702103888 0 0.014407974151747284 -0.017414843276985819 0 0.013311876399086597 -0.017152247702103888 0 0.013993794420427747 -0.015868736071048224 0 0.012501616150067217 -0.016131172005625739 0 0.012161010377946231 -0.017773660404950653 0 0.013311876399086597 -0.017152247702103888 0 0.012501616150067217 -0.016131172005625739 0 0.014407974151747284 -0.017414843276985819 0 0.015552886567698579 -0.016834317489381641 0 0.01519729417809682 -0.018617767025718646 0 0.013311876399086597 -0.017152247702103888 0 0.014407974151747284 -0.017414843276985819 0 0.013993794420427747 -0.015868736071048224 0 0.014407974151747284 -0.017414843276985819 0 0.015552886567698579 -0.016834317489381641 0 0.013993794420427747 -0.015868736071048224 0 0.015552886567698579 -0.016834317489381641 0 0.017471303907547153 -0.018109161532009494 0 0.016926526298623113 -0.015894863108663053 0 0.015552886567698579 -0.016834317489381641 0 0.01519729417809682 -0.018617767025718646 0 0.017471303907547153 -0.018109161532009494 0 0.01519729417809682 -0.018617767025718646 0 0.015908150628342534 -0.020306038177690749 0 0.017471303907547153 -0.018109161532009494 0 0.013828005100764429 -0.020277130511732831 0 0.013656747749681349 -0.018586342032477408 0 0.01519729417809682 -0.018617767025718646 0 0.013656747749681349 -0.018586342032477408 0 0.014407974151747284 -0.017414843276985819 0 0.01519729417809682 -0.018617767025718646 0 0.013828005100764429 -0.020277130511732831 0 0.01519729417809682 -0.018617767025718646 0 0.015908150628342534 -0.020306038177690749 0 0.017797791127684062 -0.030840137022874876 0 0.019463500797055635 -0.030874243563451045 0 0.018731436177404328 -0.031640307170939269 0 0.015511920645918184 -0.025621556542765777 0 0.018304048896453186 -0.025720320940361797 0 0.019463500797055635 -0.030874243563451045 0 0.019768755151937215 -0.031851312541336274 0 0.020976885509366397 -0.030868704682046048 0 0.019463500797055635 -0.030874243563451045 0 0.019768755151937215 -0.031851312541336274 0 0.018731436177404328 -0.031640307170939269 0 0.019768755151937215 -0.031851312541336274 0 0.020541852106905588 -0.03238851095139527 0 0.019767845087020043 -0.032731939007404239 0 0.019768755151937215 -0.031851312541336274 0 0.018985714435258462 -0.032358101493923812 0 0.019767845087020043 -0.032731939007404239 0 0.019768755151937215 -0.031851312541336274 0 0.018985714435258462 -0.032358101493923812 0 0.018731436177404328 -0.031640307170939269 0 0.018985714435258462 -0.032358101493923812 0 0.018731436177404328 -0.031640307170939269 0 0.018240973721467428 -0.032617898751697891 0 0.017477314328882988 -0.031841358959814478 0 0.018731436177404328 -0.031640307170939269 0 0.018240973721467428 -0.032617898751697891 0 0.017797791127684062 -0.030840137022874876 0 0.017477314328882988 -0.031841358959814478 0 0.018731436177404328 -0.031640307170939269 0 0.012524979864850475 -0.029543631777692956 0 0.013969548503219078 -0.029144608868580897 0 0.013296450918043884 -0.032763479808022557 0 0.0081481741697585087 -0.028026540151646861 0 0.014641039747414255 -0.033821995475062629 0 0.017649041308411013 -0.029685146723495721 0 0.014641039747414255 -0.033821995475062629 0 -0.0019896075957174762 -0.031136881273708773 0 -0.0010089131389646301 -0.031755009416045574 0 -0.0019344109683203181 -0.03373975708076609 0 0.0050901087640103648 -0.028607935685126512 0 0.0035210446560025297 -0.034269710514651809 0 0.0087192694175605538 -0.027878023207259944 0 0.0082905099297457905 -0.027994464596412194 0 0.0092402123641770022 -0.034664918433727203 0 0.017649041308411013 -0.029685146723495721 0 0.0081481741697585087 -0.028026540151646861 0 0.021120287622931496 -0.031775665644586108 0 0.017649041308411013 -0.029685146723495721 0 0.019768755151937215 -0.031851312541336274 0 0.020541852106905588 -0.03238851095139527 0 0.021609639224218422 -0.031307925568367145 0 0.021609639224218422 -0.031307925568367145 0 0.021181155951060793 -0.032799288679172964 0 0.022179229514794799 -0.033603366236829968 0 0.019768755151937215 -0.031851312541336274 0 0.021095760043821559 -0.031393322862928889 0 0.020976885509366397 -0.030868704682046048 0 0.020541852106905588 -0.03238851095139527 0 0.021609639224218422 -0.031307925568367145 0 0.021181155951060793 -0.032799288679172964 0 0.017649041308411013 -0.029685146723495721 0 0.016661001288056265 -0.023853738770348396 0 0.015908150628342534 -0.020306038177690749 0 0.018002873774556786 -0.020344602100413813 0 0.017471303907547153 -0.018109161532009494 0 0.018304048896453186 -0.025720320940361797 0 0.016661001288056265 -0.023853738770348396 0 0.010882775980979619 -0.021064603888318351 0 0.012067426138968369 -0.020940830773162587 0 0.011330827712252202 -0.020095901288554801 0 0.015333008099358782 -0.027185636122336397 0 0.010079477053368048 -0.025217563800230845 0 0.0096966090759114665 -0.027134326778685679 0 0.016661001288056265 -0.023853738770348396 0 0.006314116309141621 -0.023373361807142556 0 0.014580400548466209 -0.024019116395257278 0 0.015333008099358782 -0.027185636122336397 0 0.010079477053368048 -0.025217563800230845 0 0.010882775980979619 -0.021064603888318351 0 0.012041615088755005 -0.021069382586248173 0 0.012067426138968369 -0.020940830773162587 0 0.0021227054991719359 -0.018508973324448626 0 0.0021067799390683348 -0.018574926308746305 0 0.0016919502488435545 -0.018698862812981946 0 0.0074963384378442417 -0.029134144465866263 0 0.00573906815525201 -0.029609217137167312 0 0.0067329419443379205 -0.024512049904665049 0 0.0081481741697585087 -0.028026540151646861 0 0.006314116309141621 -0.023373361807142556 0 0.0050901087640103648 -0.028607935685126512 0 0.006314116309141621 -0.023373361807142556 0 0.0050901087640103648 -0.028607935685126512 0 0.0081481741697585087 -0.028026540151646861 0 0.006314116309141621 -0.023373361807142556 0 0.0057495163176988747 -0.020865533369301068 0 0.0023072676887236311 -0.018498996691328352 0 0.0022800724363378636 -0.019416754275041765 0 0.0019110449070166905 -0.019768588007415131 0 0.012067426138968369 -0.020940830773162587 0 0.011969588934929368 -0.01941252848683904 0 0.011330827712252202 -0.020095901288554801 0 0.0057495163176988747 -0.020865533369301068 0 0.0071657361753672379 -0.019890407957508415 0 0.0057495163176988747 -0.020865533369301068 0 0.001363050428461704 -0.018931843168900016 0 0.011969588934929368 -0.01941252848683904 0 0.011330827712252202 -0.020095901288554801 0 0.010396857974487935 -0.018959915290066149 0 0.0021067799390683348 -0.018574926308746305 0 0.0019110449070166905 -0.019768588007415131 0 0.0017055133904325234 -0.019292870796198971 0 0.016661001288056265 -0.023853738770348396 0 0.013645438769965631 -0.017896416374683245 0 0.010882775980979619 -0.021064603888318351 0 0.011330827712252202 -0.020095901288554801 0 0.010396857974487935 -0.018959915290066149 0 0.013645438769965631 -0.017896416374683245 0 0.013399583206012408 -0.016220980468153592 0 0.007824074058356837 -0.015127583463593402 0 0.013399583206012408 -0.016220980468153592 0 0.010396857974487935 -0.018959915290066149 0 0.011856449993542706 -0.017890573118067212 0 0.0099382828933203948 -0.016898859957239862 0 0.0022800724363378636 -0.019416754275041765 0 0.0019110449070166905 -0.019768588007415131 0 0.0024003830894207584 -0.020413220318860947 0 0.0071657361753672379 -0.019890407957508415 0 0.007824074058356837 -0.015127583463593402 0 0.011969588934929368 -0.01941252848683904 0 0.010396857974487935 -0.018959915290066149 0 0.011856449993542706 -0.017890573118067212 0 0.007824074058356837 -0.015127583463593402 0 0.0080997773686210181 -0.010240435192379535 0 0.0088216665262645308 -0.0069799895727848671 0 0.0043711677168430385 -0.0046984846633568488 0 0.0019467442221520516 -0.0076459256258124319 0 0.0088216665262645308 -0.0069799895727848671 0 0.0019467442221520516 -0.0076459256258124319 0 0.0090258420154471983 -0.0098387265704731469 0 0.0019110449070166905 -0.019768588007415131 0 0.0024003830894207584 -0.020413220318860947 0 0.0012271702142319847 -0.01998075104825205 0 0.007824074058356837 -0.015127583463593402 0 0.002279680705024103 -0.011995570365435988 0 0.0043711677168430385 -0.0046984846633568488 0 0.0019467442221520516 -0.0076459256258124319 0 -8.1997126638713264e-05 -0.002387442748775621 0 0.0019467442221520516 -0.0076459256258124319 0 -8.1997126638713264e-05 -0.002387442748775621 0 -0.0051452876708267077 -0.0053594288401896855 0 0.00021894156835492991 -0.016287301770089288 0 -0.00067872942995269052 -0.013688627066258133 0 0.002279680705024103 -0.011995570365435988 0 -0.00067872942995269052 -0.013688627066258133 0 0.0012271702142319847 -0.01998075104825205 0 0.00049717449067423201 -0.019410482301568766 0 -0.00015514074602603479 -0.019419356690483322 0 -0.00025052761250878318 -0.019448820309167926 0 0.0002371183312385318 -0.018718101364674299 0 -0.00053870922114812006 -0.018250596898901985 0 0.00049717449067423201 -0.019410482301568766 0 0.0002371183312385318 -0.018718101364674299 0 0.00088330127938629347 -0.018944222956308793 0 0.00049717449067423201 -0.019410482301568766 0 -0.00025052761250878318 -0.019448820309167926 0 0.0002371183312385318 -0.018718101364674299 0 0.00049717449067423201 -0.019410482301568766 0 0.00088330127938629347 -0.018944222956308793 0 0.0011608945593642745 -0.019435700624359346 0 0.00088330127938629347 -0.018944222956308793 0 0.0017055133904325234 -0.019292870796198971 0 0.0011608945593642745 -0.019435700624359346 0 0.0019110449070166905 -0.019768588007415131 0 0.0012271702142319847 -0.01998075104825205 0 0.0015092199541940684 -0.019618396476889545 0 0.0019110449070166905 -0.019768588007415131 0 0.0017055133904325234 -0.019292870796198971 0 0.0015092199541940684 -0.019618396476889545 0 0.0017055133904325234 -0.019292870796198971 0 0.0015092199541940684 -0.019618396476889545 0 0.0011608945593642745 -0.019435700624359346 0 0.0012271702142319847 -0.01998075104825205 0 0.0015092199541940684 -0.019618396476889545 0 0.0011608945593642745 -0.019435700624359346 0 0.0012271702142319847 -0.01998075104825205 0 0.00049717449067423201 -0.019410482301568766 0 0.0011608945593642745 -0.019435700624359346 0 -0.011438714870274235 -0.0027109805647354914 0 -0.0092769895519980074 -0.0044196918887792758 0 -0.0050301818296126016 -0.0041458357611723314 0 -0.01118542609203628 -0.0027109966890187438 0 -0.0050026764952552866 -0.0048740535326373853 0 -0.0092769895519980074 -0.0044196918887792758 0 -0.0078863515747468003 -0.0057653181301134081 0 -0.0050301818296126016 -0.0041458357611723314 0 -0.0099039723202197141 -0.0057834426031194586 0 -0.0078863515747468003 -0.0057653181301134081 0 -0.0089979420375945682 -0.0070445885332222598 0 -0.0099039723202197141 -0.0057834426031194586 0 -0.0092769895519980074 -0.0044196918887792758 0 -0.0078863515747468003 -0.0057653181301134081 0 -0.0078863515747468003 -0.0057653181301134081 0 -0.0050301818296126016 -0.0041458357611723314 0 -0.0060439523720142137 -0.0075985366240649199 0 0.0014689589349697594 -0.0071430380517443683 0 -0.0050026764952552866 -0.0048740535326373853 0 0.0010554957795028874 -0.0068322811250902948 0 -0.0043617653196354319 -0.0052053803610279626 0 -0.0018032579088475404 -0.008103636370240249 0 -0.0050301818296126016 -0.0041458357611723314 0 -0.0022037378737828823 -0.0071173571425398891 0 -0.0060439523720142137 -0.0075985366240649199 0 -0.0050026764952552866 -0.0048740535326373853 0 -0.0020019812619003672 -0.0076043331487496034 0 -0.0016346122740973628 -0.014552567466879295 0 -0.0053936720958233549 -0.014550331613084283 0 -0.0045733410225121561 -0.013108987218348196 0 -8.1997126638713264e-05 -0.002387442748775621 0 -0.0051452876708267077 -0.0053594288401896855 0 -0.0065115601799914232 -0.0021810773078245961 0 -0.00067872942995269052 -0.013688627066258133 0 -0.004210793868319321 -0.020284634838231067 0 -0.00025052761250878318 -0.019448820309167926 0 -0.0019935042228124387 -0.018635106223393729 0 -0.00053870922114812006 -0.018250596898901985 0 -0.00067872942995269052 -0.013688627066258133 0 -0.006201217229256999 -0.007420297415287192 0 -0.012050895523537377 -0.001859210918766812 0 -0.0065115601799914232 -0.0021810773078245961 0 -0.007259076502879807 -0.0026689713848061345 0 -0.011438714870274235 -0.0027109805647354914 0 -0.0053530926982750813 -0.0049364264169110671 0 -0.007259076502879807 -0.0026689713848061345 0 -0.0095973979167226116 -0.012869624713886205 0 -0.006201217229256999 -0.007420297415287192 0 -0.0086284095654786813 -0.016742728589506744 0 -0.004210793868319321 -0.020284634838231067 0 -0.009042017425312323 -0.014291363685936316 0 -0.0053936720958233549 -0.014550331613084283 0 -0.0045733410225121561 -0.013108987218348196 0 -0.0051452876708267077 -0.0053594288401896855 0 -0.0065115601799914232 -0.0021810773078245961 0 -0.007259076502879807 -0.0026689713848061345 0 -0.0050026764952552866 -0.0048740535326373853 0 -0.0068191707717074239 -0.0031355573649961129 0 -0.0037552139331562605 -0.023370372370537098 0 -0.0047640050774600644 -0.024545949070687884 0 -0.005856203787874395 -0.023964629837609039 0 -0.004297690314198235 -0.024665685532751173 0 -0.0047640050774600644 -0.024545949070687884 0 -0.0049663551037618572 -0.025090812073672638 0 -0.0046743454548552115 -0.024390263712288893 0 -0.004210793868319321 -0.020284634838231067 0 -0.0047640050774600644 -0.024545949070687884 0 -0.0053100563585467006 -0.024737365341330884 0 -0.0054912172312164831 -0.024255026417744564 0 -0.0047640050774600644 -0.024545949070687884 0 -0.0053100563585467006 -0.024737365341330884 0 -0.0049663551037618572 -0.025090812073672638 0 -0.0053100563585467006 -0.024737365341330884 0 -0.005507419506744082 -0.02510822159588667 0 -0.0049663551037618572 -0.025090812073672638 0 -0.004210793868319321 -0.020284634838231067 0 -0.0034423891329432932 -0.02142072187975343 0 -0.0054912172312164831 -0.024255026417744564 0 -0.0058012815710760945 -0.02470766835532863 0 -0.0062748440422020586 -0.024500161030424565 0 -0.0053100563585467006 -0.024737365341330884 0 -0.0058012815710760945 -0.02470766835532863 0 -0.005507419506744082 -0.02510822159588667 0 -0.0053100563585467006 -0.024737365341330884 0 -0.0054912172312164831 -0.024255026417744564 0 -0.0058012815710760945 -0.02470766835532863 0 -0.0058012815710760945 -0.02470766835532863 0 -0.005507419506744082 -0.02510822159588667 0 -0.0062391001060253535 -0.025277007814744689 0 -0.0058012815710760945 -0.02470766835532863 0 -0.0062748440422020586 -0.024500161030424565 0 -0.0062391001060253535 -0.025277007814744689 0 -0.0054133118403316971 -0.025620235718056477 0 -0.005507419506744082 -0.02510822159588667 0 -0.0062391001060253535 -0.025277007814744689 0 -0.0054133118403316971 -0.025620235718056477 0 -0.0062391001060253535 -0.025277007814744689 0 -0.0062925453094753109 -0.026101306030152541 0 -0.0045817358314799404 -0.024769258526014144 0 -0.0047915296374003531 -0.025615357948395798 0 -0.0048724299788356663 -0.026265582302796072 0 -0.004297690314198235 -0.024665685532751173 0 -0.0047915296374003531 -0.025615357948395798 0 -0.0049663551037618572 -0.025090812073672638 0 -0.0095710646720533876 -0.027476751731213701 0 -0.010164170534902072 -0.02688495548092891 0 -0.0054133118403316971 -0.025620235718056477 0 -0.005507419506744082 -0.02510822159588667 0 -0.0049663551037618572 -0.025090812073672638 0 -0.0054133118403316971 -0.025620235718056477 0 -0.0047915296374003531 -0.025615357948395798 0 -0.0049663551037618572 -0.025090812073672638 0 -0.0054133118403316971 -0.025620235718056477 0 -0.0047915296374003531 -0.025615357948395798 0 -0.0048724299788356663 -0.026265582302796072 0 -0.00047125186941435887 -0.030754142770351725 0 -0.00017004667337695213 -0.030683939265188628 0 -0.0010089131389646301 -0.031755009416045574 0 0.0013445465228243481 -0.018538119704825762 0 0.0012032599801661062 -0.018578978944096085 0 0.0016919502488435545 -0.018698862812981946 0 -0.00061235674558102052 -0.024644599100246741 0 -0.001945099129527659 -0.023814940064469166 0 -0.0019896075957174762 -0.031136881273708773 0 -0.00047125186941435887 -0.030754142770351725 0 -0.0010089131389646301 -0.031755009416045574 0 0.006314116309141621 -0.023373361807142556 0 -0.00061235674558102052 -0.024644599100246741 0 0.0021227054991719359 -0.018508973324448626 0 0.0013445465228243481 -0.018538119704825762 0 0.0016919502488435545 -0.018698862812981946 0 0.0058522394948025249 -0.023991407465988008 0 0.0061274743897788558 -0.025654293003662197 0 -0.00014119634983270237 -0.025589022346642221 0 0.0050901087640103648 -0.028607935685126512 0 -0.00061235674558102052 -0.024644599100246741 0 0.0021067799390683348 -0.018574926308746305 0 0.0017055133904325234 -0.019292870796198971 0 0.0016919502488435545 -0.018698862812981946 0 0.0017055133904325234 -0.019292870796198971 0 0.0012032599801661062 -0.018578978944096085 0 0.0016919502488435545 -0.018698862812981946 0 0.00088330127938629347 -0.018944222956308793 0 0.0017055133904325234 -0.019292870796198971 0 0.00085782866057143841 -0.017924820243154706 0 0.0012726061874319395 -0.018166692494704307 0 -0.001945099129527659 -0.023814940064469166 0 0.0002371183312385318 -0.018718101364674299 0 0.00088330127938629347 -0.018944222956308793 0 0.00085782866057143841 -0.017924820243154706 0 0.0002371183312385318 -0.018718101364674299 0 0.00085782866057143841 -0.017924820243154706 0 -0.00053870922114812006 -0.018250596898901985 0 -0.0070182540251610137 -0.024709334483639673 0 -0.0067472877999399695 -0.024765214878480064 0 -0.0062391001060253535 -0.025277007814744689 0 -0.0070078046632119717 -0.024732391784643201 0 -0.0062748440422020586 -0.024500161030424565 0 -0.0067472877999399695 -0.024765214878480064 0 -0.001945099129527659 -0.023814940064469166 0 -0.0034423891329432932 -0.02142072187975343 0 -0.0062748440422020586 -0.024500161030424565 0 -0.0067472877999399695 -0.024765214878480064 0 -0.0062391001060253535 -0.025277007814744689 0 -0.001945099129527659 -0.023814940064469166 0 -0.0053099926519987123 -0.023769712805640851 0 -0.001945099129527659 -0.023814940064469166 0 -0.0017517139692558804 -0.030544937476432631 0 -0.00017004667337695213 -0.030683939265188628 0 0.00027178552974813926 -0.032822493670645582 0 0.0012072703161434652 -0.033305850614711884 0 -0.0070182540251610137 -0.024709334483639673 0 -0.0062391001060253535 -0.025277007814744689 0 -0.0062925453094753109 -0.026101306030152541 0 -0.00034861005837019123 -0.032185736866741657 0 -0.0010089131389646301 -0.031755009416045574 0 -0.00055065316650972041 -0.033138086505387951 0 -0.0010089131389646301 -0.031755009416045574 0 -0.00055065316650972041 -0.033138086505387951 0 -0.0019344109683203181 -0.03373975708076609 0 0.00027178552974813926 -0.032822493670645582 0 -0.00034861005837019123 -0.032185736866741657 0 -0.00055065316650972041 -0.033138086505387951 0 -0.00017004667337695213 -0.030683939265188628 0 0.00027178552974813926 -0.032822493670645582 0 -0.00034861005837019123 -0.032185736866741657 0 -0.00017004667337695213 -0.030683939265188628 0 -0.00034861005837019123 -0.032185736866741657 0 -0.0010089131389646301 -0.031755009416045574 0 -0.00055065316650972041 -0.033138086505387951 0 -0.00078108334554680971 -0.034710568169886852 0 -0.0019344109683203181 -0.03373975708076609 0 -0.00055065316650972041 -0.033138086505387951 0 0.00039562127840202515 -0.033840516152065125 0 -0.00078108334554680971 -0.034710568169886852 0 0.00027178552974813926 -0.032822493670645582 0 -0.00055065316650972041 -0.033138086505387951 0 0.00039562127840202515 -0.033840516152065125 0 0.00027178552974813926 -0.032822493670645582 0 0.0012072703161434652 -0.033305850614711884 0 0.00039562127840202515 -0.033840516152065125 0 0.0012072703161434652 -0.033305850614711884 0 0.00039562127840202515 -0.033840516152065125 0 0.0010376392839531986 -0.034085894693442143 0 0.00039562127840202515 -0.033840516152065125 0 0.0018153332078895837 -0.036530700731211965 0 0.0001836909221947586 -0.035846551070788907 0 0.00047073965554523135 -0.033982628896143868 0 0.0014821439573812572 -0.035546973236974019 0 0.00039562127840202515 -0.033840516152065125 0 0.0010376392839531986 -0.034085894693442143 0 0.00091984301468351422 -0.034718335240190079 0 0.0010376392839531986 -0.034085894693442143 0 0.00091984301468351422 -0.034718335240190079 0 0.0012591908733959052 -0.034556475282649553 0 0.0018153332078895837 -0.036530700731211965 0 0.0001836909221947586 -0.035846551070788907 0 0.0014589425854194535 -0.037358554735060459 0 0.0001836909221947586 -0.035846551070788907 0 0.0014589425854194535 -0.037358554735060459 0 -0.0018699338771139824 -0.036861555596179922 0 0.0001836909221947586 -0.035846551070788907 0 -0.00078108334554680971 -0.034710568169886852 0 -0.0018699338771139824 -0.036861555596179922 0 -0.00078108334554680971 -0.034710568169886852 0 -0.0018699338771139824 -0.036861555596179922 0 -0.0019344109683203181 -0.03373975708076609 0 0.00039562127840202515 -0.033840516152065125 0 0.0001836909221947586 -0.035846551070788907 0 -0.00078108334554680971 -0.034710568169886852 0 -0.013833280033538248 -0.028337518784911215 0 -0.015141103186963876 -0.02879771858351483 0 -0.01471158922100041 -0.030150925477088569 0 0.0012072703161434652 -0.033305850614711884 0 0.0010376392839531986 -0.034085894693442143 0 0.001717525184489961 -0.034652604424073821 0 -0.0062925453094753109 -0.026101306030152541 0 -0.0048724299788356663 -0.026265582302796072 0 -0.0054226231793406748 -0.027591894504026979 0 -0.0054133118403316971 -0.025620235718056477 0 -0.0062925453094753109 -0.026101306030152541 0 -0.0048724299788356663 -0.026265582302796072 0 -0.0017517139692558804 -0.030544937476432631 0 -0.0078214353739900089 -0.031490556821005281 0 0.0010376392839531986 -0.034085894693442143 0 0.0012591908733959052 -0.034556475282649553 0 0.001717525184489961 -0.034652604424073821 0 0.00091984301468351422 -0.034718335240190079 0 0.0012591908733959052 -0.034556475282649553 0 0.0013530804718497136 -0.034771515859309168 0 0.0012591908733959052 -0.034556475282649553 0 0.0013530804718497136 -0.034771515859309168 0 0.001717525184489961 -0.034652604424073821 0 0.0013530804718497136 -0.034771515859309168 0 0.001717525184489961 -0.034652604424073821 0 0.0015482758801952992 -0.034959791893021064 0 -0.0078214353739900089 -0.031490556821005281 0 -0.0061903582339695078 -0.033931839014154988 0 -0.010164170534902072 -0.02688495548092891 0 -0.0078214353739900089 -0.031490556821005281 0 -0.015141103186963876 -0.02879771858351483 0 -0.015866114652720968 -0.030772547262296918 0 -0.01471158922100041 -0.030150925477088569 0 -0.015866114652720968 -0.030772547262296918 0 -0.01471158922100041 -0.030150925477088569 0 -0.015532287292692473 -0.031256477600288081 0 -0.0078214353739900089 -0.031490556821005281 0 -0.011706147286573335 -0.029535980599437042 0 -0.014414564700785686 -0.031296171151587768 0 -0.01471158922100041 -0.030150925477088569 0 -0.015532287292692473 -0.031256477600288081 0 -0.015532287292692473 -0.031256477600288081 0 -0.016063034518400198 -0.031428584003433721 0 -0.014715778013575102 -0.032701324170479946 0 -0.0061903582339695078 -0.033931839014154988 0 -0.013360342217059607 -0.03506944983668929 0 -0.0086046024167581413 -0.037685483151047042 0 -0.0088920054375146579 -0.037079722902655952 0 -0.0091964292977203266 -0.037219362735621271 0 -0.014414564700785686 -0.031296171151587768 0 -0.015532287292692473 -0.031256477600288081 0 -0.014715778013575102 -0.032701324170479946 0 0.0014821439573812572 -0.035546973236974019 0 -0.00017750142439456441 -0.038128867956442394 0 0.00091984301468351422 -0.034718335240190079 0 0.0013530804718497136 -0.034771515859309168 0 0.0012915854584570269 -0.035599839328540397 0 -0.0086046024167581413 -0.037685483151047042 0 -0.0084106675454126718 -0.037274731097669253 0 -0.0088920054375146579 -0.037079722902655952 0 0.0013530804718497136 -0.034771515859309168 0 0.0015654337980134097 -0.034979024101362936 0 0.0012915854584570269 -0.035599839328540397 0 -0.0061903582339695078 -0.033931839014154988 0 -0.00017750142439456441 -0.038128867956442394 0 -0.015781329710138185 -0.030850638382745359 0 -0.015532287292692473 -0.031256477600288081 0 -0.016063034518400198 -0.031428584003433721 0 -0.0011746253204048206 -0.036254004028666187 0 -0.0061903582339695078 -0.033931839014154988 0 -0.008774887599246467 -0.036582668866053367 0 -0.0084106675454126718 -0.037274731097669253 0 -0.0087369886984315932 -0.036876957366515195 0 -0.0056057912252813766 -0.038929622650381281 0 -0.00017750142439456441 -0.038128867956442394 0 0.0016450208302779608 -0.041410512555371405 0 -0.00017750142439456441 -0.038128867956442394 0 -0.0084106675454126718 -0.037274731097669253 0 -0.0087369886984315932 -0.036876957366515195 0 -0.0088920054375146579 -0.037079722902655952 0 -0.0087369886984315932 -0.036876957366515195 0 -0.0088920054375146579 -0.037079722902655952 0 -0.0091136774285899263 -0.036863920538680803 0 -0.0088920054375146579 -0.037079722902655952 0 -0.0091136774285899263 -0.036863920538680803 0 -0.0092763923224639423 -0.037261282251614999 0 -0.0095205573753894355 -0.037049749931938644 0 -0.0091136774285899263 -0.036863920538680803 0 -0.0092763923224639423 -0.037261282251614999 0 -0.0093517174281398073 -0.035727625763446846 0 -0.013360342217059607 -0.03506944983668929 0 0.00034626837348055047 -0.038434420528204657 0 -0.00079601590827038215 -0.040206225187474895 0 -0.0010355822543311349 -0.037243130206861652 0 -0.00079204459164616315 -0.03661823806993459 0 0.0034711670444059956 -0.039807051881408977 0 0.00034626837348055047 -0.038434420528204657 0 0.0014589425854194535 -0.037358554735060459 0 -0.0010355822543311349 -0.037243130206861652 0 0.0018153332078895837 -0.036530700731211965 0 0.0027731388524911619 -0.038814805044365339 0 0.0014589425854194535 -0.037358554735060459 0 0.0027731388524911619 -0.038814805044365339 0 0.0014589425854194535 -0.037358554735060459 0 0.0015201971863494589 -0.038544431094459895 0 0.00034626837348055047 -0.038434420528204657 0 0.0014589425854194535 -0.037358554735060459 0 0.0015201971863494589 -0.038544431094459895 0 0.0027731388524911619 -0.038814805044365339 0 0.0015201971863494589 -0.038544431094459895 0 0.00094655046551835314 -0.039616680457852292 0 0.0017172920330796105 -0.040973603877330102 0 0.0027731388524911619 -0.038814805044365339 0 0.00094655046551835314 -0.039616680457852292 0 0.00034626837348055047 -0.038434420528204657 0 0.0015201971863494589 -0.038544431094459895 0 0.00094655046551835314 -0.039616680457852292 0 0.0092077510322464556 -0.046280793426675342 0 0.0034711670444059956 -0.039807051881408977 0 0.00034626837348055047 -0.038434420528204657 0 0.00094655046551835314 -0.039616680457852292 0 -0.00079601590827038215 -0.040206225187474895 0 0.020253639361205361 -0.052794676276227546 0 0.020383848311043101 -0.052937578516621689 0 0.020653146728429651 -0.052943981444408164 0 0.020513053769902211 -0.052706743218272754 0 0.020253639361205361 -0.052794676276227546 0 0.020653146728429651 -0.052943981444408164 0 0.010084324357360673 -0.047425914642152817 0 0.0097705599183733598 -0.04595911808743313 0 0.0099297809487667154 -0.044539168718136027 0 0.0092077510322464556 -0.046280793426675342 0 0.015181671006833396 -0.050843656469420573 0 0.015181671006833396 -0.050843656469420573 0 0.013772149160445142 -0.044519918939515991 0 0.020383848311043101 -0.052937578516621689 0 0.020417100839147825 -0.05295803698670723 0 0.020493834413596663 -0.052980142807809237 0 0.020383848311043101 -0.052937578516621689 0 0.020653146728429651 -0.052943981444408164 0 0.020493834413596663 -0.052980142807809237 0 0.013772149160445142 -0.044519918939515991 0 0.020587029366095994 -0.045512591564810252 0 0.0097705599183733598 -0.04595911808743313 0 0.0094595542046346306 -0.044491316323332836 0 0.0099297809487667154 -0.044539168718136027 0 0.013772149160445142 -0.044519918939515991 0 0.0034711670444059956 -0.039807051881408977 0 0.020310493910446412 -0.055764294125792938 0 0.020587029366095994 -0.045512591564810252 0 0.020856480633320927 -0.052979258318248033 0 0.020949047610975664 -0.052847880233479562 0 0.020791134013443235 -0.05298035799391252 0 0.020856480633320927 -0.052979258318248033 0 0.020653146728429651 -0.052943981444408164 0 0.020791134013443235 -0.05298035799391252 0 0.020856480633320927 -0.052979258318248033 0 0.020653146728429651 -0.052943981444408164 0 0.020965551043836149 -0.053053210579741286 0 0.020833973936697735 -0.05294397633790944 0 0.020653146728429651 -0.052943981444408164 0 0.020965551043836149 -0.053053210579741286 0 0.021065290612750295 -0.053235037745002205 0 0.020833973936697735 -0.05294397633790944 0 0.020965551043836149 -0.053053210579741286 0 0.020965551043836149 -0.053053210579741286 0 0.020979372556378672 -0.05321008501984844 0 0.020856193073534684 -0.052929960731246888 0 0.021065290612750295 -0.053235037745002205 0 0.020993938701969132 -0.053695796824403841 0 0.020979372556378672 -0.05321008501984844 0 0.021065290612750295 -0.053235037745002205 0 0.020965551043836149 -0.053053210579741286 0 0.020979372556378672 -0.05321008501984844 0 0.020669362363622368 -0.053241409281634802 0 0.020979372556378672 -0.05321008501984844 0 0.020856193073534684 -0.052929960731246888 0 0.020632845573727191 -0.052456333721856069 0 0.020856193073534684 -0.052929960731246888 0 0.020949047610975664 -0.052847880233479562 0 0.020965551043836149 -0.053053210579741286 0 0.020856193073534684 -0.052929960731246888 0 0.020949047610975664 -0.052847880233479562 0 0.020856480633320927 -0.052979258318248033 0 0.020965551043836149 -0.053053210579741286 0 0.020949047610975664 -0.052847880233479562 0 0.019445948967387071 -0.035646499104246623 0 0.019404920857521948 -0.034984682981069992 0 0.020540508029562334 -0.035182866761392859 0 0.019433698212329941 -0.044480961088179199 0 0.020279486379073199 -0.044065951311082416 0 0.017399836850703402 -0.034054219843057384 0 0.019313753809340285 -0.034061478690865753 0 0.018218681873283897 -0.033440889328691582 0 0.017952869661003408 -0.035648645567945059 0 0.017940728166156893 -0.035397222443806449 0 0.019404920857521948 -0.034984682981069992 0 0.017374167931633482 -0.034061789111677572 0 0.01950329262116152 -0.034600610723440436 0 0.017952869661003408 -0.035648645567945059 0 0.019445948967387071 -0.035646499104246623 0 0.019404920857521948 -0.034984682981069992 0 0.019313753809340285 -0.034061478690865753 0 0.018218681873283897 -0.033440889328691582 0 0.019128897509898247 -0.03307686559927283 0 0.018985714435258462 -0.032358101493923812 0 0.018240973721467428 -0.032617898751697891 0 0.019128897509898247 -0.03307686559927283 0 0.018218681873283897 -0.033440889328691582 0 0.018240973721467428 -0.032617898751697891 0 0.019128897509898247 -0.03307686559927283 0 0.017707926204160385 -0.033122627597484945 0 0.018218681873283897 -0.033440889328691582 0 0.018240973721467428 -0.032617898751697891 0 0.01763148680724607 -0.032642004104706197 0 0.017707926204160385 -0.033122627597484945 0 0.018240973721467428 -0.032617898751697891 0 0.019313753809340285 -0.034061478690865753 0 0.019835490035369299 -0.033488674335347739 0 0.021659612030848516 -0.034331115495400168 0 0.019313753809340285 -0.034061478690865753 0 0.019835490035369299 -0.033488674335347739 0 0.019128897509898247 -0.03307686559927283 0 0.019835490035369299 -0.033488674335347739 0 0.019128897509898247 -0.03307686559927283 0 0.019767845087020043 -0.032731939007404239 0 0.018985714435258462 -0.032358101493923812 0 0.019128897509898247 -0.03307686559927283 0 0.019767845087020043 -0.032731939007404239 0 0.019835490035369299 -0.033488674335347739 0 0.019767845087020043 -0.032731939007404239 0 0.020467930927968555 -0.033222101022725117 0 0.020541852106905588 -0.03238851095139527 0 0.019767845087020043 -0.032731939007404239 0 0.020467930927968555 -0.033222101022725117 0 0.020541852106905588 -0.03238851095139527 0 0.020467930927968555 -0.033222101022725117 0 0.021181155951060793 -0.032799288679172964 0 0.019835490035369299 -0.033488674335347739 0 0.020467930927968555 -0.033222101022725117 0 0.021659612030848516 -0.034331115495400168 0 0.020467930927968555 -0.033222101022725117 0 0.021364380685073969 -0.033486661517943925 0 0.021659612030848516 -0.034331115495400168 0 0.021364380685073969 -0.033486661517943925 0 0.021181155951060793 -0.032799288679172964 0 0.022179229514794799 -0.033603366236829968 0 0.020467930927968555 -0.033222101022725117 0 0.021364380685073969 -0.033486661517943925 0 0.021181155951060793 -0.032799288679172964 0 0.0082905099297457905 -0.027994464596412194 0 0.0092402123641770022 -0.034664918433727203 0 0.006932916945586942 -0.035143369781301143 0 0.021364380685073969 -0.033486661517943925 0 0.022179229514794799 -0.033603366236829968 0 0.021659612030848516 -0.034331115495400168 0 0.0034711670444059956 -0.039807051881408977 0 0.0035210446560025297 -0.034269710514651809 0 0.022179229514794799 -0.033603366236829968 0 0.021747713698655635 -0.03591007260155421 0 0.021659612030848516 -0.034331115495400168 0 0.013772149160445142 -0.044519918939515991 0 0.014641039747414255 -0.033821995475062629 0 0.018064667967882735 -0.044392930540004254 0 0.015975494955282683 -0.035550623287309721 0 0.014343346379661679 -0.043975120206575312 0 0.0083865546366522596 -0.041352911330452657 0 0.0092402123641770022 -0.034664918433727203 0 0.006932916945586942 -0.035143369781301143 0 0.0083865546366522596 -0.041352911330452657 0 0.0097339257584960846 -0.041503686637478353 0 0.0092402123641770022 -0.034664918433727203 0 0.014641039747414255 -0.033821995475062629 0 0.020587029366095994 -0.045512591564810252 0 0.019445948967387071 -0.035646499104246623 0 0.021747713698655635 -0.03591007260155421 0 0.020540508029562334 -0.035182866761392859 0 0.020279486379073199 -0.044065951311082416 0 0.020587029366095994 -0.045512591564810252 0 0.019404920857521948 -0.034984682981069992 0 0.020540508029562334 -0.035182866761392859 0 0.021659612030848516 -0.034331115495400168 0 0.01950329262116152 -0.034600610723440436 0 0.021545830755440497 -0.034322811339270128 0 0.021747713698655635 -0.03591007260155421 0 0.020540508029562334 -0.035182866761392859 0 0.021659612030848516 -0.034331115495400168 0 0.056213713125965611 -0.044562956843624123 0 0.056007955001908208 -0.043506431342197768 0 0.056003034976970636 -0.044614078462416808 0 0.056213713125965611 -0.044562956843624123 0 0.054999637838293453 -0.04395483516264951 0 0.056007955001908208 -0.043506431342197768 0 0.056213713125965611 -0.044562956843624123 0 0.054999637838293453 -0.04395483516264951 0 0.05619440487022398 -0.045749692595602034 0 0.056007955001908208 -0.043506431342197768 0 0.056123725030372169 -0.044497023281737456 0 0.05500026419901563 -0.041110190606153889 0 0.054999637838293453 -0.04395483516264951 0 0.056007955001908208 -0.043506431342197768 0 0.05500026419901563 -0.041110190606153889 0 0.056007955001908208 -0.043506431342197768 0 0.056003034976970636 -0.044614078462416808 0 0.056123725030372169 -0.044497023281737456 0 0.056003034976970636 -0.044614078462416808 0 0.055072968785924513 -0.045407896012559228 0 0.056123725030372169 -0.044497023281737456 0 0.056003034976970636 -0.044614078462416808 0 0.055072968785924513 -0.045407896012559228 0 0.054293648539570756 -0.045661445138848046 0 0.054293648539570756 -0.045661445138848046 0 0.053161507985234127 -0.04654701633031029 0 0.053980575928878706 -0.04617932031721831 0 0.055072968785924513 -0.045407896012559228 0 0.054293648539570756 -0.045661445138848046 0 0.053980575928878706 -0.04617932031721831 0 0.054293648539570756 -0.045661445138848046 0 0.053951328162085491 -0.044251617595896471 0 0.052626075188267271 -0.045482368639600035 0 0.053951328162085491 -0.044251617595896471 0 0.052376959901502665 -0.044108748025895823 0 0.052626075188267271 -0.045482368639600035 0 0.056003034976970636 -0.044614078462416808 0 0.054293648539570756 -0.045661445138848046 0 0.056397593321522478 -0.04492560399803721 0 0.054369317659468876 -0.045950475591717527 0 0.055292175687367287 -0.044214104942685198 0 0.056213713125965611 -0.044562956843624123 0 0.056003034976970636 -0.044614078462416808 0 0.05667202489312425 -0.045216138654430305 0 0.056003034976970636 -0.044614078462416808 0 0.05667202489312425 -0.045216138654430305 0 0.056397593321522478 -0.04492560399803721 0 0.05667202489312425 -0.045216138654430305 0 0.056397593321522478 -0.04492560399803721 0 0.057244966167396716 -0.046088690144620657 0 0.055292175687367287 -0.044214104942685198 0 0.054620364489645884 -0.046043477239413697 0 0.053951328162085491 -0.044251617595896471 0 0.052642487637141168 -0.042453673500817447 0 0.052376959901502665 -0.044108748025895823 0 0.053951328162085491 -0.044251617595896471 0 0.054375226535999653 -0.041730737870114179 0 0.052642487637141168 -0.042453673500817447 0 0.054620364489645884 -0.046043477239413697 0 0.048897208186708029 -0.049288727191139033 0 0.054375226535999653 -0.041730737870114179 0 0.051456614898561806 -0.04060736673114116 0 0.052642487637141168 -0.042453673500817447 0 0.05667202489312425 -0.045216138654430305 0 0.057244966167396716 -0.046088690144620657 0 0.057137276629984787 -0.046190772712617623 0 0.054620364489645884 -0.046043477239413697 0 0.058080211792709904 -0.046674721284094133 0 0.059114087607136101 -0.046963938397229288 0 0.057137276629984787 -0.046190772712617623 0 0.057576027885342232 -0.048056948929617101 0 0.057137276629984787 -0.046190772712617623 0 0.056387139483264855 -0.047339450042126967 0 0.057576027885342232 -0.048056948929617101 0 0.057137276629984787 -0.046190772712617623 0 0.056387139483264855 -0.047339450042126967 0 0.05619440487022398 -0.045749692595602034 0 0.056213713125965611 -0.044562956843624123 0 0.05667202489312425 -0.045216138654430305 0 0.05619440487022398 -0.045749692595602034 0 0.05667202489312425 -0.045216138654430305 0 0.057137276629984787 -0.046190772712617623 0 0.05619440487022398 -0.045749692595602034 0 0.054999637838293453 -0.04395483516264951 0 0.05619440487022398 -0.045749692595602034 0 0.054999421226338038 -0.046804449532318999 0 0.056387139483264855 -0.047339450042126967 0 0.054999421226338038 -0.046804449532318999 0 0.054999531497992325 -0.049654710904174795 0 0.056387139483264855 -0.047339450042126967 0 0.05619440487022398 -0.045749692595602034 0 0.054999421226338038 -0.046804449532318999 0 0.056387139483264855 -0.047339450042126967 0 0.054999531497992325 -0.049654710904174795 0 0.056853827971524204 -0.049571283631774501 0 0.056387139483264855 -0.047339450042126967 0 0.056853827971524204 -0.049571283631774501 0 0.057576027885342232 -0.048056948929617101 0 0.056853827971524204 -0.049571283631774501 0 0.057250290361264125 -0.051206234521307264 0 0.055999617230217548 -0.050924334027377643 0 0.054999531497992325 -0.049654710904174795 0 0.056853827971524204 -0.049571283631774501 0 0.055999617230217548 -0.050924334027377643 0 0.054999531497992325 -0.049654710904174795 0 0.055999617230217548 -0.050924334027377643 0 0.05499969939119017 -0.052503868606985908 0 0.054999049873572105 -0.052505360521814523 0 0.055263664985247742 -0.053649100333494293 0 0.052850971712323433 -0.055111644818728489 0 0.054998947053146313 -0.054996906090446808 0 0.051127513561963003 -0.054998960444777381 0 0.055999617230217548 -0.050924334027377643 0 0.05499969939119017 -0.052503868606985908 0 0.05654804265461405 -0.052458765074035053 0 0.055263664985247742 -0.053649100333494293 0 0.052989235305411761 -0.053747678615953302 0 0.057250290361264125 -0.051206234521307264 0 0.05654804265461405 -0.052458765074035053 0 0.058252726709311385 -0.052782379679740421 0 0.057250290361264125 -0.051206234521307264 0 0.055999617230217548 -0.050924334027377643 0 0.05654804265461405 -0.052458765074035053 0 0.053606666154561174 -0.054938527285672098 0 0.052850971712323433 -0.055111644818728489 0 0.05166099570608261 -0.055674536120139201 0 0.054997924099846184 -0.05251211562917335 0 0.053606666154561174 -0.054938527285672098 0 0.054998947053146313 -0.054996906090446808 0 0.053606666154561174 -0.054938527285672098 0 0.052850971712323433 -0.055111644818728489 0 0.054998947053146313 -0.054996906090446808 0 0.048454735615277661 -0.055644829836645066 0 0.049396612750967142 -0.05499998908105954 0 0.047669933539736024 -0.054999984585563468 0 0.049175270575995036 -0.056356635268985752 0 0.048454735615277661 -0.055644829836645066 0 0.047526710949221951 -0.05604280507596715 0 0.050014248420087899 -0.054684956438681917 0 0.048161037407870332 -0.054541867523665993 0 0.049175270575995036 -0.056356635268985752 0 0.048454735615277661 -0.055644829836645066 0 0.049396612750967142 -0.05499998908105954 0 0.049175270575995036 -0.056356635268985752 0 0.049396612750967142 -0.05499998908105954 0 0.05013287954298272 -0.055814819358278686 0 0.05013287954298272 -0.055814819358278686 0 0.051123282563276411 -0.054999981570524624 0 0.050823942663730318 -0.056659455517638582 0 0.049396612750967142 -0.05499998908105954 0 0.05013287954298272 -0.055814819358278686 0 0.051123282563276411 -0.054999981570524624 0 0.051123275920588129 -0.055002163563921166 0 0.052989235305411761 -0.053747678615953302 0 0.052850971712323433 -0.055111644818728489 0 0.051127513561963003 -0.054998960444777381 0 0.05166099570608261 -0.055674536120139201 0 0.049175270575995036 -0.056356635268985752 0 0.05013287954298272 -0.055814819358278686 0 0.050823942663730318 -0.056659455517638582 0 0.050014248420087899 -0.054684956438681917 0 0.052989235305411761 -0.053747678615953302 0 0.051030475170217839 -0.053170924933441263 0 0.050179857931049808 -0.052999698402377032 0 0.050453278718382823 -0.05144641829267884 0 0.052989235305411761 -0.053747678615953302 0 0.054736578327455779 -0.051099789259495251 0 0.057250290361264125 -0.051206234521307264 0 0.058252726709311385 -0.052782379679740421 0 0.05870047482573712 -0.050171665846308423 0 0.051030475170217839 -0.053170924933441263 0 0.050453278718382823 -0.05144641829267884 0 0.052094814535419545 -0.051952645124889139 0 0.050739728682144769 -0.04986566709288736 0 0.050453278718382823 -0.05144641829267884 0 0.052304451140202338 -0.050528550416424137 0 0.056853827971524204 -0.049571283631774501 0 0.057250290361264125 -0.051206234521307264 0 0.05870047482573712 -0.050171665846308423 0 0.059114087607136101 -0.046963938397229288 0 0.05870047482573712 -0.050171665846308423 0 0.057576027885342232 -0.048056948929617101 0 0.054620364489645884 -0.046043477239413697 0 0.054736578327455779 -0.051099789259495251 0 0.056853827971524204 -0.049571283631774501 0 0.05870047482573712 -0.050171665846308423 0 0.057576027885342232 -0.048056948929617101 0 0.050453278718382823 -0.05144641829267884 0 0.052304451140202338 -0.050528550416424137 0 0.052094814535419545 -0.051952645124889139 0 0.045027578804364594 -0.057714359005285029 0 0.044391760530796097 -0.056771203454063078 0 0.043473938934528972 -0.057315344466263227 0 0.048198597965093022 -0.047589558589067646 0 0.048057153780865926 -0.048071596443213273 0 0.048373657535315452 -0.0474983170586512 0 0.048897208186708029 -0.049288727191139033 0 0.045386843752527148 -0.053116156338669986 0 0.044391760530796097 -0.056771203454063078 0 0.045130333142398379 -0.056425317331132721 0 0.044422209988047849 -0.056066485672882603 0 0.044391760530796097 -0.056771203454063078 0 0.044422209988047849 -0.056066485672882603 0 0.043797970274512564 -0.056456718216661102 0 0.045027578804364594 -0.057714359005285029 0 0.044391760530796097 -0.056771203454063078 0 0.045130333142398379 -0.056425317331132721 0 0.048897208186708029 -0.049288727191139033 0 0.048543383860606429 -0.055149536409981242 0 0.051030475170217839 -0.053170924933441263 0 0.052094814535419545 -0.051952645124889139 0 0.051878084397572584 -0.05334496578312737 0 0.045130333142398379 -0.056425317331132721 0 0.044798039071322397 -0.055867535605136701 0 0.045104852811135625 -0.055465033953803533 0 0.048543383860606429 -0.055149536409981242 0 0.048161037407870332 -0.054541867523665993 0 0.045130333142398379 -0.056425317331132721 0 0.044798039071322397 -0.055867535605136701 0 0.044422209988047849 -0.056066485672882603 0 0.044422209988047849 -0.056066485672882603 0 0.043792038244498781 -0.055764950420833528 0 0.043797970274512564 -0.056456718216661102 0 0.044422209988047849 -0.056066485672882603 0 0.044542244139757062 -0.055603038595872234 0 0.043792038244498781 -0.055764950420833528 0 0.044798039071322397 -0.055867535605136701 0 0.044422209988047849 -0.056066485672882603 0 0.044542244139757062 -0.055603038595872234 0 0.048161037407870332 -0.054541867523665993 0 0.043882142228481032 -0.055618791556271502 0 0.044963770114573996 -0.054999391439491591 0 0.047512527965784042 -0.056051162586874891 0 0.044514436116524198 -0.055360613974178643 0 0.044542244139757062 -0.055603038595872234 0 0.045104852811135625 -0.055465033953803533 0 0.044514436116524198 -0.055360613974178643 0 0.044542244139757062 -0.055603038595872234 0 0.044136126419428733 -0.055560718903863549 0 0.043792038244498781 -0.055764950420833528 0 0.044542244139757062 -0.055603038595872234 0 0.044514436116524198 -0.055360613974178643 0 0.044136126419428733 -0.055560718903863549 0 0.044798039071322397 -0.055867535605136701 0 0.044542244139757062 -0.055603038595872234 0 0.045104852811135625 -0.055465033953803533 0 0.044963770114573996 -0.054999391439491591 0 0.047670480961597789 -0.055000285723146851 0 0.047512527965784042 -0.056051162586874891 0 0.048454735615277661 -0.055644829836645066 0 0.047669933539736024 -0.054999984585563468 0 0.047526710949221951 -0.05604280507596715 0 0.047670090844702924 -0.055000786452371844 0 0.048161037407870332 -0.054541867523665993 0 0.042259656372907649 -0.054999706553221929 0 0.043463243272615325 -0.055433455573454124 0 0.042751416753912051 -0.055680762359943375 0 0.042259656372907649 -0.054999706553221929 0 0.042751416753912051 -0.055680762359943375 0 0.041688763544799341 -0.055699269308838659 0 0.044963770114573996 -0.054999391439491591 0 0.042259656372907649 -0.054999706553221929 0 0.043463243272615325 -0.055433455573454124 0 0.043463243272615325 -0.055433455573454124 0 0.044514436116524198 -0.055360613974178643 0 0.044136126419428733 -0.055560718903863549 0 0.044963770114573996 -0.054999391439491591 0 0.043463243272615325 -0.055433455573454124 0 0.044514436116524198 -0.055360613974178643 0 0.043463243272615325 -0.055433455573454124 0 0.044136126419428733 -0.055560718903863549 0 0.043792038244498781 -0.055764950420833528 0 0.043463243272615325 -0.055433455573454124 0 0.043792038244498781 -0.055764950420833528 0 0.042751416753912051 -0.055680762359943375 0 0.043792038244498781 -0.055764950420833528 0 0.043043672587343061 -0.056032389519923259 0 0.042751416753912051 -0.055680762359943375 0 0.043792038244498781 -0.055764950420833528 0 0.043043672587343061 -0.056032389519923259 0 0.043797970274512564 -0.056456718216661102 0 0.043043672587343061 -0.056032389519923259 0 0.042290262969377705 -0.0559526159429816 0 0.042793068053440415 -0.05632651842978021 0 0.042290262969377705 -0.0559526159429816 0 0.041688763544799341 -0.055699269308838659 0 0.041381301653227523 -0.055971522794269209 0 0.042290262969377705 -0.0559526159429816 0 0.042751416753912051 -0.055680762359943375 0 0.041688763544799341 -0.055699269308838659 0 0.043043672587343061 -0.056032389519923259 0 0.042290262969377705 -0.0559526159429816 0 0.042751416753912051 -0.055680762359943375 0 0.045386843752527148 -0.053116156338669986 0 0.044205512578220918 -0.052787765247260733 0 0.042290262969377705 -0.0559526159429816 0 0.042793068053440415 -0.05632651842978021 0 0.041381301653227523 -0.055971522794269209 0 0.042793068053440415 -0.05632651842978021 0 0.043473938934528972 -0.057315344466263227 0 0.041381301653227523 -0.055971522794269209 0 0.048057153780865926 -0.048071596443213273 0 0.047421192921721561 -0.04877836339251293 0 0.046367718829874116 -0.049465203359211556 0 0.043797970274512564 -0.056456718216661102 0 0.042793068053440415 -0.05632651842978021 0 0.043473938934528972 -0.057315344466263227 0 0.043043672587343061 -0.056032389519923259 0 0.043797970274512564 -0.056456718216661102 0 0.042793068053440415 -0.05632651842978021 0 0.044391760530796097 -0.056771203454063078 0 0.043797970274512564 -0.056456718216661102 0 0.043473938934528972 -0.057315344466263227 0 0.048057153780865926 -0.048071596443213273 0 0.047969857240588845 -0.047922885695522374 0 0.048373657535315452 -0.0474983170586512 0 0.048057153780865926 -0.048071596443213273 0 0.047421192921721561 -0.04877836339251293 0 0.047969857240588845 -0.047922885695522374 0 0.047421192921721561 -0.04877836339251293 0 0.048026715673743552 -0.047828128545859459 0 0.047969857240588845 -0.047922885695522374 0 0.048026715673743552 -0.047828128545859459 0 0.048321745835259465 -0.047364342222662663 0 0.048238462320671034 -0.047553420143695277 0 0.048026715673743552 -0.047828128545859459 0 0.047969857240588845 -0.047922885695522374 0 0.048321745835259465 -0.047364342222662663 0 0.048321745835259465 -0.047364342222662663 0 0.048529743334012894 -0.047062394648622559 0 0.048343730943390076 -0.047271101716189305 0 0.048321745835259465 -0.047364342222662663 0 0.048529743334012894 -0.047062394648622559 0 0.048930641964440039 -0.046712966609144993 0 0.048529743334012894 -0.047062394648622559 0 0.048513553688868345 -0.047128204263515792 0 0.048343730943390076 -0.047271101716189305 0 0.048321745835259465 -0.047364342222662663 0 0.048930641964440039 -0.046712966609144993 0 0.048373657535315452 -0.0474983170586512 0 0.047969857240588845 -0.047922885695522374 0 0.048321745835259465 -0.047364342222662663 0 0.048373657535315452 -0.0474983170586512 0 0.048198597965093022 -0.047589558589067646 0 0.048373657535315452 -0.0474983170586512 0 0.048611827127313961 -0.047005539765639849 0 0.048897208186708029 -0.049288727191139033 0 0.050038772270491881 -0.043869868194861758 0 0.051456614898561806 -0.04060736673114116 0 0.052642487637141168 -0.042453673500817447 0 0.051036219206737711 -0.042777943826974633 0 0.052376959901502665 -0.044108748025895823 0 0.051036219206737711 -0.042777943826974633 0 0.050181594867624156 -0.045788438726710866 0 0.052642487637141168 -0.042453673500817447 0 0.052376959901502665 -0.044108748025895823 0 0.051036219206737711 -0.042777943826974633 0 0.048930641964440039 -0.046712966609144993 0 0.048611827127313961 -0.047005539765639849 0 0.050181594867624156 -0.045788438726710866 0 0.050038772270491881 -0.043869868194861758 0 0.049989089169212249 -0.046256600681287161 0 0.048930641964440039 -0.046712966609144993 0 0.048373657535315452 -0.0474983170586512 0 0.048611827127313961 -0.047005539765639849 0 0.050181594867624156 -0.045788438726710866 0 0.050831626654433894 -0.046520045682251085 0 0.049124558832985034 -0.046941191963178142 0 0.052376959901502665 -0.044108748025895823 0 0.050181594867624156 -0.045788438726710866 0 0.052626075188267271 -0.045482368639600035 0 0.050181594867624156 -0.045788438726710866 0 0.052626075188267271 -0.045482368639600035 0 0.050831626654433894 -0.046520045682251085 0 0.054293648539570756 -0.045661445138848046 0 0.052626075188267271 -0.045482368639600035 0 0.053161507985234127 -0.04654701633031029 0 0.052626075188267271 -0.045482368639600035 0 0.053161507985234127 -0.04654701633031029 0 0.050831626654433894 -0.046520045682251085 0 0.050831626654433894 -0.046520045682251085 0 0.049124558832985034 -0.046941191963178142 0 0.049772472858639359 -0.047789059750646415 0 0.053161507985234127 -0.04654701633031029 0 0.050831626654433894 -0.046520045682251085 0 0.049772472858639359 -0.047789059750646415 0 0.053064994429784053 -0.046655138954592147 0 0.05183126440795767 -0.047141549565039138 0 0.049124558832985034 -0.046941191963178142 0 0.048644729292694103 -0.047766911851737572 0 0.049772472858639359 -0.047789059750646415 0 0.049124558832985034 -0.046941191963178142 0 0.048576078869088976 -0.047295360727701512 0 0.048513553688868345 -0.047128204263515792 0 0.049124558832985034 -0.046941191963178142 0 0.048576078869088976 -0.047295360727701512 0 0.048644729292694103 -0.047766911851737572 0 0.048576078869088976 -0.047295360727701512 0 0.048386687282382247 -0.047524636890108156 0 0.048644729292694103 -0.047766911851737572 0 0.048576078869088976 -0.047295360727701512 0 0.048513553688868345 -0.047128204263515792 0 0.048348346265740291 -0.047352806618067546 0 0.048529743334012894 -0.047062394648622559 0 0.048930641964440039 -0.046712966609144993 0 0.048513553688868345 -0.047128204263515792 0 0.048930641964440039 -0.046712966609144993 0 0.049124558832985034 -0.046941191963178142 0 0.048513553688868345 -0.047128204263515792 0 0.048930641964440039 -0.046712966609144993 0 0.050181594867624156 -0.045788438726710866 0 0.049124558832985034 -0.046941191963178142 0 0.048242533760390921 -0.047367505751829672 0 0.048180890074639555 -0.047420247383945534 0 0.048216142330164052 -0.047459866513115782 0 0.048242533760390921 -0.047367505751829672 0 0.048216142330164052 -0.047459866513115782 0 0.048280454263030625 -0.047356281564648467 0 0.048280454263030625 -0.047356281564648467 0 0.048336552761464174 -0.047280857141144425 0 0.048343730943390076 -0.047271101716189305 0 0.048242533760390921 -0.047367505751829672 0 0.048280454263030625 -0.047356281564648467 0 0.048336552761464174 -0.047280857141144425 0 0.048513553688868345 -0.047128204263515792 0 0.048336552761464174 -0.047280857141144425 0 0.048343730943390076 -0.047271101716189305 0 0.048513553688868345 -0.047128204263515792 0 0.048336552761464174 -0.047280857141144425 0 0.048348346265740291 -0.047352806618067546 0 0.048242533760390921 -0.047367505751829672 0 0.048336552761464174 -0.047280857141144425 0 0.048348346265740291 -0.047352806618067546 0 0.048242533760390921 -0.047367505751829672 0 0.048348346265740291 -0.047352806618067546 0 0.048220738337798628 -0.047415120423215121 0 0.048576078869088976 -0.047295360727701512 0 0.048348346265740291 -0.047352806618067546 0 0.048386687282382247 -0.047524636890108156 0 0.048348346265740291 -0.047352806618067546 0 0.048386687282382247 -0.047524636890108156 0 0.048237427509803393 -0.04750453875414079 0 0.048348346265740291 -0.047352806618067546 0 0.048220738337798628 -0.047415120423215121 0 0.048237427509803393 -0.04750453875414079 0 0.048220738337798628 -0.047415120423215121 0 0.048154221980285204 -0.047434185499976876 0 0.048237427509803393 -0.04750453875414079 0 0.048242533760390921 -0.047367505751829672 0 0.048180890074639555 -0.047420247383945534 0 0.048220738337798628 -0.047415120423215121 0 0.048180890074639555 -0.047420247383945534 0 0.048220738337798628 -0.047415120423215121 0 0.048154221980285204 -0.047434185499976876 0 0.048154221980285204 -0.047434185499976876 0 0.048031626674824135 -0.047423080111678374 0 0.048109868915804849 -0.047453422811296352 0 0.048154221980285204 -0.047434185499976876 0 0.048031626674824135 -0.047423080111678374 0 0.048101795387352514 -0.047440160209078833 0 0.048031626674824135 -0.047423080111678374 0 0.048109868915804849 -0.047453422811296352 0 0.048019936510301994 -0.047453930165967509 0 0.048180890074639555 -0.047420247383945534 0 0.048154221980285204 -0.047434185499976876 0 0.048109868915804849 -0.047453422811296352 0 0.048109868915804849 -0.047453422811296352 0 0.048019936510301994 -0.047453930165967509 0 0.048103155254371047 -0.047518314892739985 0 0.048019936510301994 -0.047453930165967509 0 0.048103155254371047 -0.047518314892739985 0 0.048051065663917418 -0.047437095921095983 0 0.048031626674824135 -0.047423080111678374 0 0.048019936510301994 -0.047453930165967509 0 0.047906899553256284 -0.047411004382812365 0 0.048019936510301994 -0.047453930165967509 0 0.048051065663917418 -0.047437095921095983 0 0.047906899553256284 -0.047411004382812365 0 0.048109868915804849 -0.047453422811296352 0 0.048103155254371047 -0.047518314892739985 0 0.048175415613517708 -0.0475387954176432 0 0.048103155254371047 -0.047518314892739985 0 0.048175415613517708 -0.0475387954176432 0 0.048216784740509007 -0.047654340695526945 0 0.048216142330164052 -0.047459866513115782 0 0.048109868915804849 -0.047453422811296352 0 0.048175415613517708 -0.0475387954176432 0 0.048180890074639555 -0.047420247383945534 0 0.048216142330164052 -0.047459866513115782 0 0.048109868915804849 -0.047453422811296352 0 0.048216142330164052 -0.047459866513115782 0 0.048175415613517708 -0.0475387954176432 0 0.048247582214414483 -0.047617427356575079 0 0.048175415613517708 -0.0475387954176432 0 0.048247582214414483 -0.047617427356575079 0 0.048216784740509007 -0.047654340695526945 0 0.039767096908817988 -0.053075037834771938 0 0.039864168596734334 -0.05402914025256416 0 0.03152534221979772 -0.058533669315868925 0 0.030491360993448378 -0.058958628304299883 0 0.030743414373011493 -0.05988933452196666 0 0.048247582214414483 -0.047617427356575079 0 0.048365977131649987 -0.047927139069405315 0 0.048216784740509007 -0.047654340695526945 0 0.048247582214414483 -0.047617427356575079 0 0.048291811794865927 -0.047784097005485353 0 0.048365977131649987 -0.047927139069405315 0 0.048291811794865927 -0.047784097005485353 0 0.048260896386695167 -0.047737223678169398 0 0.04827168231201634 -0.047960371873742629 0 0.048260896386695167 -0.047737223678169398 0 0.048166161913880554 -0.047981015544182021 0 0.04827168231201634 -0.047960371873742629 0 0.048291811794865927 -0.047784097005485353 0 0.048260896386695167 -0.047737223678169398 0 0.048262573373127754 -0.047508822491444058 0 0.048216142330164052 -0.047459866513115782 0 0.048247582214414483 -0.047617427356575079 0 0.048262573373127754 -0.047508822491444058 0 0.048247582214414483 -0.047617427356575079 0 0.048291811794865927 -0.047784097005485353 0 0.048262573373127754 -0.047508822491444058 0 0.048216142330164052 -0.047459866513115782 0 0.048280454263030625 -0.047356281564648467 0 0.048262573373127754 -0.047508822491444058 0 0.048262573373127754 -0.047508822491444058 0 0.048343730943390076 -0.047271101716189305 0 0.048238462320671034 -0.047553420143695277 0 0.048280454263030625 -0.047356281564648467 0 0.048262573373127754 -0.047508822491444058 0 0.048343730943390076 -0.047271101716189305 0 0.048321745835259465 -0.047364342222662663 0 0.048343730943390076 -0.047271101716189305 0 0.048238462320671034 -0.047553420143695277 0 0.048260896386695167 -0.047737223678169398 0 0.048262573373127754 -0.047508822491444058 0 0.048238462320671034 -0.047553420143695277 0 0.048260896386695167 -0.047737223678169398 0 0.048238462320671034 -0.047553420143695277 0 0.048166161913880554 -0.047981015544182021 0 0.048026715673743552 -0.047828128545859459 0 0.048238462320671034 -0.047553420143695277 0 0.048166161913880554 -0.047981015544182021 0 0.047421192921721561 -0.04877836339251293 0 0.048026715673743552 -0.047828128545859459 0 0.048166161913880554 -0.047981015544182021 0 0.047421192921721561 -0.04877836339251293 0 0.048166161913880554 -0.047981015544182021 0 0.048251647115668102 -0.048317977025012261 0 0.046640921245064956 -0.048950032322535406 0 0.047304056694866863 -0.049554741197334544 0 0.048291811794865927 -0.047784097005485353 0 0.04827168231201634 -0.047960371873742629 0 0.048321406826785311 -0.048068379582269845 0 0.048166161913880554 -0.047981015544182021 0 0.04827168231201634 -0.047960371873742629 0 0.048251647115668102 -0.048317977025012261 0 0.04827168231201634 -0.047960371873742629 0 0.048251647115668102 -0.048317977025012261 0 0.048321406826785311 -0.048068379582269845 0 0.048251647115668102 -0.048317977025012261 0 0.048343311719153306 -0.048250635468278527 0 0.048321406826785311 -0.048068379582269845 0 0.047304056694866863 -0.049554741197334544 0 0.04143930816484187 -0.053373349027364285 0 0.044368401444191394 -0.051435305137186645 0 0.043442585836337005 -0.053279236740709029 0 0.045124085189753402 -0.05226838641552279 0 0.044205512578220918 -0.052787765247260733 0 0.043833917779133633 -0.053326851667310667 0 0.044368401444191394 -0.051435305137186645 0 0.046367718829874116 -0.049465203359211556 0 0.043442585836337005 -0.053279236740709029 0 0.047421192921721561 -0.04877836339251293 0 0.044368401444191394 -0.051435305137186645 0 0.046367718829874116 -0.049465203359211556 0 0.041381301653227523 -0.055971522794269209 0 0.041562109978200056 -0.055258181573697211 0 0.043442585836337005 -0.053279236740709029 0 0.041688763544799341 -0.055699269308838659 0 0.041381301653227523 -0.055971522794269209 0 0.041562109978200056 -0.055258181573697211 0 0.041688763544799341 -0.055699269308838659 0 0.041562109978200056 -0.055258181573697211 0 0.040708360067344386 -0.055975866726468593 0 0.043442585836337005 -0.053279236740709029 0 0.040708360067344386 -0.055975866726468593 0 0.044182444776035723 -0.055559083239829811 0 0.041562109978200056 -0.055258181573697211 0 0.043442585836337005 -0.053279236740709029 0 0.040708360067344386 -0.055975866726468593 0 0.038114495049386604 -0.055953143378631977 0 0.039017338670724537 -0.055541827824270015 0 0.036849725609062536 -0.054999938057160913 0 0.039017338670724537 -0.055541827824270015 0 0.040708360067344386 -0.055975866726468593 0 0.037789407607482041 -0.056603214709054127 0 0.039017338670724537 -0.055541827824270015 0 0.039557721015428954 -0.054999366185159701 0 0.036849725609062536 -0.054999938057160913 0 0.040964284574665347 -0.055973926911056869 0 0.039979854350255695 -0.055100194114534054 0 0.038114495049386604 -0.055953143378631977 0 0.039017338670724537 -0.055541827824270015 0 0.037789407607482041 -0.056603214709054127 0 0.039349994567870555 -0.055879088254106507 0 0.039979854350255695 -0.055100194114534054 0 0.039017338670724537 -0.055541827824270015 0 0.039557721015428954 -0.054999366185159701 0 0.040708360067344386 -0.055975866726468593 0 0.042259656372907649 -0.054999706553221929 0 0.039557721015428954 -0.054999366185159701 0 0.040708360067344386 -0.055975866726468593 0 0.042259656372907649 -0.054999706553221929 0 0.041688763544799341 -0.055699269308838659 0 0.040708360067344386 -0.055975866726468593 0 0.035075578988339066 -0.056535575679026152 0 0.036849725609062536 -0.054999938057160913 0 0.034145390518316256 -0.055000005480634072 0 0.035075578988339066 -0.056535575679026152 0 0.036849725609062536 -0.054999938057160913 0 0.03787217746535039 -0.056454033687762979 0 0.035159243843090132 -0.054976574528280704 0 0.039979854350255695 -0.055100194114534054 0 0.038114495049386604 -0.055953143378631977 0 0.036849725609062536 -0.054999938057160913 0 0.03787217746535039 -0.056454033687762979 0 0.043442585836337005 -0.053279236740709029 0 0.044182444776035723 -0.055559083239829811 0 0.045124085189753402 -0.05226838641552279 0 0.035596151820545451 -0.053570942267428784 0 0.039917980877155736 -0.053464841877924774 0 0.038198500586847449 -0.057351279283918512 0 0.039979854350255695 -0.055100194114534054 0 0.04143930816484187 -0.053373349027364285 0 0.035596151820545451 -0.053570942267428784 0 0.038198500586847449 -0.057351279283918512 0 0.034089040815883778 -0.056095528756492152 0 0.04143930816484187 -0.053373349027364285 0 0.031284373975606912 -0.056514389128562173 0 0.031148703348485192 -0.057560316525519378 0 0.032337425847179968 -0.056967935560584465 0 0.030751122162859346 -0.056566235504717392 0 0.04143930816484187 -0.053373349027364285 0 0.039767096908817988 -0.053075037834771938 0 0.048291811794865927 -0.047784097005485353 0 0.048321406826785311 -0.048068379582269845 0 0.048365977131649987 -0.047927139069405315 0 0.048343311719153306 -0.048250635468278527 0 0.048321406826785311 -0.048068379582269845 0 0.048365977131649987 -0.047927139069405315 0 0.031148703348485192 -0.057560316525519378 0 0.032337425847179968 -0.056967935560584465 0 0.03152534221979772 -0.058533669315868925 0 0.031148703348485192 -0.057560316525519378 0 0.03152534221979772 -0.058533669315868925 0 0.03014487289145781 -0.058108090298857731 0 0.03152534221979772 -0.058533669315868925 0 0.03014487289145781 -0.058108090298857731 0 0.030491360993448378 -0.058958628304299883 0 0.03014487289145781 -0.058108090298857731 0 0.029816839997362704 -0.058712083112569736 0 0.030491360993448378 -0.058958628304299883 0 0.029338743388002395 -0.058158595514265971 0 0.028681628400624846 -0.058315820827156285 0 0.029116108987761707 -0.058723877543865453 0 0.029338743388002395 -0.058158595514265971 0 0.029116108987761707 -0.058723877543865453 0 0.029816839997362704 -0.058712083112569736 0 0.03014487289145781 -0.058108090298857731 0 0.029338743388002395 -0.058158595514265971 0 0.029816839997362704 -0.058712083112569736 0 0.03014487289145781 -0.058108090298857731 0 0.029338743388002395 -0.058158595514265971 0 0.029608274702573104 -0.057470756244202927 0 0.029338743388002395 -0.058158595514265971 0 0.028853984151284179 -0.057597038985437547 0 0.028681628400624846 -0.058315820827156285 0 0.028853984151284179 -0.057597038985437547 0 0.029608274702573104 -0.057470756244202927 0 0.029265718627064414 -0.056900769410152402 0 0.029338743388002395 -0.058158595514265971 0 0.028853984151284179 -0.057597038985437547 0 0.029608274702573104 -0.057470756244202927 0 0.028853984151284179 -0.057597038985437547 0 0.029265718627064414 -0.056900769410152402 0 0.028446087488698479 -0.05692088010751551 0 0.031148703348485192 -0.057560316525519378 0 0.03014487289145781 -0.058108090298857731 0 0.030751122162859346 -0.056566235504717392 0 0.029608274702573104 -0.057470756244202927 0 0.029265718627064414 -0.056900769410152402 0 0.030751122162859346 -0.056566235504717392 0 0.03014487289145781 -0.058108090298857731 0 0.029608274702573104 -0.057470756244202927 0 0.030751122162859346 -0.056566235504717392 0 0.031284373975606912 -0.056514389128562173 0 0.02974892154748272 -0.05588871185476222 0 0.034089040815883778 -0.056095528756492152 0 0.029989815792614605 -0.054834173596220892 0 0.031259988508162813 -0.053692269919424294 0 0.035596151820545451 -0.053570942267428784 0 0.034089040815883778 -0.056095528756492152 0 0.031259988508162813 -0.053692269919424294 0 0.029265718627064414 -0.056900769410152402 0 0.030751122162859346 -0.056566235504717392 0 0.029212040321909865 -0.056157574891642692 0 0.02910410135380764 -0.056214285161320182 0 0.029732363527766936 -0.055794296960320462 0 0.02784520701280907 -0.055880297995118823 0 0.02910410135380764 -0.056214285161320182 0 0.029222337711829728 -0.056251543530504398 0 0.028446087488698479 -0.05692088010751551 0 0.029265718627064414 -0.056900769410152402 0 0.029212040321909865 -0.056157574891642692 0 0.028446087488698479 -0.05692088010751551 0 0.02910410135380764 -0.056214285161320182 0 0.029227085713088977 -0.05625218977053642 0 0.029732363527766936 -0.055794296960320462 0 0.029687354520536016 -0.055886883749462081 0 0.02974892154748272 -0.05588871185476222 0 0.02974892154748272 -0.05588871185476222 0 0.031592879792079823 -0.055762105841663183 0 0.031655908140611581 -0.055000259658865437 0 0.032353539494319926 -0.056617447879506268 0 0.030394811512727125 -0.055720971646771603 0 0.031655908140611581 -0.055000259658865437 0 0.032353539494319926 -0.056617447879506268 0 0.034145112533868198 -0.054999867142731716 0 0.035075578988339066 -0.056535575679026152 0 0.032355184525675068 -0.056590783887908995 0 0.034145390518316256 -0.055000005480634072 0 0.035159243843090132 -0.054976574528280704 0 0.031592879792079823 -0.055762105841663183 0 0.031592879792079823 -0.055762105841663183 0 0.034144979990418607 -0.05500059617032102 0 0.025704960119315109 -0.056225109154029555 0 0.027499798467363151 -0.055790424113382898 0 0.029288550675617246 -0.056704218179287884 0 0.025913387056921169 -0.055259472324869739 0 0.029165659904154678 -0.054999988482731882 0 0.025615184877548665 -0.054981217625400543 0 0.027499798467363151 -0.055790424113382898 0 0.029165798546145011 -0.054999071347385797 0 0.027499798467363151 -0.055790424113382898 0 0.029165798546145011 -0.054999071347385797 0 0.029288550675617246 -0.056704218179287884 0 0.031655908140611581 -0.055000259658865437 0 0.029165798546145011 -0.054999071347385797 0 0.030394811512727125 -0.055720971646771603 0 0.032353539494319926 -0.056617447879506268 0 0.030394811512727125 -0.055720971646771603 0 0.029288550675617246 -0.056704218179287884 0 0.031592879792079823 -0.055762105841663183 0 0.028412068840329978 -0.056334273254709223 0 0.029165798546145011 -0.054999071347385797 0 0.030394811512727125 -0.055720971646771603 0 0.029288550675617246 -0.056704218179287884 0 0.02784520701280907 -0.055880297995118823 0 0.027469986537538519 -0.057033720291443692 0 0.028446087488698479 -0.05692088010751551 0 0.02910410135380764 -0.056214285161320182 0 0.02784520701280907 -0.055880297995118823 0 0.028446087488698479 -0.05692088010751551 0 0.02974892154748272 -0.05588871185476222 0 0.028430244776455775 -0.056939894071752366 0 0.025964913097058572 -0.056232131048058652 0 0.028412068840329978 -0.056334273254709223 0 0.02784520701280907 -0.055880297995118823 0 0.026622052944306571 -0.05669725037688772 0 0.027469986537538519 -0.057033720291443692 0 0.025704960119315109 -0.056225109154029555 0 0.02784520701280907 -0.055880297995118823 0 0.026622052944306571 -0.05669725037688772 0 0.026354295822506445 -0.057633151748451947 0 0.027469986537538519 -0.057033720291443692 0 0.027894854089181482 -0.057816744239718061 0 0.026354295822506445 -0.057633151748451947 0 0.026622052944306571 -0.05669725037688772 0 0.027469986537538519 -0.057033720291443692 0 0.027469986537538519 -0.057033720291443692 0 0.028446087488698479 -0.05692088010751551 0 0.027894854089181482 -0.057816744239718061 0 0.028853984151284179 -0.057597038985437547 0 0.028446087488698479 -0.05692088010751551 0 0.027894854089181482 -0.057816744239718061 0 0.028853984151284179 -0.057597038985437547 0 0.027894854089181482 -0.057816744239718061 0 0.028681628400624846 -0.058315820827156285 0 0.027894854089181482 -0.057816744239718061 0 0.028181073157059783 -0.058502876875530067 0 0.028681628400624846 -0.058315820827156285 0 0.028181073157059783 -0.058502876875530067 0 0.027414059794040373 -0.058498122426751155 0 0.028334924739703306 -0.059046349076131564 0 0.028681628400624846 -0.058315820827156285 0 0.028576733295312781 -0.058814799201710011 0 0.029116108987761707 -0.058723877543865453 0 0.028181073157059783 -0.058502876875530067 0 0.028681628400624846 -0.058315820827156285 0 0.028576733295312781 -0.058814799201710011 0 0.025980870241020509 -0.057796818438758314 0 0.027650207137136434 -0.059540433110202552 0 0.026354295822506445 -0.057633151748451947 0 0.027894854089181482 -0.057816744239718061 0 0.027414059794040373 -0.058498122426751155 0 0.027894854089181482 -0.057816744239718061 0 0.028181073157059783 -0.058502876875530067 0 0.027414059794040373 -0.058498122426751155 0 0.027650207137136434 -0.059540433110202552 0 0.024301993786620762 -0.058755047537283604 0 0.025688046814739324 -0.060356074184904317 0 0.026843500211412331 -0.059707741322065272 0 0.027760160626763546 -0.060916597161049753 0 0.018060281886105891 -0.056925407156107728 0 0.018107647961675608 -0.056718643489018006 0 0.018222040203225334 -0.056606065217216048 0 0.02159158744632024 -0.058627607528322592 0 0.024301993786620762 -0.058755047537283604 0 0.018107647961675608 -0.056718643489018006 0 0.018181562061467208 -0.056643345173324436 0 0.018138643051931237 -0.056625612286650535 0 0.018107647961675608 -0.056718643489018006 0 0.018181562061467208 -0.056643345173324436 0 0.018222040203225334 -0.056606065217216048 0 0.018099070335567003 -0.056560059608891225 0 0.018107647961675608 -0.056718643489018006 0 0.018138643051931237 -0.056625612286650535 0 0.018181562061467208 -0.056643345173324436 0 0.018286971697888711 -0.056617306866824944 0 0.018222040203225334 -0.056606065217216048 0 0.018286971697888711 -0.056617306866824944 0 0.018222040203225334 -0.056606065217216048 0 0.018488373954776947 -0.056599259534809522 0 0.02836162710244023 -0.059343865916113084 0 0.029008881398738747 -0.059278410725041045 0 0.029303809354944005 -0.060230259319342311 0 0.024301993786620762 -0.058755047537283604 0 0.022517162863463197 -0.058585194517682848 0 0.018181562061467208 -0.056643345173324436 0 0.018286971697888711 -0.056617306866824944 0 0.018138643051931237 -0.056625612286650535 0 0.02836162710244023 -0.059343865916113084 0 0.028614412359539019 -0.059134045010957662 0 0.029008881398738747 -0.059278410725041045 0 0.027414059794040373 -0.058498122426751155 0 0.02836162710244023 -0.059343865916113084 0 0.028334924739703306 -0.059046349076131564 0 0.028423780289200239 -0.059231922898094987 0 0.02836162710244023 -0.059343865916113084 0 0.028614412359539019 -0.059134045010957662 0 0.028423780289200239 -0.059231922898094987 0 0.02836162710244023 -0.059343865916113084 0 0.028334924739703306 -0.059046349076131564 0 0.028181073157059783 -0.058502876875530067 0 0.028334924739703306 -0.059046349076131564 0 0.028576733295312781 -0.058814799201710011 0 0.028837446422557721 -0.058965438370472543 0 0.028576733295312781 -0.058814799201710011 0 0.029116108987761707 -0.058723877543865453 0 0.028837446422557721 -0.058965438370472543 0 0.028614412359539019 -0.059134045010957662 0 0.028576733295312781 -0.058814799201710011 0 0.028837446422557721 -0.058965438370472543 0 0.028614412359539019 -0.059134045010957662 0 0.029008881398738747 -0.059278410725041045 0 0.028423780289200239 -0.059231922898094987 0 0.028334924739703306 -0.059046349076131564 0 0.028614412359539019 -0.059134045010957662 0 0.028334924739703306 -0.059046349076131564 0 0.028614412359539019 -0.059134045010957662 0 0.028576733295312781 -0.058814799201710011 0 0.028837446422557721 -0.058965438370472543 0 0.029116108987761707 -0.058723877543865453 0 0.029008881398738747 -0.059278410725041045 0 0.029116108987761707 -0.058723877543865453 0 0.029751965319401604 -0.059299092284178054 0 0.029008881398738747 -0.059278410725041045 0 0.029116108987761707 -0.058723877543865453 0 0.029816839997362704 -0.058712083112569736 0 0.029751965319401604 -0.059299092284178054 0 0.029751965319401604 -0.059299092284178054 0 0.030491360993448378 -0.058958628304299883 0 0.030743414373011493 -0.05988933452196666 0 0.029816839997362704 -0.058712083112569736 0 0.029751965319401604 -0.059299092284178054 0 0.030491360993448378 -0.058958628304299883 0 0.029751965319401604 -0.059299092284178054 0 0.030743414373011493 -0.05988933452196666 0 0.029303809354944005 -0.060230259319342311 0 0.029751965319401604 -0.059299092284178054 0 0.029008881398738747 -0.059278410725041045 0 0.029303809354944005 -0.060230259319342311 0 0.018488373954776947 -0.056599259534809522 0 0.018571009151848766 -0.056652738858591248 0 0.018426918611667061 -0.056647031161799824 0 0.018488373954776947 -0.056599259534809522 0 0.018698192746957054 -0.056627763326269544 0 0.018571009151848766 -0.056652738858591248 0 0.022517162863463197 -0.058585194517682848 0 0.036119389864748407 -0.052666377523893804 0 0.018571009151848766 -0.056652738858591248 0 0.01852112880362335 -0.056666019425866201 0 0.018426918611667061 -0.056647031161799824 0 0.030743414373011493 -0.05988933452196666 0 0.029303809354944005 -0.060230259319342311 0 0.030137045089807735 -0.061070208633722138 0 0.039864168596734334 -0.05402914025256416 0 0.036119389864748407 -0.052666377523893804 0 0.048103155254371047 -0.047518314892739985 0 0.048216784740509007 -0.047654340695526945 0 0.04810150636544773 -0.047541818493893322 0 0.048103155254371047 -0.047518314892739985 0 0.04810150636544773 -0.047541818493893322 0 0.048051065663917418 -0.047437095921095983 0 0.046040204939240187 -0.045838222460993013 0 0.045785113845179047 -0.046464333452620264 0 0.046677406193827098 -0.046408744031728649 0 0.036119389864748407 -0.052666377523893804 0 0.032067932033931219 -0.05184872189846023 0 0.036119389864748407 -0.052666377523893804 0 0.047909242463160397 -0.04703031695227948 0 0.018698192746957054 -0.056627763326269544 0 0.018571009151848766 -0.056652738858591248 0 0.018636296997651011 -0.05659984232173202 0 0.018571009151848766 -0.056652738858591248 0 0.018571713932942688 -0.056672160853620625 0 0.018636296997651011 -0.05659984232173202 0 0.018571009151848766 -0.056652738858591248 0 0.018571713932942688 -0.056672160853620625 0 0.01852112880362335 -0.056666019425866201 0 0.016132757152383326 -0.05583419271045878 0 0.017161644924130286 -0.055924346448282661 0 0.018512975158555024 -0.056705655219857432 0 0.018571713932942688 -0.056672160853620625 0 0.01852112880362335 -0.056666019425866201 0 0.018512975158555024 -0.056705655219857432 0 0.01852112880362335 -0.056666019425866201 0 0.018426918611667061 -0.056647031161799824 0 0.017588379183327393 -0.053323988986586891 0 0.01420298795506908 -0.053817375760723707 0 0.015682131047585819 -0.052394793970359038 0 0.017798535513274951 -0.054777634763838602 0 0.016132757152383326 -0.05583419271045878 0 0.018103669624556087 -0.056425457069789305 0 0.017961880022221089 -0.056453254934036662 0 0.018098300968217008 -0.056527995534727704 0 0.018099070335567003 -0.056560059608891225 0 0.018098300968217008 -0.056527995534727704 0 0.018138643051931237 -0.056625612286650535 0 0.017961880022221089 -0.056453254934036662 0 0.018098300968217008 -0.056527995534727704 0 0.018138643051931237 -0.056625612286650535 0 0.018286971697888711 -0.056617306866824944 0 0.018138643051931237 -0.056625612286650535 0 0.018426918611667061 -0.056647031161799824 0 0.016132757152383326 -0.05583419271045878 0 0.018775408036211898 -0.057048270249187252 0 0.018512975158555024 -0.056705655219857432 0 0.018138643051931237 -0.056625612286650535 0 0.018426918611667061 -0.056647031161799824 0 0.018286971697888711 -0.056617306866824944 0 0.018488373954776947 -0.056599259534809522 0 0.018426918611667061 -0.056647031161799824 0 0.014387642707260475 -0.049927529062118552 0 0.016863520625766269 -0.049088276900790144 0 0.013558592151086683 -0.047454718544446821 0 0.014387642707260475 -0.049927529062118552 0 0.012459913481854266 -0.050935530344916644 0 0.013558592151086683 -0.047454718544446821 0 0.014387642707260475 -0.049927529062118552 0 0.014435019139283536 -0.051455008275577474 0 0.012459913481854266 -0.050935530344916644 0 0.017690679003729462 -0.051945353102817053 0 0.016863520625766269 -0.049088276900790144 0 0.015737875524798575 -0.051076554194872829 0 0.014387642707260475 -0.049927529062118552 0 0.016863520625766269 -0.049088276900790144 0 0.015737875524798575 -0.051076554194872829 0 0.017690679003729462 -0.051945353102817053 0 0.015737875524798575 -0.051076554194872829 0 0.015682131047585819 -0.052394793970359038 0 0.017588379183327393 -0.053323988986586891 0 0.017690679003729462 -0.051945353102817053 0 0.015682131047585819 -0.052394793970359038 0 0.015682131047585819 -0.052394793970359038 0 0.014435019139283536 -0.051455008275577474 0 0.014193520140772482 -0.052292217573478746 0 0.018588361087815079 -0.056670628940262827 0 0.018571713932942688 -0.056672160853620625 0 0.01871138821960255 -0.056457567186530923 0 0.01420298795506908 -0.053817375760723707 0 0.015682131047585819 -0.052394793970359038 0 0.014193520140772482 -0.052292217573478746 0 0.01420298795506908 -0.053817375760723707 0 0.014193520140772482 -0.052292217573478746 0 0.012459913481854266 -0.050935530344916644 0 0.015737875524798575 -0.051076554194872829 0 0.015682131047585819 -0.052394793970359038 0 0.014435019139283536 -0.051455008275577474 0 0.014387642707260475 -0.049927529062118552 0 0.015737875524798575 -0.051076554194872829 0 0.014435019139283536 -0.051455008275577474 0 0.014435019139283536 -0.051455008275577474 0 0.014193520140772482 -0.052292217573478746 0 0.012459913481854266 -0.050935530344916644 0 0.016132757152383326 -0.05583419271045878 0 0.028955962034381402 -0.048002929275838088 0 0.018571713932942688 -0.056672160853620625 0 0.018636296997651011 -0.05659984232173202 0 0.01871138821960255 -0.056457567186530923 0 0.032067932033931219 -0.05184872189846023 0 0.028955962034381402 -0.048002929275838088 0 0.045785113845179047 -0.046464333452620264 0 0.045573371538652485 -0.047045483329884022 0 0.046042226451075224 -0.047039812628023057 0 0.045785113845179047 -0.046464333452620264 0 0.046677406193827098 -0.046408744031728649 0 0.046502527557118353 -0.046880847354308558 0 0.045785113845179047 -0.046464333452620264 0 0.046042226451075224 -0.047039812628023057 0 0.046502527557118353 -0.046880847354308558 0 0.046042226451075224 -0.047039812628023057 0 0.046502527557118353 -0.046880847354308558 0 0.046315802427171364 -0.0472485865540824 0 0.046502527557118353 -0.046880847354308558 0 0.046315802427171364 -0.0472485865540824 0 0.046743294492190737 -0.047304012186884424 0 0.046315802427171364 -0.0472485865540824 0 0.046370980617650132 -0.047415776486523231 0 0.046743294492190737 -0.047304012186884424 0 0.046042226451075224 -0.047039812628023057 0 0.046315802427171364 -0.0472485865540824 0 0.046023008882754152 -0.047473562968137775 0 0.046315802427171364 -0.0472485865540824 0 0.046370980617650132 -0.047415776486523231 0 0.046023008882754152 -0.047473562968137775 0 0.046370980617650132 -0.047415776486523231 0 0.046582470614684492 -0.04747549442396256 0 0.046743294492190737 -0.047304012186884424 0 0.028955962034381402 -0.048002929275838088 0 0.027218880275202129 -0.042060291259918788 0 0.041451160706017627 -0.038000516695894271 0 0.041771912318150424 -0.038290670092562477 0 0.041031103791732228 -0.038484397896583894 0 0.045573371538652485 -0.047045483329884022 0 0.046042226451075224 -0.047039812628023057 0 0.046023008882754152 -0.047473562968137775 0 0.028955962034381402 -0.048002929275838088 0 0.044045048933310599 -0.043672560362389361 0 0.041771912318150424 -0.038290670092562477 0 0.041757344850314508 -0.038683273094366859 0 0.041031103791732228 -0.038484397896583894 0 0.041757344850314508 -0.038683273094366859 0 0.04136842265085261 -0.03912936162182247 0 0.041031103791732228 -0.038484397896583894 0 0.046370980617650132 -0.047415776486523231 0 0.046023008882754152 -0.047473562968137775 0 0.046300820927584238 -0.047727027732060084 0 0.046370980617650132 -0.047415776486523231 0 0.046300820927584238 -0.047727027732060084 0 0.046582470614684492 -0.04747549442396256 0 0.044045048933310599 -0.043672560362389361 0 0.044397203636383123 -0.040227047717984188 0 0.041771912318150424 -0.038290670092562477 0 0.041757344850314508 -0.038683273094366859 0 0.042277662223967546 -0.038626994888493617 0 0.041757344850314508 -0.038683273094366859 0 0.042277662223967546 -0.038626994888493617 0 0.042130890399834975 -0.038780548966944266 0 0.042277662223967546 -0.038626994888493617 0 0.042257673977699035 -0.038729076961322627 0 0.042385936358106752 -0.038874045832794579 0 0.042277662223967546 -0.038626994888493617 0 0.042257673977699035 -0.038729076961322627 0 0.042130890399834975 -0.038780548966944266 0 0.042277662223967546 -0.038626994888493617 0 0.042665502569113244 -0.039087333078710242 0 0.043509906185884122 -0.039329643912346064 0 0.044397203636383123 -0.040227047717984188 0 0.042604969135959229 -0.038103925841065533 0 0.041913614949248126 -0.036342014172018121 0 0.043509906185884122 -0.039329643912346064 0 0.043737619549904933 -0.037416012678173162 0 0.042385936358106752 -0.038874045832794579 0 0.042665502569113244 -0.039087333078710242 0 0.042009153602261685 -0.038994747939070616 0 0.042277662223967546 -0.038626994888493617 0 0.042385936358106752 -0.038874045832794579 0 0.042665502569113244 -0.039087333078710242 0 0.042257673977699035 -0.038729076961322627 0 0.042385936358106752 -0.038874045832794579 0 0.042130890399834975 -0.038780548966944266 0 0.042385936358106752 -0.038874045832794579 0 0.042130890399834975 -0.038780548966944266 0 0.042009153602261685 -0.038994747939070616 0 0.042665502569113244 -0.039087333078710242 0 0.04201267595569224 -0.039654242914463983 0 0.042749329699146556 -0.039559341015089837 0 0.042665502569113244 -0.039087333078710242 0 0.042009153602261685 -0.038994747939070616 0 0.04201267595569224 -0.039654242914463983 0 0.042665502569113244 -0.039087333078710242 0 0.042749329699146556 -0.039559341015089837 0 0.043509906185884122 -0.039329643912346064 0 0.041757344850314508 -0.038683273094366859 0 0.042130890399834975 -0.038780548966944266 0 0.042009153602261685 -0.038994747939070616 0 0.041757344850314508 -0.038683273094366859 0 0.04136842265085261 -0.03912936162182247 0 0.042009153602261685 -0.038994747939070616 0 0.04136842265085261 -0.03912936162182247 0 0.042009153602261685 -0.038994747939070616 0 0.04201267595569224 -0.039654242914463983 0 0.04136842265085261 -0.03912936162182247 0 0.04018631928276762 -0.039547252382238288 0 0.041031103791732228 -0.038484397896583894 0 0.04136842265085261 -0.03912936162182247 0 0.04018631928276762 -0.039547252382238288 0 0.040958487203749727 -0.040042153086476309 0 0.014833648217904567 -0.043245657689689986 0 0.013558592151086683 -0.047454718544446821 0 0.01591038902730189 -0.046320295063971284 0 0.02745238277309436 -0.042814374494135637 0 0.027218880275202129 -0.042060291259918788 0 0.01846773955947079 -0.045330911474989841 0 0.016863520625766269 -0.049088276900790144 0 0.01591038902730189 -0.046320295063971284 0 0.016863520625766269 -0.049088276900790144 0 0.013558592151086683 -0.047454718544446821 0 0.01591038902730189 -0.046320295063971284 0 0.01846773955947079 -0.045330911474989841 0 0.018829549728927895 -0.041529005066219316 0 0.014833648217904567 -0.043245657689689986 0 0.01846773955947079 -0.045330911474989841 0 0.014833648217904567 -0.043245657689689986 0 0.01591038902730189 -0.046320295063971284 0 0.04018631928276762 -0.039547252382238288 0 0.039379368918231739 -0.040909395043293689 0 0.039677542665245272 -0.040923438137312265 0 0.02745238277309436 -0.042814374494135637 0 0.026597662575356663 -0.033098386118185309 0 0.018829549728927895 -0.041529005066219316 0 0.014833648217904567 -0.043245657689689986 0 0.016650377235935147 -0.038606342237494408 0 0.04018631928276762 -0.039547252382238288 0 0.040958487203749727 -0.040042153086476309 0 0.039677542665245272 -0.040923438137312265 0 0.031267203867641077 -0.010130553108650979 0 0.033679427878912781 -0.013851052599033348 0 0.035761295162654888 -0.012335919517075191 0 0.034360380097772737 -0.029002216676004621 0 0.03912076263482523 -0.025270798546929381 0 0.040958487203749727 -0.040042153086476309 0 0.039677542665245272 -0.040923438137312265 0 0.04157513121485186 -0.041041202289580803 0 0.031267203867641077 -0.010130553108650979 0 0.035761295162654888 -0.012335919517075191 0 0.037678305202121058 -0.010740034634160314 0 0.026597662575356663 -0.033098386118185309 0 0.034360380097772737 -0.029002216676004621 0 0.030434371596277369 -0.01005027133023155 0 0.031267203867641077 -0.010130553108650979 0 0.02955365759370605 -0.011836271990955088 0 0.031267203867641077 -0.010130553108650979 0 0.02955365759370605 -0.011836271990955088 0 0.033679427878912781 -0.013851052599033348 0 0.028643815750185722 -0.010113493444929305 0 0.031208248273764623 -0.01078991969093635 0 0.026808016254108991 -0.0090538642412838037 0 0.027352584336090797 -0.008330500655552818 0 0.028028420994841936 -0.008768351923003995 0 0.027352584336090797 -0.008330500655552818 0 0.028834026780342099 -0.0077963253957063919 0 0.028028420994841936 -0.008768351923003995 0 0.033679427878912781 -0.013851052599033348 0 0.037526362664284364 -0.014374752492392114 0 0.035761295162654888 -0.012335919517075191 0 0.028834026780342099 -0.0077963253957063919 0 0.029458110752545581 -0.0084517777562252341 0 0.030665957713146775 -0.0076944983141188283 0 0.029458110752545581 -0.0084517777562252341 0 0.028028420994841936 -0.008768351923003995 0 0.029224481886594288 -0.0094192644379516473 0 0.028834026780342099 -0.0077963253957063919 0 0.029458110752545581 -0.0084517777562252341 0 0.028028420994841936 -0.008768351923003995 0 0.026808016254108991 -0.0090538642412838037 0 0.028028420994841936 -0.008768351923003995 0 0.0273123228822151 -0.0097002256060854091 0 0.040009876746443088 -0.014508398534281347 0 0.038369970893268893 -0.012318620052032865 0 0.041885531908593385 -0.013158867532243155 0 0.040009876746443088 -0.014508398534281347 0 0.041885531908593385 -0.013158867532243155 0 0.041614486432589637 -0.016668727808115742 0 0.035312831235792756 -0.010773562680496507 0 0.035223772254704445 -0.012074731109745157 0 0.029458110752545581 -0.0084517777562252341 0 0.030438477907404563 -0.0088146804027814524 0 0.030665957713146775 -0.0076944983141188283 0 0.029458110752545581 -0.0084517777562252341 0 0.030438477907404563 -0.0088146804027814524 0 0.029224481886594288 -0.0094192644379516473 0 0.031879687889043024 -0.0086622407347922634 0 0.030438477907404563 -0.0088146804027814524 0 0.030665957713146775 -0.0076944983141188283 0 0.033679427878912781 -0.013851052599033348 0 0.038306057762162254 -0.015535282651900182 0 0.037526362664284364 -0.014374752492392114 0 0.031208248273764623 -0.01078991969093635 0 0.035223772254704445 -0.012074731109745157 0 0.035223772254704445 -0.012074731109745157 0 0.036904304230984827 -0.014139927266827518 0 0.037526362664284364 -0.014374752492392114 0 0.035761295162654888 -0.012335919517075191 0 0.038288080276537725 -0.013038732806241373 0 0.03836451633215484 -0.015653862804153484 0 0.037526362664284364 -0.014374752492392114 0 0.038288080276537725 -0.013038732806241373 0 0.03836451633215484 -0.015653862804153484 0 0.038288080276537725 -0.013038732806241373 0 0.041128520544371522 -0.012941201677632214 0 0.035223772254704445 -0.012074731109745157 0 0.049639061075449895 -0.018549790160356187 0 0.03836451633215484 -0.015653862804153484 0 0.041128520544371522 -0.012941201677632214 0 0.044246885295092103 -0.01741827274129492 0 0.03912076263482523 -0.025270798546929381 0 0.047627278442972293 -0.027295224267388656 0 0.041128520544371522 -0.012941201677632214 0 0.037678305202121058 -0.010740034634160314 0 0.044641772106048486 -0.01120415718054261 0 0.04157513121485186 -0.041041202289580803 0 0.042837961181006294 -0.040248451868048492 0 0.043867320400105242 -0.041244516657240542 0 0.035761295162654888 -0.012335919517075191 0 0.038288080276537725 -0.013038732806241373 0 0.037678305202121058 -0.010740034634160314 0 0.038288080276537725 -0.013038732806241373 0 0.041128520544371522 -0.012941201677632214 0 0.037678305202121058 -0.010740034634160314 0 0.04136842265085261 -0.03912936162182247 0 0.040958487203749727 -0.040042153086476309 0 0.04201267595569224 -0.039654242914463983 0 0.040958487203749727 -0.040042153086476309 0 0.04157513121485186 -0.041041202289580803 0 0.04201267595569224 -0.039654242914463983 0 0.04157513121485186 -0.041041202289580803 0 0.04201267595569224 -0.039654242914463983 0 0.042837961181006294 -0.040248451868048492 0 0.04201267595569224 -0.039654242914463983 0 0.042837961181006294 -0.040248451868048492 0 0.042749329699146556 -0.039559341015089837 0 0.042837961181006294 -0.040248451868048492 0 0.042749329699146556 -0.039559341015089837 0 0.043509906185884122 -0.039329643912346064 0 0.043509906185884122 -0.039329643912346064 0 0.044047646928231536 -0.040355099816053668 0 0.045575414683476263 -0.039669657183963807 0 0.042837961181006294 -0.040248451868048492 0 0.043509906185884122 -0.039329643912346064 0 0.044047646928231536 -0.040355099816053668 0 0.042837961181006294 -0.040248451868048492 0 0.044047646928231536 -0.040355099816053668 0 0.043867320400105242 -0.041244516657240542 0 0.044047646928231536 -0.040355099816053668 0 0.045575414683476263 -0.039669657183963807 0 0.047008507740962741 -0.042145007143828281 0 0.045575414683476263 -0.039669657183963807 0 0.047008507740962741 -0.042145007143828281 0 0.047645045170954574 -0.040262194964078721 0 0.047645045170954574 -0.040262194964078721 0 0.048441898212165664 -0.038607969802049232 0 0.046612381753816587 -0.038725804717711684 0 0.045575414683476263 -0.039669657183963807 0 0.047645045170954574 -0.040262194964078721 0 0.046612381753816587 -0.038725804717711684 0 0.06092137461715013 -0.025202560927176036 0 0.060048843423373022 -0.024891404214162315 0 0.060730036890292556 -0.025633015107191799 0 0.054207359089626803 -0.034073167497366483 0 0.047627278442972293 -0.027295224267388656 0 0.044047646928231536 -0.040355099816053668 0 0.047008507740962741 -0.042145007143828281 0 0.043975129360651823 -0.042063384563600807 0 0.044464291044071548 -0.043652041999408829 0 0.047627278442972293 -0.027295224267388656 0 0.060048843423373022 -0.024891404214162315 0 0.060730036890292556 -0.025633015107191799 0 0.059992507412807379 -0.025838750547980547 0 0.041128520544371522 -0.012941201677632214 0 0.044641772106048486 -0.01120415718054261 0 0.044246885295092103 -0.01741827274129492 0 0.047627278442972293 -0.027295224267388656 0 0.049639061075449895 -0.018549790160356187 0 0.060730036890292556 -0.025633015107191799 0 0.061209595198452371 -0.025863770964017371 0 0.061350105495419908 -0.025724203987895447 0 0.06092137461715013 -0.025202560927176036 0 0.060730036890292556 -0.025633015107191799 0 0.061350105495419908 -0.025724203987895447 0 0.060730036890292556 -0.025633015107191799 0 0.061084399450594198 -0.02616536383801598 0 0.061209595198452371 -0.025863770964017371 0 0.058701807576676875 -0.023696209820624051 0 0.049639061075449895 -0.018549790160356187 0 0.060730036890292556 -0.025633015107191799 0 0.061084399450594198 -0.02616536383801598 0 0.059992507412807379 -0.025838750547980547 0 0.053908092926226829 -0.019948482658185118 0 0.050444941852293278 -0.020504380800835349 0 0.05316834024412765 -0.021940054580581458 0 0.049639061075449895 -0.018549790160356187 0 0.041082161592815268 -0.015347417214305797 0 0.053908092926226829 -0.019948482658185118 0 0.050444941852293278 -0.020504380800835349 0 0.049541204576536081 -0.019649915791699491 0 0.050444941852293278 -0.020504380800835349 0 0.049541204576536081 -0.019649915791699491 0 0.049728360269730799 -0.020649955681851368 0 0.061725094716787207 -0.025921923239423359 0 0.061842306970448679 -0.025837708858245163 0 0.061575066268208571 -0.025905774755284237 0 0.061725094716787207 -0.025921923239423359 0 0.061664748391651876 -0.026056698458575986 0 0.061595987907995663 -0.025810396010365038 0 0.061725094716787207 -0.025921923239423359 0 0.061842306970448679 -0.025837708858245163 0 0.061595987907995663 -0.025810396010365038 0 0.061084399450594198 -0.02616536383801598 0 0.061575066268208571 -0.025905774755284237 0 0.061209595198452371 -0.025863770964017371 0 0.061084399450594198 -0.02616536383801598 0 0.061842306970448679 -0.025837708858245163 0 0.061575066268208571 -0.025905774755284237 0 0.058701807576676875 -0.023696209820624051 0 0.05966702697849964 -0.023671693928368539 0 0.053908092926226829 -0.019948482658185118 0 0.058376955624841381 -0.021659876124265218 0 0.056493496852683969 -0.022503876054807404 0 0.061575066268208571 -0.025905774755284237 0 0.061209595198452371 -0.025863770964017371 0 0.061350105495419908 -0.025724203987895447 0 0.061575066268208571 -0.025905774755284237 0 0.061350105495419908 -0.025724203987895447 0 0.061560902042878583 -0.025854072143566498 0 0.061350105495419908 -0.025724203987895447 0 0.061560902042878583 -0.025854072143566498 0 0.061653421549373928 -0.025828118705959455 0 0.061560902042878583 -0.025854072143566498 0 0.061638703605767016 -0.025907302534858411 0 0.061653421549373928 -0.025828118705959455 0 0.061638703605767016 -0.025907302534858411 0 0.061678590142602178 -0.025966555043706173 0 0.061653851666944565 -0.025960515672674177 0 0.061560902042878583 -0.025854072143566498 0 0.061638703605767016 -0.025907302534858411 0 0.061678590142602178 -0.025966555043706173 0 0.061725094716787207 -0.025921923239423359 0 0.061575066268208571 -0.025905774755284237 0 0.061678590142602178 -0.025966555043706173 0 0.061575066268208571 -0.025905774755284237 0 0.061560902042878583 -0.025854072143566498 0 0.061678590142602178 -0.025966555043706173 0 0.061725094716787207 -0.025921923239423359 0 0.061678590142602178 -0.025966555043706173 0 0.061664748391651876 -0.026056698458575986 0 0.061678590142602178 -0.025966555043706173 0 0.061664748391651876 -0.026056698458575986 0 0.061624204423588298 -0.026233522326399486 0 0.061678590142602178 -0.025966555043706173 0 0.061624204423588298 -0.026233522326399486 0 0.061653851666944565 -0.025960515672674177 0 0.058779209102221286 -0.033457002349706985 0 0.064087532881712803 -0.029073453758959231 0 0.065567858125233663 -0.032476105408574145 0 0.065155903422423542 -0.032935026462116469 0 0.064749285940300161 -0.032313616403812882 0 0.061624204423588298 -0.026233522326399486 0 0.061670277178387377 -0.025905956892354452 0 0.061538336645057666 -0.026613904021918586 0 0.061624204423588298 -0.026233522326399486 0 0.061653851666944565 -0.025960515672674177 0 0.061670277178387377 -0.025905956892354452 0 0.061653851666944565 -0.025960515672674177 0 0.061653421549373928 -0.025828118705959455 0 0.061670277178387377 -0.025905956892354452 0 0.061638703605767016 -0.025907302534858411 0 0.061653851666944565 -0.025960515672674177 0 0.061653421549373928 -0.025828118705959455 0 0.059210361978546067 -0.030062787816672275 0 0.058779209102221286 -0.033457002349706985 0 0.047008507740962741 -0.042145007143828281 0 0.049979978164772114 -0.042136553865798253 0 0.047645045170954574 -0.040262194964078721 0 0.06092137461715013 -0.025202560927176036 0 0.061350105495419908 -0.025724203987895447 0 0.061639551754209362 -0.025686794319075074 0 0.054207359089626803 -0.034073167497366483 0 0.058779209102221286 -0.033457002349706985 0 0.061350105495419908 -0.025724203987895447 0 0.061653421549373928 -0.025828118705959455 0 0.061639551754209362 -0.025686794319075074 0 0.049979978164772114 -0.042136553865798253 0 0.047645045170954574 -0.040262194964078721 0 0.049956921266571128 -0.039737750444564297 0 0.047645045170954574 -0.040262194964078721 0 0.049956921266571128 -0.039737750444564297 0 0.048441898212165664 -0.038607969802049232 0 0.058779209102221286 -0.033457002349706985 0 0.057733400671428979 -0.037117672095699682 0 0.065567858125233663 -0.032476105408574145 0 0.065155903422423542 -0.032935026462116469 0 0.065548101198556849 -0.033146422523501091 0 0.065155903422423542 -0.032935026462116469 0 0.065548101198556849 -0.033146422523501091 0 0.065119409777773474 -0.03346277369030709 0 0.057733400671428979 -0.037117672095699682 0 0.058680431933726164 -0.035438759058821094 0 0.065457406427948436 -0.033855163920869943 0 0.066117800496960671 -0.034401991016910827 0 0.065481036633384518 -0.034937183204737578 0 0.065548101198556849 -0.033146422523501091 0 0.065119409777773474 -0.03346277369030709 0 0.065497440274867341 -0.033773412947387699 0 0.065755740284821285 -0.034280186152667522 0 0.058680431933726164 -0.035438759058821094 0 0.065481036633384518 -0.034937183204737578 0 0.065976824545486451 -0.035606414687275031 0 0.064679618793491572 -0.0350956395764426 0 0.058680431933726164 -0.035438759058821094 0 0.057831631371392231 -0.040467006613116245 0 0.066117800496960671 -0.034401991016910827 0 0.065481036633384518 -0.034937183204737578 0 0.066081399128165783 -0.035586519498828718 0 0.06183849313191174 -0.039750467741544372 0 0.065855399948042292 -0.035665794391276026 0 0.065481036633384518 -0.034937183204737578 0 0.065976824545486451 -0.035606414687275031 0 0.066081399128165783 -0.035586519498828718 0 0.049979646124554612 -0.037343979847344756 0 0.046940930267366128 -0.037284246090304993 0 0.046904264265797788 -0.035275103392748877 0 0.050463229403810803 -0.044822329454762541 0 0.052813779586867914 -0.044311778944035235 0 0.052518874772635768 -0.044097374307604263 0 0.055612990765395595 -0.040557830760871723 0 0.052612791251772949 -0.038524547613752055 0 0.05562850239109627 -0.037875500890528963 0 0.048249141891258791 -0.041517823614927188 0 0.057831631371392231 -0.040467006613116245 0 0.058680431933726164 -0.035438759058821094 0 0.048249141891258791 -0.041517823614927188 0 0.049979646124554612 -0.037343979847344756 0 0.048441898212165664 -0.038607969802049232 0 0.046940930267366128 -0.037284246090304993 0 0.049956921266571128 -0.039737750444564297 0 0.049979646124554612 -0.037343979847344756 0 0.048441898212165664 -0.038607969802049232 0 0.048441898212165664 -0.038607969802049232 0 0.046612381753816587 -0.038725804717711684 0 0.046940930267366128 -0.037284246090304993 0 0.046940930267366128 -0.037284246090304993 0 0.045048911986682469 -0.037991387076778252 0 0.044425215394144416 -0.035811723810575131 0 0.046612381753816587 -0.038725804717711684 0 0.046940930267366128 -0.037284246090304993 0 0.045048911986682469 -0.037991387076778252 0 0.045575414683476263 -0.039669657183963807 0 0.046612381753816587 -0.038725804717711684 0 0.045048911986682469 -0.037991387076778252 0 0.045048911986682469 -0.037991387076778252 0 0.043737619549904933 -0.037416012678173162 0 0.044425215394144416 -0.035811723810575131 0 0.043509906185884122 -0.039329643912346064 0 0.045048911986682469 -0.037991387076778252 0 0.043737619549904933 -0.037416012678173162 0 0.043509906185884122 -0.039329643912346064 0 0.045575414683476263 -0.039669657183963807 0 0.045048911986682469 -0.037991387076778252 0 0.041913614949248126 -0.036342014172018121 0 0.043737619549904933 -0.037416012678173162 0 0.044425215394144416 -0.035811723810575131 0 0.044397203636383123 -0.040227047717984188 0 0.045258264457711285 -0.041800416300342418 0 0.046300820927584238 -0.047727027732060084 0 0.046729361496526983 -0.047628728487737131 0 0.046582470614684492 -0.04747549442396256 0 0.046729361496526983 -0.047628728487737131 0 0.046582470614684492 -0.04747549442396256 0 0.046816045233997933 -0.047394108910126881 0 0.046940930267366128 -0.037284246090304993 0 0.044425215394144416 -0.035811723810575131 0 0.046904264265797788 -0.035275103392748877 0 0.045258264457711285 -0.041800416300342418 0 0.048249141891258791 -0.041517823614927188 0 0.046729361496526983 -0.047628728487737131 0 0.047054680237193516 -0.047508725586799722 0 0.046816045233997933 -0.047394108910126881 0 0.049249929952057667 -0.04506576376184418 0 0.047710395706250776 -0.045522079868784787 0 0.050463229403810803 -0.044822329454762541 0 0.050824514672247578 -0.043765406000774776 0 0.04908100970719468 -0.043877972679484852 0 0.050824514672247578 -0.043765406000774776 0 0.050530739486400002 -0.042789007280852158 0 0.04908100970719468 -0.043877972679484852 0 0.050463229403810803 -0.044822329454762541 0 0.050824514672247578 -0.043765406000774776 0 0.051558874642068153 -0.043879960078846612 0 0.048249141891258791 -0.041517823614927188 0 0.048442893015958562 -0.04587778221587159 0 0.048162600582863868 -0.047518933834335711 0 0.047627147449825616 -0.047399276242124713 0 0.047275920166297065 -0.047604764822402147 0 0.050530739486400002 -0.042789007280852158 0 0.04908100970719468 -0.043877972679484852 0 0.048237099653109961 -0.043299088602074778 0 0.046582470614684492 -0.04747549442396256 0 0.046816045233997933 -0.047394108910126881 0 0.046708411922147655 -0.047339715115382375 0 0.048442893015958562 -0.04587778221587159 0 0.047710395706250776 -0.045522079868784787 0 0.047627147449825616 -0.047399276242124713 0 0.047275920166297065 -0.047604764822402147 0 0.046743294492190737 -0.047304012186884424 0 0.046582470614684492 -0.04747549442396256 0 0.046708411922147655 -0.047339715115382375 0 0.046743294492190737 -0.047304012186884424 0 0.047710395706250776 -0.045522079868784787 0 0.047543646958061861 -0.046177829431728566 0 0.047909242463160397 -0.04703031695227948 0 0.047530081625140129 -0.047271952499026208 0 0.046502527557118353 -0.046880847354308558 0 0.047627147449825616 -0.047399276242124713 0 0.046743294492190737 -0.047304012186884424 0 0.046677406193827098 -0.046408744031728649 0 0.046502527557118353 -0.046880847354308558 0 0.047627147449825616 -0.047399276242124713 0 0.047627147449825616 -0.047399276242124713 0 0.047906899553256284 -0.047411004382812365 0 0.047959146777100226 -0.047405916153034765 0 0.048051065663917418 -0.047437095921095983 0 0.047627147449825616 -0.047399276242124713 0 0.047906899553256284 -0.047411004382812365 0 0.048162600582863868 -0.047518933834335711 0 0.048101795387352514 -0.047440160209078833 0 0.048185968567484534 -0.047479397147171233 0 0.048162600582863868 -0.047518933834335711 0 0.047959146777100226 -0.047405916153034765 0 0.048101795387352514 -0.047440160209078833 0 0.048162600582863868 -0.047518933834335711 0 0.047627147449825616 -0.047399276242124713 0 0.047959146777100226 -0.047405916153034765 0 0.048031626674824135 -0.047423080111678374 0 0.047906899553256284 -0.047411004382812365 0 0.047959146777100226 -0.047405916153034765 0 0.048031626674824135 -0.047423080111678374 0 0.047959146777100226 -0.047405916153034765 0 0.048101795387352514 -0.047440160209078833 0 0.048154221980285204 -0.047434185499976876 0 0.048101795387352514 -0.047440160209078833 0 0.048185968567484534 -0.047479397147171233 0 0.048162600582863868 -0.047518933834335711 0 0.048185968567484534 -0.047479397147171233 0 0.048237643284991645 -0.047502151373922004 0 0.049249929952057667 -0.04506576376184418 0 0.051189261161160828 -0.046150048384048327 0 0.048185968567484534 -0.047479397147171233 0 0.048237427509803393 -0.04750453875414079 0 0.048237643284991645 -0.047502151373922004 0 0.048154221980285204 -0.047434185499976876 0 0.048185968567484534 -0.047479397147171233 0 0.048237427509803393 -0.04750453875414079 0 0.048386687282382247 -0.047524636890108156 0 0.048237427509803393 -0.04750453875414079 0 0.048226128116372537 -0.047686632327366273 0 0.049255479090889571 -0.047732018559505859 0 0.051189261161160828 -0.046150048384048327 0 0.051189261161160828 -0.046150048384048327 0 0.051972196287660748 -0.047219014601305037 0 0.056151859499751121 -0.04627387745096842 0 0.055454642696630467 -0.045893311273215817 0 0.05487379590331766 -0.046540151982383031 0 0.048386687282382247 -0.047524636890108156 0 0.048226128116372537 -0.047686632327366273 0 0.048644729292694103 -0.047766911851737572 0 0.051189261161160828 -0.046150048384048327 0 0.057831631371392231 -0.040467006613116245 0 0.052800097318096088 -0.04232412294443353 0 0.05280759680666082 -0.044308691365121312 0 0.052310407551959495 -0.04347560766017048 0 0.056151859499751121 -0.04627387745096842 0 0.055923215185768024 -0.04567461211201241 0 0.05620209960306452 -0.045198590577536731 0 0.056151859499751121 -0.04627387745096842 0 0.055923215185768024 -0.04567461211201241 0 0.055454642696630467 -0.045893311273215817 0 0.055923215185768024 -0.04567461211201241 0 0.055454642696630467 -0.045893311273215817 0 0.056095763410160773 -0.045223014247334013 0 0.055923215185768024 -0.04567461211201241 0 0.056095763410160773 -0.045223014247334013 0 0.05620209960306452 -0.045198590577536731 0 0.06183849313191174 -0.039750467741544372 0 0.057831631371392231 -0.040467006613116245 0 0.057831631371392231 -0.040467006613116245 0 0.056875817095641913 -0.040583374005328708 0 0.052518874772635768 -0.044097374307604263 0 0.051558874642068153 -0.043879960078846612 0 0.052310407551959495 -0.04347560766017048 0 0.05280759680666082 -0.044308691365121312 0 0.052518874772635768 -0.044097374307604263 0 0.052310407551959495 -0.04347560766017048 0 0.050530739486400002 -0.042789007280852158 0 0.052800097318096088 -0.04232412294443353 0 0.051671814965405766 -0.043248217562910168 0 0.050463229403810803 -0.044822329454762541 0 0.052518874772635768 -0.044097374307604263 0 0.051558874642068153 -0.043879960078846612 0 0.050824514672247578 -0.043765406000774776 0 0.051558874642068153 -0.043879960078846612 0 0.051671814965405766 -0.043248217562910168 0 0.050824514672247578 -0.043765406000774776 0 0.050530739486400002 -0.042789007280852158 0 0.051671814965405766 -0.043248217562910168 0 0.052800097318096088 -0.04232412294443353 0 0.051671814965405766 -0.043248217562910168 0 0.052310407551959495 -0.04347560766017048 0 0.051558874642068153 -0.043879960078846612 0 0.051671814965405766 -0.043248217562910168 0 0.052310407551959495 -0.04347560766017048 0 0.059792828671861975 -0.041907537470766469 0 0.058292361847949656 -0.04231201314760559 0 0.065162386686631907 -0.037710946199401948 0 0.062947575133845038 -0.038453520638158468 0 0.06435120201558811 -0.036956195918680879 0 0.054671004811927514 -0.045645196075410628 0 0.054204695676992279 -0.046260146759708895 0 0.053516593918965738 -0.046213459304194564 0 0.06183849313191174 -0.039750467741544372 0 0.059792828671861975 -0.041907537470766469 0 0.055454642696630467 -0.045893311273215817 0 0.054671004811927514 -0.045645196075410628 0 0.05487379590331766 -0.046540151982383031 0 0.055454642696630467 -0.045893311273215817 0 0.056095763410160773 -0.045223014247334013 0 0.054671004811927514 -0.045645196075410628 0 0.054671004811927514 -0.045645196075410628 0 0.05487379590331766 -0.046540151982383031 0 0.054204695676992279 -0.046260146759708895 0 0.051972196287660748 -0.047219014601305037 0 0.05183126440795767 -0.047141549565039138 0 0.05487379590331766 -0.046540151982383031 0 0.054204695676992279 -0.046260146759708895 0 0.053860905727817002 -0.046628431953830575 0 0.053860905727817002 -0.046628431953830575 0 0.053535278643076875 -0.046423830641370865 0 0.053516593918965738 -0.046213459304194564 0 0.054204695676992279 -0.046260146759708895 0 0.053860905727817002 -0.046628431953830575 0 0.053516593918965738 -0.046213459304194564 0 0.053603096748120922 -0.046415857806553114 0 0.053516593918965738 -0.046213459304194564 0 0.05415466447973985 -0.046624437884625697 0 0.053161507985234127 -0.04654701633031029 0 0.053860905727817002 -0.046628431953830575 0 0.053535278643076875 -0.046423830641370865 0 0.053161507985234127 -0.04654701633031029 0 0.053603096748120922 -0.046415857806553114 0 0.053980575928878706 -0.04617932031721831 0 0.053161507985234127 -0.04654701633031029 0 0.053603096748120922 -0.046415857806553114 0 0.053535278643076875 -0.046423830641370865 0 0.053603096748120922 -0.046415857806553114 0 0.053535278643076875 -0.046423830641370865 0 0.053516593918965738 -0.046213459304194564 0 0.062947575133845038 -0.038453520638158468 0 0.060666163027765584 -0.036731766614711371 0 0.060335697128491086 -0.039242303234514976 0 0.058292361847949656 -0.04231201314760559 0 0.057230802056235028 -0.042857470146813514 0 0.062947575133845038 -0.038453520638158468 0 0.063687694392651553 -0.035730669986288419 0 0.060666163027765584 -0.036731766614711371 0 0.062947575133845038 -0.038453520638158468 0 0.063687694392651553 -0.035730669986288419 0 0.06435120201558811 -0.036956195918680879 0 0.061443347953565763 -0.034534561437451525 0 0.063687694392651553 -0.035730669986288419 0 0.060666163027765584 -0.036731766614711371 0 0.061602871295462658 -0.034568863773234863 0 0.06325047248863068 -0.035219163235198227 0 0.061443347953565763 -0.034534561437451525 0 0.063298687332541612 -0.034734763774077922 0 0.062401326225801211 -0.033114633501391544 0 0.063298687332541612 -0.034734763774077922 0 0.063663474468552084 -0.033322617112047322 0 0.062401326225801211 -0.033114633501391544 0 0.063298687332541612 -0.034734763774077922 0 0.064548623175320327 -0.034205176178747146 0 0.063663474468552084 -0.033322617112047322 0 0.063298687332541612 -0.034734763774077922 0 0.064679618793491572 -0.0350956395764426 0 0.064548623175320327 -0.034205176178747146 0 0.06325047248863068 -0.035219163235198227 0 0.065855399948042292 -0.035665794391276026 0 0.063687694392651553 -0.035730669986288419 0 0.06435120201558811 -0.036956195918680879 0 0.065415875268313065 -0.036720671813473389 0 0.065162386686631907 -0.037710946199401948 0 0.06435120201558811 -0.036956195918680879 0 0.065415875268313065 -0.036720671813473389 0 0.066770126889798567 -0.037307342478884203 0 0.065162386686631907 -0.037710946199401948 0 0.065415875268313065 -0.036720671813473389 0 0.065481036633384518 -0.034937183204737578 0 0.064679618793491572 -0.0350956395764426 0 0.064548623175320327 -0.034205176178747146 0 0.065457406427948436 -0.033855163920869943 0 0.064548623175320327 -0.034205176178747146 0 0.064710100286740332 -0.033202530895172541 0 0.065457406427948436 -0.033855163920869943 0 0.065481036633384518 -0.034937183204737578 0 0.064548623175320327 -0.034205176178747146 0 0.065155903422423542 -0.032935026462116469 0 0.065119409777773474 -0.03346277369030709 0 0.064710100286740332 -0.033202530895172541 0 0.065755740284821285 -0.034280186152667522 0 0.064585641997965321 -0.033161301115097665 0 0.064710100286740332 -0.033202530895172541 0 0.064191569852256436 -0.032678567829374006 0 0.064749285940300161 -0.032313616403812882 0 0.065155903422423542 -0.032935026462116469 0 0.064710100286740332 -0.033202530895172541 0 0.064749285940300161 -0.032313616403812882 0 0.064710100286740332 -0.033202530895172541 0 0.064191569852256436 -0.032678567829374006 0 0.063663474468552084 -0.033322617112047322 0 0.064191569852256436 -0.032678567829374006 0 0.063663474468552084 -0.033322617112047322 0 0.063522040612317865 -0.031909609118323988 0 0.064548623175320327 -0.034205176178747146 0 0.064710100286740332 -0.033202530895172541 0 0.063663474468552084 -0.033322617112047322 0 0.064087532881712803 -0.029073453758959231 0 0.061962998208564088 -0.029723870611976452 0 0.061538336645057666 -0.026613904021918586 0 0.061475493343884469 -0.026406010196551769 0 0.060990910195990775 -0.027451369590064938 0 0.064191569852256436 -0.032678567829374006 0 0.064749285940300161 -0.032313616403812882 0 0.063522040612317865 -0.031909609118323988 0 0.061624204423588298 -0.026233522326399486 0 0.061538336645057666 -0.026613904021918586 0 0.061475493343884469 -0.026406010196551769 0 0.061475493343884469 -0.026406010196551769 0 0.061105476732858613 -0.026291141664718597 0 0.061595987907995663 -0.025810396010365038 0 0.061664748391651876 -0.026056698458575986 0 0.061624204423588298 -0.026233522326399486 0 0.061475493343884469 -0.026406010196551769 0 0.061664748391651876 -0.026056698458575986 0 0.061475493343884469 -0.026406010196551769 0 0.061595987907995663 -0.025810396010365038 0 0.061475493343884469 -0.026406010196551769 0 0.061105476732858613 -0.026291141664718597 0 0.060990910195990775 -0.027451369590064938 0 0.061105476732858613 -0.026291141664718597 0 0.060821411522320519 -0.025232011812819564 0 0.061140476893017374 -0.024611921896650676 0 0.061105476732858613 -0.026291141664718597 0 0.061595987907995663 -0.025810396010365038 0 0.061140476893017374 -0.024611921896650676 0 0.061842306970448679 -0.025837708858245163 0 0.061595987907995663 -0.025810396010365038 0 0.061140476893017374 -0.024611921896650676 0 0.06058544990969357 -0.026436057865533203 0 0.059910690122765183 -0.027483956149552159 0 0.060265578118656765 -0.025589535651243479 0 0.061105476732858613 -0.026291141664718597 0 0.06058544990969357 -0.026436057865533203 0 0.060821411522320519 -0.025232011812819564 0 0.061105476732858613 -0.026291141664718597 0 0.06058544990969357 -0.026436057865533203 0 0.06063948790164829 -0.027392982730393305 0 0.061105476732858613 -0.026291141664718597 0 0.06063948790164829 -0.027392982730393305 0 0.060990910195990775 -0.027451369590064938 0 0.06063948790164829 -0.027392982730393305 0 0.06024603493273524 -0.02871011226401847 0 0.059910690122765183 -0.027483956149552159 0 0.06058544990969357 -0.026436057865533203 0 0.06063948790164829 -0.027392982730393305 0 0.059910690122765183 -0.027483956149552159 0 0.06063948790164829 -0.027392982730393305 0 0.06024603493273524 -0.02871011226401847 0 0.060990910195990775 -0.027451369590064938 0 0.060865866707835947 -0.030031497669789322 0 0.061962998208564088 -0.029723870611976452 0 0.06172849241984945 -0.031306384484229642 0 0.063522040612317865 -0.031909609118323988 0 0.062401326225801211 -0.033114633501391544 0 0.063663474468552084 -0.033322617112047322 0 0.063522040612317865 -0.031909609118323988 0 0.062401326225801211 -0.033114633501391544 0 0.061443347953565763 -0.034534561437451525 0 0.062401326225801211 -0.033114633501391544 0 0.059792530868353982 -0.033543559692884951 0 0.06172849241984945 -0.031306384484229642 0 0.062401326225801211 -0.033114633501391544 0 0.059792530868353982 -0.033543559692884951 0 0.059792530868353982 -0.033543559692884951 0 0.059089442546858655 -0.030501929987849532 0 0.057207275691452043 -0.033297656256126636 0 0.06172849241984945 -0.031306384484229642 0 0.059792530868353982 -0.033543559692884951 0 0.059089442546858655 -0.030501929987849532 0 0.060865866707835947 -0.030031497669789322 0 0.059066810337808841 -0.030388632117273818 0 0.06024603493273524 -0.02871011226401847 0 0.059089442546858655 -0.030501929987849532 0 0.059910690122765183 -0.027483956149552159 0 0.059089442546858655 -0.030501929987849532 0 0.057782604459010137 -0.027782145140468277 0 0.059910690122765183 -0.027483956149552159 0 0.059089442546858655 -0.030501929987849532 0 0.057782604459010137 -0.027782145140468277 0 0.056929087032040311 -0.030273425464362236 0 0.057782604459010137 -0.027782145140468277 0 0.059910690122765183 -0.027483956149552159 0 0.059088822574098962 -0.025816987517374733 0 0.057782604459010137 -0.027782145140468277 0 0.054999837005630277 -0.028229479659428323 0 0.056929087032040311 -0.030273425464362236 0 0.054999837005630277 -0.028229479659428323 0 0.056929087032040311 -0.030273425464362236 0 0.054999585540999978 -0.031448142246944047 0 0.056929087032040311 -0.030273425464362236 0 0.054999585540999978 -0.031448142246944047 0 0.057207275691452043 -0.033297656256126636 0 0.059089442546858655 -0.030501929987849532 0 0.056929087032040311 -0.030273425464362236 0 0.057207275691452043 -0.033297656256126636 0 0.054999585540999978 -0.031448142246944047 0 0.057207275691452043 -0.033297656256126636 0 0.054999741304709589 -0.034667142538453016 0 0.057207275691452043 -0.033297656256126636 0 0.054999741304709589 -0.034667142538453016 0 0.056425355591312919 -0.036043863057314669 0 0.054999741304709589 -0.034667142538453016 0 0.056425355591312919 -0.036043863057314669 0 0.054999766229693228 -0.037885954607397819 0 0.056425355591312919 -0.036043863057314669 0 0.054999766229693228 -0.037885954607397819 0 0.056959103155553505 -0.038116508607962382 0 0.056425355591312919 -0.036043863057314669 0 0.058472379780631287 -0.036291861079862001 0 0.056959103155553505 -0.038116508607962382 0 0.057207275691452043 -0.033297656256126636 0 0.056425355591312919 -0.036043863057314669 0 0.058472379780631287 -0.036291861079862001 0 0.059792530868353982 -0.033543559692884951 0 0.057207275691452043 -0.033297656256126636 0 0.058472379780631287 -0.036291861079862001 0 0.061443347953565763 -0.034534561437451525 0 0.059792530868353982 -0.033543559692884951 0 0.060666163027765584 -0.036731766614711371 0 0.059792530868353982 -0.033543559692884951 0 0.060666163027765584 -0.036731766614711371 0 0.058472379780631287 -0.036291861079862001 0 0.060335697128491086 -0.039242303234514976 0 0.057673261954380148 -0.04010061820429494 0 0.056959103155553505 -0.038116508607962382 0 0.058472379780631287 -0.036291861079862001 0 0.060335697128491086 -0.039242303234514976 0 0.056959103155553505 -0.038116508607962382 0 0.060666163027765584 -0.036731766614711371 0 0.058472379780631287 -0.036291861079862001 0 0.060335697128491086 -0.039242303234514976 0 0.055072968785924513 -0.045407896012559228 0 0.05415466447973985 -0.046624437884625697 0 0.053980575928878706 -0.04617932031721831 0 0.053603096748120922 -0.046415857806553114 0 0.05415466447973985 -0.046624437884625697 0 0.053980575928878706 -0.04617932031721831 0 0.055072968785924513 -0.045407896012559228 0 0.05415466447973985 -0.046624437884625697 0 0.056123725030372169 -0.044497023281737456 0 0.057230802056235028 -0.042857470146813514 0 0.05666963315778252 -0.042286986764926392 0 0.057673261954380148 -0.04010061820429494 0 0.054999917272951282 -0.04110431105642752 0 0.056959103155553505 -0.038116508607962382 0 0.05666963315778252 -0.042286986764926392 0 0.054999797110703255 -0.041105544250626659 0 0.054999917272951282 -0.04110431105642752 0 0.054999766229693228 -0.037885954607397819 0 0.056959103155553505 -0.038116508607962382 0 0.056685608485468809 -0.016780359576767129 0 0.058228575099428678 -0.015008426650627543 0 0.058734840736770329 -0.017600285131184553 0 0.056685608485468809 -0.016780359576767129 0 0.054999830991247098 -0.015355594989843582 0 0.054999729503426686 -0.018574703138962697 0 0.056685608485468809 -0.016780359576767129 0 0.054999830991247098 -0.015355594989843582 0 0.056454287806223163 -0.01420224477818287 0 0.054999830991247098 -0.015355594989843582 0 0.056454287806223163 -0.01420224477818287 0 0.054999916563628508 -0.012136915061356994 0 0.056454287806223163 -0.01420224477818287 0 0.058228575099428678 -0.015008426650627543 0 0.057580918355989691 -0.012602167399778213 0 0.056685608485468809 -0.016780359576767129 0 0.056454287806223163 -0.01420224477818287 0 0.058228575099428678 -0.015008426650627543 0 0.057527642765307183 -0.017925689003898602 0 0.058875856376249501 -0.01794813426592717 0 0.058829507475591708 -0.016666988795722679 0 0.058875856376249501 -0.01794813426592717 0 0.058106377566016686 -0.019443317681241343 0 0.059743614239043119 -0.018847944610902338 0 0.05804300256477999 -0.01701282322860382 0 0.058358850053098793 -0.01839297877642794 0 0.057527642765307183 -0.017925689003898602 0 0.058875856376249501 -0.01794813426592717 0 0.058106377566016686 -0.019443317681241343 0 0.058734840736770329 -0.017600285131184553 0 0.058780107598675871 -0.02050979011541787 0 0.057248650662568179 -0.019025948186123111 0 0.058106377566016686 -0.019443317681241343 0 0.059201303406713354 -0.02003114411512438 0 0.058780107598675871 -0.02050979011541787 0 0.058358850053098793 -0.01839297877642794 0 0.058783192229965378 -0.020327573230220837 0 0.058106377566016686 -0.019443317681241343 0 0.059201303406713354 -0.02003114411512438 0 0.059743614239043119 -0.018847944610902338 0 0.059201303406713354 -0.02003114411512438 0 0.059564186270841181 -0.021213686135235499 0 0.058780107598675871 -0.02050979011541787 0 0.059201303406713354 -0.02003114411512438 0 0.059564186270841181 -0.021213686135235499 0 0.060153397118132494 -0.020386608124180229 0 0.059564186270841181 -0.021213686135235499 0 0.058780107598675871 -0.02050979011541787 0 0.058942239340454776 -0.022541933359395125 0 0.058780107598675871 -0.02050979011541787 0 0.057248650662568179 -0.019025948186123111 0 0.057063283350860215 -0.021358789031798293 0 0.056685608485468809 -0.016780359576767129 0 0.058734840736770329 -0.017600285131184553 0 0.057248650662568179 -0.019025948186123111 0 0.056685608485468809 -0.016780359576767129 0 0.057248650662568179 -0.019025948186123111 0 0.054999729503426686 -0.018574703138962697 0 0.054999729503426686 -0.018574703138962697 0 0.054999815496253587 -0.021793107056405286 0 0.057063283350860215 -0.021358789031798293 0 0.057248650662568179 -0.019025948186123111 0 0.054999729503426686 -0.018574703138962697 0 0.057063283350860215 -0.021358789031798293 0 0.054999815496253587 -0.021793107056405286 0 0.057063283350860215 -0.021358789031798293 0 0.056334271071504384 -0.023431469196766856 0 0.057063283350860215 -0.021358789031798293 0 0.056334271071504384 -0.023431469196766856 0 0.057778000070397371 -0.02346894535261412 0 0.054999815496253587 -0.021793107056405286 0 0.056334271071504384 -0.023431469196766856 0 0.054999755669194413 -0.025011355382202255 0 0.057782604459010137 -0.027782145140468277 0 0.054999837005630277 -0.028229479659428323 0 0.057253339860088029 -0.025422064976933161 0 0.056334271071504384 -0.023431469196766856 0 0.054999755669194413 -0.025011355382202255 0 0.057253339860088029 -0.025422064976933161 0 0.056334271071504384 -0.023431469196766856 0 0.057253339860088029 -0.025422064976933161 0 0.057778000070397371 -0.02346894535261412 0 0.054999837005630277 -0.028229479659428323 0 0.054999755669194413 -0.025011355382202255 0 0.057253339860088029 -0.025422064976933161 0 0.059910690122765183 -0.027483956149552159 0 0.059088822574098962 -0.025816987517374733 0 0.060265578118656765 -0.025589535651243479 0 0.057782604459010137 -0.027782145140468277 0 0.057253339860088029 -0.025422064976933161 0 0.059088822574098962 -0.025816987517374733 0 0.057253339860088029 -0.025422064976933161 0 0.058799635604322796 -0.024361146824245228 0 0.057778000070397371 -0.02346894535261412 0 0.057253339860088029 -0.025422064976933161 0 0.059088822574098962 -0.025816987517374733 0 0.058799635604322796 -0.024361146824245228 0 0.059088822574098962 -0.025816987517374733 0 0.058799635604322796 -0.024361146824245228 0 0.059984786069346423 -0.024113152423531698 0 0.058942239340454776 -0.022541933359395125 0 0.059828184682790449 -0.022479469085590887 0 0.059984786069346423 -0.024113152423531698 0 0.058799635604322796 -0.024361146824245228 0 0.058942239340454776 -0.022541933359395125 0 0.059984786069346423 -0.024113152423531698 0 0.058799635604322796 -0.024361146824245228 0 0.057778000070397371 -0.02346894535261412 0 0.058942239340454776 -0.022541933359395125 0 0.057063283350860215 -0.021358789031798293 0 0.057778000070397371 -0.02346894535261412 0 0.058942239340454776 -0.022541933359395125 0 0.058780107598675871 -0.02050979011541787 0 0.057063283350860215 -0.021358789031798293 0 0.058942239340454776 -0.022541933359395125 0 0.059564186270841181 -0.021213686135235499 0 0.058942239340454776 -0.022541933359395125 0 0.059828184682790449 -0.022479469085590887 0 0.059564186270841181 -0.021213686135235499 0 0.059828184682790449 -0.022479469085590887 0 0.06053196193424884 -0.021633874016437529 0 0.059828184682790449 -0.022479469085590887 0 0.060963222690825609 -0.023648856317979857 0 0.06053196193424884 -0.021633874016437529 0 0.060975497057201213 -0.023542284195971128 0 0.061169369154173654 -0.022725943820850355 0 0.060963222690825609 -0.023648856317979857 0 0.061755844361305781 -0.021570935981325829 0 0.06053196193424884 -0.021633874016437529 0 0.060963222690825609 -0.023648856317979857 0 0.059984786069346423 -0.024113152423531698 0 0.060667526046443175 -0.024591553996240804 0 0.059828184682790449 -0.022479469085590887 0 0.060963222690825609 -0.023648856317979857 0 0.059984786069346423 -0.024113152423531698 0 0.059984786069346423 -0.024113152423531698 0 0.060667526046443175 -0.024591553996240804 0 0.060265578118656765 -0.025589535651243479 0 0.060963222690825609 -0.023648856317979857 0 0.060667526046443175 -0.024591553996240804 0 0.060855132709647167 -0.0244191506501488 0 0.060667526046443175 -0.024591553996240804 0 0.060821411522320519 -0.025232011812819564 0 0.060855132709647167 -0.0244191506501488 0 0.060667526046443175 -0.024591553996240804 0 0.060821411522320519 -0.025232011812819564 0 0.060265578118656765 -0.025589535651243479 0 0.06058544990969357 -0.026436057865533203 0 0.060821411522320519 -0.025232011812819564 0 0.060265578118656765 -0.025589535651243479 0 0.059088822574098962 -0.025816987517374733 0 0.059984786069346423 -0.024113152423531698 0 0.060265578118656765 -0.025589535651243479 0 0.05966702697849964 -0.023671693928368539 0 0.061061424959494737 -0.024469231413655246 0 0.058376955624841381 -0.021659876124265218 0 0.061140476893017374 -0.024611921896650676 0 0.058882354798131607 -0.023474495496319189 0 0.061140476893017374 -0.024611921896650676 0 0.060453072800123651 -0.024294482936680427 0 0.058882354798131607 -0.023474495496319189 0 0.061140476893017374 -0.024611921896650676 0 0.060855132709647167 -0.0244191506501488 0 0.060453072800123651 -0.024294482936680427 0 0.060821411522320519 -0.025232011812819564 0 0.061140476893017374 -0.024611921896650676 0 0.060855132709647167 -0.0244191506501488 0 0.060453072800123651 -0.024294482936680427 0 0.060013154953353673 -0.024245533218380851 0 0.058882354798131607 -0.023474495496319189 0 0.060855132709647167 -0.0244191506501488 0 0.060524599674096326 -0.024213586562902407 0 0.060453072800123651 -0.024294482936680427 0 0.060524599674096326 -0.024213586562902407 0 0.060453072800123651 -0.024294482936680427 0 0.060013154953353673 -0.024245533218380851 0 0.060524599674096326 -0.024213586562902407 0 0.060187671895343436 -0.02421687497757774 0 0.060013154953353673 -0.024245533218380851 0 0.060524599674096326 -0.024213586562902407 0 0.06040989355468894 -0.02404564120062674 0 0.060187671895343436 -0.02421687497757774 0 0.060963222690825609 -0.023648856317979857 0 0.060855132709647167 -0.0244191506501488 0 0.060524599674096326 -0.024213586562902407 0 0.060963222690825609 -0.023648856317979857 0 0.060524599674096326 -0.024213586562902407 0 0.06040989355468894 -0.02404564120062674 0 0.060963222690825609 -0.023648856317979857 0 0.060337673338635441 -0.024030323650518486 0 0.060447750154194506 -0.024026509268189274 0 0.060963222690825609 -0.023648856317979857 0 0.06040989355468894 -0.02404564120062674 0 0.060337673338635441 -0.024030323650518486 0 0.06040989355468894 -0.02404564120062674 0 0.060187671895343436 -0.02421687497757774 0 0.060218942765983094 -0.024077734645300358 0 0.06040989355468894 -0.02404564120062674 0 0.060337673338635441 -0.024030323650518486 0 0.060218942765983094 -0.024077734645300358 0 0.060337673338635441 -0.024030323650518486 0 0.060191109386911419 -0.023981617394953809 0 0.060206549186847813 -0.024015984174159 0 0.060218942765983094 -0.024077734645300358 0 0.060191109386911419 -0.023981617394953809 0 0.060197356880225442 -0.024007446733189095 0 0.060337673338635441 -0.024030323650518486 0 0.060218942765983094 -0.024077734645300358 0 0.060191109386911419 -0.023981617394953809 0 0.060191109386911419 -0.023981617394953809 0 0.060138993308074054 -0.023871773639774017 0 0.060206549186847813 -0.024015984174159 0 0.060191109386911419 -0.023981617394953809 0 0.060161898559264099 -0.023794161007958038 0 0.060202270054279999 -0.023888393808993037 0 0.060191109386911419 -0.023981617394953809 0 0.060138993308074054 -0.023871773639774017 0 0.060161898559264099 -0.023794161007958038 0 0.060138993308074054 -0.023871773639774017 0 0.060161898559264099 -0.023794161007958038 0 0.060062399951223082 -0.023661499292431117 0 0.060138993308074054 -0.023871773639774017 0 0.059911249434572114 -0.023781340640170758 0 0.060062399951223082 -0.023661499292431117 0 0.060138993308074054 -0.023871773639774017 0 0.059911249434572114 -0.023781340640170758 0 0.060206549186847813 -0.024015984174159 0 0.060194981715827871 -0.022138210233304038 0 0.06046178312964598 -0.024320172191450305 0 0.060194981715827871 -0.022138210233304038 0 0.061169369154173654 -0.022725943820850355 0 0.060242720941969446 -0.024104384487627088 0 0.060447750154194506 -0.024026509268189274 0 0.060206549186847813 -0.024015984174159 0 0.060337673338635441 -0.024030323650518486 0 0.060447750154194506 -0.024026509268189274 0 0.060206549186847813 -0.024015984174159 0 0.062032069495840544 -0.019853909924420557 0 0.061755844361305781 -0.021570935981325829 0 0.061087720314732363 -0.020592429570479777 0 0.061755844361305781 -0.021570935981325829 0 0.06053196193424884 -0.021633874016437529 0 0.061087720314732363 -0.020592429570479777 0 0.059564186270841181 -0.021213686135235499 0 0.06053196193424884 -0.021633874016437529 0 0.060153397118132494 -0.020386608124180229 0 0.06053196193424884 -0.021633874016437529 0 0.060153397118132494 -0.020386608124180229 0 0.061087720314732363 -0.020592429570479777 0 0.060153397118132494 -0.020386608124180229 0 0.060921149562112697 -0.019534907243344963 0 0.059743614239043119 -0.018847944610902338 0 0.059201303406713354 -0.02003114411512438 0 0.060153397118132494 -0.020386608124180229 0 0.059743614239043119 -0.018847944610902338 0 0.060153397118132494 -0.020386608124180229 0 0.061087720314732363 -0.020592429570479777 0 0.060921149562112697 -0.019534907243344963 0 0.062032069495840544 -0.019853909924420557 0 0.061087720314732363 -0.020592429570479777 0 0.060921149562112697 -0.019534907243344963 0 0.060194981715827871 -0.022138210233304038 0 0.059383865873892168 -0.018900521070524687 0 0.062032069495840544 -0.019853909924420557 0 0.060921149562112697 -0.019534907243344963 0 0.061271095781674167 -0.018381823510392536 0 0.060921149562112697 -0.019534907243344963 0 0.061271095781674167 -0.018381823510392536 0 0.059743614239043119 -0.018847944610902338 0 0.061271095781674167 -0.018381823510392536 0 0.059743614239043119 -0.018847944610902338 0 0.060532508372722088 -0.016935585552132117 0 0.058875856376249501 -0.01794813426592717 0 0.059743614239043119 -0.018847944610902338 0 0.060532508372722088 -0.016935585552132117 0 0.058214214313230823 -0.015912562185013603 0 0.060380328509810108 -0.013979580374111586 0 0.054228400330085157 -0.013085192781160824 0 0.059383865873892168 -0.018900521070524687 0 0.056361374317923901 -0.010303465495956846 0 0.056784744558067084 -0.017926199407718911 0 0.058214214313230823 -0.015912562185013603 0 0.054228400330085157 -0.013085192781160824 0 0.056784744558067084 -0.017926199407718911 0 0.058214214313230823 -0.015912562185013603 0 0.059882804178806037 -0.018374393328806141 0 0.058214214313230823 -0.015912562185013603 0 0.059882804178806037 -0.018374393328806141 0 0.060380328509810108 -0.013979580374111586 0 0.059808293838798501 -0.022201086309192358 0 0.055820609227127206 -0.011953498605043472 0 0.060008815807555016 -0.023447597477216198 0 0.059846891764393194 -0.023485918708108153 0 0.059838582919395748 -0.023183165272211065 0 0.060008815807555016 -0.023447597477216198 0 0.060127504698243704 -0.023571583077216813 0 0.060106377271176549 -0.023318777507310415 0 0.058205584350583414 -0.015901519521239627 0 0.055820609227127206 -0.011953498605043472 0 0.060008815807555016 -0.023447597477216198 0 0.060106377271176549 -0.023318777507310415 0 0.059838582919395748 -0.023183165272211065 0 0.060008815807555016 -0.023447597477216198 0 0.060062399951223082 -0.023661499292431117 0 0.060127504698243704 -0.023571583077216813 0 0.060161898559264099 -0.023794161007958038 0 0.060062399951223082 -0.023661499292431117 0 0.060127504698243704 -0.023571583077216813 0 0.059911249434572114 -0.023781340640170758 0 0.060062399951223082 -0.023661499292431117 0 0.059846891764393194 -0.023485918708108153 0 0.059371864005102248 -0.022768791215097218 0 0.056784744558067084 -0.017926199407718911 0 0.059882804178806037 -0.018374393328806141 0 0.060194981715827871 -0.022138210233304038 0 0.059808293838798501 -0.022201086309192358 0 0.060008815807555016 -0.023447597477216198 0 0.060062399951223082 -0.023661499292431117 0 0.059846891764393194 -0.023485918708108153 0 0.060193622332676167 -0.023554750308110418 0 0.060229356066337746 -0.023508864183802138 0 0.060182851602070604 -0.023342102040265513 0 0.060229356066337746 -0.023508864183802138 0 0.060301165197276796 -0.023610330074157783 0 0.060242638322894046 -0.023652823790602191 0 0.060193622332676167 -0.023554750308110418 0 0.060229356066337746 -0.023508864183802138 0 0.060242638322894046 -0.023652823790602191 0 0.060193622332676167 -0.023554750308110418 0 0.060127504698243704 -0.023571583077216813 0 0.060106377271176549 -0.023318777507310415 0 0.060193622332676167 -0.023554750308110418 0 0.060127504698243704 -0.023571583077216813 0 0.06018339217339793 -0.023708158425353901 0 0.058205584350583414 -0.015901519521239627 0 0.05285979219046151 -0.010510028412408967 0 0.060193622332676167 -0.023554750308110418 0 0.060106377271176549 -0.023318777507310415 0 0.060182851602070604 -0.023342102040265513 0 0.060229356066337746 -0.023508864183802138 0 0.060182851602070604 -0.023342102040265513 0 0.060226962144219076 -0.023383363396958727 0 0.05285979219046151 -0.010510028412408967 0 0.051391129185163927 -0.017677683293347866 0 0.05238518266013701 -0.015678878714401306 0 0.053570423206395351 -0.015851654195493687 0 0.053776630992783209 -0.016780951231581465 0 0.045472135957946601 -0.00053989343188302788 0 0.044616079748190131 -0.00040421431724628519 0 0.046628867191223354 -0.002574870363620663 0 0.05285979219046151 -0.010510028412408967 0 0.047316274508124118 -0.0072632518163863553 0 0.042704346360275272 -0.00055671694078041881 0 0.043984325184882662 0.00069656301908576138 0 0.041136047003217921 0.0014054635230210878 0 0.040896734476114326 -0.0086164056338406438 0 0.040515543716725083 0.00041192177806777572 0 0.042704346360275272 -0.00055671694078041881 0 0.041136047003217921 0.0014054635230210878 0 0.039233822831189182 -0.002944512467797812 0 0.044638829023832531 -0.013571042368887173 0 0.045385648804800512 -0.01321112551841162 0 0.045041500367116856 -0.01246408393955145 0 0.040896734476114326 -0.0086164056338406438 0 0.043575038694110918 -0.019700060063486974 0 0.051391129185163927 -0.017677683293347866 0 0.043575038694110918 -0.019700060063486974 0 0.046228755664686982 -0.013789388267422998 0 0.044638829023832531 -0.013571042368887173 0 0.045385648804800512 -0.01321112551841162 0 0.045385648804800512 -0.01321112551841162 0 0.046108586182985606 -0.013253552145635995 0 0.045041500367116856 -0.01246408393955145 0 0.047316274508124118 -0.0072632518163863553 0 0.040896734476114326 -0.0086164056338406438 0 0.047316274508124118 -0.0072632518163863553 0 0.051391129185163927 -0.017677683293347866 0 0.046228755664686982 -0.013789388267422998 0 0.045385648804800512 -0.01321112551841162 0 0.046108586182985606 -0.013253552145635995 0 0.040896734476114326 -0.0086164056338406438 0 0.033988871512029041 -0.011523164568508973 0 0.040701349249525752 0.0014023338831907087 0 0.033182566315724804 0.0023302341283416676 0 0.035148259916872308 -0.0019035490583783341 0 0.039974829957455466 -0.025096614559016711 0 0.037008507426170852 -0.022795234766736287 0 0.034986569150872143 -0.024549117402070858 0 0.039974829957455466 -0.025096614559016711 0 0.037008507426170852 -0.022795234766736287 0 0.038685996501643415 -0.022597995815042064 0 0.038685996501643415 -0.022597995815042064 0 0.03923242726887681 -0.021330749290819361 0 0.037846380851678602 -0.020736622601164899 0 0.038685996501643415 -0.022597995815042064 0 0.03923242726887681 -0.021330749290819361 0 0.039881937424813496 -0.023137298301458848 0 0.037008507426170852 -0.022795234766736287 0 0.038685996501643415 -0.022597995815042064 0 0.037846380851678602 -0.020736622601164899 0 0.051391129185163927 -0.017677683293347866 0 0.047150622628091887 -0.022283254120006972 0 0.047554605169624009 -0.018703896991892489 0 0.048612063605317724 -0.019542567618793003 0 0.048050253384892889 -0.021134735925018262 0 0.060229356066337746 -0.023508864183802138 0 0.060226962144219076 -0.023383363396958727 0 0.060301165197276796 -0.023610330074157783 0 0.039974829957455466 -0.025096614559016711 0 0.038685996501643415 -0.022597995815042064 0 0.039881937424813496 -0.023137298301458848 0 0.039974829957455466 -0.025096614559016711 0 0.040490668268618218 -0.023584374119192442 0 0.039881937424813496 -0.023137298301458848 0 0.040444574475218931 -0.023562247939697453 0 0.039881937424813496 -0.023137298301458848 0 0.041065097610000434 -0.021597614286893912 0 0.043575038694110918 -0.019700060063486974 0 0.042868544629925912 -0.020161592790768054 0 0.03923242726887681 -0.021330749290819361 0 0.039881937424813496 -0.023137298301458848 0 0.041065097610000434 -0.021597614286893912 0 0.043575038694110918 -0.019700060063486974 0 0.047150622628091887 -0.022283254120006972 0 0.041533641259180569 -0.021968732847439755 0 0.040511396373087205 -0.017923524301708391 0 0.042446087761117898 -0.019144372140077425 0 0.041065097610000434 -0.021597614286893912 0 0.039066515567153855 -0.019450739041649644 0 0.040511396373087205 -0.017923524301708391 0 0.047150622628091887 -0.022283254120006972 0 0.051365964766737555 -0.021347730705737478 0 0.047150622628091887 -0.022283254120006972 0 0.039145617718147827 -0.017663093756466845 0 0.03923242726887681 -0.021330749290819361 0 0.041065097610000434 -0.021597614286893912 0 0.039066515567153855 -0.019450739041649644 0 0.03923242726887681 -0.021330749290819361 0 0.037846380851678602 -0.020736622601164899 0 0.039066515567153855 -0.019450739041649644 0 0.037846380851678602 -0.020736622601164899 0 0.039066515567153855 -0.019450739041649644 0 0.036220231921598608 -0.018172309833082666 0 0.03905791787467202 -0.017046142931097057 0 0.037960153752444784 -0.015942951415621458 0 0.036220231921598608 -0.018172309833082666 0 0.039066515567153855 -0.019450739041649644 0 0.03905791787467202 -0.017046142931097057 0 0.040511396373087205 -0.017923524301708391 0 0.039066515567153855 -0.019450739041649644 0 0.03905791787467202 -0.017046142931097057 0 0.036220231921598608 -0.018172309833082666 0 0.040511396373087205 -0.017923524301708391 0 0.041755432401318383 -0.017614524549256837 0 0.042446087761117898 -0.019144372140077425 0 0.03905791787467202 -0.017046142931097057 0 0.040511396373087205 -0.017923524301708391 0 0.041056506074857398 -0.016642371152119275 0 0.041755432401318383 -0.017614524549256837 0 0.042376994092216624 -0.017230682320319546 0 0.042446087761117898 -0.019144372140077425 0 0.040511396373087205 -0.017923524301708391 0 0.041755432401318383 -0.017614524549256837 0 0.041056506074857398 -0.016642371152119275 0 0.041755432401318383 -0.017614524549256837 0 0.042376994092216624 -0.017230682320319546 0 0.041056506074857398 -0.016642371152119275 0 0.042376994092216624 -0.017230682320319546 0 0.042446087761117898 -0.019144372140077425 0 0.042780124084064314 -0.016713392381173121 0 0.060243503807888059 -0.023865827682922468 0 0.060263975654600933 -0.023815651132652167 0 0.060203273664553601 -0.023859723178769773 0 0.051365964766737555 -0.021347730705737478 0 0.054802435613135116 -0.021615381904066932 0 0.060233346751912567 -0.023971046956054013 0 0.060243503807888059 -0.023865827682922468 0 0.060337512432027757 -0.024033553878993651 0 0.059948791291846396 -0.025129545000344752 0 0.054802435613135116 -0.021615381904066932 0 0.060193622332676167 -0.023554750308110418 0 0.060223435327876149 -0.023752784858596152 0 0.060242638322894046 -0.023652823790602191 0 0.060301165197276796 -0.023610330074157783 0 0.060263975654600933 -0.023815651132652167 0 0.060242638322894046 -0.023652823790602191 0 0.060263975654600933 -0.023815651132652167 0 0.060223435327876149 -0.023752784858596152 0 0.060242638322894046 -0.023652823790602191 0 0.060243503807888059 -0.023865827682922468 0 0.060263975654600933 -0.023815651132652167 0 0.060223435327876149 -0.023752784858596152 0 0.060161898559264099 -0.023794161007958038 0 0.06018339217339793 -0.023708158425353901 0 0.060202270054279999 -0.023888393808993037 0 0.060223435327876149 -0.023752784858596152 0 0.06018339217339793 -0.023708158425353901 0 0.060202270054279999 -0.023888393808993037 0 0.060193622332676167 -0.023554750308110418 0 0.060223435327876149 -0.023752784858596152 0 0.06018339217339793 -0.023708158425353901 0 0.060161898559264099 -0.023794161007958038 0 0.060127504698243704 -0.023571583077216813 0 0.06018339217339793 -0.023708158425353901 0 0.060191109386911419 -0.023981617394953809 0 0.060202270054279999 -0.023888393808993037 0 0.060197356880225442 -0.024007446733189095 0 0.060243503807888059 -0.023865827682922468 0 0.060223435327876149 -0.023752784858596152 0 0.060202270054279999 -0.023888393808993037 0 0.060233346751912567 -0.023971046956054013 0 0.060243503807888059 -0.023865827682922468 0 0.060202270054279999 -0.023888393808993037 0 0.060233346751912567 -0.023971046956054013 0 0.060202270054279999 -0.023888393808993037 0 0.060193810934854368 -0.024048324712722106 0 0.060202270054279999 -0.023888393808993037 0 0.060197356880225442 -0.024007446733189095 0 0.060193810934854368 -0.024048324712722106 0 0.060218942765983094 -0.024077734645300358 0 0.060193810934854368 -0.024048324712722106 0 0.060158299788479669 -0.02417311856467895 0 0.060187671895343436 -0.02421687497757774 0 0.060218942765983094 -0.024077734645300358 0 0.060158299788479669 -0.02417311856467895 0 0.060218942765983094 -0.024077734645300358 0 0.060197356880225442 -0.024007446733189095 0 0.060193810934854368 -0.024048324712722106 0 0.060233346751912567 -0.023971046956054013 0 0.060193810934854368 -0.024048324712722106 0 0.060228788191119334 -0.02404620134587835 0 0.060193810934854368 -0.024048324712722106 0 0.060187224580848547 -0.024133007467195846 0 0.060228788191119334 -0.02404620134587835 0 0.060193810934854368 -0.024048324712722106 0 0.060187224580848547 -0.024133007467195846 0 0.060158299788479669 -0.02417311856467895 0 0.060187224580848547 -0.024133007467195846 0 0.060337512432027757 -0.024033553878993651 0 0.06001704597556811 -0.024348369279860997 0 0.054802435613135116 -0.021615381904066932 0 0.049557236392633992 -0.020934458409575699 0 0.054802435613135116 -0.021615381904066932 0 0.058196902076993268 -0.024795086284175743 0 0.042780124084064314 -0.016713392381173121 0 0.043280157598285254 -0.016908694839245744 0 0.045659080196294041 -0.018688339735129879 0 0.042376994092216624 -0.017230682320319546 0 0.042780124084064314 -0.016713392381173121 0 0.043280157598285254 -0.016908694839245744 0 0.060187224580848547 -0.024133007467195846 0 0.060337512432027757 -0.024033553878993651 0 0.060228788191119334 -0.02404620134587835 0 0.060233346751912567 -0.023971046956054013 0 0.060337512432027757 -0.024033553878993651 0 0.060228788191119334 -0.02404620134587835 0 0.05556444488888114 -0.024891028648469912 0 0.05522751962189687 -0.024347408759536702 0 0.055184840293892742 -0.0246008808238312 0 0.054832523219544287 -0.023352295888379605 0 0.05556444488888114 -0.024891028648469912 0 0.055184840293892742 -0.0246008808238312 0 0.060187224580848547 -0.024133007467195846 0 0.060158299788479669 -0.02417311856467895 0 0.06001704597556811 -0.024348369279860997 0 0.060187671895343436 -0.02421687497757774 0 0.060158299788479669 -0.02417311856467895 0 0.06001704597556811 -0.024348369279860997 0 0.060187671895343436 -0.02421687497757774 0 0.06001704597556811 -0.024348369279860997 0 0.060013154953353673 -0.024245533218380851 0 0.05556444488888114 -0.024891028648469912 0 0.056375516698741149 -0.023868674183686347 0 0.058882354798131607 -0.023474495496319189 0 0.058196902076993268 -0.024795086284175743 0 0.058744945276757943 -0.023205125700472052 0 0.06001704597556811 -0.024348369279860997 0 0.060013154953353673 -0.024245533218380851 0 0.058882354798131607 -0.023474495496319189 0 0.05556444488888114 -0.024891028648469912 0 0.05522751962189687 -0.024347408759536702 0 0.056375516698741149 -0.023868674183686347 0 0.05522751962189687 -0.024347408759536702 0 0.056375516698741149 -0.023868674183686347 0 0.054905024804014803 -0.023067817183284593 0 0.056375516698741149 -0.023868674183686347 0 0.054905024804014803 -0.023067817183284593 0 0.056493496852683969 -0.022503876054807404 0 0.053908092926226829 -0.019948482658185118 0 0.054905024804014803 -0.023067817183284593 0 0.056493496852683969 -0.022503876054807404 0 0.058376955624841381 -0.021659876124265218 0 0.056493496852683969 -0.022503876054807404 0 0.058882354798131607 -0.023474495496319189 0 0.056375516698741149 -0.023868674183686347 0 0.056493496852683969 -0.022503876054807404 0 0.058882354798131607 -0.023474495496319189 0 0.050444941852293278 -0.020504380800835349 0 0.049728360269730799 -0.020649955681851368 0 0.048257345027350435 -0.020393354143283388 0 0.053908092926226829 -0.019948482658185118 0 0.054905024804014803 -0.023067817183284593 0 0.05316834024412765 -0.021940054580581458 0 0.050326312679931207 -0.020449596370682124 0 0.050820052468318493 -0.022065983470179511 0 0.050444941852293278 -0.020504380800835349 0 0.05316834024412765 -0.021940054580581458 0 0.05331724014432572 -0.023977993594403307 0 0.054905024804014803 -0.023067817183284593 0 0.05316834024412765 -0.021940054580581458 0 0.05331724014432572 -0.023977993594403307 0 0.05522751962189687 -0.024347408759536702 0 0.05331724014432572 -0.023977993594403307 0 0.055184840293892742 -0.0246008808238312 0 0.050820052468318493 -0.022065983470179511 0 0.049557236392633992 -0.020934458409575699 0 0.048257345027350435 -0.020393354143283388 0 0.045659080196294041 -0.018688339735129879 0 0.047629508971764448 -0.018904168194072372 0 0.05522751962189687 -0.024347408759536702 0 0.054905024804014803 -0.023067817183284593 0 0.05331724014432572 -0.023977993594403307 0 0.041082161592815268 -0.015347417214305797 0 0.04459087513315084 -0.017199900751352207 0 0.039366978721803773 -0.013702413783041104 0 0.039004807242804689 -0.01424069884692432 0 0.040147732277409996 -0.014144177248882572 0 0.041082161592815268 -0.015347417214305797 0 0.036094325731083322 -0.012361720105329174 0 0.049728360269730799 -0.020649955681851368 0 0.048257345027350435 -0.020393354143283388 0 0.047629508971764448 -0.018904168194072372 0 0.039252861861035333 -0.014974910461751015 0 0.040147732277409996 -0.014144177248882572 0 0.039792051989575 -0.015757505925239529 0 0.039004807242804689 -0.01424069884692432 0 0.039252861861035333 -0.014974910461751015 0 0.037960153752444784 -0.015942951415621458 0 0.036094325731083322 -0.012361720105329174 0 0.036352983290778483 -0.015411782907666455 0 0.039004807242804689 -0.01424069884692432 0 0.039252861861035333 -0.014974910461751015 0 0.040147732277409996 -0.014144177248882572 0 0.043280157598285254 -0.016908694839245744 0 0.045659080196294041 -0.018688339735129879 0 0.047629508971764448 -0.018904168194072372 0 0.043216228882650025 -0.016699160323283533 0 0.04459087513315084 -0.017199900751352207 0 0.043280157598285254 -0.016908694839245744 0 0.040147732277409996 -0.014144177248882572 0 0.041056506074857398 -0.016642371152119275 0 0.040147732277409996 -0.014144177248882572 0 0.041056506074857398 -0.016642371152119275 0 0.039792051989575 -0.015757505925239529 0 0.03905791787467202 -0.017046142931097057 0 0.041056506074857398 -0.016642371152119275 0 0.039792051989575 -0.015757505925239529 0 0.042376994092216624 -0.017230682320319546 0 0.043280157598285254 -0.016908694839245744 0 0.041056506074857398 -0.016642371152119275 0 0.039252861861035333 -0.014974910461751015 0 0.039792051989575 -0.015757505925239529 0 0.037960153752444784 -0.015942951415621458 0 0.03905791787467202 -0.017046142931097057 0 0.039792051989575 -0.015757505925239529 0 0.037960153752444784 -0.015942951415621458 0 0.034765644188188255 -0.014101337873418145 0 0.03210837169260887 -0.01303930668050339 0 0.033170948007676088 -0.015562489702402437 0 0.03210837169260887 -0.01303930668050339 0 0.030496134468277418 -0.015522696954841767 0 0.033170948007676088 -0.015562489702402437 0 0.03210837169260887 -0.01303930668050339 0 0.029722216129674597 -0.013202180311204775 0 0.030496134468277418 -0.015522696954841767 0 0.03210837169260887 -0.01303930668050339 0 0.030282347767080185 -0.011545531680876374 0 0.029722216129674597 -0.013202180311204775 0 0.03210837169260887 -0.01303930668050339 0 0.030282347767080185 -0.011545531680876374 0 0.032120611010759456 -0.011099158085890421 0 0.033761383044848305 -0.011626874174782338 0 0.03210837169260887 -0.01303930668050339 0 0.032120611010759456 -0.011099158085890421 0 0.033761383044848305 -0.011626874174782338 0 0.034765644188188255 -0.014101337873418145 0 0.03210837169260887 -0.01303930668050339 0 0.033283522569547003 -0.0097918329666943499 0 0.033761383044848305 -0.011626874174782338 0 0.032120611010759456 -0.011099158085890421 0 0.033283522569547003 -0.0097918329666943499 0 0.032120611010759456 -0.011099158085890421 0 0.03100824156380232 -0.0098838360208304242 0 0.030282347767080185 -0.011545531680876374 0 0.03100824156380232 -0.0098838360208304242 0 0.02958341396658358 -0.010429542243033945 0 0.030282347767080185 -0.011545531680876374 0 0.032120611010759456 -0.011099158085890421 0 0.03100824156380232 -0.0098838360208304242 0 0.03100824156380232 -0.0098838360208304242 0 0.029224481886594288 -0.0094192644379516473 0 0.02958341396658358 -0.010429542243033945 0 0.030438477907404563 -0.0088146804027814524 0 0.03100824156380232 -0.0098838360208304242 0 0.029224481886594288 -0.0094192644379516473 0 0.031879687889043024 -0.0086622407347922634 0 0.030438477907404563 -0.0088146804027814524 0 0.03100824156380232 -0.0098838360208304242 0 0.031879687889043024 -0.0086622407347922634 0 0.033283522569547003 -0.0097918329666943499 0 0.03100824156380232 -0.0098838360208304242 0 0.035312831235792756 -0.010773562680496507 0 0.041082161592815268 -0.015347417214305797 0 0.0273123228822151 -0.0097002256060854091 0 0.029224481886594288 -0.0094192644379516473 0 0.027839392024027177 -0.010646045635529101 0 0.028028420994841936 -0.008768351923003995 0 0.0273123228822151 -0.0097002256060854091 0 0.029224481886594288 -0.0094192644379516473 0 0.02958341396658358 -0.010429542243033945 0 0.027839392024027177 -0.010646045635529101 0 0.028497242085702375 -0.011840409003029632 0 0.029224481886594288 -0.0094192644379516473 0 0.02958341396658358 -0.010429542243033945 0 0.027839392024027177 -0.010646045635529101 0 0.030282347767080185 -0.011545531680876374 0 0.02958341396658358 -0.010429542243033945 0 0.028497242085702375 -0.011840409003029632 0 0.0273123228822151 -0.0097002256060854091 0 0.027839392024027177 -0.010646045635529101 0 0.026544023557088386 -0.010696844128190733 0 0.027839392024027177 -0.010646045635529101 0 0.028497242085702375 -0.011840409003029632 0 0.026089897633450657 -0.012379763700227796 0 0.027839392024027177 -0.010646045635529101 0 0.026089897633450657 -0.012379763700227796 0 0.026544023557088386 -0.010696844128190733 0 0.030282347767080185 -0.011545531680876374 0 0.028497242085702375 -0.011840409003029632 0 0.029722216129674597 -0.013202180311204775 0 0.028497242085702375 -0.011840409003029632 0 0.029722216129674597 -0.013202180311204775 0 0.027735397686949544 -0.014256830079508743 0 0.029722216129674597 -0.013202180311204775 0 0.027735397686949544 -0.014256830079508743 0 0.030496134468277418 -0.015522696954841767 0 0.028497242085702375 -0.011840409003029632 0 0.027735397686949544 -0.014256830079508743 0 0.026089897633450657 -0.012379763700227796 0 0.027735397686949544 -0.014256830079508743 0 0.026089897633450657 -0.012379763700227796 0 0.024006646169274715 -0.014213461336055909 0 0.027735397686949544 -0.014256830079508743 0 0.025755959182236554 -0.016421265547340459 0 0.024006646169274715 -0.014213461336055909 0 0.027735397686949544 -0.014256830079508743 0 0.025755959182236554 -0.016421265547340459 0 0.028402646595699837 -0.016682584464880072 0 0.025755959182236554 -0.016421265547340459 0 0.025121973627307372 -0.019758012500385089 0 0.028402646595699837 -0.016682584464880072 0 0.025723564380233134 -0.016249255680632735 0 0.024719283304449637 -0.020331697680858178 0 0.025755959182236554 -0.016421265547340459 0 0.025133413592538199 -0.01800023586664733 0 0.022795192068468671 -0.016313689594298037 0 0.025121973627307372 -0.019758012500385089 0 0.029677971143451155 -0.019339214277076827 0 0.028402646595699837 -0.016682584464880072 0 0.025121973627307372 -0.019758012500385089 0 0.029677971143451155 -0.019339214277076827 0 0.027368208628220321 -0.02140957789791198 0 0.029677971143451155 -0.019339214277076827 0 0.028402646595699837 -0.016682584464880072 0 0.030496134468277418 -0.015522696954841767 0 0.027735397686949544 -0.014256830079508743 0 0.028402646595699837 -0.016682584464880072 0 0.030496134468277418 -0.015522696954841767 0 0.029677971143451155 -0.019339214277076827 0 0.032675546578845659 -0.017849097677447093 0 0.030496134468277418 -0.015522696954841767 0 0.032675546578845659 -0.017849097677447093 0 0.030496134468277418 -0.015522696954841767 0 0.033170948007676088 -0.015562489702402437 0 0.032675546578845659 -0.017849097677447093 0 0.033170948007676088 -0.015562489702402437 0 0.036220231921598608 -0.018172309833082666 0 0.036352983290778483 -0.015411782907666455 0 0.036209956287770718 -0.018050134225052784 0 0.034765644188188255 -0.014101337873418145 0 0.033170948007676088 -0.015562489702402437 0 0.036220231921598608 -0.018172309833082666 0 0.037846380851678602 -0.020736622601164899 0 0.036220231921598608 -0.018172309833082666 0 0.034024121911134859 -0.021026303295172553 0 0.032675546578845659 -0.017849097677447093 0 0.036220231921598608 -0.018172309833082666 0 0.034024121911134859 -0.021026303295172553 0 0.029677971143451155 -0.019339214277076827 0 0.032675546578845659 -0.017849097677447093 0 0.034024121911134859 -0.021026303295172553 0 0.029677971143451155 -0.019339214277076827 0 0.034024121911134859 -0.021026303295172553 0 0.029743835998668828 -0.023681907068836681 0 0.034024121911134859 -0.021026303295172553 0 0.034986569150872143 -0.024549117402070858 0 0.029743835998668828 -0.023681907068836681 0 0.037008507426170852 -0.022795234766736287 0 0.037846380851678602 -0.020736622601164899 0 0.034024121911134859 -0.021026303295172553 0 0.037008507426170852 -0.022795234766736287 0 0.034024121911134859 -0.021026303295172553 0 0.034986569150872143 -0.024549117402070858 0 0.033182566315724804 0.0023302341283416676 0 0.029309947229392987 -0.0010855484581573089 0 0.035148259916872308 -0.0019035490583783341 0 0.033988871512029041 -0.011523164568508973 0 0.028116409394887666 -0.010215464117749226 0 0.033182566315724804 0.0023302341283416676 0 0.026108404759233896 0.0029072748490839716 0 0.029309947229392987 -0.0010855484581573089 0 0.024771894218858802 -0.00082275478690361549 0 0.022050464793389304 0.00046792999016535245 0 0.026108404759233896 0.0029072748490839716 0 0.024771894218858802 -0.00082275478690361549 0 0.026108404759233896 0.0029072748490839716 0 0.029309947229392987 -0.0010855484581573089 0 0.022050464793389304 0.00046792999016535245 0 0.020316912113294189 0.0032028360607883259 0 0.026108404759233896 0.0029072748490839716 0 0.022050464793389304 0.00046792999016535245 0 0.020316912113294189 0.0032028360607883259 0 0.019849510719095156 -0.0012747483185741437 0 0.02449410124466362 -0.022785656550484566 0 0.029743835998668828 -0.023681907068836681 0 0.027368208628220321 -0.02140957789791198 0 0.021768385606119194 -0.010932303326780579 0 0.028116409394887666 -0.010215464117749226 0 0.025121973627307372 -0.019758012500385089 0 0.02449410124466362 -0.022785656550484566 0 0.027368208628220321 -0.02140957789791198 0 0.024719283304449637 -0.020331697680858178 0 0.021768385606119194 -0.010932303326780579 0 0.029677971143451155 -0.019339214277076827 0 0.029743835998668828 -0.023681907068836681 0 0.027368208628220321 -0.02140957789791198 0 0.02318521204588286 -0.0023988136221873139 0 0.023916141004870627 -0.0044042193580199705 0 0.022354601979023076 -0.0044981903663488072 0 0.021321298252097824 -0.0035676161569859898 0 0.02318521204588286 -0.0023988136221873139 0 0.022354601979023076 -0.0044981903663488072 0 0.021321298252097824 -0.0035676161569859898 0 0.020856436786461468 -0.0049584561966228404 0 0.019721892724234212 -0.0036994195836263523 0 0.021321298252097824 -0.0035676161569859898 0 0.021567712221895689 -0.0022276797754915596 0 0.019721892724234212 -0.0036994195836263523 0 0.021567712221895689 -0.0022276797754915596 0 0.019721892724234212 -0.0036994195836263523 0 0.019849510719095156 -0.0012747483185741437 0 0.022050464793389304 0.00046792999016535245 0 0.021567712221895689 -0.0022276797754915596 0 0.019849510719095156 -0.0012747483185741437 0 0.024771894218858802 -0.00082275478690361549 0 0.022050464793389304 0.00046792999016535245 0 0.021567712221895689 -0.0022276797754915596 0 0.024771894218858802 -0.00082275478690361549 0 0.021567712221895689 -0.0022276797754915596 0 0.026296900790697627 -0.0038655863329522724 0 0.024771894218858802 -0.00082275478690361549 0 0.026296900790697627 -0.0038655863329522724 0 0.029309947229392987 -0.0010855484581573089 0 0.021321298252097824 -0.0035676161569859898 0 0.021567712221895689 -0.0022276797754915596 0 0.02318521204588286 -0.0023988136221873139 0 0.021861192299156635 -0.002368858674160109 0 0.024844357561199605 -0.0031136667462144359 0 0.026296900790697627 -0.0038655863329522724 0 0.029309947229392987 -0.0010855484581573089 0 0.031486821941612987 -0.0051786080323584557 0 0.024844357561199605 -0.0031136667462144359 0 0.027833694053846777 -0.0039544858620781265 0 0.029309947229392987 -0.0010855484581573089 0 0.031486821941612987 -0.0051786080323584557 0 0.035148259916872308 -0.0019035490583783341 0 0.031486821941612987 -0.0051786080323584557 0 0.035148259916872308 -0.0019035490583783341 0 0.036974863071720203 -0.0063968721684306727 0 0.02866360953293581 -0.00098532337360422392 0 0.035151232506017274 -0.0023113766464979008 0 0.027833694053846777 -0.0039544858620781265 0 0.035151232506017274 -0.0023113766464979008 0 0.025129685041315863 -0.0026365303817356862 0 0.025647361899660194 -0.0045329597674431312 0 0.027217165751918262 -0.002965723875168455 0 0.025129685041315863 -0.0026365303817356862 0 0.023916141004870627 -0.0044042193580199705 0 0.025647361899660194 -0.0045329597674431312 0 0.02318521204588286 -0.0023988136221873139 0 0.025129685041315863 -0.0026365303817356862 0 0.023916141004870627 -0.0044042193580199705 0 0.023916141004870627 -0.0044042193580199705 0 0.025647361899660194 -0.0045329597674431312 0 0.024139747195690356 -0.0059796298646923925 0 0.023916141004870627 -0.0044042193580199705 0 0.024139747195690356 -0.0059796298646923925 0 0.023238670525697853 -0.0052018468715289866 0 0.02866360953293581 -0.00098532337360422392 0 0.02760961805072723 -0.0030898804797983887 0 0.032423820203611786 0.0023318376827308656 0 0.031993527477908734 0.00045615342108578982 0 0.029798826734785955 -0.00049714886509360536 0 0.032423820203611786 0.0023318376827308656 0 0.031993527477908734 0.00045615342108578982 0 0.034619501869720209 0.0010616176002008477 0 0.031993527477908734 0.00045615342108578982 0 0.033299167854515005 -0.0013846328671060983 0 0.034619501869720209 0.0010616176002008477 0 0.031993527477908734 0.00045615342108578982 0 0.031837464345607885 -0.00087747598680127672 0 0.033299167854515005 -0.0013846328671060983 0 0.031993527477908734 0.00045615342108578982 0 0.031837464345607885 -0.00087747598680127672 0 0.030030861508940986 -0.00046574673390649299 0 0.031837464345607885 -0.00087747598680127672 0 0.033299167854515005 -0.0013846328671060983 0 0.031679134175131171 -0.002906500459733596 0 0.031837464345607885 -0.00087747598680127672 0 0.030030861508940986 -0.00046574673390649299 0 0.031679134175131171 -0.002906500459733596 0 0.029798826734785955 -0.00049714886509360536 0 0.030267315444926293 0.0010412681263555349 0 0.032455268893559125 0.0019611885845652239 0 0.02760961805072723 -0.0030898804797983887 0 0.022668556809653108 -0.00065022910394186932 0 0.031993527477908734 0.00045615342108578982 0 0.029798826734785955 -0.00049714886509360536 0 0.030030861508940986 -0.00046574673390649299 0 0.029798826734785955 -0.00049714886509360536 0 0.030030861508940986 -0.00046574673390649299 0 0.029535781216145651 0.0007323459230157937 0 0.029690576031192486 -6.8931655019681596e-05 0 0.02987901866692769 -0.0010026913394870418 0 0.029798826734785955 -0.00049714886509360536 0 0.029535781216145651 0.0007323459230157937 0 0.030267315444926293 0.0010412681263555349 0 0.030030861508940986 -0.00046574673390649299 0 0.029535781216145651 0.0007323459230157937 0 0.027263684525250596 0.0021808419626691642 0 0.029535781216145651 0.0007323459230157937 0 0.030267315444926293 0.0010412681263555349 0 0.029351631737669737 0.0021791161827167276 0 0.024139747195690356 -0.0059796298646923925 0 0.022565413083468818 -0.0059412133806490018 0 0.023238670525697853 -0.0052018468715289866 0 0.024139747195690356 -0.0059796298646923925 0 0.022565413083468818 -0.0059412133806490018 0 0.022656861814141057 -0.0073926530440730602 0 0.016460354678450941 -0.0035965529102251503 0 0.022668556809653108 -0.00065022910394186932 0 0.022565413083468818 -0.0059412133806490018 0 0.020902333429471495 -0.0064623279481828243 0 0.022656861814141057 -0.0073926530440730602 0 0.023916141004870627 -0.0044042193580199705 0 0.022354601979023076 -0.0044981903663488072 0 0.023238670525697853 -0.0052018468715289866 0 0.022565413083468818 -0.0059412133806490018 0 0.022354601979023076 -0.0044981903663488072 0 0.020856436786461468 -0.0049584561966228404 0 0.022565413083468818 -0.0059412133806490018 0 0.022354601979023076 -0.0044981903663488072 0 0.023238670525697853 -0.0052018468715289866 0 0.021321298252097824 -0.0035676161569859898 0 0.022354601979023076 -0.0044981903663488072 0 0.020856436786461468 -0.0049584561966228404 0 0.022565413083468818 -0.0059412133806490018 0 0.020856436786461468 -0.0049584561966228404 0 0.020902333429471495 -0.0064623279481828243 0 0.020856436786461468 -0.0049584561966228404 0 0.020902333429471495 -0.0064623279481828243 0 0.019239770585288436 -0.0055626584020172266 0 0.012725659401674487 -0.00050087078326239141 0 0.013452104103761046 -0.0024532275573993195 0 0.014570657419337061 -0.0014019136109207403 0 0.012725659401674487 -0.00050087078326239141 0 0.013452104103761046 -0.0024532275573993195 0 0.011503047813560381 -0.00088172263620382133 0 0.01334213218719364 0.0024241359162601225 0 0.0092703649765914099 -0.0010507629525375293 0 0.013452104103761046 -0.0024532275573993195 0 0.011503047813560381 -0.00088172263620382133 0 0.011274313548932068 -0.001769235219460111 0 0.024175335294741283 0.0048769666655810026 0 0.021628090863548711 0.0020315537077568759 0 0.019575085154600373 0.0061356896277431419 0 0.01334213218719364 0.0024241359162601225 0 0.022668556809653108 -0.00065022910394186932 0 0.01334213218719364 0.0024241359162601225 0 0.016802418112730051 0.0071961572673792358 0 0.011855972982640366 0.0083704345332584335 0 0.012470151978664457 0.0078480025090305831 0 0.01273741472363109 0.0082833698817350431 0 0.011855972982640366 0.0083704345332584335 0 0.012470151978664457 0.0078480025090305831 0 0.011983571412381901 0.0076182115681802214 0 0.011855972982640366 0.0083704345332584335 0 0.011983571412381901 0.0076182115681802214 0 0.011194193510471996 0.0075215539155963898 0 0.0068362097784712451 0.00042522474917258154 0 0.0082591332003734835 1.1062171435395263e-05 0 0.0080496579473980385 0.0018881984723697416 0 0.01334213218719364 0.0024241359162601225 0 0.0089952716264981754 0.0049079477547376103 0 0.011983571412381901 0.0076182115681802214 0 0.011527861968954186 0.0072072236292697713 0 0.011194193510471996 0.0075215539155963898 0 0.011983571412381901 0.0076182115681802214 0 0.011886539439869715 0.0071118764423249792 0 0.012698965505909482 0.0074304569535002937 0 0.011983571412381901 0.0076182115681802214 0 0.011886539439869715 0.0071118764423249792 0 0.011527861968954186 0.0072072236292697713 0 0.012470151978664457 0.0078480025090305831 0 0.011983571412381901 0.0076182115681802214 0 0.012698965505909482 0.0074304569535002937 0 0.011886539439869715 0.0071118764423249792 0 0.011527861968954186 0.0072072236292697713 0 0.011394806301554343 0.0069404498924369841 0 0.011527861968954186 0.0072072236292697713 0 0.011246977054246826 0.0070158479556055916 0 0.011394806301554343 0.0069404498924369841 0 0.01314794729624943 0.0073232158211371558 0 0.013817289651011571 0.0077720976289284757 0 0.014477977794170177 0.0068403620332902855 0 0.011886539439869715 0.0071118764423249792 0 0.012698965505909482 0.0074304569535002937 0 0.012330054218660968 0.0068759242340786326 0 0.01314794729624943 0.0073232158211371558 0 0.012698965505909482 0.0074304569535002937 0 0.012330054218660968 0.0068759242340786326 0 0.01314794729624943 0.0073232158211371558 0 0.012698965505909482 0.0074304569535002937 0 0.013443078244559164 0.0075693409407728719 0 0.012470151978664457 0.0078480025090305831 0 0.012698965505909482 0.0074304569535002937 0 0.013175993717647933 0.007669430926076218 0 0.012698965505909482 0.0074304569535002937 0 0.013443078244559164 0.0075693409407728719 0 0.013175993717647933 0.007669430926076218 0 0.013443078244559164 0.0075693409407728719 0 0.014072621529139021 0.0075276753180793399 0 0.013175993717647933 0.007669430926076218 0 0.030127439278939364 0.0075016820698220032 0 0.027923525413637296 0.012995535179412761 0 0.013443078244559164 0.0075693409407728719 0 0.014072621529139021 0.0075276753180793399 0 0.013817289651011571 0.0077720976289284757 0 0.01314794729624943 0.0073232158211371558 0 0.013443078244559164 0.0075693409407728719 0 0.013817289651011571 0.0077720976289284757 0 0.014072621529139021 0.0075276753180793399 0 0.013844991403790944 0.0069649048223061521 0 0.013817289651011571 0.0077720976289284757 0 0.014072621529139021 0.0075276753180793399 0 0.013844991403790944 0.0069649048223061521 0 0.017844216515190168 0.0040326818238797611 0 0.030127439278939364 0.0075016820698220032 0 0.022682669513630786 0.0046330825221162671 0 0.014072621529139021 0.0075276753180793399 0 0.019575085154600373 0.0061356896277431419 0 0.017844216515190168 0.0040326818238797611 0 0.014072621529139021 0.0075276753180793399 0 0.013175993717647933 0.007669430926076218 0 0.01273741472363109 0.0082833698817350431 0 0.014007621529113416 0.0075896534136714149 0 0.016802418112730051 0.0071961572673792358 0 0.012470151978664457 0.0078480025090305831 0 0.013175993717647933 0.007669430926076218 0 0.01273741472363109 0.0082833698817350431 0 0.030267315444926293 0.0010412681263555349 0 0.032455268893559125 0.0019611885845652239 0 0.029351631737669737 0.0021791161827167276 0 0.021628090863548711 0.0020315537077568759 0 0.019575085154600373 0.0061356896277431419 0 0.017844216515190168 0.0040326818238797611 0 0.032455268893559125 0.0019611885845652239 0 0.029479444471067328 0.0041216596073224143 0 0.029351631737669737 0.0021791161827167276 0 0.022668556809653108 -0.00065022910394186932 0 0.022682669513630786 0.0046330825221162671 0 0.029479444471067328 0.0041216596073224143 0 0.029351631737669737 0.0021791161827167276 0 0.027263684525250596 0.0021808419626691642 0 0.029535781216145651 0.0007323459230157937 0 0.029351631737669737 0.0021791161827167276 0 0.027263684525250596 0.0021808419626691642 0 0.032885293119966755 -0.0049207845166889226 0 0.033853118297003923 -0.003238416218641359 0 0.035257706174229561 -0.0044501609335245752 0 0.032885293119966755 -0.0049207845166889226 0 0.031679134175131171 -0.002906500459733596 0 0.033853118297003923 -0.003238416218641359 0 0.024803370827111763 0.0065346118151446498 0 0.029479444471067328 0.0041216596073224143 0 0.027263684525250596 0.0021808419626691642 0 0.030127439278939364 0.0075016820698220032 0 0.02987901866692769 -0.0010026913394870418 0 0.033299167854515005 -0.0013846328671060983 0 0.031679134175131171 -0.002906500459733596 0 0.033853118297003923 -0.003238416218641359 0 0.033299167854515005 -0.0013846328671060983 0 0.033853118297003923 -0.003238416218641359 0 0.036196429526047944 -0.0022665769060062628 0 0.037248001863888776 -0.0050979420328268552 0 0.035257706174229561 -0.0044501609335245752 0 0.036196429526047944 -0.0022665769060062628 0 0.033853118297003923 -0.003238416218641359 0 0.035257706174229561 -0.0044501609335245752 0 0.036196429526047944 -0.0022665769060062628 0 0.038183308322201279 -0.0074180604303466513 0 0.036054888019153991 -0.0015513190383530668 0 0.038689903697902678 -0.0054262151282650781 0 0.040640038139613852 -0.0029614919609687001 0 0.036196429526047944 -0.0022665769060062628 0 0.038689903697902678 -0.0054262151282650781 0 0.040601117654974178 -0.0080358925181001749 0 0.040591875816952422 -0.0054640302096934804 0 0.030127439278939364 0.0075016820698220032 0 0.041098534961664622 0.004843110625593978 0 0.032885293119966755 -0.0049207845166889226 0 0.035257706174229561 -0.0044501609335245752 0 0.036042909025334462 -0.0063171591700794489 0 0.037248001863888776 -0.0050979420328268552 0 0.035257706174229561 -0.0044501609335245752 0 0.036042909025334462 -0.0063171591700794489 0 0.042880565663573567 0.016224455578189592 0 0.043643316202186394 0.016900578414412486 0 0.044003002082820063 0.015961249560415336 0 0.042148988995929462 0.01748477435466244 0 0.042880565663573567 0.016224455578189592 0 0.043643316202186394 0.016900578414412486 0 0.037248001863888776 -0.0050979420328268552 0 0.036042909025334462 -0.0063171591700794489 0 0.038529732544802672 -0.0074235704591599739 0 0.041098534961664622 0.004843110625593978 0 0.04235503385069346 0.0043557654700908657 0 0.038183308322201279 -0.0074180604303466513 0 0.04235503385069346 0.0043557654700908657 0 0.043643316202186394 0.016900578414412486 0 0.044003002082820063 0.015961249560415336 0 0.045068252226926779 0.016287797429241028 0 0.044003002082820063 0.015961249560415336 0 0.044741699110008679 0.015368959781146925 0 0.043562458448801793 0.014967205850957668 0 0.044003002082820063 0.015961249560415336 0 0.044741699110008679 0.015368959781146925 0 0.045068252226926779 0.016287797429241028 0 0.042880565663573567 0.016224455578189592 0 0.044003002082820063 0.015961249560415336 0 0.043562458448801793 0.014967205850957668 0 0.027923525413637296 0.012995535179412761 0 0.029114978440042197 0.010664455190505621 0 0.046256904085864213 0.0032174892867787028 0 0.04235503385069346 0.0043557654700908657 0 0.044741699110008679 0.015368959781146925 0 0.045068252226926779 0.016287797429241028 0 0.04588752202633218 0.015224120320498469 0 0.047713138657666541 0.016061440383398552 0 0.045683104266154809 0.0168083689431314 0 0.046475756878734224 0.015506564543624415 0 0.04235503385069346 0.0043557654700908657 0 0.045918813046885963 0.017498262370946403 0 0.044472959200036584 -0.0095946364862100203 0 0.040601117654974178 -0.0080358925181001749 0 0.044886192981119517 -0.0068593549962796168 0 0.040601117654974178 -0.0080358925181001749 0 0.042459751659312976 -0.005313810231342816 0 0.044886192981119517 -0.0068593549962796168 0 0.042459751659312976 -0.005313810231342816 0 0.044908369375043007 -0.0029595533460766658 0 0.044886192981119517 -0.0068593549962796168 0 0.038689903697902678 -0.0054262151282650781 0 0.040591875816952422 -0.0054640302096934804 0 0.040640038139613852 -0.0029614919609687001 0 0.042459751659312976 -0.005313810231342816 0 0.040591875816952422 -0.0054640302096934804 0 0.040640038139613852 -0.0029614919609687001 0 0.040601117654974178 -0.0080358925181001749 0 0.042459751659312976 -0.005313810231342816 0 0.040591875816952422 -0.0054640302096934804 0 0.042459751659312976 -0.005313810231342816 0 0.040640038139613852 -0.0029614919609687001 0 0.044908369375043007 -0.0029595533460766658 0 0.040640038139613852 -0.0029614919609687001 0 0.042509135546700397 -0.00074526024635648293 0 0.044908369375043007 -0.0029595533460766658 0 0.042509135546700397 -0.00074526024635648293 0 0.045494745027355496 -0.0011900026389427812 0 0.045845735553284757 -0.0045096566607409098 0 0.042712124882588597 -0.00094993275033844189 0 0.045347253416839067 -0.0036476391906012573 0 0.042509135546700397 -0.00074526024635648293 0 0.041421461803618734 0.0015833565782919887 0 0.044700847915918614 0.0021873006315241946 0 0.042509135546700397 -0.00074526024635648293 0 0.044700847915918614 0.0021873006315241946 0 0.045494745027355496 -0.0011900026389427812 0 0.039988902017377898 0.0020341484052647436 0 0.041421461803618734 0.0015833565782919887 0 0.039919102520235006 0.00065212154177598592 0 0.039988902017377898 0.0020341484052647436 0 0.039919102520235006 0.00065212154177598592 0 0.038697480627192492 0.0022077155835745648 0 0.042509135546700397 -0.00074526024635648293 0 0.041421461803618734 0.0015833565782919887 0 0.039919102520235006 0.00065212154177598592 0 0.040640038139613852 -0.0029614919609687001 0 0.042509135546700397 -0.00074526024635648293 0 0.039919102520235006 0.00065212154177598592 0 0.040640038139613852 -0.0029614919609687001 0 0.039919102520235006 0.00065212154177598592 0 0.038283313078258489 -0.00082110481584732862 0 0.040640038139613852 -0.0029614919609687001 0 0.038283313078258489 -0.00082110481584732862 0 0.036196429526047944 -0.0022665769060062628 0 0.038283313078258489 -0.00082110481584732862 0 0.036196429526047944 -0.0022665769060062628 0 0.037035836976329631 0.0011569938886398451 0 0.033299167854515005 -0.0013846328671060983 0 0.036196429526047944 -0.0022665769060062628 0 0.034619501869720209 0.0010616176002008477 0 0.036196429526047944 -0.0022665769060062628 0 0.034619501869720209 0.0010616176002008477 0 0.037035836976329631 0.0011569938886398451 0 0.032423820203611786 0.0023318376827308656 0 0.034619501869720209 0.0010616176002008477 0 0.035100750719912061 0.0048735641143662599 0 0.034619501869720209 0.0010616176002008477 0 0.037035836976329631 0.0011569938886398451 0 0.036925383622144002 0.0028068929398279074 0 0.039919102520235006 0.00065212154177598592 0 0.037035836976329631 0.0011569938886398451 0 0.038697480627192492 0.0022077155835745648 0 0.039919102520235006 0.00065212154177598592 0 0.038283313078258489 -0.00082110481584732862 0 0.037035836976329631 0.0011569938886398451 0 0.037035836976329631 0.0011569938886398451 0 0.038697480627192492 0.0022077155835745648 0 0.036925383622144002 0.0028068929398279074 0 0.038697480627192492 0.0022077155835745648 0 0.036925383622144002 0.0028068929398279074 0 0.039913687505634177 0.0037391045071629592 0 0.043715816580724251 -0.0040733222791007563 0 0.038878328386767851 -0.004688851421230952 0 0.044625369036885985 -0.0057055381202574572 0 0.035151232506017274 -0.0023113766464979008 0 0.042598479669768714 -0.00068794354930973918 0 0.036925383622144002 0.0028068929398279074 0 0.035100750719912061 0.0048735641143662599 0 0.039913687505634177 0.0037391045071629592 0 0.034619501869720209 0.0010616176002008477 0 0.036925383622144002 0.0028068929398279074 0 0.035100750719912061 0.0048735641143662599 0 0.040701349249525752 0.0014023338831907087 0 0.035148259916872308 -0.0019035490583783341 0 0.039233822831189182 -0.002944512467797812 0 0.042704346360275272 -0.00055671694078041881 0 0.036974863071720203 -0.0063968721684306727 0 0.039233822831189182 -0.002944512467797812 0 0.035148259916872308 -0.0019035490583783341 0 0.036974863071720203 -0.0063968721684306727 0 0.039233822831189182 -0.002944512467797812 0 0.042704346360275272 -0.00055671694078041881 0 0.043984325184882662 0.00069656301908576138 0 0.042723915520374939 -0.0027751291571330551 0 0.043149572301637566 -0.0016634539942984793 0 0.035151232506017274 -0.0023113766464979008 0 0.042704346360275272 -0.00055671694078041881 0 0.038878328386767851 -0.004688851421230952 0 0.042723915520374939 -0.0027751291571330551 0 0.043984325184882662 0.00069656301908576138 0 0.043715816580724251 -0.0040733222791007563 0 0.042723915520374939 -0.0027751291571330551 0 0.043715816580724251 -0.0040733222791007563 0 0.038878328386767851 -0.004688851421230952 0 0.042723915520374939 -0.0027751291571330551 0 0.047316274508124118 -0.0072632518163863553 0 0.044226960262095411 -0.0015883108022008861 0 0.045472135957946601 -0.00053989343188302788 0 0.046628867191223354 -0.002574870363620663 0 0.04928222772427937 -0.0033684280784630834 0 0.044616079748190131 -0.00040421431724628519 0 0.046185029526222172 -0.0036131297364035324 0 0.046628867191223354 -0.002574870363620663 0 0.044616079748190131 -0.00040421431724628519 0 0.046185029526222172 -0.0036131297364035324 0 0.045356865866253211 -0.0050690856234320457 0 0.043984325184882662 0.00069656301908576138 0 0.043715816580724251 -0.0040733222791007563 0 0.045356865866253211 -0.0050690856234320457 0 0.046185029526222172 -0.0036131297364035324 0 0.046628867191223354 -0.002574870363620663 0 0.047656531941911703 -0.0042293982635086798 0 0.046628867191223354 -0.002574870363620663 0 0.04928222772427937 -0.0033684280784630834 0 0.047656531941911703 -0.0042293982635086798 0 0.053907786730368015 -0.0067115510160240099 0 0.054851112365703537 -0.0069262241291447009 0 0.053950087145909008 -0.0061326609506830122 0 0.05285979219046151 -0.010510028412408967 0 0.050764362624029613 -0.0034238297015322214 0 0.04928222772427937 -0.0033684280784630834 0 0.049575017102753111 -0.0062007978830010682 0 0.047656531941911703 -0.0042293982635086798 0 0.049575017102753111 -0.0062007978830010682 0 0.047656531941911703 -0.0042293982635086798 0 0.046569063160439836 -0.0049905578035830279 0 0.046994531450051967 -0.0020392305921494961 0 0.042598479669768714 -0.00068794354930973918 0 0.049575017102753111 -0.0062007978830010682 0 0.044625369036885985 -0.0057055381202574572 0 0.046569063160439836 -0.0049905578035830279 0 0.041421461803618734 0.0015833565782919887 0 0.044700847915918614 0.0021873006315241946 0 0.039913687505634177 0.0037391045071629592 0 0.039988902017377898 0.0020341484052647436 0 0.041421461803618734 0.0015833565782919887 0 0.039913687505634177 0.0037391045071629592 0 0.039988902017377898 0.0020341484052647436 0 0.038697480627192492 0.0022077155835745648 0 0.039913687505634177 0.0037391045071629592 0 0.044625369036885985 -0.0057055381202574572 0 0.045356865866253211 -0.0050690856234320457 0 0.046569063160439836 -0.0049905578035830279 0 0.043715816580724251 -0.0040733222791007563 0 0.044625369036885985 -0.0057055381202574572 0 0.045356865866253211 -0.0050690856234320457 0 0.046185029526222172 -0.0036131297364035324 0 0.047656531941911703 -0.0042293982635086798 0 0.046569063160439836 -0.0049905578035830279 0 0.046185029526222172 -0.0036131297364035324 0 0.045356865866253211 -0.0050690856234320457 0 0.046569063160439836 -0.0049905578035830279 0 0.053237934447305443 -0.0058232230850368541 0 0.053036682833436773 -0.0058244876218010487 0 0.053450735623024603 -0.0061272724869719146 0 0.053237934447305443 -0.0058232230850368541 0 0.053639330517899091 -0.0058288392002045384 0 0.053818491114784379 -0.0054706619810772159 0 0.053639330517899091 -0.0058288392002045384 0 0.053036682833436773 -0.0058244876218010487 0 0.053727309624022383 -0.0063657422309426302 0 0.053237934447305443 -0.0058232230850368541 0 0.053639330517899091 -0.0058288392002045384 0 0.053036682833436773 -0.0058244876218010487 0 0.049575017102753111 -0.0062007978830010682 0 0.053036682833436773 -0.0058244876218010487 0 0.053727309624022383 -0.0063657422309426302 0 0.04928222772427937 -0.0033684280784630834 0 0.049575017102753111 -0.0062007978830010682 0 0.053036682833436773 -0.0058244876218010487 0 0.053950087145909008 -0.0061326609506830122 0 0.053036682833436773 -0.0058244876218010487 0 0.053450735623024603 -0.0061272724869719146 0 0.050764362624029613 -0.0034238297015322214 0 0.053432469628883955 -0.0063191753132616308 0 0.053907786730368015 -0.0067115510160240099 0 0.053450735623024603 -0.0061272724869719146 0 0.053087847476889008 -0.0065379281803075139 0 0.053907786730368015 -0.0067115510160240099 0 0.053950087145909008 -0.0061326609506830122 0 0.053450735623024603 -0.0061272724869719146 0 0.053161232619314089 -0.0035850967224257133 0 0.055820609227127206 -0.011953498605043472 0 0.053237934447305443 -0.0058232230850368541 0 0.05350426325135782 -0.0049322688392634323 0 0.053818491114784379 -0.0054706619810772159 0 0.053237934447305443 -0.0058232230850368541 0 0.053450735623024603 -0.0061272724869719146 0 0.053087847476889008 -0.0065379281803075139 0 0.053818491114784379 -0.0054706619810772159 0 0.054479836234668823 -0.0051439887785599348 0 0.054226410958727531 -0.0057323828165945492 0 0.055820609227127206 -0.011953498605043472 0 0.056361374317923901 -0.010303465495956846 0 0.05350426325135782 -0.0049322688392634323 0 0.053818491114784379 -0.0054706619810772159 0 0.054479836234668823 -0.0051439887785599348 0 0.054771006660362193 -0.0051838507854456116 0 0.054791764727886272 -0.0052445152598550142 0 0.054912588644825455 -0.0051123442418705223 0 0.056361374317923901 -0.010303465495956846 0 0.054279459127018342 -0.0044387264201637281 0 0.056361374317923901 -0.010303465495956846 0 0.057101761743356544 -0.01086347682337712 0 0.054695005738990332 -0.0056401611252813203 0 0.054226410958727531 -0.0057323828165945492 0 0.054630015143651657 -0.0058689465149649577 0 0.054479836234668823 -0.0051439887785599348 0 0.054695005738990332 -0.0056401611252813203 0 0.054226410958727531 -0.0057323828165945492 0 0.053639330517899091 -0.0058288392002045384 0 0.054226410958727531 -0.0057323828165945492 0 0.053727309624022383 -0.0063657422309426302 0 0.053639330517899091 -0.0058288392002045384 0 0.053818491114784379 -0.0054706619810772159 0 0.054226410958727531 -0.0057323828165945492 0 0.054226410958727531 -0.0057323828165945492 0 0.054630015143651657 -0.0058689465149649577 0 0.053727309624022383 -0.0063657422309426302 0 0.050611109840154461 -0.0021828239764306134 0 0.05249293425025349 -0.0020638540206129653 0 0.049149795499986985 0.00017042836282696669 0 0.053435527009246857 -0.0039825522770714833 0 0.051316128706242255 -0.0030772050508519385 0 0.054695005738990332 -0.0056401611252813203 0 0.054630015143651657 -0.0058689465149649577 0 0.054788532156172069 -0.005385146278144199 0 0.051972462584061768 -0.0036605319174644515 0 0.053024659114468943 -0.005108892781060451 0 0.053664030510920425 -0.004500560543728987 0 0.05249293425025349 -0.0020638540206129653 0 0.051972462584061768 -0.0036605319174644515 0 0.053664030510920425 -0.004500560543728987 0 0.051972462584061768 -0.0036605319174644515 0 0.050030182205157932 -0.0035344742338762709 0 0.051476878324714363 -0.0049340650411705414 0 0.050611109840154461 -0.0021828239764306134 0 0.05249293425025349 -0.0020638540206129653 0 0.051972462584061768 -0.0036605319174644515 0 0.050611109840154461 -0.0021828239764306134 0 0.051972462584061768 -0.0036605319174644515 0 0.050030182205157932 -0.0035344742338762709 0 0.050611109840154461 -0.0021828239764306134 0 0.050030182205157932 -0.0035344742338762709 0 0.049160070271890476 -0.001617724492423687 0 0.050030182205157932 -0.0035344742338762709 0 0.04781402273851993 -0.0022693519760413092 0 0.049160070271890476 -0.001617724492423687 0 0.050030182205157932 -0.0035344742338762709 0 0.04781402273851993 -0.0022693519760413092 0 0.048442405878503979 -0.0045362835284981137 0 0.04781402273851993 -0.0022693519760413092 0 0.049160070271890476 -0.001617724492423687 0 0.048244144764488149 -0.0009308588299704292 0 0.050611109840154461 -0.0021828239764306134 0 0.049160070271890476 -0.001617724492423687 0 0.049149795499986985 0.00017042836282696669 0 0.049160070271890476 -0.001617724492423687 0 0.048244144764488149 -0.0009308588299704292 0 0.049149795499986985 0.00017042836282696669 0 0.04781402273851993 -0.0022693519760413092 0 0.048244144764488149 -0.0009308588299704292 0 0.046838132685504227 2.9705932088178444e-05 0 0.048244144764488149 -0.0009308588299704292 0 0.049149795499986985 0.00017042836282696669 0 0.046838132685504227 2.9705932088178444e-05 0 0.046994531450051967 -0.0020392305921494961 0 0.051316128706242255 -0.0030772050508519385 0 0.044700847915918614 0.0021873006315241946 0 0.049149795499986985 0.00017042836282696669 0 0.046838132685504227 2.9705932088178444e-05 0 0.044700847915918614 0.0021873006315241946 0 0.046838132685504227 2.9705932088178444e-05 0 0.045494745027355496 -0.0011900026389427812 0 0.04781402273851993 -0.0022693519760413092 0 0.046838132685504227 2.9705932088178444e-05 0 0.045494745027355496 -0.0011900026389427812 0 0.04781402273851993 -0.0022693519760413092 0 0.045494745027355496 -0.0011900026389427812 0 0.045845735553284757 -0.0045096566607409098 0 0.045845735553284757 -0.0045096566607409098 0 0.048442405878503979 -0.0045362835284981137 0 0.04859740884952226 -0.0065524110992763902 0 0.04781402273851993 -0.0022693519760413092 0 0.045845735553284757 -0.0045096566607409098 0 0.048442405878503979 -0.0045362835284981137 0 0.045347253416839067 -0.0036476391906012573 0 0.048011526400079461 -0.0059442180845380903 0 0.048442405878503979 -0.0045362835284981137 0 0.04859740884952226 -0.0065524110992763902 0 0.049947435902562537 -0.0052331029263447976 0 0.050030182205157932 -0.0035344742338762709 0 0.048442405878503979 -0.0045362835284981137 0 0.049947435902562537 -0.0052331029263447976 0 0.044908369375043007 -0.0029595533460766658 0 0.047435936202976002 -0.0052812830209210942 0 0.044886192981119517 -0.0068593549962796168 0 0.047435936202976002 -0.0052812830209210942 0 0.044886192981119517 -0.0068593549962796168 0 0.047360746605175121 -0.008583802294502443 0 0.048011526400079461 -0.0059442180845380903 0 0.049845927008120489 -0.0076267123366689348 0 0.047435936202976002 -0.0052812830209210942 0 0.047360746605175121 -0.008583802294502443 0 0.049979025997019692 -0.0077121952639145419 0 0.047360746605175121 -0.008583802294502443 0 0.050088220054568387 -0.0095468877825366054 0 0.048087436096468449 -0.010610098126399101 0 0.044472959200036584 -0.0095946364862100203 0 0.047360746605175121 -0.008583802294502443 0 0.048087436096468449 -0.010610098126399101 0 0.044472959200036584 -0.0095946364862100203 0 0.044886192981119517 -0.0068593549962796168 0 0.047360746605175121 -0.008583802294502443 0 0.051978303016533819 -0.009070489146860693 0 0.050088220054568387 -0.0095468877825366054 0 0.051830838699095577 -0.0074726710327915466 0 0.047360746605175121 -0.008583802294502443 0 0.050088220054568387 -0.0095468877825366054 0 0.049979025997019692 -0.0077121952639145419 0 0.050088220054568387 -0.0095468877825366054 0 0.049979025997019692 -0.0077121952639145419 0 0.051830838699095577 -0.0074726710327915466 0 0.049979025997019692 -0.0077121952639145419 0 0.051830838699095577 -0.0074726710327915466 0 0.050990966297859923 -0.0062714381181856321 0 0.051978303016533819 -0.009070489146860693 0 0.051830838699095577 -0.0074726710327915466 0 0.052915931327172074 -0.0074167858515177725 0 0.052857303237392482 -0.0060345257883127621 0 0.050990966297859923 -0.0062714381181856321 0 0.052118909008819762 -0.0055769486328533921 0 0.051830838699095577 -0.0074726710327915466 0 0.052857303237392482 -0.0060345257883127621 0 0.053174332473099863 -0.0066512956122021108 0 0.051830838699095577 -0.0074726710327915466 0 0.052857303237392482 -0.0060345257883127621 0 0.050990966297859923 -0.0062714381181856321 0 0.04859740884952226 -0.0065524110992763902 0 0.050990966297859923 -0.0062714381181856321 0 0.049947435902562537 -0.0052331029263447976 0 0.04859740884952226 -0.0065524110992763902 0 0.049979025997019692 -0.0077121952639145419 0 0.050990966297859923 -0.0062714381181856321 0 0.050990966297859923 -0.0062714381181856321 0 0.049947435902562537 -0.0052331029263447976 0 0.051476878324714363 -0.0049340650411705414 0 0.050030182205157932 -0.0035344742338762709 0 0.049947435902562537 -0.0052331029263447976 0 0.051476878324714363 -0.0049340650411705414 0 0.050990966297859923 -0.0062714381181856321 0 0.051476878324714363 -0.0049340650411705414 0 0.052118909008819762 -0.0055769486328533921 0 0.052857303237392482 -0.0060345257883127621 0 0.052118909008819762 -0.0055769486328533921 0 0.053024659114468943 -0.005108892781060451 0 0.051476878324714363 -0.0049340650411705414 0 0.052118909008819762 -0.0055769486328533921 0 0.053024659114468943 -0.005108892781060451 0 0.051972462584061768 -0.0036605319174644515 0 0.051476878324714363 -0.0049340650411705414 0 0.053024659114468943 -0.005108892781060451 0 0.053024659114468943 -0.005108892781060451 0 0.054070708815440058 -0.0053931547225179177 0 0.053664030510920425 -0.004500560543728987 0 0.054070708815440058 -0.0053931547225179177 0 0.054760573360013498 -0.005282247098522876 0 0.053664030510920425 -0.004500560543728987 0 0.052857303237392482 -0.0060345257883127621 0 0.053024659114468943 -0.005108892781060451 0 0.054070708815440058 -0.0053931547225179177 0 0.054070708815440058 -0.0053931547225179177 0 0.055220285150853206 -0.0056144847991935649 0 0.054185299582410584 -0.0059380234734573729 0 0.054070708815440058 -0.0053931547225179177 0 0.055220285150853206 -0.0056144847991935649 0 0.054760573360013498 -0.005282247098522876 0 0.055220285150853206 -0.0056144847991935649 0 0.054890727907496988 -0.005938463854354376 0 0.054185299582410584 -0.0059380234734573729 0 0.054890727907496988 -0.005938463854354376 0 0.054185299582410584 -0.0059380234734573729 0 0.054004863056197318 -0.0066279301867746034 0 0.052857303237392482 -0.0060345257883127621 0 0.054070708815440058 -0.0053931547225179177 0 0.054185299582410584 -0.0059380234734573729 0 0.054185299582410584 -0.0059380234734573729 0 0.053174332473099863 -0.0066512956122021108 0 0.054004863056197318 -0.0066279301867746034 0 0.052857303237392482 -0.0060345257883127621 0 0.054185299582410584 -0.0059380234734573729 0 0.053174332473099863 -0.0066512956122021108 0 0.051830838699095577 -0.0074726710327915466 0 0.053174332473099863 -0.0066512956122021108 0 0.052915931327172074 -0.0074167858515177725 0 0.053174332473099863 -0.0066512956122021108 0 0.052915931327172074 -0.0074167858515177725 0 0.054004863056197318 -0.0066279301867746034 0 0.056983169694221139 -0.0046434218252027091 0 0.054978617441687375 -0.0071748211669131591 0 0.052915931327172074 -0.0074167858515177725 0 0.053612585630659584 -0.0079519417332547422 0 0.054004863056197318 -0.0066279301867746034 0 0.054890727907496988 -0.005938463854354376 0 0.054118919996706739 -0.0071124182167791742 0 0.054004863056197318 -0.0066279301867746034 0 0.054890727907496988 -0.005938463854354376 0 0.054118919996706739 -0.0071124182167791742 0 0.055486540771520647 -0.0057155086277629477 0 0.060359892524581224 -0.0019094490657847892 0 0.058763424449423368 -0.001274679632171735 0 0.057700599054304101 -0.0025880583326269887 0 0.056983169694221139 -0.0046434218252027091 0 0.05649670274692415 -0.0041032901380991848 0 0.060359892524581224 -0.0019094490657847892 0 0.058763424449423368 -0.001274679632171735 0 0.060359386820623605 -0.0014543530810529959 0 0.058763424449423368 -0.001274679632171735 0 0.060359386820623605 -0.0014543530810529959 0 0.058562365039601272 0.00062465475965449099 0 0.057934439739336659 -0.0035548706761457031 0 0.058782318322330843 0.00075311950131807582 0 0.051978303016533819 -0.009070489146860693 0 0.053483672356216844 -0.0083386117280501489 0 0.05286153748319259 -0.01012893026703985 0 0.057934439739336659 -0.0035548706761457031 0 0.056794116342023616 -0.006523034546455809 0 0.051978303016533819 -0.009070489146860693 0 0.052915931327172074 -0.0074167858515177725 0 0.053612585630659584 -0.0079519417332547422 0 0.051978303016533819 -0.009070489146860693 0 0.053612585630659584 -0.0079519417332547422 0 0.053483672356216844 -0.0083386117280501489 0 0.056983169694221139 -0.0046434218252027091 0 0.057934439739336659 -0.0035548706761457031 0 0.054999977631531818 -0.00058992543469989851 0 0.056890105032766092 -0.0010373608562954002 0 0.056518920742532779 0.00072775630724191776 0 0.054999977631531818 -0.00058992543469989851 0 0.056890105032766092 -0.0010373608562954002 0 0.054999986920274385 -0.0033101793786427624 0 0.058763424449423368 -0.001274679632171735 0 0.056890105032766092 -0.0010373608562954002 0 0.057700599054304101 -0.0025880583326269887 0 0.058763424449423368 -0.001274679632171735 0 0.056890105032766092 -0.0010373608562954002 0 0.058562365039601272 0.00062465475965449099 0 0.056890105032766092 -0.0010373608562954002 0 0.057700599054304101 -0.0025880583326269887 0 0.054999986920274385 -0.0033101793786427624 0 0.05649670274692415 -0.0041032901380991848 0 0.054999891022105403 -0.0033107954200735537 0 0.054999792075286436 -0.0033155060009762618 0 0.055671202278417306 -0.0053196030860706792 0 0.054999609170986626 -0.0062508480808444932 0 0.055486540771520647 -0.0057155086277629477 0 0.054999792075286436 -0.0033155060009762618 0 0.055671202278417306 -0.0053196030860706792 0 0.055220285150853206 -0.0056144847991935649 0 0.054890727907496988 -0.005938463854354376 0 0.055671202278417306 -0.0053196030860706792 0 0.054890727907496988 -0.005938463854354376 0 0.055486540771520647 -0.0057155086277629477 0 0.055671202278417306 -0.0053196030860706792 0 0.055220285150853206 -0.0056144847991935649 0 0.055671202278417306 -0.0053196030860706792 0 0.055679719419721732 -0.0060785056570638639 0 0.055220285150853206 -0.0056144847991935649 0 0.055679719419721732 -0.0060785056570638639 0 0.055428504381717141 -0.0059409546472102793 0 0.055671202278417306 -0.0053196030860706792 0 0.055679719419721732 -0.0060785056570638639 0 0.054999609170986626 -0.0062508480808444932 0 0.055679719419721732 -0.0060785056570638639 0 0.054999609170986626 -0.0062508480808444932 0 0.056055049863142713 -0.0073426635840982656 0 0.054999609170986626 -0.0062508480808444932 0 0.05499932135406798 -0.009192278989893889 0 0.056055049863142713 -0.0073426635840982656 0 0.056055049863142713 -0.0073426635840982656 0 0.055888329096459299 -0.0094766824259551862 0 0.057223856005356628 -0.010463424287972763 0 0.05499932135406798 -0.009192278989893889 0 0.056055049863142713 -0.0073426635840982656 0 0.055888329096459299 -0.0094766824259551862 0 0.056055049863142713 -0.0073426635840982656 0 0.055093226049709045 -0.0055916752655213505 0 0.055743363600018858 -0.0054472926458633414 0 0.056055049863142713 -0.0073426635840982656 0 0.055428504381717141 -0.0059409546472102793 0 0.055093226049709045 -0.0055916752655213505 0 0.056198564819833763 -0.007568078218086435 0 0.05630161813514252 -0.0074529114016996384 0 0.055679719419721732 -0.0060785056570638639 0 0.056055049863142713 -0.0073426635840982656 0 0.055428504381717141 -0.0059409546472102793 0 0.055220285150853206 -0.0056144847991935649 0 0.055428504381717141 -0.0059409546472102793 0 0.054760573360013498 -0.005282247098522876 0 0.055428504381717141 -0.0059409546472102793 0 0.054760573360013498 -0.005282247098522876 0 0.054871252934810481 -0.0049679114781404424 0 0.05249293425025349 -0.0020638540206129653 0 0.053664030510920425 -0.004500560543728987 0 0.054871252934810481 -0.0049679114781404424 0 0.054760573360013498 -0.005282247098522876 0 0.053664030510920425 -0.004500560543728987 0 0.054871252934810481 -0.0049679114781404424 0 0.053435527009246857 -0.0039825522770714833 0 0.054668160605822552 -0.0047965784891410993 0 0.054630015143651657 -0.0058689465149649577 0 0.054788532156172069 -0.005385146278144199 0 0.054871252934810481 -0.0049679114781404424 0 0.054279459127018342 -0.0044387264201637281 0 0.054976201270053308 -0.005788414885431057 0 0.054791764727886272 -0.0052445152598550142 0 0.054788532156172069 -0.005385146278144199 0 0.054910483066301807 -0.0053322442549401409 0 0.054788532156172069 -0.005385146278144199 0 0.054910483066301807 -0.0053322442549401409 0 0.054871252934810481 -0.0049679114781404424 0 0.055428504381717141 -0.0059409546472102793 0 0.054871252934810481 -0.0049679114781404424 0 0.055093226049709045 -0.0055916752655213505 0 0.054910483066301807 -0.0053322442549401409 0 0.054871252934810481 -0.0049679114781404424 0 0.055093226049709045 -0.0055916752655213505 0 0.054910483066301807 -0.0053322442549401409 0 0.055093226049709045 -0.0055916752655213505 0 0.05495779901785771 -0.0052848891830560218 0 0.055093226049709045 -0.0055916752655213505 0 0.05495779901785771 -0.0052848891830560218 0 0.055191129670365248 -0.0052471698853342047 0 0.05495779901785771 -0.0052848891830560218 0 0.055191129670365248 -0.0052471698853342047 0 0.054912588644825455 -0.0051123442418705223 0 0.054791764727886272 -0.0052445152598550142 0 0.054910483066301807 -0.0053322442549401409 0 0.05495779901785771 -0.0052848891830560218 0 0.054791764727886272 -0.0052445152598550142 0 0.05495779901785771 -0.0052848891830560218 0 0.054912588644825455 -0.0051123442418705223 0 0.058875856376249501 -0.01794813426592717 0 0.060532508372722088 -0.016935585552132117 0 0.058829507475591708 -0.016666988795722679 0 0.057527642765307183 -0.017925689003898602 0 0.058829507475591708 -0.016666988795722679 0 0.057041402978004863 -0.016359054622772689 0 0.055191129670365248 -0.0052471698853342047 0 0.054912588644825455 -0.0051123442418705223 0 0.05541364882160852 -0.0050264484612644071 0 0.057101761743356544 -0.01086347682337712 0 0.056430079729244347 -0.011790178965098879 0 0.05804300256477999 -0.01701282322860382 0 0.056430079729244347 -0.011790178965098879 0 0.056454287806223163 -0.01420224477818287 0 0.057580918355989691 -0.012602167399778213 0 0.054999916563628508 -0.012136915061356994 0 0.056430079729244347 -0.011790178965098879 0 0.055002427573742123 -0.012137336780163923 0 0.057814201857190675 -0.01249980981729722 0 0.054999955955461151 -0.012137478123120993 0 0.057223856005356628 -0.010463424287972763 0 0.055888329096459299 -0.0094766824259551862 0 0.054999955955461151 -0.012137478123120993 0 0.057223856005356628 -0.010463424287972763 0 0.05499932135406798 -0.009192278989893889 0 0.055888329096459299 -0.0094766824259551862 0 0.054999955955461151 -0.012137478123120993 0 0.055191129670365248 -0.0052471698853342047 0 0.05541364882160852 -0.0050264484612644071 0 0.055743363600018858 -0.0054472926458633414 0 0.056430079729244347 -0.011790178965098879 0 0.05630161813514252 -0.0074529114016996384 0 0.055093226049709045 -0.0055916752655213505 0 0.055191129670365248 -0.0052471698853342047 0 0.055743363600018858 -0.0054472926458633414 0 0.017440582778901235 -0.0075810097393485343 0 0.016695759838247313 -0.0076091814102575766 0 0.016884975434931074 -0.0069665566768289293 0 -0.00026245921592037028 -0.0084034333866107817 0 -0.00042692828481267353 -0.0065203535756768287 0 0.00029207348693901456 -0.0072316826705507656 0 0.0084657851462342937 -0.0079698154553931068 0 0.0085209064768829723 -0.0065741387839705605 0 0.00043048209585895802 -0.0081015392774562225 0 -0.00026245921592037028 -0.0084034333866107817 0 0.00029207348693901456 -0.0072316826705507656 0 0.00043048209585895802 -0.0081015392774562225 0 0.00029207348693901456 -0.0072316826705507656 0 0.00077596002775854483 -0.0074010648107096884 0 0.00043048209585895802 -0.0081015392774562225 0 -0.00026245921592037028 -0.0084034333866107817 0 0.00029569153848710603 -0.0089635624201210764 0 -0.00026245921592037028 -0.0084034333866107817 0 0.00029569153848710603 -0.0089635624201210764 0 -4.5469793201219748e-05 -0.0094995293298134383 0 0.0084657851462342937 -0.0079698154553931068 0 0.010034780162038789 -0.0089055318747216939 0 0.017440582778901235 -0.0075810097393485343 0 0.016958915044484605 -0.0081102840194878113 0 0.016695759838247313 -0.0076091814102575766 0 0.017440582778901235 -0.0075810097393485343 0 0.016958915044484605 -0.0081102840194878113 0 0.017436303025298777 -0.008345944026756506 0 0.016156633390694751 -0.0077203337624938001 0 0.016695759838247313 -0.0076091814102575766 0 0.016460668302868946 -0.0082279926029464757 0 0.016958915044484605 -0.0081102840194878113 0 0.016695759838247313 -0.0076091814102575766 0 0.016460668302868946 -0.0082279926029464757 0 0.016551679009713688 -0.0092393196454154045 0 0.016184776563624773 -0.01035708866308228 0 0.017000105202684017 -0.010346502028499084 0 0.016322169125919005 -0.0084398542167012629 0 0.016816655030273353 -0.0092225968230548096 0 0.016156633390694751 -0.0077203337624938001 0 0.016360662004546375 -0.0071076078944942757 0 0.01584205890319319 -0.007477323059460951 0 0.016322169125919005 -0.0084398542167012629 0 0.015854679384047728 -0.0075520270324826609 0 0.016156633390694751 -0.0077203337624938001 0 0.016695759838247313 -0.0076091814102575766 0 0.016360662004546375 -0.0071076078944942757 0 0.016695759838247313 -0.0076091814102575766 0 0.016884975434931074 -0.0069665566768289293 0 0.016360662004546375 -0.0071076078944942757 0 0.016884975434931074 -0.0069665566768289293 0 0.016619968063147073 -0.0066061748992332766 0 0.016360662004546375 -0.0071076078944942757 0 0.016884975434931074 -0.0069665566768289293 0 0.016619968063147073 -0.0066061748992332766 0 0.016977951802670345 -0.0063836567640788199 0 0.016360662004546375 -0.0071076078944942757 0 0.01584205890319319 -0.007477323059460951 0 0.015932280851725406 -0.0066045255791412393 0 0.016619968063147073 -0.0066061748992332766 0 0.016360662004546375 -0.0071076078944942757 0 0.016290833058266115 -0.006373516792749211 0 0.016360662004546375 -0.0071076078944942757 0 0.016290833058266115 -0.006373516792749211 0 0.015932280851725406 -0.0066045255791412393 0 0.016014022144100137 -0.006066288792516519 0 0.016290833058266115 -0.006373516792749211 0 0.015932280851725406 -0.0066045255791412393 0 0.016014022144100137 -0.006066288792516519 0 0.016290833058266115 -0.006373516792749211 0 0.016308117035122163 -0.005988652212239251 0 0.016290833058266115 -0.006373516792749211 0 0.016308117035122163 -0.005988652212239251 0 0.016603827499434082 -0.0061885020185033198 0 0.016308117035122163 -0.005988652212239251 0 0.016541444551980936 -0.0058442520400452279 0 0.016368912816574339 -0.0057716520676710653 0 0.016178253011691606 -0.0058151577450631722 0 0.016308117035122163 -0.005988652212239251 0 0.016368912816574339 -0.0057716520676710653 0 0.016014022144100137 -0.006066288792516519 0 0.016178253011691606 -0.0058151577450631722 0 0.016308117035122163 -0.005988652212239251 0 0.016014022144100137 -0.006066288792516519 0 0.016178253011691606 -0.0058151577450631722 0 0.015754198127502901 -0.0057316974997476096 0 0.016619968063147073 -0.0066061748992332766 0 0.016603827499434082 -0.0061885020185033198 0 0.016977951802670345 -0.0063836567640788199 0 0.016619968063147073 -0.0066061748992332766 0 0.016290833058266115 -0.006373516792749211 0 0.016603827499434082 -0.0061885020185033198 0 0.016603827499434082 -0.0061885020185033198 0 0.01686699168750657 -0.0058485730701488556 0 0.016541444551980936 -0.0058442520400452279 0 0.016308117035122163 -0.005988652212239251 0 0.016603827499434082 -0.0061885020185033198 0 0.016541444551980936 -0.0058442520400452279 0 0.016603827499434082 -0.0061885020185033198 0 0.016977951802670345 -0.0063836567640788199 0 0.01686699168750657 -0.0058485730701488556 0 0.016977951802670345 -0.0063836567640788199 0 0.017446548132454175 -0.0067197442960558046 0 0.017356812278140055 -0.0058101187746855062 0 0.0085209064768829723 -0.0065741387839705605 0 0.0085175301400346563 -0.0053668197306254734 0 0.016977951802670345 -0.0063836567640788199 0 0.017356812278140055 -0.0058101187746855062 0 0.01686699168750657 -0.0058485730701488556 0 0.016884975434931074 -0.0069665566768289293 0 0.016977951802670345 -0.0063836567640788199 0 0.017446548132454175 -0.0067197442960558046 0 0.017440582778901235 -0.0075810097393485343 0 0.016884975434931074 -0.0069665566768289293 0 0.017446548132454175 -0.0067197442960558046 0 -0.00042692828481267353 -0.0065203535756768287 0 0.00029207348693901456 -0.0072316826705507656 0 0.00037165001787053053 -0.0058367422861371537 0 0.00029207348693901456 -0.0072316826705507656 0 0.00037165001787053053 -0.0058367422861371537 0 0.00084986649001176262 -0.0066613301261351458 0 0.00029207348693901456 -0.0072316826705507656 0 0.00084986649001176262 -0.0066613301261351458 0 0.00077596002775854483 -0.0074010648107096884 0 -0.00042692828481267353 -0.0065203535756768287 0 0.00037165001787053053 -0.0058367422861371537 0 -0.00040937279483024727 -0.0044276901827926167 0 0.00037165001787053053 -0.0058367422861371537 0 -0.00040937279483024727 -0.0044276901827926167 0 0.0013327132493241728 -0.0039898562115355165 0 0.0013731203963253022 -0.0065526998732229075 0 0.0012565658085089164 -0.0063158129893006601 0 0.0013327132493241728 -0.0039898562115355165 0 0.00045786458183247184 -0.0076293794146850905 0 0.0014178765688188809 -0.0034981713666046525 0 0.0017925684196211406 -0.0047957092678175229 0 0.00075005162583957282 -0.0057529058899617493 0 0.0013327132493241728 -0.0039898562115355165 0 0.00037165001787053053 -0.0058367422861371537 0 0.0012565658085089164 -0.0063158129893006601 0 0.0013327132493241728 -0.0039898562115355165 0 0.0017925684196211406 -0.0047957092678175229 0 0.0014507796191453629 -0.0055757552215171154 0 0.00075005162583957282 -0.0057529058899617493 0 0.0017925684196211406 -0.0047957092678175229 0 0.0024837266771557663 -0.005109463872826547 0 0.002972893358013665 -0.0034892999084070145 0 0.0017925684196211406 -0.0047957092678175229 0 0.0014507796191453629 -0.0055757552215171154 0 0.0024837266771557663 -0.005109463872826547 0 0.0014507796191453629 -0.0055757552215171154 0 0.0016749448964353268 -0.0061033066060509874 0 0.0012354690398714559 -0.0059717440639811105 0 0.0014507796191453629 -0.0055757552215171154 0 0.0016749448964353268 -0.0061033066060509874 0 0.0024837266771557663 -0.005109463872826547 0 0.0016749448964353268 -0.0061033066060509874 0 0.0012354690398714559 -0.0059717440639811105 0 0.0010357507976888375 -0.0064546332274523759 0 0.0012354690398714559 -0.0059717440639811105 0 0.00075005162583957282 -0.0057529058899617493 0 0.0010357507976888375 -0.0064546332274523759 0 0.0013341358122043612 -0.006558018975170111 0 0.00084986649001176262 -0.0066613301261351458 0 0.00077596002775854483 -0.0074010648107096884 0 0.00037165001787053053 -0.0058367422861371537 0 0.00084986649001176262 -0.0066613301261351458 0 0.0012565658085089164 -0.0063158129893006601 0 0.0013341358122043612 -0.006558018975170111 0 0.00084986649001176262 -0.0066613301261351458 0 0.0012565658085089164 -0.0063158129893006601 0 0.00045786458183247184 -0.0076293794146850905 0 0.0004582218021529204 -0.0074049068404160468 0 0.0014507796191453629 -0.0055757552215171154 0 0.0012354690398714559 -0.0059717440639811105 0 0.00075005162583957282 -0.0057529058899617493 0 0.0037370725122873047 -0.0044227669446898505 0 0.0024837266771557663 -0.005109463872826547 0 0.002972893358013665 -0.0034892999084070145 0 0.0037370725122873047 -0.0044227669446898505 0 0.0024837266771557663 -0.005109463872826547 0 0.0026586903098028262 -0.0065467486030598623 0 0.0016749448964353268 -0.0061033066060509874 0 0.0024837266771557663 -0.005109463872826547 0 0.0026586903098028262 -0.0065467486030598623 0 -0.013772755877320504 -0.0069051939479668201 0 -0.015752486386667226 -0.005047986924723173 0 -0.014782766878789096 -0.0084667738028170476 0 -0.0060062978067652708 -0.0046754843855795116 0 -0.0060543896818762407 -0.0073864024624478814 0 -0.0060543896818762407 -0.0073864024624478814 0 -0.0060223901778099663 -0.0096769091032928023 0 -0.012627019916899209 -0.0091793421934601768 0 -0.014782766878789096 -0.0084667738028170476 0 -0.013114188863652287 -0.011425718151491734 0 0.0026586903098028262 -0.0065467486030598623 0 0.0014582277846678961 -0.0069116163067514478 0 0.0010115897266587063 -0.0077335524229263991 0 0.0016749448964353268 -0.0061033066060509874 0 0.0026586903098028262 -0.0065467486030598623 0 0.0014582277846678961 -0.0069116163067514478 0 0.0010115897266587063 -0.0077335524229263991 0 0.001073169991831633 -0.0082558926767917398 0 0.000265224195865472 -0.0085569452573867246 0 0.0026586903098028262 -0.0065467486030598623 0 0.0010115897266587063 -0.0077335524229263991 0 0.001073169991831633 -0.0082558926767917398 0 0.00045786458183247184 -0.0076293794146850905 0 -7.7852439128055275e-05 -0.0093917660585175321 0 0.00075005162583957282 -0.0057529058899617493 0 0.0010357507976888375 -0.0064546332274523759 0 0.0008704061781706127 -0.0072760129048812065 0 0.00045786458183247184 -0.0076293794146850905 0 0.0001548357771850047 -0.0099344333935652476 0 -0.00067116190576400696 -0.011361800800922594 0 -0.00072761727195882521 -0.011135825005642717 0 -0.000961336775514996 -0.011109804559624029 0 0.0013341358122043612 -0.006558018975170111 0 0.0010381151577685871 -0.0082741397846247036 0 0.00077596002775854483 -0.0074010648107096884 0 0.00043048209585895802 -0.0081015392774562225 0 0.00029569153848710603 -0.0089635624201210764 0 0.0010381151577685871 -0.0082741397846247036 0 0.00043048209585895802 -0.0081015392774562225 0 0.0010381151577685871 -0.0082741397846247036 0 0.00077596002775854483 -0.0074010648107096884 0 0.0014582277846678961 -0.0069116163067514478 0 0.0010357507976888375 -0.0064546332274523759 0 0.0008704061781706127 -0.0072760129048812065 0 0.0014582277846678961 -0.0069116163067514478 0 0.0010115897266587063 -0.0077335524229263991 0 0.0008704061781706127 -0.0072760129048812065 0 0.0016749448964353268 -0.0061033066060509874 0 0.0014582277846678961 -0.0069116163067514478 0 0.0010357507976888375 -0.0064546332274523759 0 -0.000961336775514996 -0.011109804559624029 0 -0.00096006567047756254 -0.010739134028561534 0 -0.0016422447631992657 -0.010373256936188095 0 -7.7852439128055275e-05 -0.0093917660585175321 0 -0.00072515548268178907 -0.0095068704334171413 0 0.0010115897266587063 -0.0077335524229263991 0 0.0008704061781706127 -0.0072760129048812065 0 0.000265224195865472 -0.0085569452573867246 0 -0.00072761727195882521 -0.011135825005642717 0 -0.00096006567047756254 -0.010739134028561534 0 -0.00065180836195466994 -0.01059076474487524 0 0.0001548357771850047 -0.0099344333935652476 0 -7.1277429034285951e-05 -0.009878392761041745 0 -0.00072761727195882521 -0.011135825005642717 0 -0.000961336775514996 -0.011109804559624029 0 -0.00096006567047756254 -0.010739134028561534 0 0.00029569153848710603 -0.0089635624201210764 0 0.0010381151577685871 -0.0082741397846247036 0 0.00054855649493639402 -0.0094506482513803097 0 0.00029569153848710603 -0.0089635624201210764 0 0.00054855649493639402 -0.0094506482513803097 0 0.00021573937530389094 -0.0095102191083720547 0 -7.1277429034285951e-05 -0.009878392761041745 0 -0.00029003166486079771 -0.009640554478482331 0 -0.00065180836195466994 -0.01059076474487524 0 -0.0010671665407313094 -0.010323988277699109 0 -0.00035881960887099629 -0.0096623280022631788 0 4.0221331882963453e-05 -0.009644648713034127 0 0.00054855649493639402 -0.0094506482513803097 0 0.00021573937530389094 -0.0095102191083720547 0 4.0221331882963453e-05 -0.009644648713034127 0 0.00054855649493639402 -0.0094506482513803097 0 -0.00035881960887099629 -0.0096623280022631788 0 -0.00096006567047756254 -0.010739134028561534 0 -0.00065180836195466994 -0.01059076474487524 0 -0.0010671665407313094 -0.010323988277699109 0 -0.00096006567047756254 -0.010739134028561534 0 -0.0010671665407313094 -0.010323988277699109 0 -0.0016422447631992657 -0.010373256936188095 0 -0.0010671665407313094 -0.010323988277699109 0 -0.0014542650498548073 -0.0099406179982759624 0 -0.0016422447631992657 -0.010373256936188095 0 -0.0010289637710004886 -0.0098640365656853107 0 -0.00083681528875189325 -0.009609874164177943 0 -0.00035881960887099629 -0.0096623280022631788 0 -0.0010671665407313094 -0.010323988277699109 0 -0.0010289637710004886 -0.0098640365656853107 0 -0.00035881960887099629 -0.0096623280022631788 0 -0.0010671665407313094 -0.010323988277699109 0 -0.0010289637710004886 -0.0098640365656853107 0 -0.0014542650498548073 -0.0099406179982759624 0 -0.0010289637710004886 -0.0098640365656853107 0 -0.0014542650498548073 -0.0099406179982759624 0 -0.0011790921613424714 -0.0096245747868513015 0 -0.0014542650498548073 -0.0099406179982759624 0 -0.001561881505729686 -0.0095823386727334186 0 -0.0011790921613424714 -0.0096245747868513015 0 -0.0014542650498548073 -0.0099406179982759624 0 -0.001561881505729686 -0.0095823386727334186 0 -0.0018456898384003116 -0.0096502742075478039 0 -0.001561881505729686 -0.0095823386727334186 0 -0.0015872490474749192 -0.0093353440968085843 0 -0.0012956392148036967 -0.0093839718608530274 0 -0.001561881505729686 -0.0095823386727334186 0 -0.0011790921613424714 -0.0096245747868513015 0 -0.0012956392148036967 -0.0093839718608530274 0 -0.001561881505729686 -0.0095823386727334186 0 -0.0017805694172663316 -0.0094609111275373216 0 -0.0015872490474749192 -0.0093353440968085843 0 -0.0010289637710004886 -0.0098640365656853107 0 -0.00083681528875189325 -0.009609874164177943 0 -0.0011790921613424714 -0.0096245747868513015 0 -0.00083681528875189325 -0.009609874164177943 0 -0.0011790921613424714 -0.0096245747868513015 0 -0.00095979915087912506 -0.00943156428288364 0 -0.0011790921613424714 -0.0096245747868513015 0 -0.00095979915087912506 -0.00943156428288364 0 -0.0012956392148036967 -0.0093839718608530274 0 -0.00083681528875189325 -0.009609874164177943 0 -0.00095979915087912506 -0.00943156428288364 0 -0.00064468985346964873 -0.009473291255721196 0 -0.00095979915087912506 -0.00943156428288364 0 -0.00064468985346964873 -0.009473291255721196 0 -0.00096370064161664009 -0.0091712385729636157 0 -0.00083681528875189325 -0.009609874164177943 0 -0.00064468985346964873 -0.009473291255721196 0 -0.00035881960887099629 -0.0096623280022631788 0 -0.00064468985346964873 -0.009473291255721196 0 -0.00035881960887099629 -0.0096623280022631788 0 -0.00019407286931481224 -0.0094469264393783475 0 0.00019899968857869073 -0.0097257536619352377 0 0.00016126899971850557 -0.0096962024745339808 0 4.0221331882963453e-05 -0.009644648713034127 0 -0.00019407286931481224 -0.0094469264393783475 0 0.00014770125872345699 -0.0096700620563756456 0 4.0221331882963453e-05 -0.009644648713034127 0 -0.00035881960887099629 -0.0096623280022631788 0 -0.00019407286931481224 -0.0094469264393783475 0 -0.012119884897589016 -0.011179839479452907 0 -0.013114188863652287 -0.011425718151491734 0 -0.011216192160067478 -0.012598486997931604 0 -0.013114188863652287 -0.011425718151491734 0 -0.011216192160067478 -0.012598486997931604 0 -0.010207162820764042 -0.013103950026914732 0 -0.0060223901778099663 -0.0096769091032928023 0 -0.0060140398748960572 -0.010817771389486582 0 0.001073169991831633 -0.0082558926767917398 0 0.000265224195865472 -0.0085569452573867246 0 -0.0018136978754493985 -0.0094566946283378261 0 -0.0014542650498548073 -0.0099406179982759624 0 -0.0016422447631992657 -0.010373256936188095 0 -0.0018456898384003116 -0.0096502742075478039 0 0.000265224195865472 -0.0085569452573867246 0 -0.0018136978754493985 -0.0094566946283378261 0 -0.0021042944034459356 -0.0093766984880753416 0 -0.0016422447631992657 -0.010373256936188095 0 -0.0018456898384003116 -0.0096502742075478039 0 -0.0021042944034459356 -0.0093766984880753416 0 -0.00072515548268178907 -0.0095068704334171413 0 -0.0018309123527897773 -0.0094442955472962085 0 -0.001561881505729686 -0.0095823386727334186 0 -0.0017805694172663316 -0.0094609111275373216 0 -0.0018456898384003116 -0.0096502742075478039 0 -0.0017805694172663316 -0.0094609111275373216 0 -0.0018456898384003116 -0.0096502742075478039 0 -0.0019967095492879876 -0.009430022158426761 0 -0.0018456898384003116 -0.0096502742075478039 0 -0.0021276905547448141 -0.0094022684728053748 0 -0.0019967095492879876 -0.009430022158426761 0 -0.0018456898384003116 -0.0096502742075478039 0 -0.0021042944034459356 -0.0093766984880753416 0 -0.0021276905547448141 -0.0094022684728053748 0 -0.011216192160067478 -0.012598486997931604 0 -0.010207162820764042 -0.013103950026914732 0 -0.01086544477175715 -0.012841019224019132 0 -0.010207162820764042 -0.013103950026914732 0 -0.01086544477175715 -0.012841019224019132 0 -0.010575433955816263 -0.012625908877301049 0 -0.011685244641778321 -0.01313801534185517 0 -0.01086544477175715 -0.012841019224019132 0 -0.011024661558312212 -0.01252057394406818 0 -0.01086544477175715 -0.012841019224019132 0 -0.010575433955816263 -0.012625908877301049 0 -0.011024661558312212 -0.01252057394406818 0 -0.011685244641778321 -0.01313801534185517 0 -0.011216192160067478 -0.012598486997931604 0 -0.01086544477175715 -0.012841019224019132 0 -0.010207162820764042 -0.013103950026914732 0 -0.010174057326453215 -0.011395846381945768 0 -0.0060439523720142137 -0.0075985366240649199 0 -0.0018136978754493985 -0.0094566946283378261 0 -0.0036420509944565223 -0.008582862637304612 0 -0.0060439523720142137 -0.0075985366240649199 0 -0.0060140398748960572 -0.010817771389486582 0 -0.0060337215326708707 -0.007445086026852215 0 -0.010671746571931559 -0.010884868309707564 0 -0.010174057326453215 -0.011395846381945768 0 -0.0099276432720450756 -0.009848091433475396 0 -0.010575433955816263 -0.012625908877301049 0 -0.011024661558312212 -0.01252057394406818 0 -0.010174057326453215 -0.011395846381945768 0 -0.010207162820764042 -0.013103950026914732 0 -0.010575433955816263 -0.012625908877301049 0 -0.010174057326453215 -0.011395846381945768 0 -0.0018136978754493985 -0.0094566946283378261 0 -0.0036420509944565223 -0.008582862637304612 0 -0.0021042944034459356 -0.0093766984880753416 0 -0.0036420509944565223 -0.008582862637304612 0 -0.0028117338902405864 -0.008967122043871666 0 -0.0021042944034459356 -0.0093766984880753416 0 -0.0036420509944565223 -0.008582862637304612 0 -0.0028117338902405864 -0.008967122043871666 0 -0.0025168381113832949 -0.0085004483144995209 0 -0.0028117338902405864 -0.008967122043871666 0 -0.0021042944034459356 -0.0093766984880753416 0 -0.00242366546863533 -0.0092046509113055553 0 -0.0021042944034459356 -0.0093766984880753416 0 -0.0021276905547448141 -0.0094022684728053748 0 -0.00242366546863533 -0.0092046509113055553 0 -0.0021276905547448141 -0.0094022684728053748 0 -0.00242366546863533 -0.0092046509113055553 0 -0.0021782144709013309 -0.0092608114957923905 0 -0.00242366546863533 -0.0092046509113055553 0 -0.0021782144709013309 -0.0092608114957923905 0 -0.0022854584348078167 -0.00901795255178779 0 -0.0021276905547448141 -0.0094022684728053748 0 -0.0021782144709013309 -0.0092608114957923905 0 -0.0019967095492879876 -0.009430022158426761 0 -0.0021782144709013309 -0.0092608114957923905 0 -0.0019967095492879876 -0.009430022158426761 0 -0.0018749747369440344 -0.0092710623374043684 0 -0.0017805694172663316 -0.0094609111275373216 0 -0.0019967095492879876 -0.009430022158426761 0 -0.0018749747369440344 -0.0092710623374043684 0 -0.0018749747369440344 -0.0092710623374043684 0 -0.0022854584348078167 -0.00901795255178779 0 -0.0018597294216176382 -0.0089763720291391631 0 -0.0021782144709013309 -0.0092608114957923905 0 -0.0018749747369440344 -0.0092710623374043684 0 -0.0022854584348078167 -0.00901795255178779 0 -0.0020810323073237945 -0.0088101276472708073 0 -0.0022854584348078167 -0.00901795255178779 0 -0.0018597294216176382 -0.0089763720291391631 0 -0.0028117338902405864 -0.008967122043871666 0 -0.0022854584348078167 -0.00901795255178779 0 -0.0025168381113832949 -0.0085004483144995209 0 -0.0028117338902405864 -0.008967122043871666 0 -0.00242366546863533 -0.0092046509113055553 0 -0.0022854584348078167 -0.00901795255178779 0 -0.0020810323073237945 -0.0088101276472708073 0 -0.0022854584348078167 -0.00901795255178779 0 -0.0025168381113832949 -0.0085004483144995209 0 -0.0020810323073237945 -0.0088101276472708073 0 -0.0025168381113832949 -0.0085004483144995209 0 -0.001828096329191699 -0.0085901156245074255 0 -0.0036420509944565223 -0.008582862637304612 0 -0.0022037378737828823 -0.0071173571425398891 0 -0.0060439523720142137 -0.0075985366240649199 0 -0.0025168381113832949 -0.0085004483144995209 0 -0.0022037378737828823 -0.0071173571425398891 0 -0.001828096329191699 -0.0085901156245074255 0 -0.0036420509944565223 -0.008582862637304612 0 -0.0025168381113832949 -0.0085004483144995209 0 -0.0022037378737828823 -0.0071173571425398891 0 -0.010174057326453215 -0.011395846381945768 0 -0.0060439523720142137 -0.0075985366240649199 0 -0.0099276432720450756 -0.009848091433475396 0 -0.0060439523720142137 -0.0075985366240649199 0 -0.0089979420375945682 -0.0070445885332222598 0 -0.0095247301868708872 -0.0084651028063985109 0 -0.0078863515747468003 -0.0057653181301134081 0 -0.0060439523720142137 -0.0075985366240649199 0 -0.0089979420375945682 -0.0070445885332222598 0 -0.0060439523720142137 -0.0075985366240649199 0 -0.0095247301868708872 -0.0084651028063985109 0 -0.0099276432720450756 -0.009848091433475396 0 -0.00038631937125468253 -0.0098166185758044536 0 0.0067360597851915472 -0.011273160649247438 0 0.0005802293771201458 -0.010054059273171776 0 0.00093029369186769205 -0.0104445843589048 0 0.00018607929404416206 -0.010380729779295645 0 -0.00064468985346964873 -0.009473291255721196 0 -0.00019407286931481224 -0.0094469264393783475 0 -0.00096370064161664009 -0.0091712385729636157 0 0.00019899968857869073 -0.0097257536619352377 0 -0.00038631937125468253 -0.0098166185758044536 0 -0.00019407286931481224 -0.0094469264393783475 0 -0.00096370064161664009 -0.0091712385729636157 0 -0.0010216580389970015 -0.0085768105055924228 0 -0.00095979915087912506 -0.00943156428288364 0 -0.00096370064161664009 -0.0091712385729636157 0 -0.0012956392148036967 -0.0093839718608530274 0 -0.00096370064161664009 -0.0091712385729636157 0 -0.0012956392148036967 -0.0093839718608530274 0 -0.0014958678766399712 -0.009106619230159093 0 -0.00096370064161664009 -0.0091712385729636157 0 -0.0014958678766399712 -0.009106619230159093 0 -0.0013347806093308987 -0.0088153670479398545 0 -0.0017805694172663316 -0.0094609111275373216 0 -0.0018749747369440344 -0.0092710623374043684 0 -0.0015872490474749192 -0.0093353440968085843 0 -0.0018749747369440344 -0.0092710623374043684 0 -0.0015872490474749192 -0.0093353440968085843 0 -0.0014958678766399712 -0.009106619230159093 0 -0.0015872490474749192 -0.0093353440968085843 0 -0.0012956392148036967 -0.0093839718608530274 0 -0.0014958678766399712 -0.009106619230159093 0 -0.0018749747369440344 -0.0092710623374043684 0 -0.0014958678766399712 -0.009106619230159093 0 -0.0018597294216176382 -0.0089763720291391631 0 -0.0016232841419671236 -0.008898578943639858 0 -0.0018597294216176382 -0.0089763720291391631 0 -0.001828096329191699 -0.0085901156245074255 0 -0.0020810323073237945 -0.0088101276472708073 0 -0.0018597294216176382 -0.0089763720291391631 0 -0.001828096329191699 -0.0085901156245074255 0 -0.0014958678766399712 -0.009106619230159093 0 -0.0016232841419671236 -0.008898578943639858 0 -0.0018597294216176382 -0.0089763720291391631 0 -0.0014958678766399712 -0.009106619230159093 0 -0.0016232841419671236 -0.008898578943639858 0 -0.0013347806093308987 -0.0088153670479398545 0 -0.0016232841419671236 -0.008898578943639858 0 -0.0013347806093308987 -0.0088153670479398545 0 -0.001828096329191699 -0.0085901156245074255 0 -0.0013347806093308987 -0.0088153670479398545 0 -0.001828096329191699 -0.0085901156245074255 0 -0.0011652808560510303 -0.0085590827567738424 0 -0.00096370064161664009 -0.0091712385729636157 0 -0.0013347806093308987 -0.0088153670479398545 0 -0.0010216580389970015 -0.0085768105055924228 0 -0.0013347806093308987 -0.0088153670479398545 0 -0.0011652808560510303 -0.0085590827567738424 0 -0.0010216580389970015 -0.0085768105055924228 0 -0.00054923489761032299 -0.0097332063025169328 0 -0.00038631937125468253 -0.0098166185758044536 0 0.0010554957795028874 -0.0068322811250902948 0 -0.0018032579088475404 -0.008103636370240249 0 0.00074655834136037999 -0.010988959346771415 0 -0.0020019812619003672 -0.0076043331487496034 0 -0.00038631937125468253 -0.0098166185758044536 0 -0.0022037378737828823 -0.0071173571425398891 0 -0.0011652808560510303 -0.0085590827567738424 0 -0.00091610334742502195 -0.0085862060648620609 0 -0.0022037378737828823 -0.0071173571425398891 0 -0.001828096329191699 -0.0085901156245074255 0 -0.0011652808560510303 -0.0085590827567738424 0 0.00074655834136037999 -0.010988959346771415 0 0.0033203732221548186 -0.0090930611490995118 0 0.0066791667094450603 -0.011607263647087824 0 0.0010554957795028874 -0.0068322811250902948 0 0.00074655834136037999 -0.010988959346771415 0 0.0033203732221548186 -0.0090930611490995118 0 0.0010554957795028874 -0.0068322811250902948 0 0.0033203732221548186 -0.0090930611490995118 0 0.0064559222033836556 -0.0084544469567906667 0 0.0014689589349697594 -0.0071430380517443683 0 0.0080997773686210181 -0.010240435192379535 0 0.0033203732221548186 -0.0090930611490995118 0 0.0064559222033836556 -0.0084544469567906667 0 0.0066791667094450603 -0.011607263647087824 0 0.011412619487920703 -0.012771607157377112 0 0.011472486665452567 -0.013384438243529776 0 0.012729671037031449 -0.01346020574223585 0 0.011472486665452567 -0.013384438243529776 0 0.012212040942832703 -0.013877840691525317 0 0.011543783489611704 -0.014254750403327439 0 0.0080997773686210181 -0.010240435192379535 0 0.0067360597851915472 -0.011273160649247438 0 0.012729671037031449 -0.01346020574223585 0 0.012212040942832703 -0.013877840691525317 0 0.012993778580484 -0.014357071310454933 0 0.011472486665452567 -0.013384438243529776 0 0.012729671037031449 -0.01346020574223585 0 0.012212040942832703 -0.013877840691525317 0 0.015348427171872799 -0.014298730252195911 0 0.014841594370147974 -0.01344241597144198 0 0.014855358344378769 -0.014257605837916831 0 0.012581282423875179 -0.012786514562234496 0 0.014042944646108037 -0.014192439625607716 0 0.012212040942832703 -0.013877840691525317 0 0.012225159518064349 -0.014324263878976127 0 0.012993778580484 -0.014357071310454933 0 0.012212040942832703 -0.013877840691525317 0 0.012225159518064349 -0.014324263878976127 0 0.011543783489611704 -0.014254750403327439 0 0.011107829201311158 -0.01034176354069795 0 0.010689813090072067 -0.010300605840356357 0 0.010747407872574513 -0.010911987426453345 0 0.0005802293771201458 -0.010054059273171776 0 0.00018607929404416206 -0.010380729779295645 0 0.00010110129605272778 -0.0098827748743860518 0 0.0067360597851915472 -0.011273160649247438 0 0.0053262385320633114 -0.010440126385777805 0 0.012581282423875179 -0.012786514562234496 0 0.0067360597851915472 -0.011273160649247438 0 0.0005802293771201458 -0.010054059273171776 0 0.00010110129605272778 -0.0098827748743860518 0 0.00014770125872345699 -0.0096700620563756456 0 0.010747407872574513 -0.010911987426453345 0 0.010799112074728971 -0.011520221873203187 0 0.011603063143764313 -0.011075333587457816 0 0.011107829201311158 -0.01034176354069795 0 0.010747407872574513 -0.010911987426453345 0 0.011603063143764313 -0.011075333587457816 0 0.012581282423875179 -0.012786514562234496 0 0.015671295630064867 -0.011087312691692421 0 0.016958915044484605 -0.0081102840194878113 0 0.017436303025298777 -0.008345944026756506 0 0.016772475014759484 -0.0087647025622683717 0 0.010034780162038789 -0.0089055318747216939 0 0.015671295630064867 -0.011087312691692421 0 0.0053262385320633114 -0.010440126385777805 0 0.010034780162038789 -0.0089055318747216939 0 0.00010110129605272778 -0.0098827748743860518 0 -4.5469793201219748e-05 -0.0094995293298134383 0 0.00014770125872345699 -0.0096700620563756456 0 0.00029569153848710603 -0.0089635624201210764 0 -4.5469793201219748e-05 -0.0094995293298134383 0 0.00021573937530389094 -0.0095102191083720547 0 -4.5469793201219748e-05 -0.0094995293298134383 0 0.00021573937530389094 -0.0095102191083720547 0 0.00014770125872345699 -0.0096700620563756456 0 4.0221331882963453e-05 -0.009644648713034127 0 0.00021573937530389094 -0.0095102191083720547 0 0.00014770125872345699 -0.0096700620563756456 0 0.016730638304795997 -0.011090241224338142 0 0.016184776563624773 -0.01035708866308228 0 0.015984146668693543 -0.011151741396172043 0 0.016730638304795997 -0.011090241224338142 0 0.016184776563624773 -0.01035708866308228 0 0.017000105202684017 -0.010346502028499084 0 0.016816655030273353 -0.0092225968230548096 0 0.015671295630064867 -0.011087312691692421 0 0.016958915044484605 -0.0081102840194878113 0 0.016460668302868946 -0.0082279926029464757 0 0.016772475014759484 -0.0087647025622683717 0 0.016730638304795997 -0.011090241224338142 0 0.017000105202684017 -0.010346502028499084 0 0.017596962873322668 -0.011343225123311622 0 0.014841594370147974 -0.01344241597144198 0 0.014031750497533073 -0.013960809260770214 0 0.014855358344378769 -0.014257605837916831 0 0.016730638304795997 -0.011090241224338142 0 0.017596962873322668 -0.011343225123311622 0 0.016416496529858039 -0.012049927440530284 0 0.015671295630064867 -0.011087312691692421 0 0.015202863864504574 -0.013194954076067408 0 0.016730638304795997 -0.011090241224338142 0 0.015984146668693543 -0.011151741396172043 0 0.016416496529858039 -0.012049927440530284 0 0.015984146668693543 -0.011151741396172043 0 0.016416496529858039 -0.012049927440530284 0 0.01571019698426241 -0.011573188822302358 0 0.014494249648948701 -0.014553937592005269 0 0.013718220595853026 -0.014361864008418216 0 0.013826428255228028 -0.014258287704444449 0 0.014031750497533073 -0.013960809260770214 0 0.012996514781354235 -0.014592860636724285 0 0.013826428255228028 -0.014258287704444449 0 0.013510394855069554 -0.013972398672370634 0 0.013663583761659943 -0.014406554219222436 0 0.013826428255228028 -0.014258287704444449 0 0.014031750497533073 -0.013960809260770214 0 0.014855358344378769 -0.014257605837916831 0 0.013826428255228028 -0.014258287704444449 0 0.012993778580484 -0.014357071310454933 0 0.013510394855069554 -0.013972398672370634 0 0.013764717719870746 -0.014285539495640352 0 0.014042944646108037 -0.014192439625607716 0 0.015552886567698579 -0.016834317489381641 0 0.016926526298623113 -0.015894863108663053 0 0.015332765394232829 -0.015114562181605708 0 0.012729671037031449 -0.01346020574223585 0 0.012993778580484 -0.014357071310454933 0 0.013510394855069554 -0.013972398672370634 0 0.013399583206012408 -0.016220980468153592 0 0.014494249648948701 -0.014553937592005269 0 0.015552886567698579 -0.016834317489381641 0 0.015332765394232829 -0.015114562181605708 0 0.013993794420427747 -0.015868736071048224 0 0.015332765394232829 -0.015114562181605708 0 0.013993794420427747 -0.015868736071048224 0 0.013663583761659943 -0.014406554219222436 0 0.013248142924042123 -0.015091144554523961 0 0.014193610629493881 -0.013196747682130116 0 0.014043410048078488 -0.013631943483988005 0 0.014264975953798905 -0.012429246452356511 0 0.013835309822264771 -0.012686549095447674 0 0.013993794420427747 -0.015868736071048224 0 0.012501616150067217 -0.016131172005625739 0 0.013418453536623874 -0.015171048425472945 0 0.012501616150067217 -0.016131172005625739 0 0.013418453536623874 -0.015171048425472945 0 0.012996514781354235 -0.014592860636724285 0 0.013993794420427747 -0.015868736071048224 0 0.013418453536623874 -0.015171048425472945 0 0.013663583761659943 -0.014406554219222436 0 0.016416496529858039 -0.012049927440530284 0 0.015154204851702565 -0.012788637066014776 0 0.015327591760564814 -0.011915465803446811 0 0.013418453536623874 -0.015171048425472945 0 0.013663583761659943 -0.014406554219222436 0 0.012996514781354235 -0.014592860636724285 0 0.015202863864504574 -0.013194954076067408 0 0.014193610629493881 -0.013196747682130116 0 0.013826428255228028 -0.014258287704444449 0 0.013663583761659943 -0.014406554219222436 0 0.012996514781354235 -0.014592860636724285 0 0.015156914219792149 -0.012687464442015189 0 0.015166480009580126 -0.012105991477789024 0 0.014802781703960313 -0.012895464279528656 0 0.015005211243376032 -0.012283636173233874 0 0.014223158862580035 -0.012321314568483736 0 0.014193610629493881 -0.013196747682130116 0 0.014223158862580035 -0.012321314568483736 0 0.015156914219792149 -0.012687464442015189 0 0.015166480009580126 -0.012105991477789024 0 0.015327591760564814 -0.011915465803446811 0 0.014193610629493881 -0.013196747682130116 0 0.015196230298067727 -0.01186219689245886 0 0.015166480009580126 -0.012105991477789024 0 0.014673992140210682 -0.01244785309223412 0 0.014612641380946515 -0.011833938333417417 0 0.014132185316244184 -0.012254836281615398 0 0.014673992140210682 -0.01244785309223412 0 0.014612641380946515 -0.011833938333417417 0 0.015166480009580126 -0.012105991477789024 0 0.014673992140210682 -0.01244785309223412 0 0.014768124124637448 -0.012979189037153992 0 0.014132185316244184 -0.012254836281615398 0 0.014673992140210682 -0.01244785309223412 0 0.014370820724396546 -0.013214451559670954 0 0.014673992140210682 -0.01244785309223412 0 0.014370820724396546 -0.013214451559670954 0 0.014768124124637448 -0.012979189037153992 0 0.013295794116567443 -0.0096829416505779271 0 0.012974887998906002 -0.0083475317757935978 0 0.014122823887710587 -0.0088677064493999942 0 0.01377775978884622 -0.011012329746111009 0 0.014062498228333904 -0.01020717958523658 0 0.014062498228333904 -0.01020717958523658 0 0.014172672570231613 -0.0078593159150866544 0 0.014223158862580035 -0.012321314568483736 0 0.01443518457370444 -0.010841790386007822 0 0.014628221754815568 -0.011263924677942599 0 0.01414429613968691 -0.011556862256088159 0 0.014508678592456683 -0.010719109060544792 0 0.014062498228333904 -0.01020717958523658 0 0.014223158862580035 -0.012321314568483736 0 0.014062498228333904 -0.01020717958523658 0 0.01443518457370444 -0.010841790386007822 0 0.014043410048078488 -0.013631943483988005 0 0.013835309822264771 -0.012686549095447674 0 0.013504325971610257 -0.013445712773954092 0 0.013340899060551572 -0.0081218022367138456 0 0.013243110748052397 -0.0076734296246849252 0 0.014145957591415211 -0.007633977526697781 0 0.014327717512183565 -0.0069024312347789329 0 0.013243110748052397 -0.0076734296246849252 0 0.014145957591415211 -0.007633977526697781 0 0.015114670656545625 -0.0071271573557772153 0 0.014145957591415211 -0.007633977526697781 0 0.014915721588063887 -0.0081162787968360739 0 0.014145957591415211 -0.007633977526697781 0 0.014915721588063887 -0.0081162787968360739 0 0.014122823887710587 -0.0088677064493999942 0 0.012974887998906002 -0.0083475317757935978 0 0.014145957591415211 -0.007633977526697781 0 0.014122823887710587 -0.0088677064493999942 0 0.014915721588063887 -0.0081162787968360739 0 0.015058869726928936 -0.0092595841077656588 0 0.01616854671195166 -0.0077998626316012169 0 0.015114670656545625 -0.0071271573557772153 0 0.014915721588063887 -0.0081162787968360739 0 0.01616854671195166 -0.0077998626316012169 0 0.015058869726928936 -0.0092595841077656588 0 0.01616854671195166 -0.0077998626316012169 0 0.01657016524964763 -0.0095165891480800905 0 0.013295794116567443 -0.0096829416505779271 0 0.014122823887710587 -0.0088677064493999942 0 0.01425619147734446 -0.010283533220235236 0 0.015058869726928936 -0.0092595841077656588 0 0.014122823887710587 -0.0088677064493999942 0 0.01425619147734446 -0.010283533220235236 0 0.014915721588063887 -0.0081162787968360739 0 0.015058869726928936 -0.0092595841077656588 0 0.014122823887710587 -0.0088677064493999942 0 0.01425619147734446 -0.010283533220235236 0 0.014849863316530739 -0.010741009536375704 0 0.013972610115951193 -0.011097423942412218 0 0.013295794116567443 -0.0096829416505779271 0 0.01425619147734446 -0.010283533220235236 0 0.013921618393952775 -0.011009891696662319 0 0.01425619147734446 -0.010283533220235236 0 0.013972610115951193 -0.011097423942412218 0 0.013921618393952775 -0.011009891696662319 0 0.015058869726928936 -0.0092595841077656588 0 0.01425619147734446 -0.010283533220235236 0 0.014849863316530739 -0.010741009536375704 0 0.015058869726928936 -0.0092595841077656588 0 0.014849863316530739 -0.010741009536375704 0 0.01657016524964763 -0.0095165891480800905 0 0.014849863316530739 -0.010741009536375704 0 0.013972610115951193 -0.011097423942412218 0 0.013415477355315357 -0.012207988694535899 0 0.013972610115951193 -0.011097423942412218 0 0.014448818902600417 -0.010931352061652352 0 0.014148502159525412 -0.010665499441023716 0 0.013972610115951193 -0.011097423942412218 0 0.014148502159525412 -0.010665499441023716 0 0.013415477355315357 -0.012207988694535899 0 0.013972610115951193 -0.011097423942412218 0 0.014448818902600417 -0.010931352061652352 0 0.013921618393952775 -0.011009891696662319 0 0.014448818902600417 -0.010931352061652352 0 0.015219585125181012 -0.010557007509414067 0 0.014148502159525412 -0.010665499441023716 0 0.016184776563624773 -0.01035708866308228 0 0.015984146668693543 -0.011151741396172043 0 0.015219585125181012 -0.010557007509414067 0 0.015984146668693543 -0.011151741396172043 0 0.015219585125181012 -0.010557007509414067 0 0.015192391914278902 -0.011300759081458533 0 0.014448818902600417 -0.010931352061652352 0 0.015219585125181012 -0.010557007509414067 0 0.015192391914278902 -0.011300759081458533 0 0.016416496529858039 -0.012049927440530284 0 0.01571019698426241 -0.011573188822302358 0 0.015327591760564814 -0.011915465803446811 0 0.015192391914278902 -0.011300759081458533 0 0.014988306366366741 -0.011724532542476702 0 0.014658197170329625 -0.011355284884371365 0 0.015984146668693543 -0.011151741396172043 0 0.015192391914278902 -0.011300759081458533 0 0.01571019698426241 -0.011573188822302358 0 0.015192391914278902 -0.011300759081458533 0 0.01571019698426241 -0.011573188822302358 0 0.015327591760564814 -0.011915465803446811 0 0.015166480009580126 -0.012105991477789024 0 0.014988306366366741 -0.011724532542476702 0 0.014612641380946515 -0.011833938333417417 0 0.015192391914278902 -0.011300759081458533 0 0.014988306366366741 -0.011724532542476702 0 0.015327591760564814 -0.011915465803446811 0 0.015166480009580126 -0.012105991477789024 0 0.014988306366366741 -0.011724532542476702 0 0.015327591760564814 -0.011915465803446811 0 0.014612641380946515 -0.011833938333417417 0 0.013921618393952775 -0.011009891696662319 0 0.014658197170329625 -0.011355284884371365 0 0.014988306366366741 -0.011724532542476702 0 0.014612641380946515 -0.011833938333417417 0 0.014658197170329625 -0.011355284884371365 0 0.014132185316244184 -0.012254836281615398 0 0.014612641380946515 -0.011833938333417417 0 0.013921618393952775 -0.011009891696662319 0 0.01377775978884622 -0.011012329746111009 0 0.013841160637040212 -0.010971092277476432 0 0.014448818902600417 -0.010931352061652352 0 0.013921618393952775 -0.011009891696662319 0 0.014658197170329625 -0.011355284884371365 0 0.014448818902600417 -0.010931352061652352 0 0.015192391914278902 -0.011300759081458533 0 0.014658197170329625 -0.011355284884371365 0 0.0273123228822151 -0.0097002256060854091 0 0.026544023557088386 -0.010696844128190733 0 0.02648066200677545 -0.0095236062314980243 0 0.024573730711199327 -0.0098197530176490494 0 0.023663147198571113 -0.0088465400405004294 0 0.02260510665579735 -0.0088633427222010678 0 0.020265382529065026 -0.0069780816704456813 0 0.019396762916179776 -0.0097736102927622696 0 0.017931034835634109 -0.0080634520686901478 0 0.01657016524964763 -0.0095165891480800905 0 0.019396762916179776 -0.0097736102927622696 0 0.020265382529065026 -0.0069780816704456813 0 0.017931034835634109 -0.0080634520686901478 0 0.019396762916179776 -0.0097736102927622696 0 0.017696159356155136 -0.0066726527623609984 0 0.020265382529065026 -0.0069780816704456813 0 0.017931034835634109 -0.0080634520686901478 0 0.017696159356155136 -0.0066726527623609984 0 0.017931034835634109 -0.0080634520686901478 0 0.01616854671195166 -0.0077998626316012169 0 0.017931034835634109 -0.0080634520686901478 0 0.01616854671195166 -0.0077998626316012169 0 0.01657016524964763 -0.0095165891480800905 0 0.014849863316530739 -0.010741009536375704 0 0.01657016524964763 -0.0095165891480800905 0 0.016802851324356372 -0.011630805306534889 0 0.014849863316530739 -0.010741009536375704 0 0.016802851324356372 -0.011630805306534889 0 0.013415477355315357 -0.012207988694535899 0 0.016802851324356372 -0.011630805306534889 0 0.019396762916179776 -0.0097736102927622696 0 0.020225140628466347 -0.013508347791792157 0 0.01657016524964763 -0.0095165891480800905 0 0.016802851324356372 -0.011630805306534889 0 0.019396762916179776 -0.0097736102927622696 0 0.019396762916179776 -0.0097736102927622696 0 0.020225140628466347 -0.013508347791792157 0 0.022194873661571069 -0.011627342071962594 0 0.02260510665579735 -0.0088633427222010678 0 0.019396762916179776 -0.0097736102927622696 0 0.022194873661571069 -0.011627342071962594 0 0.026089897633450657 -0.012379763700227796 0 0.024006646169274715 -0.014213461336055909 0 0.022194873661571069 -0.011627342071962594 0 0.020225140628466347 -0.013508347791792157 0 0.024006646169274715 -0.014213461336055909 0 0.022194873661571069 -0.011627342071962594 0 0.026089897633450657 -0.012379763700227796 0 0.02260510665579735 -0.0088633427222010678 0 0.022194873661571069 -0.011627342071962594 0 0.026093766495199119 -0.012368377269249175 0 0.024573730711199327 -0.0098197530176490494 0 0.025133413592538199 -0.01800023586664733 0 0.022679523244888873 -0.018092290707471721 0 0.022795192068468671 -0.016313689594298037 0 0.025755959182236554 -0.016421265547340459 0 0.024006646169274715 -0.014213461336055909 0 0.022795192068468671 -0.016313689594298037 0 0.020225140628466347 -0.013508347791792157 0 0.024006646169274715 -0.014213461336055909 0 0.022795192068468671 -0.016313689594298037 0 0.020225140628466347 -0.013508347791792157 0 0.022795192068468671 -0.016313689594298037 0 0.020274302863033007 -0.016605192997059686 0 0.020274302863033007 -0.016605192997059686 0 0.018378884845849305 -0.017364671999604231 0 0.020454204062535876 -0.019415739496580035 0 0.022679523244888873 -0.018092290707471721 0 0.020274302863033007 -0.016605192997059686 0 0.020454204062535876 -0.019415739496580035 0 0.022679523244888873 -0.018092290707471721 0 0.022795192068468671 -0.016313689594298037 0 0.020274302863033007 -0.016605192997059686 0 0.020274302863033007 -0.016605192997059686 0 0.018378884845849305 -0.017364671999604231 0 0.017217181139925604 -0.014787504689889451 0 0.016802851324356372 -0.011630805306534889 0 0.020225140628466347 -0.013508347791792157 0 0.017217181139925604 -0.014787504689889451 0 0.020225140628466347 -0.013508347791792157 0 0.020274302863033007 -0.016605192997059686 0 0.017217181139925604 -0.014787504689889451 0 0.016802851324356372 -0.011630805306534889 0 0.017217181139925604 -0.014787504689889451 0 0.013415477355315357 -0.012207988694535899 0 0.01462472695401845 -0.010195408671387832 0 0.012799425016818793 -0.013332032910501857 0 0.018378884845849305 -0.017364671999604231 0 0.017217181139925604 -0.014787504689889451 0 0.015348659600172145 -0.018621249770369622 0 0.017217181139925604 -0.014787504689889451 0 0.015348659600172145 -0.018621249770369622 0 0.013415477355315357 -0.012207988694535899 0 0.01462472695401845 -0.010195408671387832 0 0.013337194168069898 -0.0050671338796730312 0 0.010325536184971831 -0.0075049830364334134 0 0.010968934202332975 -0.0063674970681265571 0 0.0095692325677831629 -0.0048329469276579872 0 0.01462472695401845 -0.010195408671387832 0 0.01058797344609295 -0.008325878367119172 0 0.010325536184971831 -0.0075049830364334134 0 0.010968934202332975 -0.0063674970681265571 0 0.011740023412495628 -0.0078486853025997241 0 0.0095692325677831629 -0.0048329469276579872 0 0.01135467050891443 -0.0054049084810442885 0 0.011429364520753597 -0.0036718388611506315 0 0.010968934202332975 -0.0063674970681265571 0 0.0095692325677831629 -0.0048329469276579872 0 0.01135467050891443 -0.0054049084810442885 0 0.017439507924836149 -0.0063319729288264289 0 0.016454363867049456 -0.0072941698199145187 0 0.016182466610977511 -0.005803699155448306 0 0.018378884845849305 -0.017364671999604231 0 0.015348659600172145 -0.018621249770369622 0 0.020454204062535876 -0.019415739496580035 0 0.01462472695401845 -0.010195408671387832 0 0.018530192932859773 -0.014119638308052048 0 0.017909357294430311 -0.0075186758362664197 0 0.017439507924836149 -0.0063319729288264289 0 0.016454363867049456 -0.0072941698199145187 0 0.016454363867049456 -0.0072941698199145187 0 0.015706241293426317 -0.0065362713154362463 0 0.016182466610977511 -0.005803699155448306 0 0.015706241293426317 -0.0065362713154362463 0 0.015160825839859279 -0.0058526995178719262 0 0.016182466610977511 -0.005803699155448306 0 0.014996162472249079 -0.0070775602287014077 0 0.015706241293426317 -0.0065362713154362463 0 0.015160825839859279 -0.0058526995178719262 0 0.021768385606119194 -0.010932303326780579 0 0.017358917384087336 -0.0017217611166789729 0 0.025133413592538199 -0.01800023586664733 0 0.024701171694237269 -0.020068880942560895 0 0.022679523244888873 -0.018092290707471721 0 0.024701171694237269 -0.020068880942560895 0 0.022679523244888873 -0.018092290707471721 0 0.020454204062535876 -0.019415739496580035 0 0.014996162472249079 -0.0070775602287014077 0 0.016454363867049456 -0.0072941698199145187 0 0.015706241293426317 -0.0065362713154362463 0 0.021768385606119194 -0.010932303326780579 0 0.018530192932859773 -0.014119638308052048 0 0.015245637580846298 -0.0094154004508928621 0 0.014138439136816587 -0.0091673368387893434 0 0.014699875918439253 -0.0077212003787756273 0 0.014138439136816587 -0.0091673368387893434 0 0.013365101135098265 -0.0075145628087342955 0 0.014699875918439253 -0.0077212003787756273 0 0.016551679009713688 -0.0092393196454154045 0 0.015245637580846298 -0.0094154004508928621 0 0.01584205890319319 -0.007477323059460951 0 0.015245637580846298 -0.0094154004508928621 0 0.014699875918439253 -0.0077212003787756273 0 0.01584205890319319 -0.007477323059460951 0 0.016551679009713688 -0.0092393196454154045 0 0.016184776563624773 -0.01035708866308228 0 0.015245637580846298 -0.0094154004508928621 0 0.016184776563624773 -0.01035708866308228 0 0.015219585125181012 -0.010557007509414067 0 0.015245637580846298 -0.0094154004508928621 0 0.015245637580846298 -0.0094154004508928621 0 0.014148502159525412 -0.010665499441023716 0 0.014138439136816587 -0.0091673368387893434 0 0.015219585125181012 -0.010557007509414067 0 0.015245637580846298 -0.0094154004508928621 0 0.014148502159525412 -0.010665499441023716 0 0.014148502159525412 -0.010665499441023716 0 0.013415477355315357 -0.012207988694535899 0 0.013466072871290948 -0.0098189035883697075 0 0.014148502159525412 -0.010665499441023716 0 0.014138439136816587 -0.0091673368387893434 0 0.013466072871290948 -0.0098189035883697075 0 0.0097866544558018066 -0.0075983868906869673 0 0.013415477355315357 -0.012207988694535899 0 0.011740023412495628 -0.0078486853025997241 0 0.013466072871290948 -0.0098189035883697075 0 0.013365101135098265 -0.0075145628087342955 0 0.011740023412495628 -0.0078486853025997241 0 0.013415477355315357 -0.012207988694535899 0 0.013466072871290948 -0.0098189035883697075 0 0.011740023412495628 -0.0078486853025997241 0 0.014138439136816587 -0.0091673368387893434 0 0.013466072871290948 -0.0098189035883697075 0 0.013365101135098265 -0.0075145628087342955 0 0.013365101135098265 -0.0075145628087342955 0 0.012098312261297385 -0.0065290858444981099 0 0.012595446558292742 -0.0054289076183388421 0 0.013365101135098265 -0.0075145628087342955 0 0.012595446558292742 -0.0054289076183388421 0 0.014547217674479827 -0.0056796455649747906 0 0.013365101135098265 -0.0075145628087342955 0 0.011740023412495628 -0.0078486853025997241 0 0.012098312261297385 -0.0065290858444981099 0 0.010968934202332975 -0.0063674970681265571 0 0.012098312261297385 -0.0065290858444981099 0 0.01135467050891443 -0.0054049084810442885 0 0.010968934202332975 -0.0063674970681265571 0 0.011740023412495628 -0.0078486853025997241 0 0.012098312261297385 -0.0065290858444981099 0 0.01135467050891443 -0.0054049084810442885 0 0.012595446558292742 -0.0054289076183388421 0 0.011429364520753597 -0.0036718388611506315 0 0.012098312261297385 -0.0065290858444981099 0 0.01135467050891443 -0.0054049084810442885 0 0.012595446558292742 -0.0054289076183388421 0 0.012595446558292742 -0.0054289076183388421 0 0.014547217674479827 -0.0056796455649747906 0 0.01299247460955646 -0.0035535002358999209 0 0.012595446558292742 -0.0054289076183388421 0 0.01299247460955646 -0.0035535002358999209 0 0.011429364520753597 -0.0036718388611506315 0 0.014547217674479827 -0.0056796455649747906 0 0.014071934767255772 -0.0034679248661188865 0 0.01299247460955646 -0.0035535002358999209 0 0.014547217674479827 -0.0056796455649747906 0 0.014801725615812332 -0.0028855548210261254 0 0.014071934767255772 -0.0034679248661188865 0 0.014547217674479827 -0.0056796455649747906 0 0.014699875918439253 -0.0077212003787756273 0 0.01584205890319319 -0.007477323059460951 0 0.013365101135098265 -0.0075145628087342955 0 0.014547217674479827 -0.0056796455649747906 0 0.014699875918439253 -0.0077212003787756273 0 0.014547217674479827 -0.0056796455649747906 0 0.01584205890319319 -0.007477323059460951 0 0.015932280851725406 -0.0066045255791412393 0 0.016014022144100137 -0.006066288792516519 0 0.014547217674479827 -0.0056796455649747906 0 0.015932280851725406 -0.0066045255791412393 0 0.016014022144100137 -0.006066288792516519 0 0.014547217674479827 -0.0056796455649747906 0 0.015754198127502901 -0.0057316974997476096 0 0.01441774785064243 -0.0055786309989118172 0 0.015323780878863427 -0.0045724058921497992 0 0.014547217674479827 -0.0056796455649747906 0 0.015020521801084144 -0.0031329931271232903 0 0.014801725615812332 -0.0028855548210261254 0 0.014801725615812332 -0.0028855548210261254 0 0.014558191074806548 -0.0023886329888525371 0 0.014399726440340148 -0.0018392072884581402 0 0.014801725615812332 -0.0028855548210261254 0 0.014558191074806548 -0.0023886329888525371 0 0.014326656469032771 -0.0027378570252436876 0 0.014801725615812332 -0.0028855548210261254 0 0.014326656469032771 -0.0027378570252436876 0 0.014071934767255772 -0.0034679248661188865 0 0.014558191074806548 -0.0023886329888525371 0 0.014326656469032771 -0.0027378570252436876 0 0.014371461851045354 -0.0021443792428587176 0 0.014326656469032771 -0.0027378570252436876 0 0.014371461851045354 -0.0021443792428587176 0 0.014106870211421896 -0.0018804871040136388 0 0.014371461851045354 -0.0021443792428587176 0 0.014292660908888345 -0.0016984484872138565 0 0.014106870211421896 -0.0018804871040136388 0 0.014558191074806548 -0.0023886329888525371 0 0.014404260791941445 -0.0019489612767644962 0 0.014399726440340148 -0.0018392072884581402 0 0.014404260791941445 -0.0019489612767644962 0 0.014292660908888345 -0.0016984484872138565 0 0.014325475283404053 -0.0016708451438798423 0 0.014558191074806548 -0.0023886329888525371 0 0.014404260791941445 -0.0019489612767644962 0 0.014371461851045354 -0.0021443792428587176 0 0.014404260791941445 -0.0019489612767644962 0 0.014371461851045354 -0.0021443792428587176 0 0.014292660908888345 -0.0016984484872138565 0 0.014292660908888345 -0.0016984484872138565 0 0.014117096204790966 -0.0014261419795720471 0 0.014168569128264643 -0.0013043670706308944 0 0.014117096204790966 -0.0014261419795720471 0 0.013986519829714182 -0.0010701839020921906 0 0.014168569128264643 -0.0013043670706308944 0 0.014292660908888345 -0.0016984484872138565 0 0.014117096204790966 -0.0014261419795720471 0 0.014106870211421896 -0.0018804871040136388 0 0.014117096204790966 -0.0014261419795720471 0 0.014106870211421896 -0.0018804871040136388 0 0.013924374889053435 -0.0012089841026215046 0 0.014106870211421896 -0.0018804871040136388 0 0.013924374889053435 -0.0012089841026215046 0 0.01355663363697859 -0.0014605958334067768 0 0.014117096204790966 -0.0014261419795720471 0 0.013924374889053435 -0.0012089841026215046 0 0.013986519829714182 -0.0010701839020921906 0 0.013924374889053435 -0.0012089841026215046 0 0.013986519829714182 -0.0010701839020921906 0 0.013785274622683037 -0.00080648003404195116 0 0.01355663363697859 -0.0014605958334067768 0 0.013634806888232326 -0.0024739055180318403 0 0.012372786500797001 -0.0018927120295430585 0 0.013924374889053435 -0.0012089841026215046 0 0.01355663363697859 -0.0014605958334067768 0 0.013667528026072058 -0.00098574116619669404 0 0.014106870211421896 -0.0018804871040136388 0 0.01355663363697859 -0.0014605958334067768 0 0.013634806888232326 -0.0024739055180318403 0 0.013634806888232326 -0.0024739055180318403 0 0.014071934767255772 -0.0034679248661188865 0 0.01299247460955646 -0.0035535002358999209 0 0.014326656469032771 -0.0027378570252436876 0 0.014106870211421896 -0.0018804871040136388 0 0.013634806888232326 -0.0024739055180318403 0 0.014326656469032771 -0.0027378570252436876 0 0.013634806888232326 -0.0024739055180318403 0 0.014071934767255772 -0.0034679248661188865 0 0.013634806888232326 -0.0024739055180318403 0 0.01299247460955646 -0.0035535002358999209 0 0.012372786500797001 -0.0018927120295430585 0 0.01299247460955646 -0.0035535002358999209 0 0.011429364520753597 -0.0036718388611506315 0 0.012372786500797001 -0.0018927120295430585 0 0.011429364520753597 -0.0036718388611506315 0 0.011268068400810759 -0.0023901167244537395 0 0.012283028376813965 -0.0021141594266691826 0 0.011466424051760363 -0.0035114744345077172 0 0.012318871075641788 -0.0020598550320520786 0 0.011268068400810759 -0.0023901167244537395 0 0.012283028376813965 -0.0021141594266691826 0 0.011499613980152883 -0.0013002570371688474 0 0.01355663363697859 -0.0014605958334067768 0 0.012372786500797001 -0.0018927120295430585 0 0.013188868894762337 -0.00080934465097404857 0 0.011499613980152883 -0.0013002570371688474 0 0.012203794120431301 -0.00034272763836799559 0 0.01283920298699996 -0.0010587424166026693 0 0.012283028376813965 -0.0021141594266691826 0 0.011499613980152883 -0.0013002570371688474 0 0.01283920298699996 -0.0010587424166026693 0 0.012318871075641788 -0.0020598550320520786 0 0.012998872271184018 -0.00095321061391548932 0 0.011499613980152883 -0.0013002570371688474 0 0.012203794120431301 -0.00034272763836799559 0 0.010991522803109494 -0.00066482231193360755 0 0.012203794120431301 -0.00034272763836799559 0 0.010991522803109494 -0.00066482231193360755 0 0.011403033034216307 7.8830718942043311e-05 0 0.013319376626157496 -0.00037416784970461847 0 0.012998872271184018 -0.00095321061391548932 0 0.013407758254485407 -0.00052418781980830735 0 0.013620900279191951 -0.00068913674472877596 0 0.013188868894762337 -0.00080934465097404857 0 0.012203794120431301 -0.00034272763836799559 0 0.013248174836684246 -0.00022832846188362567 0 0.01283920298699996 -0.0010587424166026693 0 0.013620900279191951 -0.00068913674472877596 0 0.01351170384446382 -0.00055288905263620462 0 0.013541778810135578 -0.00057194754483715494 0 0.013407758254485407 -0.00052418781980830735 0 0.013620900279191951 -0.00068913674472877596 0 0.01351170384446382 -0.00055288905263620462 0 0.013620900279191951 -0.00068913674472877596 0 0.013785274622683037 -0.00080648003404195116 0 0.013541778810135578 -0.00057194754483715494 0 0.013620900279191951 -0.00068913674472877596 0 0.013785274622683037 -0.00080648003404195116 0 0.013667528026072058 -0.00098574116619669404 0 0.013924374889053435 -0.0012089841026215046 0 0.013785274622683037 -0.00080648003404195116 0 0.013667528026072058 -0.00098574116619669404 0 0.013620900279191951 -0.00068913674472877596 0 0.013667528026072058 -0.00098574116619669404 0 0.013188868894762337 -0.00080934465097404857 0 0.01355663363697859 -0.0014605958334067768 0 0.013667528026072058 -0.00098574116619669404 0 0.013188868894762337 -0.00080934465097404857 0 0.015345703854256007 -0.0046348308636748603 0 0.016182805322680856 -0.0047477912304800026 0 0.015875739326913565 -0.0041787667694836387 0 0.01768747157218083 -0.0047459198888891501 0 0.017358917384087336 -0.0017217611166789729 0 0.015345703854256007 -0.0046348308636748603 0 0.015160825839859279 -0.0058526995178719262 0 0.016182466610977511 -0.005803699155448306 0 0.016182466610977511 -0.005803699155448306 0 0.016182805322680856 -0.0047477912304800026 0 0.016945969243040628 -0.0051239616924279871 0 0.015345703854256007 -0.0046348308636748603 0 0.016182466610977511 -0.005803699155448306 0 0.016182805322680856 -0.0047477912304800026 0 0.016182805322680856 -0.0047477912304800026 0 0.016945969243040628 -0.0051239616924279871 0 0.01643504294629447 -0.0039013119885916011 0 0.016182805322680856 -0.0047477912304800026 0 0.01643504294629447 -0.0039013119885916011 0 0.015875739326913565 -0.0041787667694836387 0 0.0090311701156862278 -0.0027736258940676819 0 0.010478913367858464 -0.001931345624275493 0 0.0085863130630517981 -0.00092522634005824894 0 0.01025205700953207 -0.0017003184788499384 0 0.0099308470079947486 -0.0013234343510360217 0 0.0090311701156862278 -0.0027736258940676819 0 0.0085863130630517981 -0.00092522634005824894 0 0.0082569074353014658 -0.00073688249173506815 0 0.013075293016769348 -0.0040617351293233865 0 0.011884141809779153 -0.0024078730225476587 0 0.0090311701156862278 -0.0027736258940676819 0 0.010250379960799409 -0.0032962365185039292 0 0.010478913367858464 -0.001931345624275493 0 0.013337194168069898 -0.0050671338796730312 0 0.013075293016769348 -0.0040617351293233865 0 0.017439507924836149 -0.0063319729288264289 0 0.016182466610977511 -0.005803699155448306 0 0.016945969243040628 -0.0051239616924279871 0 0.0095692325677831629 -0.0048329469276579872 0 0.0090311701156862278 -0.0027736258940676819 0 0.010250379960799409 -0.0032962365185039292 0 0.0095692325677831629 -0.0048329469276579872 0 0.011429364520753597 -0.0036718388611506315 0 0.010250379960799409 -0.0032962365185039292 0 0.011429364520753597 -0.0036718388611506315 0 0.011268068400810759 -0.0023901167244537395 0 0.010250379960799409 -0.0032962365185039292 0 0.011268068400810759 -0.0023901167244537395 0 0.011499613980152883 -0.0013002570371688474 0 0.010478913367858464 -0.001931345624275493 0 0.011268068400810759 -0.0023901167244537395 0 0.010250379960799409 -0.0032962365185039292 0 0.010478913367858464 -0.001931345624275493 0 0.011499613980152883 -0.0013002570371688474 0 0.010991522803109494 -0.00066482231193360755 0 0.010411478657170617 -0.0012262805174679241 0 0.011499613980152883 -0.0013002570371688474 0 0.010478913367858464 -0.001931345624275493 0 0.010411478657170617 -0.0012262805174679241 0 0.010991522803109494 -0.00066482231193360755 0 0.010399101542079089 -0.00077074553162147436 0 0.010411478657170617 -0.0012262805174679241 0 0.010991522803109494 -0.00066482231193360755 0 0.010549066242130176 -0.00032692624545700878 0 0.011403033034216307 7.8830718942043311e-05 0 0.010399101542079089 -0.00077074553162147436 0 0.010203654567276694 -0.00060626556804658431 0 0.010549066242130176 -0.00032692624545700878 0 0.010991522803109494 -0.00066482231193360755 0 0.010399101542079089 -0.00077074553162147436 0 0.010549066242130176 -0.00032692624545700878 0 0.010203654567276694 -0.00060626556804658431 0 0.0099482447586178718 -0.00048280745146069145 0 0.010549066242130176 -0.00032692624545700878 0 0.010399101542079089 -0.00077074553162147436 0 0.010203654567276694 -0.00060626556804658431 0 0.010258301972303437 -0.00077499215092874168 0 0.010478913367858464 -0.001931345624275493 0 0.010411478657170617 -0.0012262805174679241 0 0.01016848187150355 -0.0009153163990607043 0 0.010258301972303437 -0.00077499215092874168 0 0.010300063339500115 -0.00092751200345905836 0 0.01016848187150355 -0.0009153163990607043 0 0.010399101542079089 -0.00077074553162147436 0 0.010258301972303437 -0.00077499215092874168 0 0.010300063339500115 -0.00092751200345905836 0 0.010399101542079089 -0.00077074553162147436 0 0.010300063339500115 -0.00092751200345905836 0 0.010411478657170617 -0.0012262805174679241 0 0.010300063339500115 -0.00092751200345905836 0 0.010411478657170617 -0.0012262805174679241 0 0.01016848187150355 -0.0009153163990607043 0 0.01643504294629447 -0.0039013119885916011 0 0.015875739326913565 -0.0041787667694836387 0 0.015549959054208085 -0.0034169318136977804 0 0.011884141809779153 -0.0024078730225476587 0 0.014648601763300694 -0.0029209686816288197 0 0.010238375667508169 -0.00079833039203287565 0 0.010422472156359728 -0.00051866955469153026 0 0.010656603412124061 -0.0003858166688364157 0 0.0099308470079947486 -0.0013234343510360217 0 0.011884141809779153 -0.0024078730225476587 0 0.010258301972303437 -0.00077499215092874168 0 0.01016848187150355 -0.0009153163990607043 0 0.010289022509956815 -0.00062864637534802887 0 0.01016848187150355 -0.0009153163990607043 0 0.010238375667508169 -0.00079833039203287565 0 0.010422472156359728 -0.00051866955469153026 0 0.01016848187150355 -0.0009153163990607043 0 0.010289022509956815 -0.00062864637534802887 0 0.010422472156359728 -0.00051866955469153026 0 0.010203654567276694 -0.00060626556804658431 0 0.010289022509956815 -0.00062864637534802887 0 0.010338608804283795 -0.00055378610297965271 0 0.010203654567276694 -0.00060626556804658431 0 0.010258301972303437 -0.00077499215092874168 0 0.010289022509956815 -0.00062864637534802887 0 0.010203654567276694 -0.00060626556804658431 0 0.010338608804283795 -0.00055378610297965271 0 0.0099482447586178718 -0.00048280745146069145 0 0.010289022509956815 -0.00062864637534802887 0 0.010338608804283795 -0.00055378610297965271 0 0.010422472156359728 -0.00051866955469153026 0 0.010338608804283795 -0.00055378610297965271 0 0.010422472156359728 -0.00051866955469153026 0 0.010819708553950711 -0.00039694146540171943 0 0.016460354678450941 -0.0035965529102251503 0 0.014648601763300694 -0.0029209686816288197 0 0.010422472156359728 -0.00051866955469153026 0 0.010819708553950711 -0.00039694146540171943 0 0.010656603412124061 -0.0003858166688364157 0 0.010338608804283795 -0.00055378610297965271 0 0.010819708553950711 -0.00039694146540171943 0 0.011503047813560381 -0.00088172263620382133 0 0.012725659401674487 -0.00050087078326239141 0 0.011503047813560381 -0.00088172263620382133 0 0.011003670445980069 0.00015312293838344045 0 0.010819708553950711 -0.00039694146540171943 0 0.011503047813560381 -0.00088172263620382133 0 0.011003670445980069 0.00015312293838344045 0 0.01350261548546991 -0.0012133857474048229 0 0.014648601763300694 -0.0029209686816288197 0 0.015345703854256007 -0.0046348308636748603 0 0.015875739326913565 -0.0041787667694836387 0 0.015549959054208085 -0.0034169318136977804 0 0.01768747157218083 -0.0047459198888891501 0 0.014648601763300694 -0.0029209686816288197 0 0.020856436786461468 -0.0049584561966228404 0 0.019721892724234212 -0.0036994195836263523 0 0.019239770585288436 -0.0055626584020172266 0 0.0082591332003734835 1.1062171435395263e-05 0 0.0097032399398233916 0.0013810030536543117 0 0.0080496579473980385 0.0018881984723697416 0 0.010338608804283795 -0.00055378610297965271 0 0.011503047813560381 -0.00088172263620382133 0 0.011274313548932068 -0.001769235219460111 0 0.0082591332003734835 1.1062171435395263e-05 0 0.0099482447586178718 -0.00048280745146069145 0 0.0097032399398233916 0.0013810030536543117 0 0.0092703649765914099 -0.0010507629525375293 0 0.010176144088855657 -0.00059066501152475173 0 0.010338608804283795 -0.00055378610297965271 0 0.011274313548932068 -0.001769235219460111 0 0.0099482447586178718 -0.00048280745146069145 0 0.0099482447586178718 -0.00048280745146069145 0 0.0097032399398233916 0.0013810030536543117 0 0.010318768248273486 0.00050184318607767603 0 0.0097032399398233916 0.0013810030536543117 0 0.010318768248273486 0.00050184318607767603 0 0.011113534875888769 0.0008619584283269488 0 0.0097032399398233916 0.0013810030536543117 0 0.011113534875888769 0.0008619584283269488 0 0.010583613740689732 0.002285935671923262 0 0.0099482447586178718 -0.00048280745146069145 0 0.010318768248273486 0.00050184318607767603 0 0.010549066242130176 -0.00032692624545700878 0 0.010318768248273486 0.00050184318607767603 0 0.010549066242130176 -0.00032692624545700878 0 0.011113534875888769 0.0008619584283269488 0 0.010549066242130176 -0.00032692624545700878 0 0.011403033034216307 7.8830718942043311e-05 0 0.011113534875888769 0.0008619584283269488 0 0.011113534875888769 0.0008619584283269488 0 0.011544810565397226 0.0022462350261475933 0 0.011931577364392628 0.00092979588485886811 0 0.011403033034216307 7.8830718942043311e-05 0 0.011113534875888769 0.0008619584283269488 0 0.011931577364392628 0.00092979588485886811 0 0.011113534875888769 0.0008619584283269488 0 0.011544810565397226 0.0022462350261475933 0 0.010583613740689732 0.002285935671923262 0 0.011544810565397226 0.0022462350261475933 0 0.011232900786851937 0.0038533880827216235 0 0.010583613740689732 0.002285935671923262 0 0.011544810565397226 0.0022462350261475933 0 0.011232900786851937 0.0038533880827216235 0 0.012331871859963421 0.003412256131021597 0 0.011232900786851937 0.0038533880827216235 0 0.010583613740689732 0.002285935671923262 0 0.0092066993972462954 0.0034683110917439817 0 0.0097032399398233916 0.0013810030536543117 0 0.010583613740689732 0.002285935671923262 0 0.0092066993972462954 0.0034683110917439817 0 0.0097032399398233916 0.0013810030536543117 0 0.0092066993972462954 0.0034683110917439817 0 0.0080496579473980385 0.0018881984723697416 0 0.01026070089857874 0.0052046846049424323 0 0.0089952716264981754 0.0049079477547376103 0 0.010985627945966907 0.0069039224079991326 0 0.011246977054246826 0.0070158479556055916 0 0.011194193510471996 0.0075215539155963898 0 0.011527861968954186 0.0072072236292697713 0 0.011246977054246826 0.0070158479556055916 0 0.011194193510471996 0.0075215539155963898 0 0.012953689692646382 0.0011115425924723959 0 0.013144437372405912 0.00086153421910064459 0 0.012902451237685334 0.00040329330973893886 0 0.013144437372405912 0.00086153421910064459 0 0.013385916583825878 -7.7432272070371522e-05 0 0.012902451237685334 0.00040329330973893886 0 0.013144437372405912 0.00086153421910064459 0 0.013385916583825878 -7.7432272070371522e-05 0 0.013329064002750895 0.0013297876287707963 0 0.013407758254485407 -0.00052418781980830735 0 0.013385916583825878 -7.7432272070371522e-05 0 0.01351170384446382 -0.00055288905263620462 0 0.013319376626157496 -0.00037416784970461847 0 0.01341443695739541 -9.0804512849802779e-05 0 0.013248174836684246 -0.00022832846188362567 0 0.013385916583825878 -7.7432272070371522e-05 0 0.012902451237685334 0.00040329330973893886 0 0.012203794120431301 -0.00034272763836799559 0 0.013248174836684246 -0.00022832846188362567 0 0.012902451237685334 0.00040329330973893886 0 0.012203794120431301 -0.00034272763836799559 0 0.012902451237685334 0.00040329330973893886 0 0.012188241567342519 0.0003189222426602489 0 0.011403033034216307 7.8830718942043311e-05 0 0.012188241567342519 0.0003189222426602489 0 0.011931577364392628 0.00092979588485886811 0 0.012203794120431301 -0.00034272763836799559 0 0.011403033034216307 7.8830718942043311e-05 0 0.012188241567342519 0.0003189222426602489 0 0.011931577364392628 0.00092979588485886811 0 0.012533184005350228 0.0010666927805211245 0 0.012318930693278999 0.0019831653183583603 0 0.012188241567342519 0.0003189222426602489 0 0.011931577364392628 0.00092979588485886811 0 0.012533184005350228 0.0010666927805211245 0 0.012902451237685334 0.00040329330973893886 0 0.012188241567342519 0.0003189222426602489 0 0.012533184005350228 0.0010666927805211245 0 0.012953689692646382 0.0011115425924723959 0 0.012902451237685334 0.00040329330973893886 0 0.012533184005350228 0.0010666927805211245 0 0.012953689692646382 0.0011115425924723959 0 0.012533184005350228 0.0010666927805211245 0 0.012846229737098733 0.0018067538255105973 0 0.012533184005350228 0.0010666927805211245 0 0.012846229737098733 0.0018067538255105973 0 0.012318930693278999 0.0019831653183583603 0 0.012846229737098733 0.0018067538255105973 0 0.012318930693278999 0.0019831653183583603 0 0.012767071849692871 0.0026558602360391716 0 0.011544810565397226 0.0022462350261475933 0 0.011931577364392628 0.00092979588485886811 0 0.012318930693278999 0.0019831653183583603 0 0.011544810565397226 0.0022462350261475933 0 0.012318930693278999 0.0019831653183583603 0 0.012331871859963421 0.003412256131021597 0 0.012318930693278999 0.0019831653183583603 0 0.012331871859963421 0.003412256131021597 0 0.012767071849692871 0.0026558602360391716 0 0.012846229737098733 0.0018067538255105973 0 0.012767071849692871 0.0026558602360391716 0 0.013169919875961915 0.0025625821226038588 0 0.012331871859963421 0.003412256131021597 0 0.012767071849692871 0.0026558602360391716 0 0.013047138724055463 0.0035983302634614357 0 0.012767071849692871 0.0026558602360391716 0 0.013169919875961915 0.0025625821226038588 0 0.013047138724055463 0.0035983302634614357 0 0.013169919875961915 0.0025625821226038588 0 0.01349095999817042 0.002749499360769298 0 0.013313871012902019 0.0033436219546751156 0 0.013169919875961915 0.0025625821226038588 0 0.01349095999817042 0.002749499360769298 0 0.013423337699361861 0.0021368546745791747 0 0.013169919875961915 0.0025625821226038588 0 0.013423337699361861 0.0021368546745791747 0 0.01325853805697139 0.0016251854624996136 0 0.012846229737098733 0.0018067538255105973 0 0.013169919875961915 0.0025625821226038588 0 0.01325853805697139 0.0016251854624996136 0 0.012953689692646382 0.0011115425924723959 0 0.012846229737098733 0.0018067538255105973 0 0.01325853805697139 0.0016251854624996136 0 0.012953689692646382 0.0011115425924723959 0 0.013144437372405912 0.00086153421910064459 0 0.01325853805697139 0.0016251854624996136 0 0.013144437372405912 0.00086153421910064459 0 0.01325853805697139 0.0016251854624996136 0 0.013329064002750895 0.0013297876287707963 0 0.013423337699361861 0.0021368546745791747 0 0.01325853805697139 0.0016251854624996136 0 0.01342396590404985 0.001689123089707444 0 0.01325853805697139 0.0016251854624996136 0 0.013329064002750895 0.0013297876287707963 0 0.01342396590404985 0.001689123089707444 0 0.01342396590404985 0.001689123089707444 0 0.013601332262013236 0.0019463629823568845 0 0.01299890885384369 0.0016218098440237189 0 0.013423337699361861 0.0021368546745791747 0 0.01342396590404985 0.001689123089707444 0 0.013601332262013236 0.0019463629823568845 0 0.01349095999817042 0.002749499360769298 0 0.013601332262013236 0.0019463629823568845 0 0.013976121085896361 0.0028447043396953023 0 0.01349095999817042 0.002749499360769298 0 0.013423337699361861 0.0021368546745791747 0 0.013601332262013236 0.0019463629823568845 0 0.012345601018674462 0.0014839578975273261 0 0.012957533135411096 0.0017350541434127326 0 0.013401934275134577 0.0021362365180953784 0 0.012957533135411096 0.0017350541434127326 0 0.013601332262013236 0.0019463629823568845 0 0.01299890885384369 0.0016218098440237189 0 0.013595997548374353 0.0016181982190052321 0 0.011666795833320474 0.0013721099809099922 0 0.011349635677648099 0.00046513823541171099 0 0.012452303151477195 0.0002663009497083035 0 0.011666795833320474 0.0013721099809099922 0 0.011056790175379643 0.0015361686173517937 0 0.011349635677648099 0.00046513823541171099 0 0.011056790175379643 0.0015361686173517937 0 0.010231334027951761 0.0011110379752044949 0 0.011349635677648099 0.00046513823541171099 0 0.010231334027951761 0.0011110379752044949 0 0.0085828942410264286 0.0014493177965529448 0 0.010317498969866811 -0.00029387621270563207 0 0.010231334027951761 0.0011110379752044949 0 0.0098707911657886973 0.0020641188935873623 0 0.0085828942410264286 0.0014493177965529448 0 0.011056790175379643 0.0015361686173517937 0 0.010231334027951761 0.0011110379752044949 0 0.0098707911657886973 0.0020641188935873623 0 0.0098707911657886973 0.0020641188935873623 0 0.0079520118756646434 0.0027105208691595418 0 0.0099516217565549323 0.0035209372675849889 0 0.011056790175379643 0.0015361686173517937 0 0.0098707911657886973 0.0020641188935873623 0 0.011547155290716279 0.0021023681423926418 0 0.0098707911657886973 0.0020641188935873623 0 0.011547155290716279 0.0021023681423926418 0 0.0099516217565549323 0.0035209372675849889 0 0.013329064002750895 0.0013297876287707963 0 0.011547155290716279 0.0021023681423926418 0 0.0099516217565549323 0.0035209372675849889 0 0.01342396590404985 0.001689123089707444 0 0.01299890885384369 0.0016218098440237189 0 0.011547155290716279 0.0021023681423926418 0 0.012954654277651433 0.0012310280068927176 0 0.011406727553725016 0.0010069480698963003 0 0.013329064002750895 0.0013297876287707963 0 0.01342396590404985 0.001689123089707444 0 0.011547155290716279 0.0021023681423926418 0 0.012345601018674462 0.0014839578975273261 0 0.01163959216761924 0.0021797647465571879 0 0.011666795833320474 0.0013721099809099922 0 0.011056790175379643 0.0015361686173517937 0 0.011547155290716279 0.0021023681423926418 0 0.0066871304284255809 0.0019418848973428899 0 0.0074397358396051253 0.00067248218068180509 0 0.0064063990727900606 0.0010305625048145888 0 0.0066871304284255809 0.0019418848973428899 0 0.0057379229154079503 0.0019173058288660667 0 0.0064063990727900606 0.0010305625048145888 0 0.0066871304284255809 0.0019418848973428899 0 0.0085828942410264286 0.0014493177965529448 0 0.0074397358396051253 0.00067248218068180509 0 0.0066871304284255809 0.0019418848973428899 0 0.0085828942410264286 0.0014493177965529448 0 0.0079520118756646434 0.0027105208691595418 0 0.0079520118756646434 0.0027105208691595418 0 0.0069710619093111314 0.0036528653266565824 0 0.0099516217565549323 0.0035209372675849889 0 0.0098707911657886973 0.0020641188935873623 0 0.0085828942410264286 0.0014493177965529448 0 0.0079520118756646434 0.0027105208691595418 0 0.0080662304288772711 -0.0013490529620058653 0 0.0049859574793455251 -0.00034886364888978667 0 0.0064720513632372202 0.0027002450000044261 0 0.0069710619093111314 0.0036528653266565824 0 0.0056152805053377337 0.0028058130753464716 0 0.0066871304284255809 0.0019418848973428899 0 0.0079520118756646434 0.0027105208691595418 0 0.007015375709014283 0.0027341252662792643 0 0.007015375709014283 0.0027341252662792643 0 0.0064720513632372202 0.0027002450000044261 0 0.0069710619093111314 0.0036528653266565824 0 0.0079520118756646434 0.0027105208691595418 0 0.007015375709014283 0.0027341252662792643 0 0.0069710619093111314 0.0036528653266565824 0 0.0066871304284255809 0.0019418848973428899 0 0.0064720513632372202 0.0027002450000044261 0 0.0060408466671791712 0.0023593660345257719 0 0.0066871304284255809 0.0019418848973428899 0 0.007015375709014283 0.0027341252662792643 0 0.0064720513632372202 0.0027002450000044261 0 0.0093690477353446655 -0.0026145485995979602 0 0.0085468756229476039 -0.0024160153903604702 0 0.0083243407713859442 -0.0030710412452878409 0 0.0093690477353446655 -0.0026145485995979602 0 0.0093882836161988427 -0.0030779387943872041 0 0.01001974585501236 -0.0028367061458226903 0 0.0093690477353446655 -0.0026145485995979602 0 0.0093882836161988427 -0.0030779387943872041 0 0.0083243407713859442 -0.0030710412452878409 0 0.0093882836161988427 -0.0030779387943872041 0 0.0088238610047128904 -0.0034499682942127157 0 0.0083243407713859442 -0.0030710412452878409 0 0.0088238610047128904 -0.0034499682942127157 0 0.0099652935340818864 -0.0032991922034521946 0 0.010109774464197537 -0.0038182318292148934 0 0.0093882836161988427 -0.0030779387943872041 0 0.0088238610047128904 -0.0034499682942127157 0 0.0099652935340818864 -0.0032991922034521946 0 0.0099652935340818864 -0.0032991922034521946 0 0.010109774464197537 -0.0038182318292148934 0 0.01052034415246975 -0.0030022767056214483 0 0.0099652935340818864 -0.0032991922034521946 0 0.01052034415246975 -0.0030022767056214483 0 0.01001974585501236 -0.0028367061458226903 0 0.01052034415246975 -0.0030022767056214483 0 0.010478580406848107 -0.0026531527718796173 0 0.01001974585501236 -0.0028367061458226903 0 0.0093882836161988427 -0.0030779387943872041 0 0.0099652935340818864 -0.0032991922034521946 0 0.01001974585501236 -0.0028367061458226903 0 0.0093690477353446655 -0.0026145485995979602 0 0.01001974585501236 -0.0028367061458226903 0 0.01026704167019447 -0.0022885406472199867 0 0.010478580406848107 -0.0026531527718796173 0 0.01026704167019447 -0.0022885406472199867 0 0.010847259306202272 -0.0023397719029360662 0 0.010478580406848107 -0.0026531527718796173 0 0.01001974585501236 -0.0028367061458226903 0 0.01026704167019447 -0.0022885406472199867 0 0.0080662304288772711 -0.0013490529620058653 0 0.011406727553725016 0.0010069480698963003 0 0.010109774464197537 -0.0038182318292148934 0 0.011578168517573019 -0.0024058854905500771 0 0.013051503424698839 -0.0017647795569852697 0 0.01026704167019447 -0.0022885406472199867 0 0.010847259306202272 -0.0023397719029360662 0 0.011139557458746117 -0.0019593520436547666 0 0.011343211426988605 -0.002208536916644984 0 0.011835239047308373 -0.0018481326202600553 0 0.011139557458746117 -0.0019593520436547666 0 0.010847259306202272 -0.0023397719029360662 0 0.011343211426988605 -0.002208536916644984 0 0.011139557458746117 -0.0019593520436547666 0 0.011343211426988605 -0.002208536916644984 0 0.010944415525091207 -0.002568734687353576 0 0.011578168517573019 -0.0024058854905500771 0 0.010847259306202272 -0.0023397719029360662 0 0.011343211426988605 -0.002208536916644984 0 0.010944415525091207 -0.002568734687353576 0 0.010478580406848107 -0.0026531527718796173 0 0.010847259306202272 -0.0023397719029360662 0 0.010944415525091207 -0.002568734687353576 0 0.01052034415246975 -0.0030022767056214483 0 0.010478580406848107 -0.0026531527718796173 0 0.010944415525091207 -0.002568734687353576 0 0.01052034415246975 -0.0030022767056214483 0 0.010944415525091207 -0.002568734687353576 0 0.011578168517573019 -0.0024058854905500771 0 0.010109774464197537 -0.0038182318292148934 0 0.01052034415246975 -0.0030022767056214483 0 0.011578168517573019 -0.0024058854905500771 0 0.011578168517573019 -0.0024058854905500771 0 0.011835239047308373 -0.0018481326202600553 0 0.012434748819249634 -0.0016640540311031074 0 0.011835239047308373 -0.0018481326202600553 0 0.012434748819249634 -0.0016640540311031074 0 0.012418207847499266 -0.0012898234820156031 0 0.011343211426988605 -0.002208536916644984 0 0.011578168517573019 -0.0024058854905500771 0 0.011835239047308373 -0.0018481326202600553 0 0.011835239047308373 -0.0018481326202600553 0 0.011834625629311707 -0.0014658262786018462 0 0.012418207847499266 -0.0012898234820156031 0 0.011835239047308373 -0.0018481326202600553 0 0.011834625629311707 -0.0014658262786018462 0 0.011139557458746117 -0.0019593520436547666 0 0.011834625629311707 -0.0014658262786018462 0 0.012197751002671507 -0.0010481718222735913 0 0.012418207847499266 -0.0012898234820156031 0 0.012197751002671507 -0.0010481718222735913 0 0.011568531427771941 -0.0011656125044205515 0 0.011854134327853925 -0.00074519776716357438 0 0.011834625629311707 -0.0014658262786018462 0 0.012197751002671507 -0.0010481718222735913 0 0.011568531427771941 -0.0011656125044205515 0 0.011568531427771941 -0.0011656125044205515 0 0.010918955428684308 -0.0012791928534068692 0 0.011254053262502863 -0.0015340614429669032 0 0.011568531427771941 -0.0011656125044205515 0 0.010918955428684308 -0.0012791928534068692 0 0.011215545635001116 -0.00092263365039808051 0 0.010918955428684308 -0.0012791928534068692 0 0.011215545635001116 -0.00092263365039808051 0 0.010631226694178297 -0.001000585400254807 0 0.010918955428684308 -0.0012791928534068692 0 0.011254053262502863 -0.0015340614429669032 0 0.01057509384159384 -0.0017260170008223327 0 0.011254053262502863 -0.0015340614429669032 0 0.011139557458746117 -0.0019593520436547666 0 0.01057509384159384 -0.0017260170008223327 0 0.011834625629311707 -0.0014658262786018462 0 0.011568531427771941 -0.0011656125044205515 0 0.011254053262502863 -0.0015340614429669032 0 0.011834625629311707 -0.0014658262786018462 0 0.011254053262502863 -0.0015340614429669032 0 0.011139557458746117 -0.0019593520436547666 0 0.01026704167019447 -0.0022885406472199867 0 0.011139557458746117 -0.0019593520436547666 0 0.01057509384159384 -0.0017260170008223327 0 0.01026704167019447 -0.0022885406472199867 0 0.01057509384159384 -0.0017260170008223327 0 0.0095288165042866149 -0.0019346756843806525 0 0.0093690477353446655 -0.0026145485995979602 0 0.01026704167019447 -0.0022885406472199867 0 0.0095288165042866149 -0.0019346756843806525 0 0.01020331569111876 -0.0013737953447927015 0 0.0093139051736391143 -0.0011960180908731446 0 0.0095288165042866149 -0.0019346756843806525 0 0.010918955428684308 -0.0012791928534068692 0 0.01057509384159384 -0.0017260170008223327 0 0.01020331569111876 -0.0013737953447927015 0 0.010918955428684308 -0.0012791928534068692 0 0.01020331569111876 -0.0013737953447927015 0 0.010631226694178297 -0.001000585400254807 0 0.01020331569111876 -0.0013737953447927015 0 0.010036210383220733 -0.00096443048946401376 0 0.010631226694178297 -0.001000585400254807 0 0.01020331569111876 -0.0013737953447927015 0 0.0093139051736391143 -0.0011960180908731446 0 0.010036210383220733 -0.00096443048946401376 0 0.01057509384159384 -0.0017260170008223327 0 0.01020331569111876 -0.0013737953447927015 0 0.0095288165042866149 -0.0019346756843806525 0 0.0093139051736391143 -0.0011960180908731446 0 0.0095288165042866149 -0.0019346756843806525 0 0.008258427290119056 -0.0019359992124522555 0 0.0093139051736391143 -0.0011960180908731446 0 0.008258427290119056 -0.0019359992124522555 0 0.0082193809843677957 -0.0013209999216403587 0 0.0095288165042866149 -0.0019346756843806525 0 0.0085468756229476039 -0.0024160153903604702 0 0.008258427290119056 -0.0019359992124522555 0 0.0093690477353446655 -0.0026145485995979602 0 0.0095288165042866149 -0.0019346756843806525 0 0.0085468756229476039 -0.0024160153903604702 0 0.013385916583825878 -7.7432272070371522e-05 0 0.013329064002750895 0.0013297876287707963 0 0.013389805565589349 -0.00042962479295434154 0 0.013329064002750895 0.0013297876287707963 0 0.013389805565589349 -0.00042962479295434154 0 0.013051503424698839 -0.0017647795569852697 0 0.013389805565589349 -0.00042962479295434154 0 0.013017185853994235 -0.0011012154633553292 0 0.013371231769166497 -0.00061843608966535596 0 0.013389805565589349 -0.00042962479295434154 0 0.013051503424698839 -0.0017647795569852697 0 0.013017185853994235 -0.0011012154633553292 0 0.011578168517573019 -0.0024058854905500771 0 0.013051503424698839 -0.0017647795569852697 0 0.012434748819249634 -0.0016640540311031074 0 0.012434748819249634 -0.0016640540311031074 0 0.013017185853994235 -0.0011012154633553292 0 0.012418207847499266 -0.0012898234820156031 0 0.013051503424698839 -0.0017647795569852697 0 0.012434748819249634 -0.0016640540311031074 0 0.013017185853994235 -0.0011012154633553292 0 0.013017185853994235 -0.0011012154633553292 0 0.012860814306710466 -0.00087543146126464418 0 0.013371231769166497 -0.00061843608966535596 0 0.013017185853994235 -0.0011012154633553292 0 0.012418207847499266 -0.0012898234820156031 0 0.012860814306710466 -0.00087543146126464418 0 0.012197751002671507 -0.0010481718222735913 0 0.012860814306710466 -0.00087543146126464418 0 0.012463318532137784 -0.00073174513789749161 0 0.012197751002671507 -0.0010481718222735913 0 0.012418207847499266 -0.0012898234820156031 0 0.012860814306710466 -0.00087543146126464418 0 0.013385916583825878 -7.7432272070371522e-05 0 0.013371231769166497 -0.00061843608966535596 0 0.01351170384446382 -0.00055288905263620462 0 0.012860814306710466 -0.00087543146126464418 0 0.013371231769166497 -0.00061843608966535596 0 0.013311749442553407 -0.00062802966724166665 0 0.013371231769166497 -0.00061843608966535596 0 0.01351170384446382 -0.00055288905263620462 0 0.013311749442553407 -0.00062802966724166665 0 0.013385916583825878 -7.7432272070371522e-05 0 0.013389805565589349 -0.00042962479295434154 0 0.013371231769166497 -0.00061843608966535596 0 0.01351170384446382 -0.00055288905263620462 0 0.013311749442553407 -0.00062802966724166665 0 0.013541778810135578 -0.00057194754483715494 0 0.013311749442553407 -0.00062802966724166665 0 0.013541778810135578 -0.00057194754483715494 0 0.012988990293273928 -0.00055698046347028125 0 0.013785274622683037 -0.00080648003404195116 0 0.013541778810135578 -0.00057194754483715494 0 0.013676711576657745 -0.00064261404413435926 0 0.013541778810135578 -0.00057194754483715494 0 0.013424019331796872 -0.00044655974801146214 0 0.013676711576657745 -0.00064261404413435926 0 0.013541778810135578 -0.00057194754483715494 0 0.013424019331796872 -0.00044655974801146214 0 0.013154008434666513 -0.00042261063257973487 0 0.013424019331796872 -0.00044655974801146214 0 0.01369834762145939 -0.00060762291489343525 0 0.013357100899858931 -0.00033190362351353918 0 0.013424019331796872 -0.00044655974801146214 0 0.013676711576657745 -0.00064261404413435926 0 0.01369834762145939 -0.00060762291489343525 0 0.013785274622683037 -0.00080648003404195116 0 0.013676711576657745 -0.00064261404413435926 0 0.013837005698228882 -0.00080519772926989492 0 0.012970960234611292 -0.00016989163015909892 0 0.012318363906922621 -2.079375654654783e-05 0 0.012507166699609554 0.00020910370245532948 0 0.012970960234611292 -0.00016989163015909892 0 0.012507166699609554 0.00020910370245532948 0 0.013047684279722147 -6.2940217608883296e-05 0 0.013424019331796872 -0.00044655974801146214 0 0.012970960234611292 -0.00016989163015909892 0 0.013357100899858931 -0.00033190362351353918 0 0.013424019331796872 -0.00044655974801146214 0 0.012970960234611292 -0.00016989163015909892 0 0.013154008434666513 -0.00042261063257973487 0 0.012970960234611292 -0.00016989163015909892 0 0.013154008434666513 -0.00042261063257973487 0 0.012773362166010802 -0.00029750401917617636 0 0.012773362166010802 -0.00029750401917617636 0 0.012361071145051677 -0.00040095545781835217 0 0.012318363906922621 -2.079375654654783e-05 0 0.012970960234611292 -0.00016989163015909892 0 0.012773362166010802 -0.00029750401917617636 0 0.012318363906922621 -2.079375654654783e-05 0 0.012773362166010802 -0.00029750401917617636 0 0.012988990293273928 -0.00055698046347028125 0 0.012361071145051677 -0.00040095545781835217 0 0.013541778810135578 -0.00057194754483715494 0 0.013154008434666513 -0.00042261063257973487 0 0.012988990293273928 -0.00055698046347028125 0 0.013154008434666513 -0.00042261063257973487 0 0.012773362166010802 -0.00029750401917617636 0 0.012988990293273928 -0.00055698046347028125 0 0.012860814306710466 -0.00087543146126464418 0 0.013311749442553407 -0.00062802966724166665 0 0.012988990293273928 -0.00055698046347028125 0 0.012988990293273928 -0.00055698046347028125 0 0.012463318532137784 -0.00073174513789749161 0 0.012361071145051677 -0.00040095545781835217 0 0.012860814306710466 -0.00087543146126464418 0 0.012988990293273928 -0.00055698046347028125 0 0.012463318532137784 -0.00073174513789749161 0 0.012463318532137784 -0.00073174513789749161 0 0.011854134327853925 -0.00074519776716357438 0 0.012361071145051677 -0.00040095545781835217 0 0.012197751002671507 -0.0010481718222735913 0 0.012463318532137784 -0.00073174513789749161 0 0.011854134327853925 -0.00074519776716357438 0 0.011568531427771941 -0.0011656125044205515 0 0.011854134327853925 -0.00074519776716357438 0 0.011215545635001116 -0.00092263365039808051 0 0.011854134327853925 -0.00074519776716357438 0 0.011215545635001116 -0.00092263365039808051 0 0.01135450741156914 -0.00063246158475640493 0 0.011215545635001116 -0.00092263365039808051 0 0.010873380872881406 -0.00070139635726156003 0 0.01135450741156914 -0.00063246158475640493 0 0.011215545635001116 -0.00092263365039808051 0 0.010873380872881406 -0.00070139635726156003 0 0.010631226694178297 -0.001000585400254807 0 0.010873380872881406 -0.00070139635726156003 0 0.01135450741156914 -0.00063246158475640493 0 0.011025316609716757 -0.00043964727194222529 0 0.011854134327853925 -0.00074519776716357438 0 0.01135450741156914 -0.00063246158475640493 0 0.011687549055866461 -0.00037112124789372077 0 0.01135450741156914 -0.00063246158475640493 0 0.011687549055866461 -0.00037112124789372077 0 0.011025316609716757 -0.00043964727194222529 0 0.011687549055866461 -0.00037112124789372077 0 0.011025316609716757 -0.00043964727194222529 0 0.011125872724372069 -0.00014409649624987547 0 0.011025316609716757 -0.00043964727194222529 0 0.011125872724372069 -0.00014409649624987547 0 0.010574610948335313 -0.00020893832109679058 0 0.011125872724372069 -0.00014409649624987547 0 0.011512017722401379 1.8570805083079426e-05 0 0.011129622827153416 8.8030567181871018e-05 0 0.011125872724372069 -0.00014409649624987547 0 0.010736599588763338 5.8812206827773548e-05 0 0.011129622827153416 8.8030567181871018e-05 0 0.011687549055866461 -0.00037112124789372077 0 0.011125872724372069 -0.00014409649624987547 0 0.011512017722401379 1.8570805083079426e-05 0 0.011687549055866461 -0.00037112124789372077 0 0.011963240581473453 -0.0001622212816505354 0 0.011512017722401379 1.8570805083079426e-05 0 0.011963240581473453 -0.0001622212816505354 0 0.012361071145051677 -0.00040095545781835217 0 0.012318363906922621 -2.079375654654783e-05 0 0.011687549055866461 -0.00037112124789372077 0 0.011963240581473453 -0.0001622212816505354 0 0.012361071145051677 -0.00040095545781835217 0 0.011854134327853925 -0.00074519776716357438 0 0.011687549055866461 -0.00037112124789372077 0 0.012361071145051677 -0.00040095545781835217 0 0.0093139051736391143 -0.0011960180908731446 0 0.008601268109136178 -0.00071946433116990059 0 0.0082193809843677957 -0.0013209999216403587 0 0.0093139051736391143 -0.0011960180908731446 0 0.0096049367711580277 -0.00063172879885001199 0 0.010036210383220733 -0.00096443048946401376 0 0.0093139051736391143 -0.0011960180908731446 0 0.008601268109136178 -0.00071946433116990059 0 0.0096049367711580277 -0.00063172879885001199 0 0.0096049367711580277 -0.00063172879885001199 0 0.010036210383220733 -0.00096443048946401376 0 0.010378426701464563 -0.00060306756273576661 0 0.010036210383220733 -0.00096443048946401376 0 0.010631226694178297 -0.001000585400254807 0 0.010378426701464563 -0.00060306756273576661 0 0.010873380872881406 -0.00070139635726156003 0 0.011025316609716757 -0.00043964727194222529 0 0.010378426701464563 -0.00060306756273576661 0 0.010873380872881406 -0.00070139635726156003 0 0.010631226694178297 -0.001000585400254807 0 0.010378426701464563 -0.00060306756273576661 0 0.011025316609716757 -0.00043964727194222529 0 0.010378426701464563 -0.00060306756273576661 0 0.010574610948335313 -0.00020893832109679058 0 0.010574610948335313 -0.00020893832109679058 0 0.010736599588763338 5.8812206827773548e-05 0 0.010179008032280428 0.00015325555074523399 0 0.011125872724372069 -0.00014409649624987547 0 0.010574610948335313 -0.00020893832109679058 0 0.010736599588763338 5.8812206827773548e-05 0 0.010574610948335313 -0.00020893832109679058 0 0.010179008032280428 0.00015325555074523399 0 0.0099814165344918205 -0.00021277380996013228 0 0.0096049367711580277 -0.00063172879885001199 0 0.010378426701464563 -0.00060306756273576661 0 0.0099814165344918205 -0.00021277380996013228 0 0.010378426701464563 -0.00060306756273576661 0 0.010574610948335313 -0.00020893832109679058 0 0.0099814165344918205 -0.00021277380996013228 0 0.008601268109136178 -0.00071946433116990059 0 0.0093550111450551691 -5.6663155024449286e-06 0 0.0083621502902282083 9.6094810588959309e-05 0 0.0096049367711580277 -0.00063172879885001199 0 0.0099814165344918205 -0.00021277380996013228 0 0.0093550111450551691 -5.6663155024449286e-06 0 0.010179008032280428 0.00015325555074523399 0 0.0093550111450551691 -5.6663155024449286e-06 0 0.0097464084860449263 0.00049127816905366792 0 0.010179008032280428 0.00015325555074523399 0 0.0099814165344918205 -0.00021277380996013228 0 0.0093550111450551691 -5.6663155024449286e-06 0 0.0093550111450551691 -5.6663155024449286e-06 0 0.0091863071482456895 0.00046691401605704688 0 0.0083621502902282083 9.6094810588959309e-05 0 0.008601268109136178 -0.00071946433116990059 0 0.0096049367711580277 -0.00063172879885001199 0 0.0093550111450551691 -5.6663155024449286e-06 0 0.007954292242846368 -0.0026531779643355923 0 -0.001187759573013297 -0.0023318575332934 0 0.010287079306054089 0.00093167481596425066 0 0.011655869173875028 0.0013033473167055509 0 0.0087708395530588512 0.0012938126587735343 0 0.0012613742504976901 -0.002006879942640016 0 0.0013914999739434108 -0.0015544509526949544 0 0.0013652659057974488 -0.001368413226505875 0 0.007954292242846368 -0.0026531779643355923 0 0.0049203267724206596 -4.2061111706376768e-06 0 0.0094401298558090974 0.00083903554261090545 0 0.010287079306054089 0.00093167481596425066 0 0.0087708395530588512 0.0012938126587735343 0 0.0089580098375616792 0.00068900396185770589 0 0.0094401298558090974 0.00083903554261090545 0 0.0087708395530588512 0.0012938126587735343 0 0.0089580098375616792 0.00068900396185770589 0 0.0091863071482456895 0.00046691401605704688 0 0.0083621502902282083 9.6094810588959309e-05 0 0.0089580098375616792 0.00068900396185770589 0 0.0091863071482456895 0.00046691401605704688 0 0.0094401298558090974 0.00083903554261090545 0 0.0091863071482456895 0.00046691401605704688 0 0.0097464084860449263 0.00049127816905366792 0 0.0094401298558090974 0.00083903554261090545 0 0.0093550111450551691 -5.6663155024449286e-06 0 0.0091863071482456895 0.00046691401605704688 0 0.0097464084860449263 0.00049127816905366792 0 0.0097464084860449263 0.00049127816905366792 0 0.0099503947986892514 0.00070535980612461641 0 0.0094401298558090974 0.00083903554261090545 0 0.0099503947986892514 0.00070535980612461641 0 0.0094401298558090974 0.00083903554261090545 0 0.010287079306054089 0.00093167481596425066 0 0.0099503947986892514 0.00070535980612461641 0 0.010412839527050312 0.0004853965626393176 0 0.010287079306054089 0.00093167481596425066 0 0.0097464084860449263 0.00049127816905366792 0 0.0099503947986892514 0.00070535980612461641 0 0.010412839527050312 0.0004853965626393176 0 0.010412839527050312 0.0004853965626393176 0 0.010826635010730307 0.00059190179004642339 0 0.010287079306054089 0.00093167481596425066 0 0.010179008032280428 0.00015325555074523399 0 0.0097464084860449263 0.00049127816905366792 0 0.010412839527050312 0.0004853965626393176 0 0.010736599588763338 5.8812206827773548e-05 0 0.010179008032280428 0.00015325555074523399 0 0.010412839527050312 0.0004853965626393176 0 0.010736599588763338 5.8812206827773548e-05 0 0.010412839527050312 0.0004853965626393176 0 0.0109521502204862 0.00031337523562812797 0 0.010736599588763338 5.8812206827773548e-05 0 0.0109521502204862 0.00031337523562812797 0 0.011129622827153416 8.8030567181871018e-05 0 0.010412839527050312 0.0004853965626393176 0 0.0109521502204862 0.00031337523562812797 0 0.010826635010730307 0.00059190179004642339 0 0.0109521502204862 0.00031337523562812797 0 0.010826635010730307 0.00059190179004642339 0 0.011280263908574326 0.00044725538428430736 0 0.010287079306054089 0.00093167481596425066 0 0.011149918944825045 0.00078164551259946393 0 0.011655869173875028 0.0013033473167055509 0 0.010826635010730307 0.00059190179004642339 0 0.010287079306054089 0.00093167481596425066 0 0.011149918944825045 0.00078164551259946393 0 0.012318363906922621 -2.079375654654783e-05 0 0.011744178804552807 0.00022115380739154032 0 0.012030297555190032 0.00037412307666434048 0 0.011963240581473453 -0.0001622212816505354 0 0.012318363906922621 -2.079375654654783e-05 0 0.011744178804552807 0.00022115380739154032 0 0.011963240581473453 -0.0001622212816505354 0 0.011512017722401379 1.8570805083079426e-05 0 0.011744178804552807 0.00022115380739154032 0 0.011512017722401379 1.8570805083079426e-05 0 0.011344298644899409 0.00022546714436700932 0 0.011744178804552807 0.00022115380739154032 0 0.011512017722401379 1.8570805083079426e-05 0 0.011129622827153416 8.8030567181871018e-05 0 0.011344298644899409 0.00022546714436700932 0 0.0109521502204862 0.00031337523562812797 0 0.011129622827153416 8.8030567181871018e-05 0 0.011344298644899409 0.00022546714436700932 0 0.011344298644899409 0.00022546714436700932 0 0.011280263908574326 0.00044725538428430736 0 0.011744178804552807 0.00022115380739154032 0 0.0109521502204862 0.00031337523562812797 0 0.011344298644899409 0.00022546714436700932 0 0.011280263908574326 0.00044725538428430736 0 0.011744178804552807 0.00022115380739154032 0 0.011598690057232103 0.00055916947631318181 0 0.012030297555190032 0.00037412307666434048 0 0.011280263908574326 0.00044725538428430736 0 0.011744178804552807 0.00022115380739154032 0 0.011598690057232103 0.00055916947631318181 0 0.011280263908574326 0.00044725538428430736 0 0.011598690057232103 0.00055916947631318181 0 0.011149918944825045 0.00078164551259946393 0 0.010826635010730307 0.00059190179004642339 0 0.011280263908574326 0.00044725538428430736 0 0.011149918944825045 0.00078164551259946393 0 0.011598690057232103 0.00055916947631318181 0 0.011149918944825045 0.00078164551259946393 0 0.011654643342968498 0.00084917867817560901 0 0.011598690057232103 0.00055916947631318181 0 0.011654643342968498 0.00084917867817560901 0 0.011866448741461894 0.00059015871324290649 0 0.011598690057232103 0.00055916947631318181 0 0.011866448741461894 0.00059015871324290649 0 0.012030297555190032 0.00037412307666434048 0 0.011654643342968498 0.00084917867817560901 0 0.011866448741461894 0.00059015871324290649 0 0.012130239648297623 0.00052006219484155474 0 0.011866448741461894 0.00059015871324290649 0 0.012030297555190032 0.00037412307666434048 0 0.012130239648297623 0.00052006219484155474 0 0.012318363906922621 -2.079375654654783e-05 0 0.012030297555190032 0.00037412307666434048 0 0.012507166699609554 0.00020910370245532948 0 0.012030297555190032 0.00037412307666434048 0 0.012507166699609554 0.00020910370245532948 0 0.012130239648297623 0.00052006219484155474 0 0.012507166699609554 0.00020910370245532948 0 0.012130239648297623 0.00052006219484155474 0 0.012543058662460039 0.00043945751616016331 0 0.012130239648297623 0.00052006219484155474 0 0.01182461512439191 0.00072969793147391554 0 0.012543058662460039 0.00043945751616016331 0 0.011149918944825045 0.00078164551259946393 0 0.011654643342968498 0.00084917867817560901 0 0.011655869173875028 0.0013033473167055509 0 0.011654643342968498 0.00084917867817560901 0 0.012130239648297623 0.00052006219484155474 0 0.01182461512439191 0.00072969793147391554 0 0.007954292242846368 -0.0026531779643355923 0 0.015374536678611852 -0.0019731409612439529 0 0.0086310988609408223 -0.00071088594379517588 0 0.007954292242846368 -0.0026531779643355923 0 0.017214751313251234 -0.005026065698871718 0 0.016957568361204028 -0.0051991887334416169 0 0.017039670887633283 -0.0054793110334688941 0 -0.00043797792237864003 -0.0024211274056545359 0 0.00039091426660407683 -0.0025791272313276763 0 0.0013914999739434108 -0.0015544509526949544 0 -0.00043797792237864003 -0.0024211274056545359 0 0.00039091426660407683 -0.0025791272313276763 0 -0.00040937279483024727 -0.0044276901827926167 0 0.0011741736379253329 -0.0023664150380185369 0 0.00039091426660407683 -0.0025791272313276763 0 0.00082182088151030552 -0.0031294273614985942 0 0.0011741736379253329 -0.0023664150380185369 0 0.00039091426660407683 -0.0025791272313276763 0 0.0013914999739434108 -0.0015544509526949544 0 0.00082182088151030552 -0.0031294273614985942 0 -0.00040937279483024727 -0.0044276901827926167 0 0.0013327132493241728 -0.0039898562115355165 0 0.00039091426660407683 -0.0025791272313276763 0 0.00082182088151030552 -0.0031294273614985942 0 -0.00040937279483024727 -0.0044276901827926167 0 0.017214751313251234 -0.005026065698871718 0 0.017356812278140055 -0.0058101187746855062 0 0.017039670887633283 -0.0054793110334688941 0 0.007954292242846368 -0.0026531779643355923 0 0.0085175301400346563 -0.0053668197306254734 0 0.017356812278140055 -0.0058101187746855062 0 0.017039670887633283 -0.0054793110334688941 0 0.01686699168750657 -0.0058485730701488556 0 0.016957568361204028 -0.0051991887334416169 0 0.017039670887633283 -0.0054793110334688941 0 0.016794569478667386 -0.0055308650144712508 0 0.017039670887633283 -0.0054793110334688941 0 0.01686699168750657 -0.0058485730701488556 0 0.016794569478667386 -0.0055308650144712508 0 0.01686699168750657 -0.0058485730701488556 0 0.016623226245235524 -0.0056772918105732527 0 0.016541444551980936 -0.0058442520400452279 0 0.01686699168750657 -0.0058485730701488556 0 0.016794569478667386 -0.0055308650144712508 0 0.016623226245235524 -0.0056772918105732527 0 0.016957568361204028 -0.0051991887334416169 0 0.016794569478667386 -0.0055308650144712508 0 0.016450951763839951 -0.0055622276565438084 0 0.016493301383675111 -0.0021185418011315849 0 0.015983328784076458 -0.002465861347960582 0 0.015925319431344134 -0.0024001127583564981 0 0.016794569478667386 -0.0055308650144712508 0 0.016450951763839951 -0.0055622276565438084 0 0.016623226245235524 -0.0056772918105732527 0 0.016450951763839951 -0.0055622276565438084 0 0.016495274474071092 -0.0057107495560583255 0 0.016368912816574339 -0.0057716520676710653 0 0.016450951763839951 -0.0055622276565438084 0 0.016495274474071092 -0.0057107495560583255 0 0.016623226245235524 -0.0056772918105732527 0 0.016495274474071092 -0.0057107495560583255 0 0.016623226245235524 -0.0056772918105732527 0 0.016541444551980936 -0.0058442520400452279 0 0.016495274474071092 -0.0057107495560583255 0 0.016541444551980936 -0.0058442520400452279 0 0.016368912816574339 -0.0057716520676710653 0 0.016178253011691606 -0.0058151577450631722 0 0.015754198127502901 -0.0057316974997476096 0 0.016450951763839951 -0.0055622276565438084 0 0.015323780878863427 -0.0045724058921497992 0 0.016330755671897432 -0.0041002392742738617 0 0.015020521801084144 -0.0031329931271232903 0 0.015983328784076458 -0.002465861347960582 0 0.015925319431344134 -0.0024001127583564981 0 0.016178253011691606 -0.0058151577450631722 0 0.016450951763839951 -0.0055622276565438084 0 0.016368912816574339 -0.0057716520676710653 0 0.015020521801084144 -0.0031329931271232903 0 0.014801725615812332 -0.0028855548210261254 0 0.015925319431344134 -0.0024001127583564981 0 0.014801725615812332 -0.0028855548210261254 0 0.014399726440340148 -0.0018392072884581402 0 0.013937327725938385 -0.00068660856291070341 0 0.014642026935666375 -0.0026827746827681989 0 0.014707852495080689 -0.0015993109259443458 0 0.014399726440340148 -0.0018392072884581402 0 0.014174896117321697 -0.0012611591241017254 0 0.013937327725938385 -0.00068660856291070341 0 0.014404260791941445 -0.0019489612767644962 0 0.014399726440340148 -0.0018392072884581402 0 0.014325475283404053 -0.0016708451438798423 0 0.014399726440340148 -0.0018392072884581402 0 0.014325475283404053 -0.0016708451438798423 0 0.014174896117321697 -0.0012611591241017254 0 0.014174896117321697 -0.0012611591241017254 0 0.014074567199492816 -0.0010493871727455836 0 0.014168569128264643 -0.0013043670706308944 0 0.014325475283404053 -0.0016708451438798423 0 0.014174896117321697 -0.0012611591241017254 0 0.014168569128264643 -0.0013043670706308944 0 0.014292660908888345 -0.0016984484872138565 0 0.014325475283404053 -0.0016708451438798423 0 0.014168569128264643 -0.0013043670706308944 0 0.014174896117321697 -0.0012611591241017254 0 0.013937327725938385 -0.00068660856291070341 0 0.014024952144239985 -0.00092772133847187309 0 0.014074567199492816 -0.0010493871727455836 0 0.014024952144239985 -0.00092772133847187309 0 0.013867991087629664 -0.00071704874431585924 0 0.014174896117321697 -0.0012611591241017254 0 0.014074567199492816 -0.0010493871727455836 0 0.014024952144239985 -0.00092772133847187309 0 0.013937327725938385 -0.00068660856291070341 0 0.014024952144239985 -0.00092772133847187309 0 0.013867991087629664 -0.00071704874431585924 0 0.013867991087629664 -0.00071704874431585924 0 0.013904657961973406 -0.00080999445490330954 0 0.013696564023530441 -0.00057810410062777713 0 0.014074567199492816 -0.0010493871727455836 0 0.013867991087629664 -0.00071704874431585924 0 0.013904657961973406 -0.00080999445490330954 0 0.014074567199492816 -0.0010493871727455836 0 0.013904657961973406 -0.00080999445490330954 0 0.013970925299996722 -0.00093904723748454693 0 0.013904657961973406 -0.00080999445490330954 0 0.013970925299996722 -0.00093904723748454693 0 0.01369834762145939 -0.00060762291489343525 0 0.013904657961973406 -0.00080999445490330954 0 0.013696564023530441 -0.00057810410062777713 0 0.01369834762145939 -0.00060762291489343525 0 0.013986519829714182 -0.0010701839020921906 0 0.014168569128264643 -0.0013043670706308944 0 0.013970925299996722 -0.00093904723748454693 0 0.014074567199492816 -0.0010493871727455836 0 0.014168569128264643 -0.0013043670706308944 0 0.013970925299996722 -0.00093904723748454693 0 0.013986519829714182 -0.0010701839020921906 0 0.013785274622683037 -0.00080648003404195116 0 0.013837005698228882 -0.00080519772926989492 0 0.013676711576657745 -0.00064261404413435926 0 0.013837005698228882 -0.00080519772926989492 0 0.01369834762145939 -0.00060762291489343525 0 0.013986519829714182 -0.0010701839020921906 0 0.013970925299996722 -0.00093904723748454693 0 0.013837005698228882 -0.00080519772926989492 0 0.013970925299996722 -0.00093904723748454693 0 0.013837005698228882 -0.00080519772926989492 0 0.01369834762145939 -0.00060762291489343525 0 0.013696564023530441 -0.00057810410062777713 0 0.01369834762145939 -0.00060762291489343525 0 0.013447086430389407 -0.00036518211558423378 0 0.015374536678611852 -0.0019731409612439529 0 0.016330755671897432 -0.0041002392742738617 0 0.015374536678611852 -0.0019731409612439529 0 0.014707852495080689 -0.0015993109259443458 0 0.012543058662460039 0.00043945751616016331 0 0.013937327725938385 -0.00068660856291070341 0 0.013362537919877581 -0.00025822685390625849 0 0.012970960234611292 -0.00016989163015909892 0 0.013357100899858931 -0.00033190362351353918 0 0.013047684279722147 -6.2940217608883296e-05 0 0.01369834762145939 -0.00060762291489343525 0 0.013357100899858931 -0.00033190362351353918 0 0.013447086430389407 -0.00036518211558423378 0 0.013357100899858931 -0.00033190362351353918 0 0.013447086430389407 -0.00036518211558423378 0 0.013047684279722147 -6.2940217608883296e-05 0 0.013447086430389407 -0.00036518211558423378 0 0.013047684279722147 -6.2940217608883296e-05 0 0.013362537919877581 -0.00025822685390625849 0 0.012507166699609554 0.00020910370245532948 0 0.012543058662460039 0.00043945751616016331 0 0.013047684279722147 -6.2940217608883296e-05 0 0.012543058662460039 0.00043945751616016331 0 0.013047684279722147 -6.2940217608883296e-05 0 0.013362537919877581 -0.00025822685390625849 0 0.013867991087629664 -0.00071704874431585924 0 0.013696564023530441 -0.00057810410062777713 0 0.013362537919877581 -0.00025822685390625849 0 0.013937327725938385 -0.00068660856291070341 0 0.013867991087629664 -0.00071704874431585924 0 0.013362537919877581 -0.00025822685390625849 0 0.013696564023530441 -0.00057810410062777713 0 0.013447086430389407 -0.00036518211558423378 0 0.013362537919877581 -0.00025822685390625849 0 0.0042105866207080792 -0.002124344606332082 0 0.002972893358013665 -0.0034892999084070145 0 0.0037750265038858197 -0.0015054873917833035 0 -0.0060062978067652708 -0.0046754843855795116 0 -0.0060334798922679839 -0.0022505615121039832 0 -0.013671725891392447 -0.0036128192494692536 0 -0.015752486386667226 -0.005047986924723173 0 -0.016204772718107455 -0.0023603214765791146 0 0.0037370725122873047 -0.0044227669446898505 0 0.0042105866207080792 -0.002124344606332082 0 0.002972893358013665 -0.0034892999084070145 0 0.0017925684196211406 -0.0047957092678175229 0 0.002972893358013665 -0.0034892999084070145 0 0.0013327132493241728 -0.0039898562115355165 0 0.002972893358013665 -0.0034892999084070145 0 0.0013327132493241728 -0.0039898562115355165 0 0.0025223092104223383 -0.0026357780769078608 0 0.0013327132493241728 -0.0039898562115355165 0 0.0016869597328519504 -0.0025604590365279176 0 0.0025223092104223383 -0.0026357780769078608 0 0.00082182088151030552 -0.0031294273614985942 0 0.0013327132493241728 -0.0039898562115355165 0 0.0016869597328519504 -0.0025604590365279176 0 0.0016869597328519504 -0.0025604590365279176 0 0.0025223092104223383 -0.0026357780769078608 0 0.0021726732567599449 -0.0018840163681919696 0 0.0016869597328519504 -0.0025604590365279176 0 0.0016045777349590245 -0.0020579536197323635 0 0.0021726732567599449 -0.0018840163681919696 0 0.0011741736379253329 -0.0023664150380185369 0 0.00082182088151030552 -0.0031294273614985942 0 0.0016869597328519504 -0.0025604590365279176 0 0.0011741736379253329 -0.0023664150380185369 0 0.0016869597328519504 -0.0025604590365279176 0 0.0016045777349590245 -0.0020579536197323635 0 0.002972893358013665 -0.0034892999084070145 0 0.0025223092104223383 -0.0026357780769078608 0 0.0037750265038858197 -0.0015054873917833035 0 0.0025223092104223383 -0.0026357780769078608 0 0.0030699074668923336 -0.0015886072304411006 0 0.0037750265038858197 -0.0015054873917833035 0 0.0030699074668923336 -0.0015886072304411006 0 0.0045054754671531314 -0.00055923417081361003 0 0.0037750265038858197 -0.0015054873917833035 0 0.0049203267724206596 -4.2061111706376768e-06 0 0.0044652507524002632 -0.00056960950645004445 0 0.0030699074668923336 -0.0015886072304411006 0 0.0013652659057974488 -0.001368413226505875 0 0.0045054754671531314 -0.00055923417081361003 0 0.0011741736379253329 -0.0023664150380185369 0 0.0013914999739434108 -0.0015544509526949544 0 0.0016045777349590245 -0.0020579536197323635 0 0.0013914999739434108 -0.0015544509526949544 0 0.0021726732567599449 -0.0018840163681919696 0 0.0013652659057974488 -0.001368413226505875 0 0.0013914999739434108 -0.0015544509526949544 0 0.0016045777349590245 -0.0020579536197323635 0 0.0021726732567599449 -0.0018840163681919696 0 0.0030699074668923336 -0.0015886072304411006 0 0.0021726732567599449 -0.0018840163681919696 0 0.0013652659057974488 -0.001368413226505875 0 0.0025223092104223383 -0.0026357780769078608 0 0.0030699074668923336 -0.0015886072304411006 0 0.0021726732567599449 -0.0018840163681919696 0 0.0089580098375616792 0.00068900396185770589 0 0.0087708395530588512 0.0012938126587735343 0 0.0083621502902282083 9.6094810588959309e-05 0 0.0087708395530588512 0.0012938126587735343 0 0.0083621502902282083 9.6094810588959309e-05 0 0.0045054754671531314 -0.00055923417081361003 0 0.0083621502902282083 9.6094810588959309e-05 0 0.0066085352418146885 -0.0014079793569519311 0 0.0045054754671531314 -0.00055923417081361003 0 0.008601268109136178 -0.00071946433116990059 0 0.0083621502902282083 9.6094810588959309e-05 0 0.0066085352418146885 -0.0014079793569519311 0 0.008601268109136178 -0.00071946433116990059 0 0.0066085352418146885 -0.0014079793569519311 0 0.0082193809843677957 -0.0013209999216403587 0 0.0066085352418146885 -0.0014079793569519311 0 0.0045054754671531314 -0.00055923417081361003 0 0.0046156863625529451 -0.0018284858108348623 0 0.0045054754671531314 -0.00055923417081361003 0 0.0040310951192823966 -0.0012082734942106346 0 0.0037750265038858197 -0.0015054873917833035 0 0.0045054754671531314 -0.00055923417081361003 0 0.0040310951192823966 -0.0012082734942106346 0 0.0046156863625529451 -0.0018284858108348623 0 0.0040310951192823966 -0.0012082734942106346 0 0.0037750265038858197 -0.0015054873917833035 0 0.0037292430696270434 -0.0012421964540789375 0 0.0040310951192823966 -0.0012082734942106346 0 0.0037292430696270434 -0.0012421964540789375 0 0.0037714133782359009 -0.0019887581286501901 0 0.0042105866207080792 -0.002124344606332082 0 0.0037750265038858197 -0.0015054873917833035 0 0.0037292430696270434 -0.0012421964540789375 0 -0.014833664082829701 -0.0019125048167942104 0 -0.016204772718107455 -0.0023603214765791146 0 -0.016622759781438439 -0.00013450353679950798 0 -0.0060334798922679839 -0.0022505615121039832 0 -0.0064238889624226364 -0.00067710891865239064 0 0.0037292430696270434 -0.0012421964540789375 0 0.0037714133782359009 -0.0019887581286501901 0 0.0030691757513780409 -0.0029674106725138863 0 -0.0064238889624226364 -0.00067710891865239064 0 -0.0070703836753928436 -0.00062514227995545094 0 -0.015577301422613871 0.0004741749179653995 0 -0.016081748519760245 0.0015219373412119852 0 -0.016622759781438439 -0.00013450353679950798 0 -0.016081748519760245 0.0015219373412119852 0 -0.016622759781438439 -0.00013450353679950798 0 -0.016929913105031981 0.0021452672326743851 0 0.0040310951192823966 -0.0012082734942106346 0 0.0037714133782359009 -0.0019887581286501901 0 0.0046156863625529451 -0.0018284858108348623 0 0.0037714133782359009 -0.0019887581286501901 0 0.0046156863625529451 -0.0018284858108348623 0 0.0046518743152891015 -0.0025681683500168606 0 0.0037714133782359009 -0.0019887581286501901 0 0.0035388447752366971 -0.0029612733499382472 0 0.0030691757513780409 -0.0029674106725138863 0 0.0037714133782359009 -0.0019887581286501901 0 0.0035388447752366971 -0.0029612733499382472 0 0.0046518743152891015 -0.0025681683500168606 0 0.0035388447752366971 -0.0029612733499382472 0 0.0036832726382475776 -0.0032499920613492574 0 0.0041811757146349316 -0.0032546157556463794 0 0.0035388447752366971 -0.0029612733499382472 0 0.0034537179944202114 -0.0031983761510443421 0 0.0030691757513780409 -0.0029674106725138863 0 0.0035388447752366971 -0.0029612733499382472 0 0.0036832726382475776 -0.0032499920613492574 0 0.0034537179944202114 -0.0031983761510443421 0 0.0034537179944202114 -0.0031983761510443421 0 0.0030691757513780409 -0.0029674106725138863 0 0.0034058075955124413 -0.0036724578615784545 0 -0.016929913105031981 0.0021452672326743851 0 -0.016345745808118709 0.0023561404599715579 0 -0.016451532258956396 0.0030943047177367858 0 -0.016081748519760245 0.0015219373412119852 0 -0.016929913105031981 0.0021452672326743851 0 -0.016345745808118709 0.0023561404599715579 0 0.0085468756229476039 -0.0024160153903604702 0 0.008258427290119056 -0.0019359992124522555 0 0.0072459611059804332 -0.0025415301074673017 0 0.0066085352418146885 -0.0014079793569519311 0 0.008258427290119056 -0.0019359992124522555 0 0.0082193809843677957 -0.0013209999216403587 0 0.0066085352418146885 -0.0014079793569519311 0 0.008258427290119056 -0.0019359992124522555 0 0.0072459611059804332 -0.0025415301074673017 0 0.0066085352418146885 -0.0014079793569519311 0 0.0072459611059804332 -0.0025415301074673017 0 0.00566441230395562 -0.0025042582964153381 0 0.0066085352418146885 -0.0014079793569519311 0 0.00566441230395562 -0.0025042582964153381 0 0.0046156863625529451 -0.0018284858108348623 0 0.00566441230395562 -0.0025042582964153381 0 0.0046156863625529451 -0.0018284858108348623 0 0.0046518743152891015 -0.0025681683500168606 0 0.0036442039634476627 -0.0029637526651077346 0 0.005604748787111158 -0.0036516389874804308 0 0.0035388447752366971 -0.0029612733499382472 0 0.0041811757146349316 -0.0032546157556463794 0 0.0049250411550308413 -0.0029527919736622166 0 0.0035388447752366971 -0.0029612733499382472 0 0.0046518743152891015 -0.0025681683500168606 0 0.0061141588088321286 -0.0039018186010011751 0 0.00566441230395562 -0.0025042582964153381 0 0.0046518743152891015 -0.0025681683500168606 0 0.0061141588088321286 -0.0039018186010011751 0 0.0088238610047128904 -0.0034499682942127157 0 0.0061141588088321286 -0.0039018186010011751 0 0.0083243407713859442 -0.0030710412452878409 0 0.0080662304288772711 -0.0013490529620058653 0 0.005604748787111158 -0.0036516389874804308 0 0.0065164957335940212 -0.0030619767473352706 0 0.0049250411550308413 -0.0029527919736622166 0 0.0052871390963982945 -0.0035812538161931577 0 0.0088238610047128904 -0.0034499682942127157 0 0.010109774464197537 -0.0038182318292148934 0 0.0061141588088321286 -0.0039018186010011751 0 0.0072459611059804332 -0.0025415301074673017 0 0.00566441230395562 -0.0025042582964153381 0 0.0061141588088321286 -0.0039018186010011751 0 0.0072459611059804332 -0.0025415301074673017 0 0.0061141588088321286 -0.0039018186010011751 0 0.0083243407713859442 -0.0030710412452878409 0 0.0085468756229476039 -0.0024160153903604702 0 0.0072459611059804332 -0.0025415301074673017 0 0.0083243407713859442 -0.0030710412452878409 0 0.0060408466671791712 0.0023593660345257719 0 0.0056152805053377337 0.0028058130753464716 0 0.0057379229154079503 0.0019173058288660667 0 0.0064720513632372202 0.0027002450000044261 0 0.0060408466671791712 0.0023593660345257719 0 0.0056152805053377337 0.0028058130753464716 0 0.0041811757146349316 -0.0032546157556463794 0 0.0049250411550308413 -0.0029527919736622166 0 0.0052871390963982945 -0.0035812538161931577 0 0.0041811757146349316 -0.0032546157556463794 0 0.0052871390963982945 -0.0035812538161931577 0 0.0041564593079923932 -0.0040230288846025176 0 0.0056152805053377337 0.0028058130753464716 0 0.0045960775043463204 0.0023905410092676001 0 0.0057379229154079503 0.0019173058288660667 0 0.0049859574793455251 -0.00034886364888978667 0 0.0060212893680245041 -0.00061867412843444975 0 0.0045960775043463204 0.0023905410092676001 0 0.0044421360828420572 0.0017900766932712347 0 0.0050799760809295755 0.0015136000815770786 0 0.0045960775043463204 0.0023905410092676001 0 0.0057379229154079503 0.0019173058288660667 0 0.0050799760809295755 0.0015136000815770786 0 0.0066871304284255809 0.0019418848973428899 0 0.0060408466671791712 0.0023593660345257719 0 0.0057379229154079503 0.0019173058288660667 0 -0.016150713386397446 0.0038021958696818148 0 -0.016451532258956396 0.0030943047177367858 0 -0.017056874549770631 0.0044342441688170111 0 0.0030691757513780409 -0.0029674106725138863 0 0.0034058075955124413 -0.0036724578615784545 0 0.0030184406719444452 -0.0044143796207062914 0 -0.016929913105031981 0.0021452672326743851 0 -0.016451532258956396 0.0030943047177367858 0 -0.017056874549770631 0.0044342441688170111 0 -0.0070703836753928436 -0.00062514227995545094 0 -0.00585307217191858 0.00095191981528049521 0 -0.01579475422664342 0.0027382510130388713 0 -0.016345745808118709 0.0023561404599715579 0 -0.016451532258956396 0.0030943047177367858 0 0.0036832726382475776 -0.0032499920613492574 0 0.0034537179944202114 -0.0031983761510443421 0 0.0034058075955124413 -0.0036724578615784545 0 0.0041564593079923932 -0.0040230288846025176 0 0.0034058075955124413 -0.0036724578615784545 0 0.0030184406719444452 -0.0044143796207062914 0 0.0041811757146349316 -0.0032546157556463794 0 0.0041564593079923932 -0.0040230288846025176 0 0.0034058075955124413 -0.0036724578615784545 0 0.0036832726382475776 -0.0032499920613492574 0 0.0041811757146349316 -0.0032546157556463794 0 0.0034058075955124413 -0.0036724578615784545 0 0.0045960775043463204 0.0023905410092676001 0 0.0044421360828420572 0.0017900766932712347 0 0.0035157583123406146 0.0020325201999342934 0 0.0060212893680245041 -0.00061867412843444975 0 -0.00585307217191858 0.00095191981528049521 0 0.0044421360828420572 0.0017900766932712347 0 0.0035157583123406146 0.0020325201999342934 0 0.0040854631459754497 0.0014236931723258914 0 -0.018892281777885052 0.0038306010423329777 0 -0.00585307217191858 0.00095191981528049521 0 -0.01596244141906367 0.0050856015142396963 0 -0.017325614870848962 0.004496335652853312 0 -0.017119374652615107 0.0060003298984650059 0 -0.016150713386397446 0.0038021958696818148 0 -0.01596244141906367 0.0050856015142396963 0 -0.017056874549770631 0.0044342441688170111 0 -0.00585307217191858 0.00095191981528049521 0 -0.0091716705248005934 0.010163616915101268 0 0.0035157583123406146 0.0020325201999342934 0 0.0037695948529886266 0.0010865064130274526 0 0.0035001985356583384 0.00077985508286515645 0 -0.017325614870848962 0.004496335652853312 0 -0.017119374652615107 0.0060003298984650059 0 -0.017319629347383118 0.0070669765041182862 0 -0.01596244141906367 0.0050856015142396963 0 -0.017119374652615107 0.0060003298984650059 0 -0.016289512473181143 0.0059954006174888011 0 -0.017119374652615107 0.0060003298984650059 0 -0.016615632317312515 0.0071810033803954088 0 -0.01694991307015024 0.0069257383586747165 0 -0.018041988602703122 0.0054022571152031098 0 -0.017489770695261222 0.012920656081153392 0 -0.017119374652615107 0.0060003298984650059 0 -0.016378468077796245 0.0065086264285348265 0 -0.016289512473181143 0.0059954006174888011 0 -0.017119374652615107 0.0060003298984650059 0 -0.016762380824749845 0.0070161946029384204 0 -0.016378468077796245 0.0065086264285348265 0 -0.017119374652615107 0.0060003298984650059 0 -0.01694991307015024 0.0069257383586747165 0 -0.017319629347383118 0.0070669765041182862 0 0.0035157583123406146 0.0020325201999342934 0 0.0040854631459754497 0.0014236931723258914 0 0.0037695948529886266 0.0010865064130274526 0 0.0044421360828420572 0.0017900766932712347 0 0.0040854631459754497 0.0014236931723258914 0 0.00453454437297996 0.0011612658920910673 0 0.0040854631459754497 0.0014236931723258914 0 0.00453454437297996 0.0011612658920910673 0 0.004094243608343648 0.0010718996815463411 0 0.00453454437297996 0.0011612658920910673 0 0.004094243608343648 0.0010718996815463411 0 0.0041943683605648596 0.00079582535782180615 0 0.0040854631459754497 0.0014236931723258914 0 0.004094243608343648 0.0010718996815463411 0 0.0037695948529886266 0.0010865064130274526 0 0.004094243608343648 0.0010718996815463411 0 0.0038847801621643471 0.00088713255806893276 0 0.0041943683605648596 0.00079582535782180615 0 0.0037695948529886266 0.0010865064130274526 0 0.0038847801621643471 0.00088713255806893276 0 0.0037181443781102983 0.00083679694234030984 0 0.004094243608343648 0.0010718996815463411 0 0.0037695948529886266 0.0010865064130274526 0 0.0038847801621643471 0.00088713255806893276 0 0.00055785925073114793 0.017696593602499294 0 0.0013509827175797158 0.017490301308572011 0 0.00077742515204794692 0.017393744844933588 0 0.0030400814767620223 0.0013360129494241822 0 0.0043945583047486948 0.0011905073870278858 0 0.0047001099380423452 0.00058988866619547791 0 0.0041943683605648596 0.00079582535782180615 0 0.0036856414639940397 0.00067748191452153008 0 0.0046834920068403929 0.00061736698120582671 0 0.0038847801621643471 0.00088713255806893276 0 0.0041943683605648596 0.00079582535782180615 0 0.0036856414639940397 0.00067748191452153008 0 0.00064412232206561637 0.0065291919656883359 0 0.0050796723034394736 0.00081248463852549586 0 0.00064412232206561637 0.0065291919656883359 0 0.0031175888632456817 0.0093512447839514401 0 0.00453454437297996 0.0011612658920910673 0 0.0041943683605648596 0.00079582535782180615 0 0.0046834920068403929 0.00061736698120582671 0 -0.018255432544549151 0.018424706880832125 0 -0.019323402681316038 0.018272886159677908 0 -0.019361882760895063 0.022060003295385985 0 0.00044582796392175544 0.017728639789129242 0 0.00055785925073114793 0.017696593602499294 0 0.00077742515204794692 0.017393744844933588 0 -0.0091716705248005934 0.010163616915101268 0 -0.0094553783395454494 0.021274478481547655 0 -0.016615632317312515 0.0071810033803954088 0 -0.01694991307015024 0.0069257383586747165 0 -0.017300078055628519 0.0070978507124598907 0 -0.017489770695261222 0.012920656081153392 0 -0.0091716705248005934 0.010163616915101268 0 -0.01200849096018646 0.010432233931661112 0 -0.0091716705248005934 0.010163616915101268 0 0.0038847801621643471 0.00088713255806893276 0 0.0037181443781102983 0.00083679694234030984 0 0.0036856414639940397 0.00067748191452153008 0 0.0037695948529886266 0.0010865064130274526 0 0.0035001985356583384 0.00077985508286515645 0 0.0037181443781102983 0.00083679694234030984 0 0.0035001985356583384 0.00077985508286515645 0 0.0037181443781102983 0.00083679694234030984 0 0.0036856414639940397 0.00067748191452153008 0 -0.0091716705248005934 0.010163616915101268 0 0.00064412232206561637 0.0065291919656883359 0 0.0057379229154079503 0.0019173058288660667 0 0.0056527443339444211 0.0010332289190713266 0 0.0064063990727900606 0.0010305625048145888 0 0.0057379229154079503 0.0019173058288660667 0 0.0056527443339444211 0.0010332289190713266 0 0.0050799760809295755 0.0015136000815770786 0 0.0056527443339444211 0.0010332289190713266 0 0.0061300428368227158 0.00081544498979766659 0 0.0064063990727900606 0.0010305625048145888 0 0.0056527443339444211 0.0010332289190713266 0 0.0051194641239316442 0.0010028206425176805 0 0.0050799760809295755 0.0015136000815770786 0 0.0044421360828420572 0.0017900766932712347 0 0.00453454437297996 0.0011612658920910673 0 0.0050799760809295755 0.0015136000815770786 0 0.00453454437297996 0.0011612658920910673 0 0.0051194641239316442 0.0010028206425176805 0 0.0046834920068403929 0.00061736698120582671 0 0.00453454437297996 0.0011612658920910673 0 0.0051194641239316442 0.0010028206425176805 0 0.0050799760809295755 0.0015136000815770786 0 0.0051194641239316442 0.0010028206425176805 0 0.0046834920068403929 0.00061736698120582671 0 0.0055185669756134433 0.00079799534961501534 0 0.0050796723034394736 0.00081248463852549586 0 0.0051780471708109642 0.00083479475549232032 0 0.0043945583047486948 0.0011905073870278858 0 0.0047001099380423452 0.00058988866619547791 0 0.0055185669756134433 0.00079799534961501534 0 0.0047001099380423452 0.00058988866619547791 0 0.0055185669756134433 0.00079799534961501534 0 0.0058138793070660619 0.00040396427203573225 0 0.0055185669756134433 0.00079799534961501534 0 0.0058138793070660619 0.00040396427203573225 0 0.0061300428368227158 0.00081544498979766659 0 0.0056527443339444211 0.0010332289190713266 0 0.0051194641239316442 0.0010028206425176805 0 0.0055185669756134433 0.00079799534961501534 0 0.0056527443339444211 0.0010332289190713266 0 0.0055185669756134433 0.00079799534961501534 0 0.0061300428368227158 0.00081544498979766659 0 0.0022328705090764868 0.017210588547593525 0 0.0016006277041095104 0.017088302216501771 0 0.0022574755290311957 0.016860826420127151 0 0.0031175888632456817 0.0093512447839514401 0 0.0040116141738941345 0.0087865135106812153 0 0.0013509827175797158 0.017490301308572011 0 0.0022328705090764868 0.017210588547593525 0 0.0016006277041095104 0.017088302216501771 0 0.0013509827175797158 0.017490301308572011 0 0.0016006277041095104 0.017088302216501771 0 0.0011081578089781007 0.017237681617816195 0 0.0016006277041095104 0.017088302216501771 0 0.0011020239894275643 0.016991036276546509 0 0.0011081578089781007 0.017237681617816195 0 0.0011020239894275643 0.016991036276546509 0 0.0012616948715358691 0.016725853997243852 0 0.00083369353829879295 0.016626917218392802 0 0.0016006277041095104 0.017088302216501771 0 0.0012616948715358691 0.016725853997243852 0 0.001713429999185245 0.016600508452041696 0 0.0016006277041095104 0.017088302216501771 0 0.0011020239894275643 0.016991036276546509 0 0.0012616948715358691 0.016725853997243852 0 0.0016006277041095104 0.017088302216501771 0 0.001713429999185245 0.016600508452041696 0 0.0022574755290311957 0.016860826420127151 0 0.001713429999185245 0.016600508452041696 0 0.0025288433098414483 0.016453017537898296 0 0.0022574755290311957 0.016860826420127151 0 -0.018255432544549151 0.018424706880832125 0 -0.019361882760895063 0.022060003295385985 0 -0.016877657497463377 0.02239739510352921 0 0.00044582796392175544 0.017728639789129242 0 0.00048296630383939216 0.017137097857037691 0 0.00077742515204794692 0.017393744844933588 0 0.0013509827175797158 0.017490301308572011 0 0.00077742515204794692 0.017393744844933588 0 0.0011081578089781007 0.017237681617816195 0 0.00077742515204794692 0.017393744844933588 0 0.0011081578089781007 0.017237681617816195 0 0.00083302599870875853 0.017128359742241812 0 0.0011020239894275643 0.016991036276546509 0 0.0011081578089781007 0.017237681617816195 0 0.00083302599870875853 0.017128359742241812 0 0.00048296630383939216 0.017137097857037691 0 0.00083302599870875853 0.017128359742241812 0 0.00072930665110502405 0.016897938183145139 0 0.00048296630383939216 0.017137097857037691 0 0.00077742515204794692 0.017393744844933588 0 0.00083302599870875853 0.017128359742241812 0 0.00072930665110502405 0.016897938183145139 0 0.0004811646652361167 0.016673930644676788 0 0.00083369353829879295 0.016626917218392802 0 0.0011020239894275643 0.016991036276546509 0 0.00072930665110502405 0.016897938183145139 0 0.00083369353829879295 0.016626917218392802 0 0.0011020239894275643 0.016991036276546509 0 0.00083302599870875853 0.017128359742241812 0 0.00072930665110502405 0.016897938183145139 0 -0.019361882760895063 0.022060003295385985 0 -0.018156254052518771 0.024218719452080949 0 -0.019283270641048945 0.025325263117088243 0 -0.019361882760895063 0.022060003295385985 0 -0.018156254052518771 0.024218719452080949 0 -0.016877657497463377 0.02239739510352921 0 0.00048296630383939216 0.017137097857037691 0 0.00072930665110502405 0.016897938183145139 0 0.0004811646652361167 0.016673930644676788 0 -0.0094553783395454494 0.021274478481547655 0 -0.0094142095025660406 0.020817764890721398 0 -0.0094142095025660406 0.020817764890721398 0 -0.0092099534343862387 0.021319714761437691 0 -0.018156254052518771 0.024218719452080949 0 -0.018187474433015917 0.025602828650585586 0 -0.019283270641048945 0.025325263117088243 0 -0.019283270641048945 0.025325263117088243 0 -0.018121330958669631 0.026819583291652221 0 -0.019138920832805995 0.027954178102982077 0 -0.018187474433015917 0.025602828650585586 0 -0.019283270641048945 0.025325263117088243 0 -0.018121330958669631 0.026819583291652221 0 -0.01716824199184553 0.027174318036975346 0 -0.016621200970499354 0.02688754702048618 0 -0.013052341276445936 0.024901700298502149 0 -0.012696004627239863 0.024560764555228657 0 -0.01288927625067782 0.024259067832806038 0 -0.016621200970499354 0.02688754702048618 0 -0.012752442673202391 0.026556472081366057 0 0.0004811646652361167 0.016673930644676788 0 0.00039835773188063678 0.016395806214235309 0 0.00042468825849008621 0.016379226195994589 0 -0.018121330958669631 0.026819583291652221 0 -0.018251022589297523 0.027487702325242155 0 -0.019138920832805995 0.027954178102982077 0 -0.018391440474519852 0.027493790776445256 0 -0.018496141576709091 0.028948831251265236 0 -0.018105711337878739 0.027995902768344124 0 -0.0092099534343862387 0.021319714761437691 0 -0.0052356834216597762 0.019414964335442316 0 -0.0078682491672702783 0.017922053293166762 0 -0.0096969740053584365 0.018867003263165861 0 -0.0078451312391824343 0.021817560056224157 0 -0.0092099534343862387 0.021319714761437691 0 -0.0082279878052168819 0.021514371108274713 0 -0.0052356834216597762 0.019414964335442316 0 -0.0082279878052168819 0.021514371108274713 0 -0.013052341276445936 0.024901700298502149 0 -0.012697558360717936 0.024720630814048176 0 -0.012696004627239863 0.024560764555228657 0 -0.016621200970499354 0.02688754702048618 0 -0.0092099534343862387 0.021319714761437691 0 0.00010238608959580375 0.016124499000180769 0 0.00080050809342695022 0.016171812675711241 0 0.00089924996151392823 0.015839877946747724 0 0.00010238608959580375 0.016124499000180769 0 0.00080050809342695022 0.016171812675711241 0 0.00083369353829879295 0.016626917218392802 0 0.0004811646652361167 0.016673930644676788 0 0.00042468825849008621 0.016379226195994589 0 0.00083369353829879295 0.016626917218392802 0 -0.0052356834216597762 0.019414964335442316 0 0.0022404848662702223 0.015825843881627652 0 0.0012616948715358691 0.016725853997243852 0 0.00083369353829879295 0.016626917218392802 0 0.0012108785508862057 0.016388622751209236 0 0.00080050809342695022 0.016171812675711241 0 0.00083369353829879295 0.016626917218392802 0 0.0012108785508862057 0.016388622751209236 0 0.0012616948715358691 0.016725853997243852 0 0.0012108785508862057 0.016388622751209236 0 0.001713429999185245 0.016600508452041696 0 0.001713429999185245 0.016600508452041696 0 0.0015999256335292745 0.0158658412441194 0 0.0025288433098414483 0.016453017537898296 0 0.0012108785508862057 0.016388622751209236 0 0.001713429999185245 0.016600508452041696 0 0.0015999256335292745 0.0158658412441194 0 0.00080050809342695022 0.016171812675711241 0 0.0015999256335292745 0.0158658412441194 0 0.00089924996151392823 0.015839877946747724 0 0.00080050809342695022 0.016171812675711241 0 0.0012108785508862057 0.016388622751209236 0 0.0015999256335292745 0.0158658412441194 0 0.0015999256335292745 0.0158658412441194 0 0.00089924996151392823 0.015839877946747724 0 0.0012111752893383346 0.015942164245272707 0 -0.0030942105055361139 0.018594848441545096 0 -0.0028015256246190791 0.018774245229115472 0 -0.0076200007834983626 0.021524451525429131 0 -0.0076457110834947713 0.021212023655523358 0 -0.0069031500873690177 0.021635201192768943 0 -0.0076457110834947713 0.021212023655523358 0 -0.0069031500873690177 0.021635201192768943 0 -0.007496619361796129 0.02068855720953031 0 -0.0076457110834947713 0.021212023655523358 0 -0.0080014559338648737 0.021215419474799074 0 -0.0079096941180748521 0.020855583717481009 0 -0.0076200007834983626 0.021524451525429131 0 -0.0076457110834947713 0.021212023655523358 0 -0.0080014559338648737 0.021215419474799074 0 -0.0080014559338648737 0.021215419474799074 0 -0.0083963985641641557 0.02113536538566603 0 -0.0082403712371575677 0.021659577584663241 0 -0.012106058268702336 0.02978053773784297 0 -0.012756567802744768 0.031873842159825375 0 -0.014293472029943351 0.030223889906666915 0 -0.0083963985641641557 0.02113536538566603 0 -0.0082403712371575677 0.021659577584663241 0 -0.0083801950468444675 0.02181104082386064 0 -0.009961226745765276 0.025436329822891113 0 -0.012752442673202391 0.026556472081366057 0 -0.0082279878052168819 0.021514371108274713 0 -0.0082168381600367258 0.021765191432168304 0 -0.0082196646233992973 0.022078101209768969 0 -0.0082403712371575677 0.021659577584663241 0 -0.0083801950468444675 0.02181104082386064 0 -0.0080323736903230251 0.021777988847790863 0 -0.0080939026181367901 0.021753196547190809 0 -0.0082403712371575677 0.021659577584663241 0 -0.0082279878052168819 0.021514371108274713 0 -0.012752442673202391 0.026556472081366057 0 -0.0052356834216597762 0.019414964335442316 0 -0.0030942105055361139 0.018594848441545096 0 -0.0080323736903230251 0.021777988847790863 0 -0.0076200007834983626 0.021524451525429131 0 -0.0082403712371575677 0.021659577584663241 0 -0.0076200007834983626 0.021524451525429131 0 -0.0080014559338648737 0.021215419474799074 0 -0.0082403712371575677 0.021659577584663241 0 0.0039782931083037374 0.015026269791896762 0 0.0042525366861983892 0.015021867227697216 0 0.004129418674354156 0.014841713030025296 0 0.0042525366861983892 0.015021867227697216 0 0.004129418674354156 0.014841713030025296 0 0.004315985978095893 0.014889363531413666 0 0.0039782931083037374 0.015026269791896762 0 0.004129418674354156 0.014841713030025296 0 0.0038820922277358802 0.014842647798858948 0 0.0039782931083037374 0.015026269791896762 0 0.0038820922277358802 0.014842647798858948 0 0.0035483012341971602 0.0150455072477247 0 0.0038820922277358802 0.014842647798858948 0 0.0037023365107407289 0.014681879260242246 0 0.0035483012341971602 0.0150455072477247 0 0.0037731098539378941 0.015275900468769379 0 0.0035483012341971602 0.0150455072477247 0 0.0034847457095894723 0.015568429837852601 0 0.0039782931083037374 0.015026269791896762 0 0.0037731098539378941 0.015275900468769379 0 0.00403924485968406 0.015283357392039985 0 0.0039782931083037374 0.015026269791896762 0 0.0037731098539378941 0.015275900468769379 0 0.0035483012341971602 0.0150455072477247 0 0.0039782931083037374 0.015026269791896762 0 0.00403924485968406 0.015283357392039985 0 0.0041376348320526102 0.015128014654865149 0 0.0039782931083037374 0.015026269791896762 0 0.0042525366861983892 0.015021867227697216 0 0.0041376348320526102 0.015128014654865149 0 0.0042525366861983892 0.015021867227697216 0 0.0041376348320526102 0.015128014654865149 0 0.0042774481986011881 0.015202203067859759 0 0.00403924485968406 0.015283357392039985 0 0.0041376348320526102 0.015128014654865149 0 0.0042774481986011881 0.015202203067859759 0 0.0042774481986011881 0.015202203067859759 0 0.0044812073621103158 0.015119617522598165 0 0.0044723050594038484 0.015305610446353701 0 0.0044812073621103158 0.015119617522598165 0 0.0046605624992028631 0.015044135729762332 0 0.0044628604075354619 0.014966320602143535 0 0.0042525366861983892 0.015021867227697216 0 0.0042774481986011881 0.015202203067859759 0 0.0044812073621103158 0.015119617522598165 0 0.0042525366861983892 0.015021867227697216 0 0.0044812073621103158 0.015119617522598165 0 0.0044628604075354619 0.014966320602143535 0 0.0044812073621103158 0.015119617522598165 0 0.0047624504302030621 0.015180839619121377 0 0.0044723050594038484 0.015305610446353701 0 0.0044812073621103158 0.015119617522598165 0 0.0047624504302030621 0.015180839619121377 0 0.0046605624992028631 0.015044135729762332 0 0.0047624504302030621 0.015180839619121377 0 0.0046605624992028631 0.015044135729762332 0 0.0049554740733443103 0.015017862271524787 0 0.0046605624992028631 0.015044135729762332 0 0.0046595665606495237 0.014923692001307996 0 0.0049554740733443103 0.015017862271524787 0 0.0046595665606495237 0.014923692001307996 0 0.0049554740733443103 0.015017862271524787 0 0.0048319660778491378 0.014890848102158032 0 0.0046605624992028631 0.015044135729762332 0 0.0046595665606495237 0.014923692001307996 0 0.0044628604075354619 0.014966320602143535 0 0.0046595665606495237 0.014923692001307996 0 0.0044458551270181359 0.014830577636556689 0 0.0046061932275231207 0.014800826953156368 0 0.0046595665606495237 0.014923692001307996 0 0.0046061932275231207 0.014800826953156368 0 0.0048319660778491378 0.014890848102158032 0 0.0042525366861983892 0.015021867227697216 0 0.0044628604075354619 0.014966320602143535 0 0.004315985978095893 0.014889363531413666 0 0.0046595665606495237 0.014923692001307996 0 0.0044628604075354619 0.014966320602143535 0 0.0044458551270181359 0.014830577636556689 0 0.0044628604075354619 0.014966320602143535 0 0.004315985978095893 0.014889363531413666 0 0.0044458551270181359 0.014830577636556689 0 0.004315985978095893 0.014889363531413666 0 0.0044458551270181359 0.014830577636556689 0 0.0042654442613089425 0.014715857460953743 0 0.0044458551270181359 0.014830577636556689 0 0.0044304955372574811 0.01470090916131743 0 0.0046061932275231207 0.014800826953156368 0 0.0044458551270181359 0.014830577636556689 0 0.0044304955372574811 0.01470090916131743 0 0.0042654442613089425 0.014715857460953743 0 0.0044304955372574811 0.01470090916131743 0 0.0042654442613089425 0.014715857460953743 0 0.0043100003896809503 0.01459187357042797 0 0.0046061932275231207 0.014800826953156368 0 0.0048319660778491378 0.014890848102158032 0 0.004778940598705159 0.014753646657481143 0 0.0044304955372574811 0.01470090916131743 0 0.0046061932275231207 0.014800826953156368 0 0.0045548711730893105 0.014682327809325577 0 0.0046061932275231207 0.014800826953156368 0 0.0045548711730893105 0.014682327809325577 0 0.004778940598705159 0.014753646657481143 0 0.0045548711730893105 0.014682327809325577 0 0.0045934785101144652 0.014606884212027927 0 0.004778940598705159 0.014753646657481143 0 0.0044304955372574811 0.01470090916131743 0 0.0045548711730893105 0.014682327809325577 0 0.0044461093386618288 0.014595696068987937 0 0.0045548711730893105 0.014682327809325577 0 0.0045934785101144652 0.014606884212027927 0 0.0044461093386618288 0.014595696068987937 0 0.0045934785101144652 0.014606884212027927 0 0.0044461093386618288 0.014595696068987937 0 0.0044236579060906141 0.014501186095136662 0 0.0044304955372574811 0.01470090916131743 0 0.0043100003896809503 0.01459187357042797 0 0.0044461093386618288 0.014595696068987937 0 0.0044461093386618288 0.014595696068987937 0 0.0043434992496939398 0.014528304218347252 0 0.0044236579060906141 0.014501186095136662 0 0.0043100003896809503 0.01459187357042797 0 0.0044461093386618288 0.014595696068987937 0 0.0043434992496939398 0.014528304218347252 0 0.0043434992496939398 0.014528304218347252 0 0.0042386961121836436 0.014521245562661524 0 0.0042588971256676753 0.014483533022692752 0 0.0043100003896809503 0.01459187357042797 0 0.0043434992496939398 0.014528304218347252 0 0.0042386961121836436 0.014521245562661524 0 0.0042386961121836436 0.014521245562661524 0 0.0041233878462031024 0.014474236619922609 0 0.0042588971256676753 0.014483533022692752 0 0.0042386961121836436 0.014521245562661524 0 0.0041233878462031024 0.014474236619922609 0 0.0041494065332895527 0.014553508805428786 0 0.0041233878462031024 0.014474236619922609 0 0.0041494065332895527 0.014553508805428786 0 0.0039806246834760617 0.014499754559998459 0 0.0041494065332895527 0.014553508805428786 0 0.0040179701988839831 0.014649666544447972 0 0.0039806246834760617 0.014499754559998459 0 0.0043100003896809503 0.01459187357042797 0 0.0042386961121836436 0.014521245562661524 0 0.0041494065332895527 0.014553508805428786 0 0.0042654442613089425 0.014715857460953743 0 0.0043100003896809503 0.01459187357042797 0 0.0041494065332895527 0.014553508805428786 0 0.0042654442613089425 0.014715857460953743 0 0.0041494065332895527 0.014553508805428786 0 0.0040179701988839831 0.014649666544447972 0 0.004129418674354156 0.014841713030025296 0 0.0038820922277358802 0.014842647798858948 0 0.0040179701988839831 0.014649666544447972 0 0.004129418674354156 0.014841713030025296 0 0.0042654442613089425 0.014715857460953743 0 0.0040179701988839831 0.014649666544447972 0 0.004129418674354156 0.014841713030025296 0 0.004315985978095893 0.014889363531413666 0 0.0042654442613089425 0.014715857460953743 0 0.0040179701988839831 0.014649666544447972 0 0.0037023365107407289 0.014681879260242246 0 0.0039806246834760617 0.014499754559998459 0 0.0038820922277358802 0.014842647798858948 0 0.0040179701988839831 0.014649666544447972 0 0.0037023365107407289 0.014681879260242246 0 0.0041233878462031024 0.014474236619922609 0 0.0038329426450829521 0.014366348399977155 0 0.0039806246834760617 0.014499754559998459 0 0.0037023365107407289 0.014681879260242246 0 0.0038329426450829521 0.014366348399977155 0 0.0039806246834760617 0.014499754559998459 0 0.0037023365107407289 0.014681879260242246 0 0.0038329426450829521 0.014366348399977155 0 0.0027968864347365919 0.014820824813962338 0 0.0010984455306489698 0.016014141132291836 0 0.0011899990277880422 0.015909857027758954 0 0.0011175939277279761 0.016035043177140912 0 0.0025883237736479318 0.015054480059005828 0 0.0019594453266609637 0.015441189496669418 0 -0.0028015256246190791 0.018774245229115472 0 -0.0015296572599204042 0.01869194739460342 0 0.0012111752893383346 0.015942164245272707 0 0.0011899990277880422 0.015909857027758954 0 0.0011175939277279761 0.016035043177140912 0 -0.0069031500873690177 0.021635201192768943 0 -0.00607576344795345 0.020647713823895807 0 -0.0037936367232230465 0.021137926743473718 0 0.0015999256335292745 0.0158658412441194 0 0.0012111752893383346 0.015942164245272707 0 0.0011899990277880422 0.015909857027758954 0 0.0016148361962651 0.015820698038646157 0 0.0019594453266609637 0.015441189496669418 0 0.0015999256335292745 0.0158658412441194 0 0.0027968864347365919 0.014820824813962338 0 0.0029449939259957526 0.015442150676335214 0 0.0037023365107407289 0.014681879260242246 0 0.0027968864347365919 0.014820824813962338 0 0.0035483012341971602 0.0150455072477247 0 0.0027968864347365919 0.014820824813962338 0 0.0035483012341971602 0.0150455072477247 0 0.0029449939259957526 0.015442150676335214 0 0.0035483012341971602 0.0150455072477247 0 0.0034847457095894723 0.015568429837852601 0 0.0029449939259957526 0.015442150676335214 0 0.0034847457095894723 0.015568429837852601 0 0.0030728117397943833 0.015964792560822904 0 0.0035274614737159354 0.016239453369691178 0 0.0034847457095894723 0.015568429837852601 0 0.0029449939259957526 0.015442150676335214 0 0.0030728117397943833 0.015964792560822904 0 0.0015999256335292745 0.0158658412441194 0 0.0029449939259957526 0.015442150676335214 0 0.0030728117397943833 0.015964792560822904 0 0.0015999256335292745 0.0158658412441194 0 0.0030728117397943833 0.015964792560822904 0 0.0025288433098414483 0.016453017537898296 0 0.0030728117397943833 0.015964792560822904 0 0.0025288433098414483 0.016453017537898296 0 0.0035274614737159354 0.016239453369691178 0 0.0025288433098414483 0.016453017537898296 0 0.0035274614737159354 0.016239453369691178 0 0.002996372490205736 0.016998305705844752 0 0.0035274614737159354 0.016239453369691178 0 0.0041112830678682773 0.015917796326181077 0 0.004212292661599411 0.016273841729445491 0 0.0035274614737159354 0.016239453369691178 0 0.004212292661599411 0.016273841729445491 0 0.0038666776056446792 0.01667115755994001 0 0.0035274614737159354 0.016239453369691178 0 0.0041112830678682773 0.015917796326181077 0 0.0038631240691845447 0.015632715875281127 0 0.0034847457095894723 0.015568429837852601 0 0.0035274614737159354 0.016239453369691178 0 0.0038631240691845447 0.015632715875281127 0 0.0041112830678682773 0.015917796326181077 0 0.0038631240691845447 0.015632715875281127 0 0.0042363908117733192 0.015512371288827117 0 0.00403924485968406 0.015283357392039985 0 0.0038631240691845447 0.015632715875281127 0 0.0042363908117733192 0.015512371288827117 0 0.00403924485968406 0.015283357392039985 0 0.0042774481986011881 0.015202203067859759 0 0.0042363908117733192 0.015512371288827117 0 0.0037731098539378941 0.015275900468769379 0 0.0034847457095894723 0.015568429837852601 0 0.0038631240691845447 0.015632715875281127 0 0.0037731098539378941 0.015275900468769379 0 0.00403924485968406 0.015283357392039985 0 0.0038631240691845447 0.015632715875281127 0 0.0047624504302030621 0.015180839619121377 0 0.004630306447289948 0.015496326697275844 0 0.0044723050594038484 0.015305610446353701 0 0.0047624504302030621 0.015180839619121377 0 0.004630306447289948 0.015496326697275844 0 0.0049665540924514699 0.015311293480867112 0 0.004630306447289948 0.015496326697275844 0 0.0042363908117733192 0.015512371288827117 0 0.0044723050594038484 0.015305610446353701 0 0.0042774481986011881 0.015202203067859759 0 0.0042363908117733192 0.015512371288827117 0 0.0044723050594038484 0.015305610446353701 0 0.0041112830678682773 0.015917796326181077 0 0.0042363908117733192 0.015512371288827117 0 0.0043953987781660099 0.015771012911366029 0 0.004630306447289948 0.015496326697275844 0 0.0042363908117733192 0.015512371288827117 0 0.0043953987781660099 0.015771012911366029 0 0.004630306447289948 0.015496326697275844 0 0.0043953987781660099 0.015771012911366029 0 0.0046483339403020751 0.015855307353902576 0 0.004630306447289948 0.015496326697275844 0 0.0048641284306753622 0.015623869446947092 0 0.0049665540924514699 0.015311293480867112 0 0.004630306447289948 0.015496326697275844 0 0.0046483339403020751 0.015855307353902576 0 0.0048641284306753622 0.015623869446947092 0 0.0046483339403020751 0.015855307353902576 0 0.0048641284306753622 0.015623869446947092 0 0.0049545268595161274 0.015947131138903673 0 0.004212292661599411 0.016273841729445491 0 0.0048101071003404964 0.016334893731963982 0 0.0038666776056446792 0.01667115755994001 0 0.0046483339403020751 0.015855307353902576 0 0.0047143819238551956 0.016087817378264889 0 0.0049545268595161274 0.015947131138903673 0 0.0053108157977620708 0.010891399332137942 0 0.0055317022187813701 0.0084528340733964376 0 0.0047143819238551956 0.016087817378264889 0 0.0044388967485917584 0.016079465435265752 0 0.0048101071003404964 0.016334893731963982 0 0.0046483339403020751 0.015855307353902576 0 0.0047143819238551956 0.016087817378264889 0 0.0044388967485917584 0.016079465435265752 0 0.0047143819238551956 0.016087817378264889 0 0.0048101071003404964 0.016334893731963982 0 0.0049545268595161274 0.015947131138903673 0 0.0041112830678682773 0.015917796326181077 0 0.0043953987781660099 0.015771012911366029 0 0.0044388967485917584 0.016079465435265752 0 0.0044388967485917584 0.016079465435265752 0 0.004212292661599411 0.016273841729445491 0 0.0048101071003404964 0.016334893731963982 0 0.0041112830678682773 0.015917796326181077 0 0.0044388967485917584 0.016079465435265752 0 0.004212292661599411 0.016273841729445491 0 0.0043953987781660099 0.015771012911366029 0 0.0046483339403020751 0.015855307353902576 0 0.0044388967485917584 0.016079465435265752 0 0.0067499453682697977 0.001025352799021963 0 0.0068553249443736785 0.00078897925146110149 0 0.0067763997126584702 0.00087477317429126005 0 0.0053108157977620708 0.010891399332137942 0 0.0071706255393189002 0.0082506470444519784 0 0.0068553249443736785 0.00078897925146110149 0 0.006851205067968962 0.00078459406564453072 0 0.0067763997126584702 0.00087477317429126005 0 0.0068553249443736785 0.00078897925146110149 0 0.0068602710557810042 0.00071930048925378503 0 0.006851205067968962 0.00078459406564453072 0 0.0068602710557810042 0.00071930048925378503 0 0.006851205067968962 0.00078459406564453072 0 0.0068997935975687354 0.00076523566837903708 0 0.006851205067968962 0.00078459406564453072 0 0.0067763997126584702 0.00087477317429126005 0 0.0068054004604813784 0.00079817477710143628 0 0.0069715666794638916 0.00044996358025497791 0 0.0086472198342457639 0.0055799011299772971 0 0.006851205067968962 0.00078459406564453072 0 0.0068997935975687354 0.00076523566837903708 0 0.0068054004604813784 0.00079817477710143628 0 0.0022328705090764868 0.017210588547593525 0 0.0022574755290311957 0.016860826420127151 0 0.002996372490205736 0.016998305705844752 0 0.0025288433098414483 0.016453017537898296 0 0.0022574755290311957 0.016860826420127151 0 0.002996372490205736 0.016998305705844752 0 0.0055317022187813701 0.0084528340733964376 0 0.0047019730333971868 0.0088173438202254154 0 0.0035274614737159354 0.016239453369691178 0 0.0038666776056446792 0.01667115755994001 0 0.002996372490205736 0.016998305705844752 0 0.0068553249443736785 0.00078897925146110149 0 0.0068602710557810042 0.00071930048925378503 0 0.0065451172119253935 0.00054802094184676136 0 0.0068602710557810042 0.00071930048925378503 0 0.0065451172119253935 0.00054802094184676136 0 0.0066779976993108451 0.00068926331583440395 0 0.0040116141738941345 0.0087865135106812153 0 0.0047019730333971868 0.0088173438202254154 0 0.0058138793070660619 0.00040396427203573225 0 0.0065451172119253935 0.00054802094184676136 0 0.0066779976993108451 0.00068926331583440395 0 0.0066779976993108451 0.00068926331583440395 0 0.0061300428368227158 0.00081544498979766659 0 0.0064063990727900606 0.0010305625048145888 0 0.0058138793070660619 0.00040396427203573225 0 0.0066779976993108451 0.00068926331583440395 0 0.0061300428368227158 0.00081544498979766659 0 0.0068602710557810042 0.00071930048925378503 0 0.0066779976993108451 0.00068926331583440395 0 0.00699572507525129 0.00076830784908730359 0 0.0066779976993108451 0.00068926331583440395 0 0.00699572507525129 0.00076830784908730359 0 0.0074397358396051253 0.00067248218068180509 0 0.0066779976993108451 0.00068926331583440395 0 0.0074397358396051253 0.00067248218068180509 0 0.0064063990727900606 0.0010305625048145888 0 0.0068997935975687354 0.00076523566837903708 0 0.006925145185376993 0.0006890724757813685 0 0.0069073699193176264 0.00075258347074063899 0 0.0068997935975687354 0.00076523566837903708 0 0.0069073699193176264 0.00075258347074063899 0 0.006904762720672984 0.00080830002607018081 0 0.0068602710557810042 0.00071930048925378503 0 0.00699572507525129 0.00076830784908730359 0 0.0068997935975687354 0.00076523566837903708 0 0.00699572507525129 0.00076830784908730359 0 0.0068997935975687354 0.00076523566837903708 0 0.006925145185376993 0.0006890724757813685 0 0.0085828942410264286 0.0014493177965529448 0 0.0074397358396051253 0.00067248218068180509 0 0.010317498969866811 -0.00029387621270563207 0 0.0076244880628130287 0.00060388136217560701 0 0.0083954055141512562 9.9483836239211472e-05 0 0.00699572507525129 0.00076830784908730359 0 0.0074397358396051253 0.00067248218068180509 0 0.006925145185376993 0.0006890724757813685 0 0.010231334027951761 0.0011110379752044949 0 0.010317498969866811 -0.00029387621270563207 0 0.011349635677648099 0.00046513823541171099 0 0.0083954055141512562 9.9483836239211472e-05 0 0.010867648734656246 0.0020003590536695716 0 0.010317498969866811 -0.00029387621270563207 0 0.011349635677648099 0.00046513823541171099 0 0.012391077804657568 -0.00058487150600621148 0 0.011349635677648099 0.00046513823541171099 0 0.012452303151477195 0.0002663009497083035 0 0.012391077804657568 -0.00058487150600621148 0 0.01349095999817042 0.002749499360769298 0 0.013976121085896361 0.0028447043396953023 0 0.013772745223309873 0.0035727795591794236 0 0.013195620332785757 0.0039291497997704589 0 0.010867648734656246 0.0020003590536695716 0 0.012957533135411096 0.0017350541434127326 0 0.013195620332785757 0.0039291497997704589 0 0.012957533135411096 0.0017350541434127326 0 0.010867648734656246 0.0020003590536695716 0 0.012759236976008372 0.0022624753618158918 0 0.012242473273580823 0.0030592175262036114 0 0.012821989740883459 0.0029522442205057687 0 0.011124580369537411 0.0044536091039392928 0 0.011976066580261038 0.0042976125949771311 0 0.011014607497723393 0.0059544394851477915 0 0.010867648734656246 0.0020003590536695716 0 0.0086472198342457639 0.0055799011299772971 0 0.011976066580261038 0.0042976125949771311 0 0.011014607497723393 0.0059544394851477915 0 0.012190744210757999 0.006752043123482483 0 0.011124580369537411 0.0044536091039392928 0 0.011014607497723393 0.0059544394851477915 0 0.0097205482206182692 0.0066536207830028161 0 0.013195620332785757 0.0039291497997704589 0 0.012360419384881196 0.0063048403678533909 0 0.015953455234279313 0.0045282206759027369 0 0.014543683047181594 0.0047842073335595979 0 0.014779492700464565 0.0064194684586555964 0 0.013772745223309873 0.0035727795591794236 0 0.013345550422447897 0.0040271439714314357 0 0.013313871012902019 0.0033436219546751156 0 0.013195620332785757 0.0039291497997704589 0 0.014143584790151598 0.0044055727298554269 0 0.013345550422447897 0.0040271439714314357 0 0.013313871012902019 0.0033436219546751156 0 0.013047138724055463 0.0035983302634614357 0 0.01349095999817042 0.002749499360769298 0 0.013772745223309873 0.0035727795591794236 0 0.013313871012902019 0.0033436219546751156 0 0.013169919875961915 0.0025625821226038588 0 0.013313871012902019 0.0033436219546751156 0 0.013047138724055463 0.0035983302634614357 0 0.012331871859963421 0.003412256131021597 0 0.013047138724055463 0.0035983302634614357 0 0.013099737658332753 0.0050103066216667155 0 0.013345550422447897 0.0040271439714314357 0 0.013047138724055463 0.0035983302634614357 0 0.013099737658332753 0.0050103066216667155 0 0.012331871859963421 0.003412256131021597 0 0.012158682277954136 0.0055378912244632046 0 0.013099737658332753 0.0050103066216667155 0 0.012158682277954136 0.0055378912244632046 0 0.013099737658332753 0.0050103066216667155 0 0.013436745856685322 0.0065503156867355609 0 0.014143584790151598 0.0044055727298554269 0 0.01303089482595465 0.004859334164110953 0 0.013099737658332753 0.0050103066216667155 0 0.013436745856685322 0.0065503156867355609 0 0.014779492700464565 0.0064194684586555964 0 0.014543683047181594 0.0047842073335595979 0 0.013099737658332753 0.0050103066216667155 0 0.014779492700464565 0.0064194684586555964 0 0.013436745856685322 0.0065503156867355609 0 0.012614058167778771 0.0070316311264755618 0 0.013723525902756944 0.0080149657180027378 0 0.013436745856685322 0.0065503156867355609 0 0.013723525902756944 0.0080149657180027378 0 0.014779492700464565 0.0064194684586555964 0 0.010999314879695212 0.01016393240179813 0 0.012360419384881196 0.0063048403678533909 0 0.012158682277954136 0.0055378912244632046 0 0.013436745856685322 0.0065503156867355609 0 0.012614058167778771 0.0070316311264755618 0 0.010999314879695212 0.01016393240179813 0 0.013977833041349093 0.0079416262556805898 0 0.013723525902756944 0.0080149657180027378 0 0.0123947062336822 0.0078683517197094908 0 0.012824275162188363 0.0086164932408249705 0 0.012614058167778771 0.0070316311264755618 0 0.013723525902756944 0.0080149657180027378 0 0.0123947062336822 0.0078683517197094908 0 0.007938274521141259 0.015359980340006437 0 0.0082052291316623612 0.015911328513992816 0 0.0085214566836638115 0.015231552744319312 0 0.010999314879695212 0.01016393240179813 0 0.0086644386931159396 0.012623358682157776 0 0.0090828191551797343 0.015788533902478023 0 0.0082052291316623612 0.015911328513992816 0 0.0085214566836638115 0.015231552744319312 0 0.0075748255507037763 0.015612152264122381 0 0.007938274521141259 0.015359980340006437 0 0.0082052291316623612 0.015911328513992816 0 0.0074900093659961454 0.015103604504940081 0 0.0075748255507037763 0.015612152264122381 0 0.007938274521141259 0.015359980340006437 0 0.0071706255393189002 0.0082506470444519784 0 0.0086472198342457639 0.0055799011299772971 0 0.011014607497723393 0.0059544394851477915 0 0.012190744210757999 0.006752043123482483 0 0.010253985149990598 0.0077971604790611831 0 0.0086472198342457639 0.0055799011299772971 0 0.0086644386931159396 0.012623358682157776 0 0.0075748255507037763 0.015612152264122381 0 0.0076524861494075601 0.016030695999950099 0 0.0082052291316623612 0.015911328513992816 0 0.0083633142522986995 0.0088358101423981188 0 0.010253985149990598 0.0077971604790611831 0 0.0097205482206182692 0.0066536207830028161 0 0.011014607497723393 0.0059544394851477915 0 0.010253985149990598 0.0077971604790611831 0 0.0097205482206182692 0.0066536207830028161 0 0.01116848296835915 0.0067959305468130926 0 0.011114066971329046 0.0072715531067838006 0 0.011243679805026921 0.0070121886973668352 0 0.01116848296835915 0.0067959305468130926 0 0.011105287545410751 0.0071004648150579707 0 0.011114066971329046 0.0072715531067838006 0 0.010985627945966907 0.0069039224079991326 0 0.011246977054246826 0.0070158479556055916 0 0.01116848296835915 0.0067959305468130926 0 0.011246977054246826 0.0070158479556055916 0 0.01116848296835915 0.0067959305468130926 0 0.011394806301554343 0.0069404498924369841 0 0.010985627945966907 0.0069039224079991326 0 0.01116848296835915 0.0067959305468130926 0 0.011030382750105967 0.0064562345621814949 0 0.01116848296835915 0.0067959305468130926 0 0.011030382750105967 0.0064562345621814949 0 0.011105287545410751 0.0071004648150579707 0 0.011030382750105967 0.0064562345621814949 0 0.011047017400195239 0.0058480465898702056 0 0.011543529080230435 0.0068393789012319607 0 0.011232900786851937 0.0038533880827216235 0 0.0092066993972462954 0.0034683110917439817 0 0.011047017400195239 0.0058480465898702056 0 0.01026070089857874 0.0052046846049424323 0 0.010970947724431832 0.005864702866179369 0 0.010985627945966907 0.0069039224079991326 0 0.011030382750105967 0.0064562345621814949 0 0.011047017400195239 0.0058480465898702056 0 0.011232900786851937 0.0038533880827216235 0 0.012158682277954136 0.0055378912244632046 0 0.011047017400195239 0.0058480465898702056 0 0.011232900786851937 0.0038533880827216235 0 0.012331871859963421 0.003412256131021597 0 0.012158682277954136 0.0055378912244632046 0 0.012158682277954136 0.0055378912244632046 0 0.011047017400195239 0.0058480465898702056 0 0.011543529080230435 0.0068393789012319607 0 0.012158682277954136 0.0055378912244632046 0 0.012614058167778771 0.0070316311264755618 0 0.011543529080230435 0.0068393789012319607 0 0.012614058167778771 0.0070316311264755618 0 0.011543529080230435 0.0068393789012319607 0 0.0123947062336822 0.0078683517197094908 0 0.011543529080230435 0.0068393789012319607 0 0.0123947062336822 0.0078683517197094908 0 0.011750092993758456 0.0079777165213507362 0 0.0123947062336822 0.0078683517197094908 0 0.012091747791794887 0.0088478028948954669 0 0.012824275162188363 0.0086164932408249705 0 0.0123947062336822 0.0078683517197094908 0 0.011750092993758456 0.0079777165213507362 0 0.012091747791794887 0.0088478028948954669 0 0.011750092993758456 0.0079777165213507362 0 0.011555852855162531 0.0085408563607174554 0 0.012091747791794887 0.0088478028948954669 0 0.011750092993758456 0.0079777165213507362 0 0.011304171085781687 0.0075227674787402606 0 0.011555852855162531 0.0085408563607174554 0 0.011304171085781687 0.0075227674787402606 0 0.011294931080051956 0.008496360392335282 0 0.011555852855162531 0.0085408563607174554 0 0.011543529080230435 0.0068393789012319607 0 0.011750092993758456 0.0079777165213507362 0 0.011304171085781687 0.0075227674787402606 0 0.011030382750105967 0.0064562345621814949 0 0.011543529080230435 0.0068393789012319607 0 0.011304171085781687 0.0075227674787402606 0 0.011304171085781687 0.0075227674787402606 0 0.011105287545410751 0.0071004648150579707 0 0.01110691822543825 0.0077031136753338723 0 0.011030382750105967 0.0064562345621814949 0 0.011304171085781687 0.0075227674787402606 0 0.011105287545410751 0.0071004648150579707 0 0.011304171085781687 0.0075227674787402606 0 0.011141467716402573 0.0082933461132229241 0 0.01110691822543825 0.0077031136753338723 0 0.011304171085781687 0.0075227674787402606 0 0.011294931080051956 0.008496360392335282 0 0.011141467716402573 0.0082933461132229241 0 0.011141467716402573 0.0082933461132229241 0 0.011047260576660389 0.0082674087609137942 0 0.01110691822543825 0.0077031136753338723 0 0.011141467716402573 0.0082933461132229241 0 0.011047260576660389 0.0082674087609137942 0 0.011068658306907592 0.0088233120226744698 0 0.011047260576660389 0.0082674087609137942 0 0.01099646304225871 0.0086878181341167298 0 0.010951683334210944 0.0083845169165257128 0 0.011047260576660389 0.0082674087609137942 0 0.011034342969003397 0.0078507848469788165 0 0.010951683334210944 0.0083845169165257128 0 0.011047260576660389 0.0082674087609137942 0 0.011034342969003397 0.0078507848469788165 0 0.01110691822543825 0.0077031136753338723 0 0.011034342969003397 0.0078507848469788165 0 0.01110691822543825 0.0077031136753338723 0 0.011114066971329046 0.0072715531067838006 0 0.011105287545410751 0.0071004648150579707 0 0.01110691822543825 0.0077031136753338723 0 0.011114066971329046 0.0072715531067838006 0 0.011035334175975037 0.010122921317588445 0 0.010951610634637734 0.0095765229756174745 0 0.010970142804626866 0.010261959628848873 0 0.011035334175975037 0.010122921317588445 0 0.011058009692291888 0.009491239761655227 0 0.011150466586301977 0.0099235140473323425 0 0.011035334175975037 0.010122921317588445 0 0.011058009692291888 0.009491239761655227 0 0.010951610634637734 0.0095765229756174745 0 0.011058009692291888 0.009491239761655227 0 0.010999148331295812 0.0091177852763616903 0 0.010951610634637734 0.0095765229756174745 0 0.010999148331295812 0.0091177852763616903 0 0.01099646304225871 0.0086878181341167298 0 0.011068658306907592 0.0088233120226744698 0 0.011047260576660389 0.0082674087609137942 0 0.01099646304225871 0.0086878181341167298 0 0.011068658306907592 0.0088233120226744698 0 0.010999148331295812 0.0091177852763616903 0 0.01099646304225871 0.0086878181341167298 0 0.010918102918550582 0.0089658441748490334 0 0.011058009692291888 0.009491239761655227 0 0.011068658306907592 0.0088233120226744698 0 0.011194360812185149 0.0091285999977365681 0 0.011058009692291888 0.009491239761655227 0 0.010999148331295812 0.0091177852763616903 0 0.011068658306907592 0.0088233120226744698 0 0.011294931080051956 0.008496360392335282 0 0.011194360812185149 0.0091285999977365681 0 0.011555263899986401 0.0092612357749102502 0 0.011194360812185149 0.0091285999977365681 0 0.011303491997570591 0.0096557143050976981 0 0.011555263899986401 0.0092612357749102502 0 0.011141467716402573 0.0082933461132229241 0 0.011068658306907592 0.0088233120226744698 0 0.011194360812185149 0.0091285999977365681 0 0.011294931080051956 0.008496360392335282 0 0.011141467716402573 0.0082933461132229241 0 0.011194360812185149 0.0091285999977365681 0 0.011194360812185149 0.0091285999977365681 0 0.011303491997570591 0.0096557143050976981 0 0.011150466586301977 0.0099235140473323425 0 0.011150466586301977 0.0099235140473323425 0 0.011330574610694706 0.010344001391652431 0 0.011080194021278029 0.010633944813158542 0 0.011058009692291888 0.009491239761655227 0 0.011194360812185149 0.0091285999977365681 0 0.011150466586301977 0.0099235140473323425 0 0.011035334175975037 0.010122921317588445 0 0.011150466586301977 0.0099235140473323425 0 0.011080194021278029 0.010633944813158542 0 0.011303491997570591 0.0096557143050976981 0 0.011150466586301977 0.0099235140473323425 0 0.011330574610694706 0.010344001391652431 0 0.011330574610694706 0.010344001391652431 0 0.011555263899986401 0.0092612357749102502 0 0.011865472633504646 0.0099109937746458959 0 0.011330574610694706 0.010344001391652431 0 0.011865472633504646 0.0099109937746458959 0 0.011677299283416796 0.011450918753511244 0 0.011303491997570591 0.0096557143050976981 0 0.011330574610694706 0.010344001391652431 0 0.011555263899986401 0.0092612357749102502 0 0.011294931080051956 0.008496360392335282 0 0.011555852855162531 0.0085408563607174554 0 0.011555263899986401 0.0092612357749102502 0 0.011555852855162531 0.0085408563607174554 0 0.011555263899986401 0.0092612357749102502 0 0.012091747791794887 0.0088478028948954669 0 0.011555263899986401 0.0092612357749102502 0 0.012091747791794887 0.0088478028948954669 0 0.011865472633504646 0.0099109937746458959 0 0.012091747791794887 0.0088478028948954669 0 0.011865472633504646 0.0099109937746458959 0 0.012990962698406846 0.0095895271726390372 0 0.01173033866407517 0.01139734973626931 0 0.011671330818946458 0.012353034809417024 0 0.011865472633504646 0.0099109937746458959 0 0.011677299283416796 0.011450918753511244 0 0.012990962698406846 0.0095895271726390372 0 0.011677299283416796 0.011450918753511244 0 0.011012380799933762 0.011352183875363528 0 0.010641836912963394 0.012249914038416503 0 0.011677299283416796 0.011450918753511244 0 0.011077935788013665 0.011357223160940537 0 0.010641836912963394 0.012249914038416503 0 0.011077935788013665 0.011357223160940537 0 0.010980341004916995 0.011504125278859093 0 0.010641836912963394 0.012249914038416503 0 0.011330574610694706 0.010344001391652431 0 0.011677299283416796 0.011450918753511244 0 0.011077935788013665 0.011357223160940537 0 0.011077935788013665 0.011357223160940537 0 0.011080194021278029 0.010633944813158542 0 0.011049799522920085 0.011123120205867389 0 0.011330574610694706 0.010344001391652431 0 0.011077935788013665 0.011357223160940537 0 0.011080194021278029 0.010633944813158542 0 0.011077935788013665 0.011357223160940537 0 0.011049799522920085 0.011123120205867389 0 0.010980341004916995 0.011504125278859093 0 0.011049799522920085 0.011123120205867389 0 0.011123072311811123 0.011194488499416509 0 0.010980341004916995 0.011504125278859093 0 0.011123072311811123 0.011194488499416509 0 0.011049568793811337 0.010740309214865625 0 0.011094575566937609 0.010836778346274049 0 0.011049799522920085 0.011123120205867389 0 0.011123072311811123 0.011194488499416509 0 0.011049568793811337 0.010740309214865625 0 0.011080194021278029 0.010633944813158542 0 0.011049799522920085 0.011123120205867389 0 0.011049568793811337 0.010740309214865625 0 0.011035334175975037 0.010122921317588445 0 0.011080194021278029 0.010633944813158542 0 0.011049568793811337 0.010740309214865625 0 0.011035334175975037 0.010122921317588445 0 0.011049568793811337 0.010740309214865625 0 0.010970142804626866 0.010261959628848873 0 0.0071628942291401074 0.014433620135923229 0 0.0053740214064997077 0.014948933780714574 0 0.0085952297339613477 0.012244629458531008 0 0.0071628942291401074 0.014433620135923229 0 0.0060848835951683878 0.016038662195504726 0 0.0086008554261840231 0.014508723972579823 0 0.0069473271222990863 0.015573332032184176 0 0.0084932738309731783 0.014629500109453809 0 0.0071628942291401074 0.014433620135923229 0 0.0086008554261840231 0.014508723972579823 0 0.0085952297339613477 0.012244629458531008 0 0.0071628942291401074 0.014433620135923229 0 0.0053740214064997077 0.014948933780714574 0 0.0060848835951683878 0.016038662195504726 0 0.0053740214064997077 0.014948933780714574 0 0.0049665540924514699 0.015311293480867112 0 0.0051008152336385563 0.015092085024672155 0 0.0053740214064997077 0.014948933780714574 0 0.0049665540924514699 0.015311293480867112 0 0.005159708415268964 0.015545638853002416 0 0.0047624504302030621 0.015180839619121377 0 0.0049665540924514699 0.015311293480867112 0 0.0051008152336385563 0.015092085024672155 0 0.005159708415268964 0.015545638853002416 0 0.0049545268595161274 0.015947131138903673 0 0.0060848835951683878 0.016038662195504726 0 0.0048641284306753622 0.015623869446947092 0 0.0049665540924514699 0.015311293480867112 0 0.005159708415268964 0.015545638853002416 0 0.0048641284306753622 0.015623869446947092 0 0.005159708415268964 0.015545638853002416 0 0.0049545268595161274 0.015947131138903673 0 0.0053740214064997077 0.014948933780714574 0 0.005159708415268964 0.015545638853002416 0 0.0060848835951683878 0.016038662195504726 0 0.0048101071003404964 0.016334893731963982 0 0.0049545268595161274 0.015947131138903673 0 0.0060848835951683878 0.016038662195504726 0 0.0074900093659961454 0.015103604504940081 0 0.007938274521141259 0.015359980340006437 0 0.0080209366134558167 0.014866271858081717 0 0.0053108157977620708 0.010891399332137942 0 0.0069473271222990863 0.015573332032184176 0 0.0085214566836638115 0.015231552744319312 0 0.0080209366134558167 0.014866271858081717 0 0.0086008554261840231 0.014508723972579823 0 0.007938274521141259 0.015359980340006437 0 0.0085214566836638115 0.015231552744319312 0 0.0080209366134558167 0.014866271858081717 0 0.0090828191551797343 0.015788533902478023 0 0.0085214566836638115 0.015231552744319312 0 0.010444601910699822 0.014481999876112364 0 0.0085214566836638115 0.015231552744319312 0 0.010444601910699822 0.014481999876112364 0 0.0086008554261840231 0.014508723972579823 0 0.013774310880232125 0.0080937465417934475 0 0.012824275162188363 0.0086164932408249705 0 0.012990962698406846 0.0095895271726390372 0 0.010999314879695212 0.01016393240179813 0 0.011671330818946458 0.012353034809417024 0 0.012091747791794887 0.0088478028948954669 0 0.012824275162188363 0.0086164932408249705 0 0.012990962698406846 0.0095895271726390372 0 0.010444601910699822 0.014481999876112364 0 0.0086008554261840231 0.014508723972579823 0 0.010349070334459266 0.012534888354266253 0 0.0086008554261840231 0.014508723972579823 0 0.0085952297339613477 0.012244629458531008 0 0.010349070334459266 0.012534888354266253 0 0.011677299283416796 0.011450918753511244 0 0.010349070334459266 0.012534888354266253 0 0.011012380799933762 0.011352183875363528 0 0.0085952297339613477 0.012244629458531008 0 0.010349070334459266 0.012534888354266253 0 0.011012380799933762 0.011352183875363528 0 0.011677299283416796 0.011450918753511244 0 0.010444601910699822 0.014481999876112364 0 0.010349070334459266 0.012534888354266253 0 0.0073395697703120067 0.013880361944627495 0 0.0095242301083265264 0.013013447237262339 0 0.0060107406449036987 0.015461741074147925 0 0.0065830541697295027 0.014477396346446894 0 0.0055653853745707979 0.014886659983638844 0 0.0060107406449036987 0.015461741074147925 0 0.0081770188621582644 0.014735466435774884 0 0.0065830541697295027 0.014477396346446894 0 0.0065830541697295027 0.014477396346446894 0 0.0055653853745707979 0.014886659983638844 0 0.0053682964843714031 0.014506396730365892 0 0.0055653853745707979 0.014886659983638844 0 0.00493033347252631 0.014680846030080763 0 0.0053682964843714031 0.014506396730365892 0 0.005530908687127173 0.014859191596912706 0 0.0073395697703120067 0.013880361944627495 0 0.0060107406449036987 0.015461741074147925 0 0.0055653853745707979 0.014886659983638844 0 0.0051832601535611207 0.014955736753392448 0 0.0053740214064997077 0.014948933780714574 0 0.0060107406449036987 0.015461741074147925 0 0.0052772120183345447 0.015069560961770756 0 0.0060107406449036987 0.015461741074147925 0 0.0052772120183345447 0.015069560961770756 0 0.0051832601535611207 0.014955736753392448 0 0.0049554740733443103 0.015017862271524787 0 0.0051008152336385563 0.015092085024672155 0 0.0052772120183345447 0.015069560961770756 0 0.0047624504302030621 0.015180839619121377 0 0.0049554740733443103 0.015017862271524787 0 0.0051008152336385563 0.015092085024672155 0 0.0053740214064997077 0.014948933780714574 0 0.0051008152336385563 0.015092085024672155 0 0.0052772120183345447 0.015069560961770756 0 0.0049554740733443103 0.015017862271524787 0 0.0052772120183345447 0.015069560961770756 0 0.0051832601535611207 0.014955736753392448 0 0.0049554740733443103 0.015017862271524787 0 0.0051832601535611207 0.014955736753392448 0 0.0048319660778491378 0.014890848102158032 0 0.0051832601535611207 0.014955736753392448 0 0.0048319660778491378 0.014890848102158032 0 0.004778940598705159 0.014753646657481143 0 0.0051832601535611207 0.014955736753392448 0 0.004778940598705159 0.014753646657481143 0 0.00493033347252631 0.014680846030080763 0 0.0055653853745707979 0.014886659983638844 0 0.0051832601535611207 0.014955736753392448 0 0.00493033347252631 0.014680846030080763 0 0.0045934785101144652 0.014606884212027927 0 0.004778940598705159 0.014753646657481143 0 0.00493033347252631 0.014680846030080763 0 0.0045934785101144652 0.014606884212027927 0 0.00493033347252631 0.014680846030080763 0 0.0045094946531972083 0.014494557907554731 0 0.00493033347252631 0.014680846030080763 0 0.0045094946531972083 0.014494557907554731 0 0.0048271549150878876 0.014491213833818116 0 0.00493033347252631 0.014680846030080763 0 0.0048271549150878876 0.014491213833818116 0 0.0053682964843714031 0.014506396730365892 0 0.0048271549150878876 0.014491213833818116 0 0.0043785086231839859 0.014491822457862206 0 0.0049169250032663264 0.014184368638497912 0 0.0048271549150878876 0.014491213833818116 0 0.0049169250032663264 0.014184368638497912 0 0.0053682964843714031 0.014506396730365892 0 0.0045094946531972083 0.014494557907554731 0 0.0048271549150878876 0.014491213833818116 0 0.0043785086231839859 0.014491822457862206 0 0.0045094946531972083 0.014494557907554731 0 0.0043785086231839859 0.014491822457862206 0 0.0043586246132882311 0.014500642468138317 0 0.0043785086231839859 0.014491822457862206 0 0.0038995367119591395 0.014950020559232335 0 0.0049169250032663264 0.014184368638497912 0 0.0038995367119591395 0.014950020559232335 0 0.0049169250032663264 0.014184368638497912 0 0.0046311431104794467 0.013596201415357377 0 0.0038995367119591395 0.014950020559232335 0 0.0046311431104794467 0.013596201415357377 0 0.0032533954465697014 0.013965505741430986 0 0.0049169250032663264 0.014184368638497912 0 0.0056872880244138802 0.01319425773840339 0 0.0062318518537275453 0.013612708553633709 0 0.0049169250032663264 0.014184368638497912 0 0.0046311431104794467 0.013596201415357377 0 0.0056872880244138802 0.01319425773840339 0 0.0049169250032663264 0.014184368638497912 0 0.0053682964843714031 0.014506396730365892 0 0.0062318518537275453 0.013612708553633709 0 0.0065830541697295027 0.014477396346446894 0 0.0053682964843714031 0.014506396730365892 0 0.0062318518537275453 0.013612708553633709 0 0.0065830541697295027 0.014477396346446894 0 0.0081725396844454859 0.01283938035937506 0 0.0062318518537275453 0.013612708553633709 0 0.0081770188621582644 0.014735466435774884 0 0.0065830541697295027 0.014477396346446894 0 0.0081725396844454859 0.01283938035937506 0 0.0081725396844454859 0.01283938035937506 0 0.0069352460071348959 0.012282245740284864 0 0.0085322360618413293 0.011546173689890563 0 0.0081725396844454859 0.01283938035937506 0 0.0062318518537275453 0.013612708553633709 0 0.0069352460071348959 0.012282245740284864 0 0.0056872880244138802 0.01319425773840339 0 0.0062318518537275453 0.013612708553633709 0 0.0069352460071348959 0.012282245740284864 0 0.0069352460071348959 0.012282245740284864 0 0.0085322360618413293 0.011546173689890563 0 0.0069282684203396845 0.01083877860835864 0 0.0069352460071348959 0.012282245740284864 0 0.0069282684203396845 0.01083877860835864 0 0.0054600571817445629 0.012112262795376461 0 0.0086717947116210902 0.010443068488188531 0 0.0069282684203396845 0.01083877860835864 0 0.0078793285545245891 0.009412813475183919 0 0.0085322360618413293 0.011546173689890563 0 0.0086717947116210902 0.010443068488188531 0 0.0069282684203396845 0.01083877860835864 0 0.0069282684203396845 0.01083877860835864 0 0.0049907360418606356 0.010507335210062989 0 0.0054600571817445629 0.012112262795376461 0 0.0049907360418606356 0.010507335210062989 0 0.0035186495004064537 0.011272314407877824 0 0.0054600571817445629 0.012112262795376461 0 0.0035186495004064537 0.011272314407877824 0 0.0038650075238636683 0.012771304588625873 0 0.0020339961091510495 0.012789346301793013 0 0.0035186495004064537 0.011272314407877824 0 0.0038650075238636683 0.012771304588625873 0 0.0054600571817445629 0.012112262795376461 0 0.0046311431104794467 0.013596201415357377 0 0.0038650075238636683 0.012771304588625873 0 0.0054600571817445629 0.012112262795376461 0 0.0046311431104794467 0.013596201415357377 0 0.0038650075238636683 0.012771304588625873 0 0.0032533954465697014 0.013965505741430986 0 0.0046311431104794467 0.013596201415357377 0 0.0056872880244138802 0.01319425773840339 0 0.0054600571817445629 0.012112262795376461 0 0.0056872880244138802 0.01319425773840339 0 0.0069352460071348959 0.012282245740284864 0 0.0054600571817445629 0.012112262795376461 0 0.011118745851094573 0.011055545567597171 0 0.01114358558174023 0.011233842614582421 0 0.011409418819186903 0.010808758406296508 0 0.011118745851094573 0.011055545567597171 0 0.01114358558174023 0.011233842614582421 0 0.01087164949702938 0.01149893886258733 0 0.011123072311811123 0.011194488499416509 0 0.01114358558174023 0.011233842614582421 0 0.011346670684471849 0.011117217409018731 0 0.011123072311811123 0.011194488499416509 0 0.01114358558174023 0.011233842614582421 0 0.010980341004916995 0.011504125278859093 0 0.010980341004916995 0.011504125278859093 0 0.01087164949702938 0.01149893886258733 0 0.010641836912963394 0.012249914038416503 0 0.01114358558174023 0.011233842614582421 0 0.010980341004916995 0.011504125278859093 0 0.01087164949702938 0.01149893886258733 0 0.011118745851094573 0.011055545567597171 0 0.01087164949702938 0.01149893886258733 0 0.010831527258040286 0.010947006193037593 0 0.01087164949702938 0.01149893886258733 0 0.010027999350187449 0.011641120648203366 0 0.010831527258040286 0.010947006193037593 0 0.01087164949702938 0.01149893886258733 0 0.010641836912963394 0.012249914038416503 0 0.010027999350187449 0.011641120648203366 0 0.0081770188621582644 0.014735466435774884 0 0.0081725396844454859 0.01283938035937506 0 0.010641836912963394 0.012249914038416503 0 0.0095242301083265264 0.013013447237262339 0 0.010552719916015934 0.012346058702256055 0 0.0081725396844454859 0.01283938035937506 0 0.0085322360618413293 0.011546173689890563 0 0.010027999350187449 0.011641120648203366 0 0.0081725396844454859 0.01283938035937506 0 0.010641836912963394 0.012249914038416503 0 0.010027999350187449 0.011641120648203366 0 0.0085322360618413293 0.011546173689890563 0 0.010027999350187449 0.011641120648203366 0 0.0098482015807936831 0.010836402095495259 0 0.0085322360618413293 0.011546173689890563 0 0.0086717947116210902 0.010443068488188531 0 0.0098482015807936831 0.010836402095495259 0 0.0086717947116210902 0.010443068488188531 0 0.0098482015807936831 0.010836402095495259 0 0.0095779879105402591 0.009722548523538814 0 0.0098482015807936831 0.010836402095495259 0 0.010524405706649061 0.010517686373831081 0 0.0095779879105402591 0.009722548523538814 0 0.0098482015807936831 0.010836402095495259 0 0.010524405706649061 0.010517686373831081 0 0.010831527258040286 0.010947006193037593 0 0.010027999350187449 0.011641120648203366 0 0.0098482015807936831 0.010836402095495259 0 0.010831527258040286 0.010947006193037593 0 0.010524405706649061 0.010517686373831081 0 0.010831527258040286 0.010947006193037593 0 0.011018106237619172 0.010512717136734406 0 0.011018106237619172 0.010512717136734406 0 0.011320936872492686 0.010313601703350397 0 0.010698518514809498 0.010003854157880982 0 0.010524405706649061 0.010517686373831081 0 0.011018106237619172 0.010512717136734406 0 0.010698518514809498 0.010003854157880982 0 0.011018106237619172 0.010512717136734406 0 0.011331842613368896 0.010441399895847817 0 0.011267595195866724 0.010700378731278885 0 0.011018106237619172 0.010512717136734406 0 0.011320936872492686 0.010313601703350397 0 0.011331842613368896 0.010441399895847817 0 0.011320936872492686 0.010313601703350397 0 0.011331842613368896 0.010441399895847817 0 0.01136607547007964 0.010296082784396508 0 0.012515779395761865 0.014014354098834685 0 0.011874306377245477 0.01547862739683795 0 0.011118745851094573 0.011055545567597171 0 0.010831527258040286 0.010947006193037593 0 0.011267595195866724 0.010700378731278885 0 0.010831527258040286 0.010947006193037593 0 0.011018106237619172 0.010512717136734406 0 0.011267595195866724 0.010700378731278885 0 0.011118745851094573 0.011055545567597171 0 0.011267595195866724 0.010700378731278885 0 0.011409418819186903 0.010808758406296508 0 0.016795701686371452 0.037139742746092774 0 0.018907864128021021 0.034520640352916521 0 0.015399362598613289 0.034941834324883944 0 0.014759705567535782 0.033619127246281938 0 0.0160079583936008 0.034763763764769993 0 0.015399362598613289 0.034941834324883944 0 0.014759705567535782 0.033619127246281938 0 0.013902520453147063 0.033268605279687537 0 0.011320936872492686 0.010313601703350397 0 0.011395579175030647 0.01021438750067994 0 0.010698518514809498 0.010003854157880982 0 0.014759705567535782 0.033619127246281938 0 0.014850888767105242 0.032757822797264947 0 0.0160079583936008 0.034763763764769993 0 0.012356316433092212 0.021160415226641277 0 0.011910657324653798 0.031906588234719785 0 0.012356316433092212 0.021160415226641277 0 0.0082357016113851576 0.018016943795622874 0 0.014759705567535782 0.033619127246281938 0 0.014850888767105242 0.032757822797264947 0 0.014599350083089933 0.032732801919555098 0 0.011320936872492686 0.010313601703350397 0 0.011426696607860935 0.010257996966136121 0 0.011395579175030647 0.01021438750067994 0 0.010622058727718365 0.023288924869018707 0 0.0084393737076776422 0.020186688636818328 0 0.014151890808002743 0.020761295870896933 0 0.011874306377245477 0.01547862739683795 0 0.012724295900773726 0.019579937588292792 0 0.011874306377245477 0.01547862739683795 0 0.012356316433092212 0.021160415226641277 0 0.012356316433092212 0.021160415226641277 0 0.012724295900773726 0.019579937588292792 0 0.0080723641978767899 0.026717650612457719 0 0.0070002053053062297 0.026648325432980815 0 0.0073562433340970306 0.025870260509365969 0 0.0070002053053062297 0.026648325432980815 0 0.0073562433340970306 0.025870260509365969 0 0.0063626580207875785 0.025748028294551868 0 0.010524405706649061 0.010517686373831081 0 0.010698518514809498 0.010003854157880982 0 0.0095779879105402591 0.009722548523538814 0 0.0082357016113851576 0.018016943795622874 0 0.0079042158916742891 0.018163502773804331 0 0.0070002053053062297 0.026648325432980815 0 0.0063626580207875785 0.025748028294551868 0 0.0059343224068586168 0.026530009835255351 0 0.0059343224068586168 0.026530009835255351 0 0.0054438932937673603 0.025532238348342416 0 0.0051119650136730753 0.025940078710275729 0 0.0063626580207875785 0.025748028294551868 0 0.0059343224068586168 0.026530009835255351 0 0.0054438932937673603 0.025532238348342416 0 0.0063626580207875785 0.025748028294551868 0 0.0054438932937673603 0.025532238348342416 0 0.0057075588565538623 0.025025204459576272 0 0.0057075588565538623 0.025025204459576272 0 0.0049786483041777893 0.024633144366454154 0 0.0059603057661144123 0.024101437421251242 0 0.0057075588565538623 0.025025204459576272 0 0.0066489413336954621 0.025018620143231512 0 0.0059603057661144123 0.024101437421251242 0 0.016287211108152067 0.036061292049777177 0 0.016360667496322354 0.034852103729291192 0 0.014565563721882455 0.034175395345595334 0 0.011317319172086579 0.030256995459704634 0 0.010514107192828671 0.028635638083396184 0 0.0063626580207875785 0.025748028294551868 0 0.0057075588565538623 0.025025204459576272 0 0.0066489413336954621 0.025018620143231512 0 0.015399362598613289 0.034941834324883944 0 0.0160079583936008 0.034763763764769993 0 0.016354242866957372 0.036011655514083696 0 0.011910657324653798 0.031906588234719785 0 0.011317319172086579 0.030256995459704634 0 0.01847114167073689 0.038594849021055193 0 0.017507369392641324 0.036486241912549219 0 0.016354242866957372 0.036011655514083696 0 0.0160079583936008 0.034763763764769993 0 0.016287211108152067 0.036061292049777177 0 0.016354242866957372 0.036011655514083696 0 0.016795701686371452 0.037139742746092774 0 0.016395615329333903 0.035953503441336701 0 0.0073562433340970306 0.025870260509365969 0 0.0063626580207875785 0.025748028294551868 0 0.0066489413336954621 0.025018620143231512 0 0.016287211108152067 0.036061292049777177 0 0.016699891260130072 0.035532502099910733 0 0.016354242866957372 0.036011655514083696 0 0.016287211108152067 0.036061292049777177 0 0.016699891260130072 0.035532502099910733 0 0.016360667496322354 0.034852103729291192 0 0.016699891260130072 0.035532502099910733 0 0.016360667496322354 0.034852103729291192 0 0.017582104460390512 0.034893051330457857 0 0.016699891260130072 0.035532502099910733 0 0.017582104460390512 0.034893051330457857 0 0.017487866797704796 0.035669280706364312 0 0.016699891260130072 0.035532502099910733 0 0.016354242866957372 0.036011655514083696 0 0.017487866797704796 0.035669280706364312 0 0.017507369392641324 0.036486241912549219 0 0.016354242866957372 0.036011655514083696 0 0.017487866797704796 0.035669280706364312 0 0.017507369392641324 0.036486241912549219 0 0.017487866797704796 0.035669280706364312 0 0.018366031291025448 0.035958962347474005 0 0.017487866797704796 0.035669280706364312 0 0.018366031291025448 0.035958962347474005 0 0.018458216630041289 0.035199062586170372 0 0.017582104460390512 0.034893051330457857 0 0.017487866797704796 0.035669280706364312 0 0.018458216630041289 0.035199062586170372 0 0.017582104460390512 0.034893051330457857 0 0.018458216630041289 0.035199062586170372 0 0.018965714107837001 0.034382067249044017 0 0.018458216630041289 0.035199062586170372 0 0.019415183679321706 0.035621104051550244 0 0.018965714107837001 0.034382067249044017 0 0.018366031291025448 0.035958962347474005 0 0.019415183679321706 0.035621104051550244 0 0.01960004383984805 0.036968534130716081 0 0.018366031291025448 0.035958962347474005 0 0.018458216630041289 0.035199062586170372 0 0.019415183679321706 0.035621104051550244 0 0.018229611106479821 0.036891822218771249 0 0.019006689323081659 0.037656298182847124 0 0.01960004383984805 0.036968534130716081 0 0.01847114167073689 0.038594849021055193 0 0.017507369392641324 0.036486241912549219 0 0.018229611106479821 0.036891822218771249 0 0.018366031291025448 0.035958962347474005 0 0.018229611106479821 0.036891822218771249 0 0.01960004383984805 0.036968534130716081 0 0.017507369392641324 0.036486241912549219 0 0.018366031291025448 0.035958962347474005 0 0.018229611106479821 0.036891822218771249 0 0.01847114167073689 0.038594849021055193 0 0.018229611106479821 0.036891822218771249 0 0.019006689323081659 0.037656298182847124 0 0.019006689323081659 0.037656298182847124 0 0.019721755665349418 0.038184632292868684 0 0.01960004383984805 0.036968534130716081 0 0.01847114167073689 0.038594849021055193 0 0.019006689323081659 0.037656298182847124 0 0.019721755665349418 0.038184632292868684 0 0.0036664611448852485 0.025528600391281419 0 0.003905651178987436 0.02620965316567634 0 0.0044485000725323345 0.025812262508294753 0 -0.0051631589885579501 0.020140226071042624 0 -0.0058431351667166355 0.020598975768158133 0 -0.0059939604660854736 0.019642813194884687 0 0.0036664611448852485 0.025528600391281419 0 0.0028829357008899057 0.026030710982069973 0 0.003905651178987436 0.02620965316567634 0 -0.0014385295412976779 0.023545383526706772 0 -0.00038323763395134701 0.018898386329026517 0 0.0049907360418606356 0.010507335210062989 0 0.0028008915052755816 0.0088353713389714081 0 0.0057324551217344637 0.0091286029865006654 0 0.0049907360418606356 0.010507335210062989 0 0.0035186495004064537 0.011272314407877824 0 0.0028008915052755816 0.0088353713389714081 0 -0.00038323763395134701 0.018898386329026517 0 0.0054896795994629531 0.017560462337938103 0 0.0069282684203396845 0.01083877860835864 0 0.0049907360418606356 0.010507335210062989 0 0.0057324551217344637 0.0091286029865006654 0 0.003905651178987436 0.02620965316567634 0 0.0049034299381138166 0.026375892912389461 0 0.0044485000725323345 0.025812262508294753 0 0.0069282684203396845 0.01083877860835864 0 0.0057324551217344637 0.0091286029865006654 0 0.0078793285545245891 0.009412813475183919 0 0.0054896795994629531 0.017560462337938103 0 0.0062151435494070843 0.017894614109746566 0 0.0059343224068586168 0.026530009835255351 0 0.0049034299381138166 0.026375892912389461 0 0.0051119650136730753 0.025940078710275729 0 0.0079042158916742891 0.018163502773804331 0 0.0062151435494070843 0.017894614109746566 0 0.0086717947116210902 0.010443068488188531 0 0.0095779879105402591 0.009722548523538814 0 0.0078793285545245891 0.009412813475183919 0 0.0051119650136730753 0.025940078710275729 0 0.0044485000725323345 0.025812262508294753 0 0.0048532061087826301 0.025457550772979627 0 0.0049034299381138166 0.026375892912389461 0 0.0051119650136730753 0.025940078710275729 0 0.0044485000725323345 0.025812262508294753 0 0.0054438932937673603 0.025532238348342416 0 0.0051119650136730753 0.025940078710275729 0 0.0048532061087826301 0.025457550772979627 0 0.0036664611448852485 0.025528600391281419 0 0.0044485000725323345 0.025812262508294753 0 0.004428984259434836 0.025356280423955029 0 0.0036664611448852485 0.025528600391281419 0 0.004428984259434836 0.025356280423955029 0 0.0044360355909318352 0.025046883256182546 0 0.0044485000725323345 0.025812262508294753 0 0.004428984259434836 0.025356280423955029 0 0.0048532061087826301 0.025457550772979627 0 0.004428984259434836 0.025356280423955029 0 0.0046850095362340975 0.025231198042868861 0 0.0048532061087826301 0.025457550772979627 0 0.0046850095362340975 0.025231198042868861 0 0.0044360355909318352 0.025046883256182546 0 0.0048985396242178531 0.025025738918357812 0 0.004428984259434836 0.025356280423955029 0 0.0046850095362340975 0.025231198042868861 0 0.0044360355909318352 0.025046883256182546 0 0.0054438932937673603 0.025532238348342416 0 0.0057075588565538623 0.025025204459576272 0 0.0048985396242178531 0.025025738918357812 0 0.0054438932937673603 0.025532238348342416 0 0.0048532061087826301 0.025457550772979627 0 0.0048985396242178531 0.025025738918357812 0 0.0046850095362340975 0.025231198042868861 0 0.0048532061087826301 0.025457550772979627 0 0.0048985396242178531 0.025025738918357812 0 0.0044360355909318352 0.025046883256182546 0 0.0048985396242178531 0.025025738918357812 0 0.0049786483041777893 0.024633144366454154 0 0.0057075588565538623 0.025025204459576272 0 0.0048985396242178531 0.025025738918357812 0 0.0049786483041777893 0.024633144366454154 0 0.0018694409890871063 0.022743130538818108 0 0.0052569647527906391 0.024976175699712073 0 0.0039255675746577385 0.025492561304650472 0 0.0049786483041777893 0.024633144366454154 0 0.0040932490075658899 0.024373578527177343 0 0.0039255675746577385 0.025492561304650472 0 0.0030664530851353391 0.024700566770071739 0 0.0040932490075658899 0.024373578527177343 0 -0.0044195684458541501 0.019639450237284375 0 -0.0049935671874442667 0.019128989313766796 0 -0.0052392725232452506 0.019563580892534668 0 -0.0049935671874442667 0.019128989313766796 0 -0.0052392725232452506 0.019563580892534668 0 -0.0055702398557763771 0.019170617378344201 0 0.0018694409890871063 0.022743130538818108 0 -0.0013368615664536121 0.021534207868970527 0 -0.0051631589885579501 0.020140226071042624 0 -0.0044195684458541501 0.019639450237284375 0 -0.0052392725232452506 0.019563580892534668 0 -0.0014385295412976779 0.023545383526706772 0 0.0018694409890871063 0.022743130538818108 0 -0.0051631589885579501 0.020140226071042624 0 -0.0052392725232452506 0.019563580892534668 0 -0.0059939604660854736 0.019642813194884687 0 -0.0052392725232452506 0.019563580892534668 0 -0.0055702398557763771 0.019170617378344201 0 -0.0059939604660854736 0.019642813194884687 0 -0.0055702398557763771 0.019170617378344201 0 -0.0059942861910894634 0.019195767110998088 0 -0.0059939604660854736 0.019642813194884687 0 -0.0055702398557763771 0.019170617378344201 0 -0.0059942861910894634 0.019195767110998088 0 -0.0059945074522106808 0.018852879542250817 0 -0.0059942861910894634 0.019195767110998088 0 -0.0063983718981854296 0.019161479229013224 0 -0.0059945074522106808 0.018852879542250817 0 -0.0059942861910894634 0.019195767110998088 0 -0.0063983718981854296 0.019161479229013224 0 -0.0059939604660854736 0.019642813194884687 0 -0.00691769039137309 0.019377122865307503 0 -0.0072250074394329305 0.019005325006170758 0 -0.0067391055212531522 0.018797971469583445 0 -0.0063983718981854296 0.019161479229013224 0 -0.00691769039137309 0.019377122865307503 0 -0.0067391055212531522 0.018797971469583445 0 -0.0063983718981854296 0.019161479229013224 0 -0.00691769039137309 0.019377122865307503 0 -0.0065577476019483385 0.019892271591090908 0 -0.00691769039137309 0.019377122865307503 0 -0.0065577476019483385 0.019892271591090908 0 -0.0071875283266653557 0.019840076383784187 0 -0.0063983718981854296 0.019161479229013224 0 -0.0065577476019483385 0.019892271591090908 0 -0.0059939604660854736 0.019642813194884687 0 -0.0058431351667166355 0.020598975768158133 0 -0.0065577476019483385 0.019892271591090908 0 -0.0059939604660854736 0.019642813194884687 0 -0.0058431351667166355 0.020598975768158133 0 -0.0065577476019483385 0.019892271591090908 0 -0.0068653267777106968 0.020405078628463916 0 -0.00038323763395134701 0.018898386329026517 0 -0.0071466072124906979 0.019615088690532138 0 -0.0065577476019483385 0.019892271591090908 0 -0.0068653267777106968 0.020405078628463916 0 -0.0071875283266653557 0.019840076383784187 0 -0.0059338027595542929 0.018691838987262892 0 -0.0074787799355692519 0.020322056386188246 0 -0.0053552540702491705 0.020527808970392896 0 -0.00038323763395134701 0.018898386329026517 0 -0.0023389668825551969 0.014650355483231896 0 -0.0020846372912253228 0.018263621378761388 0 -0.0059338027595542929 0.018691838987262892 0 -0.0053552540702491705 0.020527808970392896 0 0.0035186495004064537 0.011272314407877824 0 0.0028008915052755816 0.0088353713389714081 0 -8.3671986805456135e-05 0.010717945325315956 0 -0.0074787799355692519 0.020322056386188246 0 -0.007822889981598611 0.019984610571862696 0 -0.0083207218885717072 0.020643141065160114 0 -0.0059338027595542929 0.018691838987262892 0 -0.0074787799355692519 0.020322056386188246 0 -0.007822889981598611 0.019984610571862696 0 -0.0071466072124906979 0.019615088690532138 0 -0.0073104506781751493 0.019901669653658086 0 -0.0068653267777106968 0.020405078628463916 0 -0.007822889981598611 0.019984610571862696 0 -0.0071875283266653557 0.019840076383784187 0 -0.007822889981598611 0.019984610571862696 0 -0.0083804706634941113 0.020212293785395762 0 -0.0083207218885717072 0.020643141065160114 0 -0.007822889981598611 0.019984610571862696 0 -0.0076531329939092986 0.019546475095693131 0 -0.0083804706634941113 0.020212293785395762 0 -0.0076531329939092986 0.019546475095693131 0 -0.0084021651967418204 0.01946054163954063 0 -0.0083804706634941113 0.020212293785395762 0 -0.00691769039137309 0.019377122865307503 0 -0.0076531329939092986 0.019546475095693131 0 -0.0071875283266653557 0.019840076383784187 0 -0.007822889981598611 0.019984610571862696 0 -0.0076531329939092986 0.019546475095693131 0 -0.0071875283266653557 0.019840076383784187 0 -0.0076531329939092986 0.019546475095693131 0 -0.0072250074394329305 0.019005325006170758 0 -0.0077897183247801968 0.018927165217083035 0 -0.00691769039137309 0.019377122865307503 0 -0.0076531329939092986 0.019546475095693131 0 -0.0072250074394329305 0.019005325006170758 0 -0.012476543690858741 0.022545003262208308 0 -0.011817642806484277 0.021968576419531375 0 -0.0076531329939092986 0.019546475095693131 0 -0.0084021651967418204 0.01946054163954063 0 -0.0077897183247801968 0.018927165217083035 0 -0.016708374693201179 0.025841580209535413 0 -0.017031215092690708 0.024192369375178654 0 -0.015791782474387974 0.024672361716729346 0 -0.016708374693201179 0.025841580209535413 0 -0.0184446575168427 0.024963797376929105 0 -0.018332836635555908 0.026180918878059806 0 -0.016708374693201179 0.025841580209535413 0 -0.0184446575168427 0.024963797376929105 0 -0.017031215092690708 0.024192369375178654 0 -0.016708374693201179 0.025841580209535413 0 -0.018332836635555908 0.026180918878059806 0 -0.017251710776267519 0.026736402808934658 0 -0.012476543690858741 0.022545003262208308 0 -0.013582104242198753 0.024054202366184975 0 -0.020447661696572007 0.025081055377878393 0 -0.020014780602456105 0.025809897483376445 0 -0.021728378990981945 0.025812919820405598 0 -0.021569473582350594 0.025121205412575374 0 -0.020447661696572007 0.025081055377878393 0 -0.021188003758580879 0.024378625157249336 0 -0.021569473582350594 0.025121205412575374 0 -0.020447661696572007 0.025081055377878393 0 -0.021728378990981945 0.025812919820405598 0 -0.020447661696572007 0.025081055377878393 0 -0.020014780602456105 0.025809897483376445 0 -0.0184446575168427 0.024963797376929105 0 -0.020014780602456105 0.025809897483376445 0 -0.0184446575168427 0.024963797376929105 0 -0.018332836635555908 0.026180918878059806 0 -0.020447661696572007 0.025081055377878393 0 -0.0184446575168427 0.024963797376929105 0 -0.019446634502637131 0.024277565063098392 0 -0.020014780602456105 0.025809897483376445 0 -0.018332836635555908 0.026180918878059806 0 -0.019957422847923571 0.026766598975739509 0 -0.018332836635555908 0.026180918878059806 0 -0.019957422847923571 0.026766598975739509 0 -0.018851125954626933 0.027247146707065666 0 -0.020014780602456105 0.025809897483376445 0 -0.019957422847923571 0.026766598975739509 0 -0.021297831451614752 0.02651554812754249 0 -0.019957422847923571 0.026766598975739509 0 -0.021297831451614752 0.02651554812754249 0 -0.021282081868406542 0.027292555438130271 0 -0.020014780602456105 0.025809897483376445 0 -0.021297831451614752 0.02651554812754249 0 -0.021728378990981945 0.025812919820405598 0 -0.020201018946219874 0.027641445091627949 0 -0.020451820970666806 0.028682452369314382 0 -0.021464359051091682 0.028126588091243108 0 -0.021282081868406542 0.027292555438130271 0 -0.020201018946219874 0.027641445091627949 0 -0.021464359051091682 0.028126588091243108 0 -0.019957422847923571 0.026766598975739509 0 -0.021282081868406542 0.027292555438130271 0 -0.020201018946219874 0.027641445091627949 0 -0.019957422847923571 0.026766598975739509 0 -0.020201018946219874 0.027641445091627949 0 -0.018851125954626933 0.027247146707065666 0 -0.018851125954626933 0.027247146707065666 0 -0.018206995205638721 0.028712863612049996 0 -0.017251710776267519 0.026736402808934658 0 -0.018332836635555908 0.026180918878059806 0 -0.018851125954626933 0.027247146707065666 0 -0.017251710776267519 0.026736402808934658 0 -0.020201018946219874 0.027641445091627949 0 -0.018851125954626933 0.027247146707065666 0 -0.019413902563924182 0.028074093599225323 0 -0.018851125954626933 0.027247146707065666 0 -0.018206995205638721 0.028712863612049996 0 -0.019413902563924182 0.028074093599225323 0 -0.018206995205638721 0.028712863612049996 0 -0.019413902563924182 0.028074093599225323 0 -0.020451820970666806 0.028682452369314382 0 -0.0087610522456106708 0.020676840110853998 0 -0.0094342603802078911 0.02141853201049285 0 -0.008949967225329097 0.020867671194952767 0 -0.012895370409829002 0.023471313589993818 0 -0.0094261455761844824 0.021864978485241868 0 -0.018206995205638721 0.028712863612049996 0 -0.020451820970666806 0.028682452369314382 0 -0.02188860688968541 0.030649728905217662 0 -0.020201018946219874 0.027641445091627949 0 -0.019413902563924182 0.028074093599225323 0 -0.020451820970666806 0.028682452369314382 0 -0.020451820970666806 0.028682452369314382 0 -0.02188860688968541 0.030649728905217662 0 -0.021864010593853799 0.029013408815698503 0 -0.020451820970666806 0.028682452369314382 0 -0.021464359051091682 0.028126588091243108 0 -0.021864010593853799 0.029013408815698503 0 -0.0083804706634941113 0.020212293785395762 0 -0.0092889701778389351 0.020456751785750956 0 -0.0088271454270059131 0.020799908223191093 0 -0.0084021651967418204 0.01946054163954063 0 -0.0083804706634941113 0.020212293785395762 0 -0.0092889701778389351 0.020456751785750956 0 -0.012895370409829002 0.023471313589993818 0 -0.013582104242198753 0.024054202366184975 0 -0.010318605387395527 0.021995492748214024 0 -0.0092889701778389351 0.020456751785750956 0 -0.0094342603802078911 0.02141853201049285 0 -0.0092889701778389351 0.020456751785750956 0 -0.0088271454270059131 0.020799908223191093 0 -0.0094342603802078911 0.02141853201049285 0 -0.0094342603802078911 0.02141853201049285 0 -0.0088366435409682944 0.020929797968625725 0 -0.008949967225329097 0.020867671194952767 0 -0.0088271454270059131 0.020799908223191093 0 -0.0094342603802078911 0.02141853201049285 0 -0.0088366435409682944 0.020929797968625725 0 -0.0088271454270059131 0.020799908223191093 0 -0.0088366435409682944 0.020929797968625725 0 -0.0083207218885717072 0.020643141065160114 0 -0.0083804706634941113 0.020212293785395762 0 -0.0088271454270059131 0.020799908223191093 0 -0.0083207218885717072 0.020643141065160114 0 -0.0083207218885717072 0.020643141065160114 0 -0.0082841734912745824 0.020692994744204784 0 -0.0080017946524244214 0.020708459783284262 0 -0.0088366435409682944 0.020929797968625725 0 -0.0083207218885717072 0.020643141065160114 0 -0.0082841734912745824 0.020692994744204784 0 -0.0088366435409682944 0.020929797968625725 0 -0.0082841734912745824 0.020692994744204784 0 -0.0087426797445315074 0.020891734857103522 0 -0.0088366435409682944 0.020929797968625725 0 -0.008949967225329097 0.020867671194952767 0 -0.0087426797445315074 0.020891734857103522 0 -0.0082841734912745824 0.020692994744204784 0 -0.0087426797445315074 0.020891734857103522 0 -0.0086137159928891763 0.020904463200015471 0 -0.0082841734912745824 0.020692994744204784 0 -0.0084212143769286998 0.020681751540837859 0 -0.0080453939620519898 0.020274823925760257 0 -0.0082841734912745824 0.020692994744204784 0 -0.0086137159928891763 0.020904463200015471 0 -0.0084212143769286998 0.020681751540837859 0 -0.0082841734912745824 0.020692994744204784 0 -0.0076796250795713355 0.019494524570336586 0 -0.0080017946524244214 0.020708459783284262 0 -0.0082841734912745824 0.020692994744204784 0 -0.0076796250795713355 0.019494524570336586 0 -0.0080453939620519898 0.020274823925760257 0 -0.012895370409829002 0.023471313589993818 0 -0.018524650996561306 0.026608531257238881 0 -0.010860536263515057 0.021167178730847353 0 -0.012540248085742535 0.023318797512944089 0 -0.014275557463483175 0.022114478329001382 0 -0.012540248085742535 0.023318797512944089 0 -0.014275557463483175 0.022114478329001382 0 -0.014258636265081618 0.023952203559942112 0 -0.0087610522456106708 0.020676840110853998 0 -0.010805540690067094 0.021313280900300796 0 -0.0089657313510941774 0.0209740191016956 0 -0.012895370409829002 0.023471313589993818 0 -0.011145523289270527 0.021881831981407286 0 -0.010805540690067094 0.021313280900300796 0 -0.0089806934088237384 0.021273544600274048 0 -0.0089657313510941774 0.0209740191016956 0 -0.0087610522456106708 0.020676840110853998 0 -0.008949967225329097 0.020867671194952767 0 -0.0089657313510941774 0.0209740191016956 0 -0.008949967225329097 0.020867671194952767 0 -0.0087426797445315074 0.020891734857103522 0 -0.0089657313510941774 0.0209740191016956 0 -0.0087426797445315074 0.020891734857103522 0 -0.0086137159928891763 0.020904463200015471 0 -0.0089806934088237384 0.021273544600274048 0 -0.0087426797445315074 0.020891734857103522 0 -0.0089806934088237384 0.021273544600274048 0 -0.0089657313510941774 0.0209740191016956 0 -0.0086137159928891763 0.020904463200015471 0 -0.0084212143769286998 0.020681751540837859 0 -0.0089806934088237384 0.021273544600274048 0 -0.0089806934088237384 0.021273544600274048 0 -0.011554731389877703 0.024244716980820903 0 -0.010529919197693201 0.026505601370537622 0 -0.0089769305206358115 0.021375835866986249 0 -0.009489564764017416 0.023486686053643575 0 -0.0084212143769286998 0.020681751540837859 0 -0.0089806934088237384 0.021273544600274048 0 -0.0083340211433953308 0.02064728225183084 0 -0.011145523289270527 0.021881831981407286 0 -0.014191166487095236 0.025568827526747679 0 -0.010805540690067094 0.021313280900300796 0 -0.011554731389877703 0.024244716980820903 0 -0.014161437256103112 0.025590287748088629 0 -0.012540248085742535 0.023318797512944089 0 -0.014161437256103112 0.025590287748088629 0 -0.014258636265081618 0.023952203559942112 0 -0.010805540690067094 0.021313280900300796 0 -0.0089806934088237384 0.021273544600274048 0 -0.011554731389877703 0.024244716980820903 0 -0.011554731389877703 0.024244716980820903 0 -0.010529919197693201 0.026505601370537622 0 -0.014161437256103112 0.025590287748088629 0 -0.010529919197693201 0.026505601370537622 0 -0.014161437256103112 0.025590287748088629 0 -0.013806580595023351 0.028174293637440551 0 -0.0084212143769286998 0.020681751540837859 0 -0.0083340211433953308 0.02064728225183084 0 -0.0081771996339656018 0.020698830871321197 0 -0.0083963985641641557 0.02113536538566603 0 -0.0083340211433953308 0.02064728225183084 0 -0.0081771996339656018 0.020698830871321197 0 -0.0080014559338648737 0.021215419474799074 0 -0.0083963985641641557 0.02113536538566603 0 -0.0081771996339656018 0.020698830871321197 0 -0.012106058268702336 0.02978053773784297 0 -0.014293472029943351 0.030223889906666915 0 -0.013806580595023351 0.028174293637440551 0 -0.012106058268702336 0.02978053773784297 0 -0.010529919197693201 0.026505601370537622 0 -0.013806580595023351 0.028174293637440551 0 -0.009961226745765276 0.025436329822891113 0 -0.009489564764017416 0.023486686053643575 0 -0.0076796250795713355 0.019494524570336586 0 -0.0080453939620519898 0.020274823925760257 0 -0.007496619361796129 0.02068855720953031 0 -0.0084212143769286998 0.020681751540837859 0 -0.0081771996339656018 0.020698830871321197 0 -0.0080453939620519898 0.020274823925760257 0 -0.0080453939620519898 0.020274823925760257 0 -0.0079096941180748521 0.020855583717481009 0 -0.007496619361796129 0.02068855720953031 0 -0.0080014559338648737 0.021215419474799074 0 -0.0081771996339656018 0.020698830871321197 0 -0.0079096941180748521 0.020855583717481009 0 -0.0081771996339656018 0.020698830871321197 0 -0.0080453939620519898 0.020274823925760257 0 -0.0079096941180748521 0.020855583717481009 0 -0.0076457110834947713 0.021212023655523358 0 -0.0079096941180748521 0.020855583717481009 0 -0.007496619361796129 0.02068855720953031 0 -0.0076796250795713355 0.019494524570336586 0 -0.007496619361796129 0.02068855720953031 0 -0.00607576344795345 0.020647713823895807 0 -0.0069031500873690177 0.021635201192768943 0 -0.007496619361796129 0.02068855720953031 0 -0.00607576344795345 0.020647713823895807 0 -0.00607576344795345 0.020647713823895807 0 -0.0050377095073597918 0.018867335729488493 0 -0.0047124425370689152 0.019951481005980164 0 -0.0076796250795713355 0.019494524570336586 0 -0.00607576344795345 0.020647713823895807 0 -0.0050377095073597918 0.018867335729488493 0 -0.0076796250795713355 0.019494524570336586 0 -0.0050377095073597918 0.018867335729488493 0 -0.0041466396235393293 0.013859781862693772 0 -0.0028599750342613198 0.017239826948894404 0 -0.0050377095073597918 0.018867335729488493 0 -0.0041466396235393293 0.013859781862693772 0 -0.0028599750342613198 0.017239826948894404 0 -0.0050377095073597918 0.018867335729488493 0 -0.0037274283647940492 0.01924008210135188 0 -0.0028599750342613198 0.017239826948894404 0 -0.0037274283647940492 0.01924008210135188 0 -0.0016872484611746156 0.018565761586750454 0 -0.00607576344795345 0.020647713823895807 0 -0.0047124425370689152 0.019951481005980164 0 -0.0037936367232230465 0.021137926743473718 0 -0.0037274283647940492 0.01924008210135188 0 -0.0037936367232230465 0.021137926743473718 0 -0.0016872484611746156 0.018565761586750454 0 -0.0050377095073597918 0.018867335729488493 0 -0.0037274283647940492 0.01924008210135188 0 -0.0047124425370689152 0.019951481005980164 0 -0.0037274283647940492 0.01924008210135188 0 -0.0047124425370689152 0.019951481005980164 0 -0.0037936367232230465 0.021137926743473718 0 -0.0037936367232230465 0.021137926743473718 0 0.0015350486863248097 0.017975586048166594 0 -0.0016872484611746156 0.018565761586750454 0 0.0038329426450829521 0.014366348399977155 0 0.004240037711373522 0.014446427852466852 0 0.0044819557330070215 0.014486528887434401 0 0.0010984455306489698 0.016014141132291836 0 0.0011175939277279761 0.016035043177140912 0 0.0010711302518795803 0.016083369124706169 0 0.0025883237736479318 0.015054480059005828 0 0.0021702218816313751 0.016068679845328893 0 -0.0015296572599204042 0.01869194739460342 0 0.0021702218816313751 0.016068679845328893 0 0.0041233878462031024 0.014474236619922609 0 0.0038329426450829521 0.014366348399977155 0 0.0041698105252884242 0.014451733472250703 0 0.0038329426450829521 0.014366348399977155 0 0.0041698105252884242 0.014451733472250703 0 0.004240037711373522 0.014446427852466852 0 0.0041233878462031024 0.014474236619922609 0 0.0042588971256676753 0.014483533022692752 0 0.0041698105252884242 0.014451733472250703 0 0.0042588971256676753 0.014483533022692752 0 0.0041698105252884242 0.014451733472250703 0 0.0043137828538296601 0.014458658483063574 0 0.0041698105252884242 0.014451733472250703 0 0.004240037711373522 0.014446427852466852 0 0.0043137828538296601 0.014458658483063574 0 0.0045094946531972083 0.014494557907554731 0 0.0044236579060906141 0.014501186095136662 0 0.0043767921070666385 0.014454848460464848 0 0.0045934785101144652 0.014606884212027927 0 0.0045094946531972083 0.014494557907554731 0 0.0044236579060906141 0.014501186095136662 0 0.0044236579060906141 0.014501186095136662 0 0.0043694625749594405 0.014464832267154615 0 0.0043767921070666385 0.014454848460464848 0 0.0044236579060906141 0.014501186095136662 0 0.0043694625749594405 0.014464832267154615 0 0.0043446942718599699 0.014482556928136877 0 0.0043694625749594405 0.014464832267154615 0 0.0043137828538296601 0.014458658483063574 0 0.0043721242053853734 0.014457682703873436 0 0.0043434992496939398 0.014528304218347252 0 0.0044236579060906141 0.014501186095136662 0 0.0043446942718599699 0.014482556928136877 0 0.0042588971256676753 0.014483533022692752 0 0.0043446942718599699 0.014482556928136877 0 0.0043137828538296601 0.014458658483063574 0 0.0043434992496939398 0.014528304218347252 0 0.0042588971256676753 0.014483533022692752 0 0.0043446942718599699 0.014482556928136877 0 0.0043694625749594405 0.014464832267154615 0 0.0043446942718599699 0.014482556928136877 0 0.0043137828538296601 0.014458658483063574 0 0.004240037711373522 0.014446427852466852 0 0.0043676777972837142 0.014459940249357381 0 0.0044819557330070215 0.014486528887434401 0 0.0043137828538296601 0.014458658483063574 0 0.0043676777972837142 0.014459940249357381 0 0.0043721242053853734 0.014457682703873436 0 0.004240037711373522 0.014446427852466852 0 0.0043137828538296601 0.014458658483063574 0 0.0043676777972837142 0.014459940249357381 0 0.004366519872193813 0.014494594511058076 0 0.0043925407758875325 0.014467640897467521 0 0.0043767921070666385 0.014454848460464848 0 0.0043676777972837142 0.014459940249357381 0 0.0043925407758875325 0.014467640897467521 0 0.0044819557330070215 0.014486528887434401 0 0.004366519872193813 0.014494594511058076 0 0.0043925407758875325 0.014467640897467521 0 0.0044819557330070215 0.014486528887434401 0 0.0043694625749594405 0.014464832267154615 0 0.0043721242053853734 0.014457682703873436 0 0.0043767921070666385 0.014454848460464848 0 0.0043925407758875325 0.014467640897467521 0 0.0043721242053853734 0.014457682703873436 0 0.0043767921070666385 0.014454848460464848 0 0.0043676777972837142 0.014459940249357381 0 0.0043925407758875325 0.014467640897467521 0 0.0043721242053853734 0.014457682703873436 0 0.0043785086231839859 0.014491822457862206 0 0.0043586246132882311 0.014500642468138317 0 0.0042247821651017464 0.014593855959253192 0 0.0043767921070666385 0.014454848460464848 0 0.0043586246132882311 0.014500642468138317 0 0.0042247821651017464 0.014593855959253192 0 0.004366519872193813 0.014494594511058076 0 0.0043767921070666385 0.014454848460464848 0 0.0042247821651017464 0.014593855959253192 0 0.0045094946531972083 0.014494557907554731 0 0.0043767921070666385 0.014454848460464848 0 0.0043586246132882311 0.014500642468138317 0 0.0038995367119591395 0.014950020559232335 0 0.0042247821651017464 0.014593855959253192 0 0.0044819557330070215 0.014486528887434401 0 0.0043785086231839859 0.014491822457862206 0 0.0038995367119591395 0.014950020559232335 0 0.0042247821651017464 0.014593855959253192 0 0.0037646040782562487 0.015284757058589905 0 0.0021702218816313751 0.016068679845328893 0 0.0038995367119591395 0.014950020559232335 0 0.0015350486863248097 0.017975586048166594 0 0.0023058216658071529 0.015470198095796759 0 0.0015350486863248097 0.017975586048166594 0 0.00086969295374439827 0.017121089932968899 0 0.0023058216658071529 0.015470198095796759 0 0.0015350486863248097 0.017975586048166594 0 0.00086969295374439827 0.017121089932968899 0 -0.00016886147552828271 0.017369295987516922 0 0.004366519872193813 0.014494594511058076 0 0.0042247821651017464 0.014593855959253192 0 0.0044819557330070215 0.014486528887434401 0 0.0011096507449385605 0.015835140292126296 0 0.0023058216658071529 0.015470198095796759 0 0.001078117425704597 0.014632827613620253 0 0.00086969295374439827 0.017121089932968899 0 0.0011096507449385605 0.015835140292126296 0 0.0023058216658071529 0.015470198095796759 0 0.0023058216658071529 0.015470198095796759 0 0.0032533954465697014 0.013965505741430986 0 0.001078117425704597 0.014632827613620253 0 0.0038995367119591395 0.014950020559232335 0 0.0023058216658071529 0.015470198095796759 0 0.0032533954465697014 0.013965505741430986 0 -0.0028599750342613198 0.017239826948894404 0 -0.0016872484611746156 0.018565761586750454 0 -0.0013101057820824955 0.017013511544344845 0 -0.0016872484611746156 0.018565761586750454 0 -0.00016886147552828271 0.017369295987516922 0 -0.0013101057820824955 0.017013511544344845 0 0.0015350486863248097 0.017975586048166594 0 -0.0016872484611746156 0.018565761586750454 0 -0.00016886147552828271 0.017369295987516922 0 0.00086969295374439827 0.017121089932968899 0 -0.00016886147552828271 0.017369295987516922 0 8.9292814561513104e-06 0.016268462179970997 0 -0.00016886147552828271 0.017369295987516922 0 8.9292814561513104e-06 0.016268462179970997 0 -0.0013101057820824955 0.017013511544344845 0 8.9292814561513104e-06 0.016268462179970997 0 -0.0012396624247600254 0.015381928708865135 0 0.001078117425704597 0.014632827613620253 0 0.00086969295374439827 0.017121089932968899 0 0.0011096507449385605 0.015835140292126296 0 8.9292814561513104e-06 0.016268462179970997 0 0.0011096507449385605 0.015835140292126296 0 8.9292814561513104e-06 0.016268462179970997 0 0.001078117425704597 0.014632827613620253 0 8.9292814561513104e-06 0.016268462179970997 0 -0.0013101057820824955 0.017013511544344845 0 -0.0012396624247600254 0.015381928708865135 0 -0.0028599750342613198 0.017239826948894404 0 -0.0013101057820824955 0.017013511544344845 0 -0.0012396624247600254 0.015381928708865135 0 -0.0012396624247600254 0.015381928708865135 0 -0.00042901015101248454 0.013325465067664527 0 -0.0041466396235393293 0.013859781862693772 0 -0.0012396624247600254 0.015381928708865135 0 -0.00042901015101248454 0.013325465067664527 0 0.001078117425704597 0.014632827613620253 0 0.0032533954465697014 0.013965505741430986 0 0.001078117425704597 0.014632827613620253 0 0.0020339961091510495 0.012789346301793013 0 -0.00042901015101248454 0.013325465067664527 0 0.001078117425704597 0.014632827613620253 0 0.0020339961091510495 0.012789346301793013 0 0.0038650075238636683 0.012771304588625873 0 0.0032533954465697014 0.013965505741430986 0 0.0020339961091510495 0.012789346301793013 0 0.0035186495004064537 0.011272314407877824 0 0.0020339961091510495 0.012789346301793013 0 -8.3671986805456135e-05 0.010717945325315956 0 -0.0023389668825551969 0.014650355483231896 0 -0.0058808210052964452 0.017589915011176693 0 -0.00042901015101248454 0.013325465067664527 0 0.0020339961091510495 0.012789346301793013 0 -8.3671986805456135e-05 0.010717945325315956 0 -0.00042901015101248454 0.013325465067664527 0 -8.3671986805456135e-05 0.010717945325315956 0 -0.0041466396235393293 0.013859781862693772 0 -0.0074787799355692519 0.020322056386188246 0 -0.0053552540702491705 0.020527808970392896 0 -0.0076533296169702539 0.020893563155715889 0 -0.0074787799355692519 0.020322056386188246 0 -0.0080017946524244214 0.020708459783284262 0 -0.0076533296169702539 0.020893563155715889 0 -0.0074787799355692519 0.020322056386188246 0 -0.0083207218885717072 0.020643141065160114 0 -0.0080017946524244214 0.020708459783284262 0 -0.0074598346042057144 0.019147377846250476 0 -0.0058808210052964452 0.017589915011176693 0 -0.0076796250795713355 0.019494524570336586 0 -0.0080017946524244214 0.020708459783284262 0 -0.0076533296169702539 0.020893563155715889 0 -0.0028599750342613198 0.017239826948894404 0 -0.0012396624247600254 0.015381928708865135 0 -0.0041466396235393293 0.013859781862693772 0 0.055231258400368979 0.014213195854640939 0 0.055993220228939745 0.01625926722968065 0 0.057776939833127178 0.0113699516611703 0 0.056123507843064198 0.01605224018489176 0 0.056781045120735819 0.013116265607415873 0 0.055505868568401395 0.011971359629104776 0 0.055231258400368979 0.014213195854640939 0 0.057776939833127178 0.0113699516611703 0 0.055505868568401395 0.011971359629104776 0 0.057776939833127178 0.0113699516611703 0 0.055861170756929583 0.010321535863905778 0 0.055734080601409108 0.01144123804907329 0 0.055000141504712267 0.013540389841772376 0 0.054999736411604355 0.010288241536797731 0 0.055505868568401395 0.011971359629104776 0 0.054794637832188534 0.011291739455365043 0 0.055861170756929583 0.010321535863905778 0 0.055505868568401395 0.011971359629104776 0 0.054794637832188534 0.011291739455365043 0 0.05394609290890455 0.012691103288052641 0 0.053543403039123159 0.012876927364309912 0 0.05394609290890455 0.012691103288052641 0 0.054129515446541029 0.014917984345782627 0 0.054794637832188534 0.011291739455365043 0 0.053543403039123159 0.012876927364309912 0 0.05394609290890455 0.012691103288052641 0 0.055505868568401395 0.011971359629104776 0 0.05394609290890455 0.012691103288052641 0 0.055231258400368979 0.014213195854640939 0 0.053543403039123159 0.012876927364309912 0 0.054129515446541029 0.014917984345782627 0 0.053647700785212825 0.016456437845360945 0 0.05394609290890455 0.012691103288052641 0 0.053636799695954911 0.015626638546237623 0 0.055231258400368979 0.014213195854640939 0 0.055734080601409108 0.01144123804907329 0 0.055000141504712267 0.013540389841772376 0 0.055831544624451293 0.014298508322130109 0 0.054826450958334993 0.01215950880054277 0 0.053759931576503016 0.01539289960651424 0 0.053843423306317882 0.013042714693737009 0 0.053877090114925266 0.015432641131142243 0 0.053636799695954911 0.015626638546237623 0 0.055231258400368979 0.014213195854640939 0 0.054684743947096347 0.016695074509095957 0 0.055231258400368979 0.014213195854640939 0 0.055993220228939745 0.01625926722968065 0 0.054684743947096347 0.016695074509095957 0 0.055993220228939745 0.01625926722968065 0 0.057022770324453728 0.016159037671578301 0 0.056817230485742644 0.017212006936216065 0 0.055993220228939745 0.01625926722968065 0 0.057022770324453728 0.016159037671578301 0 0.056703300107438313 0.015337754819056344 0 0.057022770324453728 0.016159037671578301 0 0.058652215454937054 0.017051908030495316 0 0.056817230485742644 0.017212006936216065 0 0.057022770324453728 0.016159037671578301 0 0.057270618185971581 0.015430926162657321 0 0.058652215454937054 0.017051908030495316 0 0.057412279980916088 0.015482787163893879 0 0.057789958563593959 0.016642742070151571 0 0.057270618185971581 0.015430926162657321 0 0.056703300107438313 0.015337754819056344 0 0.056803029967744195 0.014853398978182013 0 0.057022770324453728 0.016159037671578301 0 0.057270618185971581 0.015430926162657321 0 0.056703300107438313 0.015337754819056344 0 0.055993220228939745 0.01625926722968065 0 0.056703300107438313 0.015337754819056344 0 0.055911947989646008 0.015055878035645728 0 0.056703300107438313 0.015337754819056344 0 0.055911947989646008 0.015055878035645728 0 0.056803029967744195 0.014853398978182013 0 0.055911947989646008 0.015055878035645728 0 0.056373183243627382 0.014132786422365371 0 0.05558425804730862 0.013731123053904342 0 0.056781045120735819 0.013116265607415873 0 0.056777020713675984 0.011227283751793674 0 0.055911947989646008 0.015055878035645728 0 0.056803029967744195 0.014853398978182013 0 0.056373183243627382 0.014132786422365371 0 0.056803029967744195 0.014853398978182013 0 0.056930852404643267 0.013820137424306652 0 0.057340091459890295 0.014981017679948198 0 0.056803029967744195 0.014853398978182013 0 0.056373183243627382 0.014132786422365371 0 0.056930852404643267 0.013820137424306652 0 0.056373183243627382 0.014132786422365371 0 0.056930852404643267 0.013820137424306652 0 0.056106612807915589 0.01357732192851448 0 0.056373183243627382 0.014132786422365371 0 0.056106612807915589 0.01357732192851448 0 0.05558425804730862 0.013731123053904342 0 0.058153656544759749 0.0078813334008353154 0 0.056462709307506811 0.0083692816365485544 0 0.056473615916199545 0.0063155799747281081 0 0.057776939833127178 0.0113699516611703 0 0.058153656544759749 0.0078813334008353154 0 0.056462709307506811 0.0083692816365485544 0 0.057776939833127178 0.0113699516611703 0 0.056462709307506811 0.0083692816365485544 0 0.055861170756929583 0.010321535863905778 0 0.055734080601409108 0.01144123804907329 0 0.054999736411604355 0.010288241536797731 0 0.055174946823448076 0.0087136453911503212 0 0.054999736411604355 0.010288241536797731 0 0.055174946823448076 0.0087136453911503212 0 0.054998403343259367 0.0070390694118134065 0 0.054794637832188534 0.011291739455365043 0 0.053543403039123159 0.012876927364309912 0 0.055174946823448076 0.0087136453911503212 0 0.054794637832188534 0.011291739455365043 0 0.055861170756929583 0.010321535863905778 0 0.055174946823448076 0.0087136453911503212 0 0.054826450958334993 0.01215950880054277 0 0.055021044820642795 0.0090561289633466786 0 0.056462709307506811 0.0083692816365485544 0 0.055861170756929583 0.010321535863905778 0 0.055174946823448076 0.0087136453911503212 0 0.056462709307506811 0.0083692816365485544 0 0.055174946823448076 0.0087136453911503212 0 0.054998403343259367 0.0070390694118134065 0 0.056462709307506811 0.0083692816365485544 0 0.054998403343259367 0.0070390694118134065 0 0.056473615916199545 0.0063155799747281081 0 0.055000063784426657 0.0070371829435335901 0 0.056983008844661516 0.0058466927624096646 0 0.054999787031284678 0.0048508330617027971 0 0.054999983030806082 0.0070373398557405419 0 0.057007326709990619 0.0058373611598600342 0 0.058153656544759749 0.0078813334008353154 0 0.056473615916199545 0.0063155799747281081 0 0.058400641868621726 0.0052879268361417974 0 0.057007326709990619 0.0058373611598600342 0 0.057650615946901268 0.0069343306252032241 0 0.056983008844661516 0.0058466927624096646 0 0.057819191293930254 0.0038144926619693791 0 0.05900942074937017 0.0047105440158174893 0 0.056983008844661516 0.0058466927624096646 0 0.057819191293930254 0.0038144926619693791 0 0.056597578584184981 0.0043182897654055015 0 0.057819191293930254 0.0038144926619693791 0 0.056597578584184981 0.0043182897654055015 0 0.056650774272417798 0.0027143482316194243 0 0.056983008844661516 0.0058466927624096646 0 0.054999787031284678 0.0048508330617027971 0 0.056597578584184981 0.0043182897654055015 0 0.054999787031284678 0.0048508330617027971 0 0.056597578584184981 0.0043182897654055015 0 0.056650774272417798 0.0027143482316194243 0 0.055000360391345725 0.0048503747058387678 0 0.056695892859239698 0.0027015464563380038 0 0.05499997940246161 0.0021304333068473307 0 0.056798039432259424 0.0027404784113546554 0 0.056518920742532779 0.00072775630724191776 0 0.055000002121565764 0.0048508078785327738 0 0.05499997940246161 0.0021304333068473307 0 0.056798039432259424 0.0027404784113546554 0 0.057819191293930254 0.0038144926619693791 0 0.056650774272417798 0.0027143482316194243 0 0.059228569528652603 0.002644226199036748 0 0.056650774272417798 0.0027143482316194243 0 0.058413538877959525 0.00047562737533161253 0 0.059228569528652603 0.002644226199036748 0 0.056890105032766092 -0.0010373608562954002 0 0.056518920742532779 0.00072775630724191776 0 0.058562365039601272 0.00062465475965449099 0 0.056798039432259424 0.0027404784113546554 0 0.056518920742532779 0.00072775630724191776 0 0.058562365039601272 0.00062465475965449099 0 0.056695892859239698 0.0027015464563380038 0 0.058782318322330843 0.00075311950131807582 0 0.054999977631531818 -0.00058992543469989851 0 0.05499997940246161 0.0021304333068473307 0 0.056518920742532779 0.00072775630724191776 0 0.060354382899618503 0.0008719055899865612 0 0.058413538877959525 0.00047562737533161253 0 0.059228569528652603 0.002644226199036748 0 0.06036251223863226 -0.0017975758131566373 0 0.060354382899618503 0.0008719055899865612 0 0.058413538877959525 0.00047562737533161253 0 0.060354382899618503 0.0008719055899865612 0 0.059228569528652603 0.002644226199036748 0 0.060297450356222797 0.0040119602548141188 0 0.056794116342023616 -0.006523034546455809 0 0.054474358978731249 0.0034210265469562127 0 0.05286153748319259 -0.01012893026703985 0 0.052448703279394021 -0.011623644807400061 0 0.05076254528535052 -0.01112571602620689 0 0.054474358978731249 0.0034210265469562127 0 0.054846408599554843 0.015435256205486454 0 0.054513415013685229 0.013337284847733709 0 0.053953917827888588 0.012808502309118945 0 0.054837290353073956 0.012261880285615747 0 0.055405526699687915 0.012883477564182712 0 0.055588500833194686 0.012588831878414768 0 0.054837290353073956 0.012261880285615747 0 0.053738450719491106 0.013290606631909948 0 0.054513415013685229 0.013337284847733709 0 0.053953917827888588 0.012808502309118945 0 0.059228569528652603 0.002644226199036748 0 0.060297450356222797 0.0040119602548141188 0 0.058943825120579808 0.0047626896296562573 0 0.057819191293930254 0.0038144926619693791 0 0.059228569528652603 0.002644226199036748 0 0.05900942074937017 0.0047105440158174893 0 0.059340464442973029 0.0020460891236410393 0 0.057650615946901268 0.0069343306252032241 0 0.055405526699687915 0.012883477564182712 0 0.055438366017574812 0.012431101846316836 0 0.055588500833194686 0.012588831878414768 0 0.054474358978731249 0.0034210265469562127 0 0.057650615946901268 0.0069343306252032241 0 0.056777020713675984 0.011227283751793674 0 0.057650615946901268 0.0069343306252032241 0 0.056106612807915589 0.01357732192851448 0 0.05558425804730862 0.013731123053904342 0 0.055588500833194686 0.012588831878414768 0 0.05558425804730862 0.013731123053904342 0 0.055438366017574812 0.012431101846316836 0 0.055588500833194686 0.012588831878414768 0 0.055211370244661634 0.012503866985595562 0 0.05558483250099451 0.012638557662488052 0 0.053510292064553822 0.011099595932413187 0 0.055588500833194686 0.012588831878414768 0 0.054837290353073956 0.012261880285615747 0 0.056930852404643267 0.013820137424306652 0 0.056106612807915589 0.01357732192851448 0 0.055588500833194686 0.012588831878414768 0 0.053953917827888588 0.012808502309118945 0 0.054837290353073956 0.012261880285615747 0 0.053821630902455474 0.012103488732269628 0 0.053953917827888588 0.012808502309118945 0 0.053821630902455474 0.012103488732269628 0 0.053009510781187208 0.012199048447272987 0 0.053510292064553822 0.011099595932413187 0 0.053821630902455474 0.012103488732269628 0 0.053009510781187208 0.012199048447272987 0 0.053510292064553822 0.011099595932413187 0 0.054837290353073956 0.012261880285615747 0 0.053821630902455474 0.012103488732269628 0 0.053009510781187208 0.012199048447272987 0 0.051623226132351333 0.012245537507929626 0 0.052123301014046053 0.011350406526054714 0 0.053009510781187208 0.012199048447272987 0 0.051623226132351333 0.012245537507929626 0 0.05269414842528504 0.012867798492206933 0 0.053953917827888588 0.012808502309118945 0 0.053009510781187208 0.012199048447272987 0 0.05269414842528504 0.012867798492206933 0 0.051623226132351333 0.012245537507929626 0 0.050096395506560233 0.012360697417729443 0 0.050866946382030098 0.011206193714318727 0 0.051623226132351333 0.012245537507929626 0 0.050821984262224819 0.014042537747404674 0 0.050096395506560233 0.012360697417729443 0 0.051623226132351333 0.012245537507929626 0 0.050821984262224819 0.014042537747404674 0 0.05269414842528504 0.012867798492206933 0 0.053738450719491106 0.013290606631909948 0 0.054513415013685229 0.013337284847733709 0 0.053027710428013235 0.013633662199945058 0 0.053738450719491106 0.013290606631909948 0 0.050821984262224819 0.014042537747404674 0 0.05269414842528504 0.012867798492206933 0 0.053539702273314602 0.013278734250172564 0 0.051277167597578284 0.013318795803313853 0 0.053738450719491106 0.013290606631909948 0 0.053953917827888588 0.012808502309118945 0 0.05269414842528504 0.012867798492206933 0 0.054474358978731249 0.0034210265469562127 0 0.051757357072504215 0.00088695145765915393 0 0.053738450719491106 0.013290606631909948 0 0.051761646636800676 0.012597468718364648 0 0.053027710428013235 0.013633662199945058 0 0.051761646636800676 0.012597468718364648 0 0.053027710428013235 0.013633662199945058 0 0.050348458104334484 0.01343645829264188 0 0.053027710428013235 0.013633662199945058 0 0.050466669464613534 0.014927672688114639 0 0.050348458104334484 0.01343645829264188 0 0.051757357072504215 0.00088695145765915393 0 0.049210523528352451 0.0022361398918898209 0 0.050088220054568387 -0.0095468877825366054 0 0.05076254528535052 -0.01112571602620689 0 0.048087436096468449 -0.010610098126399101 0 0.051978303016533819 -0.009070489146860693 0 0.05286153748319259 -0.01012893026703985 0 0.05076254528535052 -0.01112571602620689 0 0.051978303016533819 -0.009070489146860693 0 0.050088220054568387 -0.0095468877825366054 0 0.05076254528535052 -0.01112571602620689 0 0.046256904085864213 0.0032174892867787028 0 0.049210523528352451 0.0022361398918898209 0 0.047713138657666541 0.016061440383398552 0 0.048470205751695333 0.014636442850787862 0 0.050466669464613534 0.014927672688114639 0 0.048470205751695333 0.014636442850787862 0 0.050466669464613534 0.014927672688114639 0 0.050348458104334484 0.01343645829264188 0 0.051761646636800676 0.012597468718364648 0 0.050348458104334484 0.01343645829264188 0 0.048750356123040801 0.012668635464480613 0 0.048470205751695333 0.014636442850787862 0 0.048750356123040801 0.012668635464480613 0 0.047174672725825539 0.013814826389506837 0 0.048470205751695333 0.014636442850787862 0 0.050348458104334484 0.01343645829264188 0 0.048750356123040801 0.012668635464480613 0 0.047879324085189294 0.013993085685455164 0 0.049220129327668984 0.013264333934430871 0 0.048127384241758837 0.012601717886941146 0 0.047879324085189294 0.013993085685455164 0 0.048127384241758837 0.012601717886941146 0 0.04673490773476071 0.012700345555372057 0 0.050821984262224819 0.014042537747404674 0 0.049220129327668984 0.013264333934430871 0 0.050096395506560233 0.012360697417729443 0 0.051277167597578284 0.013318795803313853 0 0.048333722160694516 0.013335853885655051 0 0.050821984262224819 0.014042537747404674 0 0.047879324085189294 0.013993085685455164 0 0.049220129327668984 0.013264333934430871 0 0.050074831784885754 0.012411053007205229 0 0.048780033568439185 0.011175463824200106 0 0.049220129327668984 0.013264333934430871 0 0.050096395506560233 0.012360697417729443 0 0.048127384241758837 0.012601717886941146 0 0.050096395506560233 0.012360697417729443 0 0.048127384241758837 0.012601717886941146 0 0.04825631374175976 0.011170069640749758 0 0.048127384241758837 0.012601717886941146 0 0.04825631374175976 0.011170069640749758 0 0.047155429712475196 0.012086716345071257 0 0.048127384241758837 0.012601717886941146 0 0.047155429712475196 0.012086716345071257 0 0.04673490773476071 0.012700345555372057 0 0.048780033568439185 0.011175463824200106 0 0.049258609071279706 0.011290383822180144 0 0.04825631374175976 0.011170069640749758 0 0.046929110585378596 0.010534628984618925 0 0.047014554268093665 0.011427190020046711 0 0.04825631374175976 0.011170069640749758 0 0.047014554268093665 0.011427190020046711 0 0.047155429712475196 0.012086716345071257 0 0.048980926030488828 0.010744459423104142 0 0.050048922057510874 0.010462110324699344 0 0.049339204407442487 0.0099079701181955769 0 0.049616461389105901 0.011402075742461151 0 0.048980926030488828 0.010744459423104142 0 0.050048922057510874 0.010462110324699344 0 0.050096395506560233 0.012360697417729443 0 0.049616461389105901 0.011402075742461151 0 0.050866946382030098 0.011206193714318727 0 0.049616461389105901 0.011402075742461151 0 0.050048922057510874 0.010462110324699344 0 0.050866946382030098 0.011206193714318727 0 0.051623226132351333 0.012245537507929626 0 0.050866946382030098 0.011206193714318727 0 0.052123301014046053 0.011350406526054714 0 0.050866946382030098 0.011206193714318727 0 0.052123301014046053 0.011350406526054714 0 0.051853919387505158 0.010222763359638062 0 0.055211370244661634 0.012503866985595562 0 0.054638617989252541 0.012636461940728597 0 0.053510292064553822 0.011099595932413187 0 0.053009510781187208 0.012199048447272987 0 0.052123301014046053 0.011350406526054714 0 0.053510292064553822 0.011099595932413187 0 0.052123301014046053 0.011350406526054714 0 0.051853919387505158 0.010222763359638062 0 0.050048922057510874 0.010462110324699344 0 0.050866946382030098 0.011206193714318727 0 0.051853919387505158 0.010222763359638062 0 0.050048922057510874 0.010462110324699344 0 0.051853919387505158 0.010222763359638062 0 0.050729550734261747 0.0096585908218391123 0 0.054638617989252541 0.012636461940728597 0 0.053611973382971502 0.01233769541005012 0 0.057270618185971581 0.015430926162657321 0 0.057340091459890295 0.014981017679948198 0 0.056922610627117974 0.015393659744972787 0 0.057270618185971581 0.015430926162657321 0 0.056803029967744195 0.014853398978182013 0 0.057340091459890295 0.014981017679948198 0 0.057270618185971581 0.015430926162657321 0 0.056942591117025154 0.015402162652700417 0 0.056982261298309973 0.015446346797583015 0 0.057270618185971581 0.015430926162657321 0 0.056922610627117974 0.015393659744972787 0 0.056942591117025154 0.015402162652700417 0 0.056922610627117974 0.015393659744972787 0 0.056942591117025154 0.015402162652700417 0 0.056723768600753899 0.015359805926644023 0 0.053611973382971502 0.01233769541005012 0 0.054522894476476631 0.012756205576239462 0 0.056922610627117974 0.015393659744972787 0 0.056475764646837054 0.015353031163002514 0 0.056723768600753899 0.015359805926644023 0 0.050729550734261747 0.0096585908218391123 0 0.049849627304866848 0.009062422454755541 0 0.049339204407442487 0.0099079701181955769 0 0.049849627304866848 0.009062422454755541 0 0.049339204407442487 0.0099079701181955769 0 0.048608988919861595 0.0092842867331011918 0 0.050048922057510874 0.010462110324699344 0 0.050729550734261747 0.0096585908218391123 0 0.049339204407442487 0.0099079701181955769 0 0.022258638297514843 0.011636323138122403 0 0.0224532070633407 0.010958494322928248 0 0.021345250326924522 0.011213024420310623 0 0.022258638297514843 0.011636323138122403 0 0.02310257756831911 0.011500732448122457 0 0.0224532070633407 0.010958494322928248 0 0.035644455059511117 0.010898609201229635 0 0.022240599515682694 0.0096468760119108356 0 0.022258638297514843 0.011636323138122403 0 0.02310257756831911 0.011500732448122457 0 0.022774815091076223 0.012360007840704483 0 0.048980926030488828 0.010744459423104142 0 0.049339204407442487 0.0099079701181955769 0 0.048224318515355476 0.010241004968673013 0 0.049339204407442487 0.0099079701181955769 0 0.048224318515355476 0.010241004968673013 0 0.048608988919861595 0.0092842867331011918 0 0.023839341492072619 0.010209545338102572 0 0.022829729537931023 0.01075518792664538 0 0.023007927183522216 0.0097732185230310267 0 0.023470363736056692 0.011055587048801805 0 0.023839341492072619 0.010209545338102572 0 0.022829729537931023 0.01075518792664538 0 0.035644455059511117 0.010898609201229635 0 0.035710627696496577 0.0094378594225888613 0 0.0224532070633407 0.010958494322928248 0 0.021920528193343898 0.010319789035477396 0 0.021345250326924522 0.011213024420310623 0 0.022829729537931023 0.01075518792664538 0 0.021920528193343898 0.010319789035477396 0 0.023007927183522216 0.0097732185230310267 0 0.022240599515682694 0.0096468760119108356 0 0.022286688028123565 0.01056759537755611 0 0.021920528193343898 0.010319789035477396 0 0.021345250326924522 0.011213024420310623 0 0.020780403663115728 0.010392127617355343 0 0.021345250326924522 0.011213024420310623 0 0.02010360895069932 0.0111894935103485 0 0.020780403663115728 0.010392127617355343 0 0.02010360895069932 0.0111894935103485 0 0.019263277006230442 0.011235072216534366 0 0.019661506236573898 0.0103901478931094 0 0.02010360895069932 0.0111894935103485 0 0.019661506236573898 0.0103901478931094 0 0.020780403663115728 0.010392127617355343 0 0.02010360895069932 0.0111894935103485 0 0.019591232962111696 0.011750836440166983 0 0.019263277006230442 0.011235072216534366 0 0.021345250326924522 0.011213024420310623 0 0.02010360895069932 0.0111894935103485 0 0.020370598901534021 0.01194007196288515 0 0.02010360895069932 0.0111894935103485 0 0.020370598901534021 0.01194007196288515 0 0.019591232962111696 0.011750836440166983 0 0.020370598901534021 0.01194007196288515 0 0.019641967686978942 0.012485101277978101 0 0.019591232962111696 0.011750836440166983 0 0.022258638297514843 0.011636323138122403 0 0.021399093065183467 0.011917562282344188 0 0.021774980425400547 0.012636998199349872 0 0.022258638297514843 0.011636323138122403 0 0.021345250326924522 0.011213024420310623 0 0.021399093065183467 0.011917562282344188 0 0.021345250326924522 0.011213024420310623 0 0.020370598901534021 0.01194007196288515 0 0.021399093065183467 0.011917562282344188 0 0.021399093065183467 0.011917562282344188 0 0.021774980425400547 0.012636998199349872 0 0.020405480617637153 0.013314381473963341 0 0.020370598901534021 0.01194007196288515 0 0.021399093065183467 0.011917562282344188 0 0.020405480617637153 0.013314381473963341 0 0.020370598901534021 0.01194007196288515 0 0.020405480617637153 0.013314381473963341 0 0.019641967686978942 0.012485101277978101 0 0.014772758613496985 0.0031814168354534372 0 0.015143961955753788 0.0039961812713064761 0 0.014166285943986997 0.0039484778902515684 0 0.014772758613496985 0.0031814168354534372 0 0.014166285943986997 0.0039484778902515684 0 0.013861599685412306 0.0035691646058225294 0 0.01468473017742981 0.0076975101812789297 0 0.031340662926754193 0.0090398370295772766 0 0.021774980425400547 0.012636998199349872 0 0.020405480617637153 0.013314381473963341 0 0.022401589232378671 0.013369531877780512 0 0.014772758613496985 0.0031814168354534372 0 0.016500465663421622 0.0034086968614826978 0 0.015143961955753788 0.0039961812713064761 0 0.045038734520051027 0.011699182003022708 0 0.045558543800814734 0.010650275060864458 0 0.046164625336091662 0.011054711754237662 0 0.022258638297514843 0.011636323138122403 0 0.021774980425400547 0.012636998199349872 0 0.022774815091076223 0.012360007840704483 0 0.021774980425400547 0.012636998199349872 0 0.022401589232378671 0.013369531877780512 0 0.022774815091076223 0.012360007840704483 0 0.031340662926754193 0.0090398370295772766 0 0.033955161507589524 0.011884398468935478 0 0.035644455059511117 0.010898609201229635 0 0.033955161507589524 0.011884398468935478 0 0.046929110585378596 0.010534628984618925 0 0.045558543800814734 0.010650275060864458 0 0.046164625336091662 0.011054711754237662 0 0.049258609071279706 0.011290383822180144 0 0.035644455059511117 0.010898609201229635 0 0.046929110585378596 0.010534628984618925 0 0.045849235148314307 0.0098741456584780403 0 0.045558543800814734 0.010650275060864458 0 0.031340662926754193 0.0090398370295772766 0 0.05253125650560668 0.012360506798097026 0 0.045038734520051027 0.011699182003022708 0 0.046164625336091662 0.011054711754237662 0 0.047014554268093665 0.011427190020046711 0 0.045441653769991056 0.011096284459613233 0 0.047014554268093665 0.011427190020046711 0 0.046292436189033191 0.011860727505647223 0 0.046929110585378596 0.010534628984618925 0 0.046164625336091662 0.011054711754237662 0 0.047014554268093665 0.011427190020046711 0 0.047014554268093665 0.011427190020046711 0 0.047155429712475196 0.012086716345071257 0 0.046292436189033191 0.011860727505647223 0 0.046292436189033191 0.011860727505647223 0 0.045797291206459555 0.012405539213292013 0 0.04673490773476071 0.012700345555372057 0 0.047155429712475196 0.012086716345071257 0 0.046292436189033191 0.011860727505647223 0 0.04673490773476071 0.012700345555372057 0 0.045441653769991056 0.011096284459613233 0 0.045797291206459555 0.012405539213292013 0 0.044922872522229346 0.012409823041945508 0 0.045441653769991056 0.011096284459613233 0 0.046292436189033191 0.011860727505647223 0 0.045797291206459555 0.012405539213292013 0 0.031340662926754193 0.0090398370295772766 0 0.030398822464952183 0.0081722652015058361 0 0.045797291206459555 0.012405539213292013 0 0.045844467343339239 0.013406120601154748 0 0.044922872522229346 0.012409823041945508 0 0.045797291206459555 0.012405539213292013 0 0.04673490773476071 0.012700345555372057 0 0.045844467343339239 0.013406120601154748 0 0.047879324085189294 0.013993085685455164 0 0.04673490773476071 0.012700345555372057 0 0.045844467343339239 0.013406120601154748 0 0.048333722160694516 0.013335853885655051 0 0.046034747380225761 0.013410421220659432 0 0.048750356123040801 0.012668635464480613 0 0.047174672725825539 0.013814826389506837 0 0.045844467343339239 0.013406120601154748 0 0.047174672725825539 0.013814826389506837 0 0.045844467343339239 0.013406120601154748 0 0.046001831471032727 0.014186955482968748 0 0.045844467343339239 0.013406120601154748 0 0.045174207822822228 0.014316574635986939 0 0.0442651024806862 0.013625473829664959 0 0.045844467343339239 0.013406120601154748 0 0.046001831471032727 0.014186955482968748 0 0.045174207822822228 0.014316574635986939 0 0.046001831471032727 0.014186955482968748 0 0.04588752202633218 0.015224120320498469 0 0.045174207822822228 0.014316574635986939 0 0.044741699110008679 0.015368959781146925 0 0.04588752202633218 0.015224120320498469 0 0.045174207822822228 0.014316574635986939 0 0.04736298159717979 0.013075335492058549 0 0.045918813046885963 0.017498262370946403 0 0.047713138657666541 0.016061440383398552 0 0.048470205751695333 0.014636442850787862 0 0.046475756878734224 0.015506564543624415 0 0.047174672725825539 0.013814826389506837 0 0.046001831471032727 0.014186955482968748 0 0.04588752202633218 0.015224120320498469 0 0.048470205751695333 0.014636442850787862 0 0.047174672725825539 0.013814826389506837 0 0.046475756878734224 0.015506564543624415 0 0.014477977794170177 0.0068403620332902855 0 0.015153457192446883 0.005780120858231718 0 0.013614524721354678 0.0063733775932511456 0 0.029114978440042197 0.010664455190505621 0 0.029673652269914006 0.0098190568663777608 0 0.044741699110008679 0.015368959781146925 0 0.045174207822822228 0.014316574635986939 0 0.043562458448801793 0.014967205850957668 0 0.045174207822822228 0.014316574635986939 0 0.043562458448801793 0.014967205850957668 0 0.0442651024806862 0.013625473829664959 0 0.015153457192446883 0.005780120858231718 0 0.013771959450290737 0.0053823400753763235 0 0.013614524721354678 0.0063733775932511456 0 0.015153457192446883 0.005780120858231718 0 0.014558117341792026 0.0047271178144735948 0 0.013771959450290737 0.0053823400753763235 0 0.045844467343339239 0.013406120601154748 0 0.0442651024806862 0.013625473829664959 0 0.044922872522229346 0.012409823041945508 0 0.015153457192446883 0.005780120858231718 0 0.014558117341792026 0.0047271178144735948 0 0.015823046702922484 0.0046642273888384137 0 0.029673652269914006 0.0098190568663777608 0 0.030398822464952183 0.0081722652015058361 0 0.016500465663421622 0.0034086968614826978 0 0.015823046702922484 0.0046642273888384137 0 0.015143961955753788 0.0039961812713064761 0 0.014558117341792026 0.0047271178144735948 0 0.015823046702922484 0.0046642273888384137 0 0.015143961955753788 0.0039961812713064761 0 0.014558117341792026 0.0047271178144735948 0 0.015143961955753788 0.0039961812713064761 0 0.014166285943986997 0.0039484778902515684 0 0.014558117341792026 0.0047271178144735948 0 0.014166285943986997 0.0039484778902515684 0 0.013710125790472042 0.0045150214882695673 0 0.014166285943986997 0.0039484778902515684 0 0.013591556437137234 0.0039701452727857424 0 0.013710125790472042 0.0045150214882695673 0 0.013710125790472042 0.0045150214882695673 0 0.013232849282256038 0.0041071528065870474 0 0.013035415763216348 0.0048807665982313507 0 0.013591556437137234 0.0039701452727857424 0 0.013710125790472042 0.0045150214882695673 0 0.013232849282256038 0.0041071528065870474 0 0.013591556437137234 0.0039701452727857424 0 0.013232849282256038 0.0041071528065870474 0 0.013210246972969396 0.0038962681380931069 0 0.013232849282256038 0.0041071528065870474 0 0.013035415763216348 0.0048807665982313507 0 0.013217718528340864 0.0039065383656063718 0 0.011617744569518843 0.0061169356439910285 0 0.013765383179298067 0.0074462327617869761 0 0.010477593445226216 0.0080002742927593722 0 0.010368174560177636 0.0076707862726183356 0 0.0099057234277956166 0.0085730694952517346 0 0.010340150626893479 0.0084083491988486588 0 0.010477593445226216 0.0080002742927593722 0 0.0099057234277956166 0.0085730694952517346 0 0.010340150626893479 0.0084083491988486588 0 0.010299198521994568 0.0086774994537118476 0 0.0099057234277956166 0.0085730694952517346 0 0.010340150626893479 0.0084083491988486588 0 0.010511084944671789 0.0085323113727174341 0 0.010299198521994568 0.0086774994537118476 0 0.01349532590067277 0.0057882287100709607 0 0.013765383179298067 0.0074462327617869761 0 0.010340150626893479 0.0084083491988486588 0 0.010477593445226216 0.0080002742927593722 0 0.010647475589001783 0.008183203851043477 0 0.010477593445226216 0.0080002742927593722 0 0.010368174560177636 0.0076707862726183356 0 0.01096277298770962 0.00743027819000218 0 0.011617744569518843 0.0061169356439910285 0 0.011972697360876338 0.0065723958950193243 0 0.010368174560177636 0.0076707862726183356 0 0.011132907585101373 0.0070316829247347263 0 0.01096277298770962 0.00743027819000218 0 0.014558117341792026 0.0047271178144735948 0 0.013710125790472042 0.0045150214882695673 0 0.013771959450290737 0.0053823400753763235 0 0.013710125790472042 0.0045150214882695673 0 0.013035415763216348 0.0048807665982313507 0 0.013771959450290737 0.0053823400753763235 0 0.013035415763216348 0.0048807665982313507 0 0.013771959450290737 0.0053823400753763235 0 0.012776368410974542 0.0058433553360146152 0 0.013771959450290737 0.0053823400753763235 0 0.012776368410974542 0.0058433553360146152 0 0.013614524721354678 0.0063733775932511456 0 0.011972697360876338 0.0065723958950193243 0 0.012212734481236933 0.0069119896495073094 0 0.011132907585101373 0.0070316829247347263 0 0.012330054218660968 0.0068759242340786326 0 0.011509747155558595 0.0068934531100832541 0 0.012776368410974542 0.0058433553360146152 0 0.012330054218660968 0.0068759242340786326 0 0.013614524721354678 0.0063733775932511456 0 0.01314794729624943 0.0073232158211371558 0 0.014477977794170177 0.0068403620332902855 0 0.013614524721354678 0.0063733775932511456 0 0.01314794729624943 0.0073232158211371558 0 0.012330054218660968 0.0068759242340786326 0 0.013614524721354678 0.0063733775932511456 0 0.01116848296835915 0.0067959305468130926 0 0.011394806301554343 0.0069404498924369841 0 0.011243679805026921 0.0070121886973668352 0 0.011394806301554343 0.0069404498924369841 0 0.011509747155558595 0.0068934531100832541 0 0.011243679805026921 0.0070121886973668352 0 0.011886539439869715 0.0071118764423249792 0 0.011394806301554343 0.0069404498924369841 0 0.011509747155558595 0.0068934531100832541 0 0.011886539439869715 0.0071118764423249792 0 0.012330054218660968 0.0068759242340786326 0 0.011509747155558595 0.0068934531100832541 0 0.011509747155558595 0.0068934531100832541 0 0.011243679805026921 0.0070121886973668352 0 0.01096277298770962 0.00743027819000218 0 0.011132907585101373 0.0070316829247347263 0 0.011509747155558595 0.0068934531100832541 0 0.01096277298770962 0.00743027819000218 0 0.011114066971329046 0.0072715531067838006 0 0.011243679805026921 0.0070121886973668352 0 0.011056300458108048 0.0074920840996873534 0 0.011243679805026921 0.0070121886973668352 0 0.011056300458108048 0.0074920840996873534 0 0.01096277298770962 0.00743027819000218 0 0.011034342969003397 0.0078507848469788165 0 0.011114066971329046 0.0072715531067838006 0 0.011056300458108048 0.0074920840996873534 0 0.011034342969003397 0.0078507848469788165 0 0.011056300458108048 0.0074920840996873534 0 0.010885340637734203 0.0080415874333919762 0 0.011056300458108048 0.0074920840996873534 0 0.01096277298770962 0.00743027819000218 0 0.010885340637734203 0.0080415874333919762 0 0.010477593445226216 0.0080002742927593722 0 0.01096277298770962 0.00743027819000218 0 0.010647475589001783 0.008183203851043477 0 0.01096277298770962 0.00743027819000218 0 0.010647475589001783 0.008183203851043477 0 0.010885340637734203 0.0080415874333919762 0 0.010647475589001783 0.008183203851043477 0 0.010885340637734203 0.0080415874333919762 0 0.010660725969157198 0.0086128228248906619 0 0.010885340637734203 0.0080415874333919762 0 0.010832524456567398 0.0085939185280834145 0 0.010660725969157198 0.0086128228248906619 0 0.010647475589001783 0.008183203851043477 0 0.010511084944671789 0.0085323113727174341 0 0.010660725969157198 0.0086128228248906619 0 0.010340150626893479 0.0084083491988486588 0 0.010647475589001783 0.008183203851043477 0 0.010511084944671789 0.0085323113727174341 0 0.011034342969003397 0.0078507848469788165 0 0.010885340637734203 0.0080415874333919762 0 0.010951683334210944 0.0083845169165257128 0 0.010885340637734203 0.0080415874333919762 0 0.010951683334210944 0.0083845169165257128 0 0.010832524456567398 0.0085939185280834145 0 0.01099646304225871 0.0086878181341167298 0 0.010951683334210944 0.0083845169165257128 0 0.010918102918550582 0.0089658441748490334 0 0.010951683334210944 0.0083845169165257128 0 0.010918102918550582 0.0089658441748490334 0 0.010832524456567398 0.0085939185280834145 0 0.010918102918550582 0.0089658441748490334 0 0.010832524456567398 0.0085939185280834145 0 0.01076475344780563 0.0089947063116089139 0 0.010918102918550582 0.0089658441748490334 0 0.01076475344780563 0.0089947063116089139 0 0.010847064393524919 0.0092949523129825882 0 0.01076475344780563 0.0089947063116089139 0 0.010847064393524919 0.0092949523129825882 0 0.01070097814641547 0.0093455022559397628 0 0.010999148331295812 0.0091177852763616903 0 0.010918102918550582 0.0089658441748490334 0 0.010951610634637734 0.0095765229756174745 0 0.010918102918550582 0.0089658441748490334 0 0.010847064393524919 0.0092949523129825882 0 0.010951610634637734 0.0095765229756174745 0 0.010847064393524919 0.0092949523129825882 0 0.010951610634637734 0.0095765229756174745 0 0.010809642934171427 0.0096759975832863276 0 0.010847064393524919 0.0092949523129825882 0 0.010809642934171427 0.0096759975832863276 0 0.01070097814641547 0.0093455022559397628 0 0.010809642934171427 0.0096759975832863276 0 0.010970142804626866 0.010261959628848873 0 0.010829177316306381 0.010202174840444061 0 0.010951610634637734 0.0095765229756174745 0 0.010809642934171427 0.0096759975832863276 0 0.010970142804626866 0.010261959628848873 0 0.010501193910237688 0.0099402876488464045 0 0.010585212057530611 0.0095949596422421068 0 0.010829177316306381 0.010202174840444061 0 0.010809642934171427 0.0096759975832863276 0 0.010585212057530611 0.0095949596422421068 0 0.010829177316306381 0.010202174840444061 0 0.010585212057530611 0.0095949596422421068 0 0.010575462343173931 0.0091258801465595209 0 0.01070097814641547 0.0093455022559397628 0 0.010809642934171427 0.0096759975832863276 0 0.010585212057530611 0.0095949596422421068 0 0.01070097814641547 0.0093455022559397628 0 0.010501193910237688 0.0099402876488464045 0 0.010585212057530611 0.0095949596422421068 0 0.010349442217534763 0.0095759951316745709 0 0.010585212057530611 0.0095949596422421068 0 0.010385801353004541 0.0092341602034873849 0 0.010349442217534763 0.0095759951316745709 0 0.010585212057530611 0.0095949596422421068 0 0.010575462343173931 0.0091258801465595209 0 0.010385801353004541 0.0092341602034873849 0 0.010575462343173931 0.0091258801465595209 0 0.010420396054029805 0.0088567892095043899 0 0.010385801353004541 0.0092341602034873849 0 0.01076475344780563 0.0089947063116089139 0 0.010575462343173931 0.0091258801465595209 0 0.01070097814641547 0.0093455022559397628 0 0.010832524456567398 0.0085939185280834145 0 0.01076475344780563 0.0089947063116089139 0 0.010660725969157198 0.0086128228248906619 0 0.01076475344780563 0.0089947063116089139 0 0.010575462343173931 0.0091258801465595209 0 0.010660725969157198 0.0086128228248906619 0 0.010511084944671789 0.0085323113727174341 0 0.010660725969157198 0.0086128228248906619 0 0.010420396054029805 0.0088567892095043899 0 0.010575462343173931 0.0091258801465595209 0 0.010660725969157198 0.0086128228248906619 0 0.010420396054029805 0.0088567892095043899 0 0.013765383179298067 0.0074462327617869761 0 0.017630151665282867 0.010316011009658201 0 0.013210246972969396 0.0038962681380931069 0 0.013491192171522179 0.0036252544431422252 0 0.013302802352207621 0.0030650340099166408 0 0.013765383179298067 0.0074462327617869761 0 0.013916552226506142 0.011474181104093102 0 0.017597226775411177 0.011796255114713251 0 0.017645909156943643 0.011891033080874849 0 0.017678168185849316 0.01192751797744652 0 0.0099057234277956166 0.0085730694952517346 0 0.010172200896195058 0.0092763836843263222 0 0.01004292351305788 0.009861897006309326 0 0.010299198521994568 0.0086774994537118476 0 0.010246704383455157 0.0089268219849016825 0 0.0099057234277956166 0.0085730694952517346 0 0.010511084944671789 0.0085323113727174341 0 0.010420396054029805 0.0088567892095043899 0 0.010299198521994568 0.0086774994537118476 0 0.017597226775411177 0.011796255114713251 0 0.017629606163199175 0.011886397525508999 0 0.017645909156943643 0.011891033080874849 0 0.010420396054029805 0.0088567892095043899 0 0.010299198521994568 0.0086774994537118476 0 0.010246704383455157 0.0089268219849016825 0 0.010246704383455157 0.0089268219849016825 0 0.0099057234277956166 0.0085730694952517346 0 0.010172200896195058 0.0092763836843263222 0 0.010246704383455157 0.0089268219849016825 0 0.010172200896195058 0.0092763836843263222 0 0.010385801353004541 0.0092341602034873849 0 0.010420396054029805 0.0088567892095043899 0 0.010246704383455157 0.0089268219849016825 0 0.010385801353004541 0.0092341602034873849 0 0.01468473017742981 0.0076975101812789297 0 0.017630151665282867 0.010316011009658201 0 0.014772758613496985 0.0031814168354534372 0 0.013861599685412306 0.0035691646058225294 0 0.013302802352207621 0.0030650340099166408 0 0.014166285943986997 0.0039484778902515684 0 0.013591556437137234 0.0039701452727857424 0 0.013861599685412306 0.0035691646058225294 0 0.013591556437137234 0.0039701452727857424 0 0.013861599685412306 0.0035691646058225294 0 0.013491192171522179 0.0036252544431422252 0 0.013591556437137234 0.0039701452727857424 0 0.013210246972969396 0.0038962681380931069 0 0.013491192171522179 0.0036252544431422252 0 0.013861599685412306 0.0035691646058225294 0 0.013491192171522179 0.0036252544431422252 0 0.013302802352207621 0.0030650340099166408 0 0.020405480617637153 0.013314381473963341 0 0.019641967686978942 0.012485101277978101 0 0.018709442382133113 0.013098849758528241 0 0.019641967686978942 0.012485101277978101 0 0.018709442382133113 0.013098849758528241 0 0.018825134103960584 0.011780786813597417 0 0.017630151665282867 0.010316011009658201 0 0.018359922096332495 0.012187897669077076 0 0.017645608754664335 0.011925528765155574 0 0.017678168185849316 0.01192751797744652 0 0.017860830179368833 0.011752159807213104 0 0.010172200896195058 0.0092763836843263222 0 0.010349442217534763 0.0095759951316745709 0 0.01004292351305788 0.009861897006309326 0 0.010172200896195058 0.0092763836843263222 0 0.010385801353004541 0.0092341602034873849 0 0.010349442217534763 0.0095759951316745709 0 0.017645608754664335 0.011925528765155574 0 0.017645909156943643 0.011891033080874849 0 0.017678168185849316 0.01192751797744652 0 0.017630151665282867 0.010316011009658201 0 0.017674767987736203 0.010422734858066499 0 0.010501193910237688 0.0099402876488464045 0 0.01004292351305788 0.009861897006309326 0 0.010639947476036143 0.010353766182906661 0 0.010501193910237688 0.0099402876488464045 0 0.010349442217534763 0.0095759951316745709 0 0.01004292351305788 0.009861897006309326 0 0.01004292351305788 0.009861897006309326 0 0.010735569538473157 0.01092433721729022 0 0.010639947476036143 0.010353766182906661 0 0.017678168185849316 0.01192751797744652 0 0.017860830179368833 0.011752159807213104 0 0.017426540447265867 0.011405846229228805 0 0.013916552226506142 0.011474181104093102 0 0.014069562460406309 0.010976176582668454 0 0.019641967686978942 0.012485101277978101 0 0.018825134103960584 0.011780786813597417 0 0.019591232962111696 0.011750836440166983 0 0.018825134103960584 0.011780786813597417 0 0.019591232962111696 0.011750836440166983 0 0.019263277006230442 0.011235072216534366 0 0.018825134103960584 0.011780786813597417 0 0.019263277006230442 0.011235072216534366 0 0.018390131770769782 0.010661765099984245 0 0.018359922096332495 0.012187897669077076 0 0.018406076170727814 0.010488870571163197 0 0.019263277006230442 0.011235072216534366 0 0.018390131770769782 0.010661765099984245 0 0.019661506236573898 0.0103901478931094 0 0.017860830179368833 0.011752159807213104 0 0.017426540447265867 0.011405846229228805 0 0.018390131770769782 0.010661765099984245 0 0.017426540447265867 0.011405846229228805 0 0.017527053009960245 0.010487203411682725 0 0.018390131770769782 0.010661765099984245 0 0.010735569538473157 0.01092433721729022 0 0.01105406679567518 0.010840353496702995 0 0.011408351365849964 0.011135426266825019 0 0.01105406679567518 0.010840353496702995 0 0.011281939178462971 0.011121069715034675 0 0.011408351365849964 0.011135426266825019 0 0.011123072311811123 0.011194488499416509 0 0.011281939178462971 0.011121069715034675 0 0.011094575566937609 0.010836778346274049 0 0.01105406679567518 0.010840353496702995 0 0.011281939178462971 0.011121069715034675 0 0.011094575566937609 0.010836778346274049 0 0.011094575566937609 0.010836778346274049 0 0.010970142804626866 0.010261959628848873 0 0.010829177316306381 0.010202174840444061 0 0.011049568793811337 0.010740309214865625 0 0.011094575566937609 0.010836778346274049 0 0.010970142804626866 0.010261959628848873 0 0.01105406679567518 0.010840353496702995 0 0.011094575566937609 0.010836778346274049 0 0.010829177316306381 0.010202174840444061 0 0.01105406679567518 0.010840353496702995 0 0.010829177316306381 0.010202174840444061 0 0.010639947476036143 0.010353766182906661 0 0.010501193910237688 0.0099402876488464045 0 0.010829177316306381 0.010202174840444061 0 0.010639947476036143 0.010353766182906661 0 0.010735569538473157 0.01092433721729022 0 0.01105406679567518 0.010840353496702995 0 0.010639947476036143 0.010353766182906661 0 0.012463290133561563 0.010231428991565487 0 0.01166570270912576 0.010667953926036955 0 0.011582808674689036 0.010427283481528212 0 0.014305002163991642 0.01040254333421925 0 0.014139343873687104 0.0078115859304241841 0 0.012463290133561563 0.010231428991565487 0 0.012186917577046628 0.011273315474814811 0 0.014206781687589209 0.0078662743839390432 0 0.012463290133561563 0.010231428991565487 0 0.01166570270912576 0.010667953926036955 0 0.011668384199070557 0.011138088706195615 0 0.012463290133561563 0.010231428991565487 0 0.011668384199070557 0.011138088706195615 0 0.012186917577046628 0.011273315474814811 0 0.01114358558174023 0.011233842614582421 0 0.011409418819186903 0.010808758406296508 0 0.011346670684471849 0.011117217409018731 0 0.01166570270912576 0.010667953926036955 0 0.011346670684471849 0.011117217409018731 0 0.011668384199070557 0.011138088706195615 0 0.01166570270912576 0.010667953926036955 0 0.011409418819186903 0.010808758406296508 0 0.011346670684471849 0.011117217409018731 0 0.011281939178462971 0.011121069715034675 0 0.011346670684471849 0.011117217409018731 0 0.011668384199070557 0.011138088706195615 0 0.011123072311811123 0.011194488499416509 0 0.011281939178462971 0.011121069715034675 0 0.011346670684471849 0.011117217409018731 0 0.011281939178462971 0.011121069715034675 0 0.011668384199070557 0.011138088706195615 0 0.011408351365849964 0.011135426266825019 0 0.010735569538473157 0.01092433721729022 0 0.011408351365849964 0.011135426266825019 0 0.012186917577046628 0.011273315474814811 0 0.011668384199070557 0.011138088706195615 0 0.011408351365849964 0.011135426266825019 0 0.012186917577046628 0.011273315474814811 0 0.017426540447265867 0.011405846229228805 0 0.017527053009960245 0.010487203411682725 0 0.016492339834575702 0.0099784507842541996 0 0.014069562460406309 0.010976176582668454 0 0.014305002163991642 0.01040254333421925 0 0.017527053009960245 0.010487203411682725 0 0.017840093128933039 0.0097944229888560531 0 0.018390131770769782 0.010661765099984245 0 0.017527053009960245 0.010487203411682725 0 0.017840093128933039 0.0097944229888560531 0 0.016492339834575702 0.0099784507842541996 0 0.017840093128933039 0.0097944229888560531 0 0.018390131770769782 0.010661765099984245 0 0.019002567121731741 0.0094255336024078439 0 0.018390131770769782 0.010661765099984245 0 0.019002567121731741 0.0094255336024078439 0 0.019661506236573898 0.0103901478931094 0 0.019002567121731741 0.0094255336024078439 0 0.017819750742775864 0.0086142658191748697 0 0.019699362794936885 0.0081934084948156235 0 0.017840093128933039 0.0097944229888560531 0 0.019002567121731741 0.0094255336024078439 0 0.017819750742775864 0.0086142658191748697 0 0.016492339834575702 0.0099784507842541996 0 0.017819750742775864 0.0086142658191748697 0 0.014206781687589209 0.0078662743839390432 0 0.017840093128933039 0.0097944229888560531 0 0.016492339834575702 0.0099784507842541996 0 0.017819750742775864 0.0086142658191748697 0 0.018218568688575847 0.0093417540001985849 0 0.014787065221914964 0.005386488565874546 0 0.017819750742775864 0.0086142658191748697 0 0.014665999877408803 0.0071260029003853741 0 0.014206781687589209 0.0078662743839390432 0 0.017819750742775864 0.0086142658191748697 0 0.018457381052251445 0.0074404459224512842 0 0.017080532382755812 0.0074387056286154855 0 0.017819750742775864 0.0086142658191748697 0 0.018457381052251445 0.0074404459224512842 0 0.019699362794936885 0.0081934084948156235 0 0.018457381052251445 0.0074404459224512842 0 0.017910943615172852 0.0065685474160185166 0 0.02018427770518498 0.0064767218403220059 0 0.026544072469486066 0.040179991300021659 0 0.02733110748504158 0.039607278731772277 0 0.030759645875071635 0.040333581684338822 0 0.023059534194467612 0.024136818945896827 0 0.024509399363255521 0.023317980949819996 0 0.018457381052251445 0.0074404459224512842 0 0.017910943615172852 0.0065685474160185166 0 0.017080532382755812 0.0074387056286154855 0 0.014787065221914964 0.005386488565874546 0 0.017576034409305046 0.017615023438106329 0 0.017910943615172852 0.0065685474160185166 0 0.017080532382755812 0.0074387056286154855 0 0.016272828780326123 0.0066469407101904026 0 0.013496358457574001 0.0070009048731178355 0 0.014665999877408803 0.0071260029003853741 0 0.012905042772393046 0.0057243732601113591 0 0.013496358457574001 0.0070009048731178355 0 0.012490133610049088 0.0074989432618752169 0 0.012905042772393046 0.0057243732601113591 0 0.023059534194467612 0.024136818945896827 0 0.017576034409305046 0.017615023438106329 0 0.012463290133561563 0.010231428991565487 0 0.014206781687589209 0.0078662743839390432 0 0.012490133610049088 0.0074989432618752169 0 0.013496358457574001 0.0070009048731178355 0 0.014665999877408803 0.0071260029003853741 0 0.014206781687589209 0.0078662743839390432 0 0.012849661369274764 0.010735582497224514 0 0.011524464314928458 0.0077088272679899685 0 0.013496358457574001 0.0070009048731178355 0 0.014206781687589209 0.0078662743839390432 0 0.012490133610049088 0.0074989432618752169 0 0.011267595195866724 0.010700378731278885 0 0.011409418819186903 0.010808758406296508 0 0.011582808674689036 0.010427283481528212 0 0.01166570270912576 0.010667953926036955 0 0.011409418819186903 0.010808758406296508 0 0.011582808674689036 0.010427283481528212 0 0.011331842613368896 0.010441399895847817 0 0.011267595195866724 0.010700378731278885 0 0.011582808674689036 0.010427283481528212 0 0.012490133610049088 0.0074989432618752169 0 0.011505289944479281 0.0056721620661584404 0 0.012905042772393046 0.0057243732601113591 0 0.011331842613368896 0.010441399895847817 0 0.01136607547007964 0.010296082784396508 0 0.011582808674689036 0.010427283481528212 0 0.011874306377245477 0.01547862739683795 0 0.011524464314928458 0.0077088272679899685 0 0.011344285691010267 0.0057932373523179826 0 0.012490133610049088 0.0074989432618752169 0 0.011505289944479281 0.0056721620661584404 0 0.012724295900773726 0.019579937588292792 0 0.018907864128021021 0.034520640352916521 0 0.014759705567535782 0.033619127246281938 0 0.014599350083089933 0.032732801919555098 0 0.013902520453147063 0.033268605279687537 0 0.012724295900773726 0.019579937588292792 0 0.017576034409305046 0.017615023438106329 0 0.015715858093369468 0.02223910502321895 0 0.016641034351919552 0.021600387431953898 0 0.017396357339815604 0.022392838257998426 0 0.018907864128021021 0.034520640352916521 0 0.017576034409305046 0.017615023438106329 0 0.023197683925267863 0.039057563264912651 0 0.023863135143497867 0.03976425157076597 0 0.02518574693275244 0.039014251501880523 0 0.023197683925267863 0.039057563264912651 0 0.02518574693275244 0.039014251501880523 0 0.025654241180124954 0.037573172561521546 0 0.026544072469486066 0.040179991300021659 0 0.023863135143497867 0.03976425157076597 0 0.02518574693275244 0.039014251501880523 0 0.020709978504954523 0.039321473000845861 0 0.021172800488954462 0.038109975494817455 0 0.023846165581698307 0.038939208404348835 0 0.018907864128021021 0.034520640352916521 0 0.025171235206111871 0.039089845057476653 0 0.020677826414378587 0.041024633124422935 0 0.020709978504954523 0.039321473000845861 0 0.023846165581698307 0.038939208404348835 0 0.01847114167073689 0.038594849021055193 0 0.020709978504954523 0.039321473000845861 0 0.019721755665349418 0.038184632292868684 0 0.01847114167073689 0.038594849021055193 0 0.020677826414378587 0.041024633124422935 0 0.020709978504954523 0.039321473000845861 0 0.020709978504954523 0.039321473000845861 0 0.019721755665349418 0.038184632292868684 0 0.021172800488954462 0.038109975494817455 0 0.01960004383984805 0.036968534130716081 0 0.021172800488954462 0.038109975494817455 0 0.021655540710080613 0.036052814994868086 0 0.019721755665349418 0.038184632292868684 0 0.01960004383984805 0.036968534130716081 0 0.021172800488954462 0.038109975494817455 0 0.021655540710080613 0.036052814994868086 0 0.024500602373812078 0.034995379246245836 0 0.023846165581698307 0.038939208404348835 0 0.021172800488954462 0.038109975494817455 0 0.021655540710080613 0.036052814994868086 0 0.023846165581698307 0.038939208404348835 0 0.021655540710080613 0.036052814994868086 0 0.024500602373812078 0.034995379246245836 0 0.021956938574240248 0.033564237130145898 0 0.019415183679321706 0.035621104051550244 0 0.01960004383984805 0.036968534130716081 0 0.021655540710080613 0.036052814994868086 0 0.021655540710080613 0.036052814994868086 0 0.020401574901691852 0.034567363245699784 0 0.021956938574240248 0.033564237130145898 0 0.019415183679321706 0.035621104051550244 0 0.021655540710080613 0.036052814994868086 0 0.020401574901691852 0.034567363245699784 0 0.019415183679321706 0.035621104051550244 0 0.020401574901691852 0.034567363245699784 0 0.018965714107837001 0.034382067249044017 0 0.024500602373812078 0.034995379246245836 0 0.027759846284628371 0.036141587171370754 0 0.027823366416806744 0.033289103737501345 0 0.027532402380574614 0.035973526492243668 0 0.025171235206111871 0.039089845057476653 0 0.024500602373812078 0.034995379246245836 0 0.027759846284628371 0.036141587171370754 0 0.023846165581698307 0.038939208404348835 0 0.027759846284628371 0.036141587171370754 0 0.02794088157368621 0.03803211055144326 0 0.029280457936291252 0.03758507902019316 0 0.027759846284628371 0.036141587171370754 0 0.02794088157368621 0.03803211055144326 0 0.025654241180124954 0.037573172561521546 0 0.02794088157368621 0.03803211055144326 0 0.025654241180124954 0.037573172561521546 0 0.026744006462018775 0.038860312244067226 0 0.02518574693275244 0.039014251501880523 0 0.025654241180124954 0.037573172561521546 0 0.026744006462018775 0.038860312244067226 0 0.026544072469486066 0.040179991300021659 0 0.02518574693275244 0.039014251501880523 0 0.026744006462018775 0.038860312244067226 0 0.026544072469486066 0.040179991300021659 0 0.026744006462018775 0.038860312244067226 0 0.02733110748504158 0.039607278731772277 0 0.02794088157368621 0.03803211055144326 0 0.027697817073581803 0.038916916767376138 0 0.030072974415986227 0.039426992866443057 0 0.027697817073581803 0.038916916767376138 0 0.02733110748504158 0.039607278731772277 0 0.030072974415986227 0.039426992866443057 0 0.02794088157368621 0.03803211055144326 0 0.026744006462018775 0.038860312244067226 0 0.027697817073581803 0.038916916767376138 0 0.026744006462018775 0.038860312244067226 0 0.027697817073581803 0.038916916767376138 0 0.02733110748504158 0.039607278731772277 0 0.02733110748504158 0.039607278731772277 0 0.031380472755081767 0.037689881609784238 0 0.030759645875071635 0.040333581684338822 0 0.027576813846239036 0.039548210421400838 0 0.030722699384769205 0.03857141696662672 0 0.031380472755081767 0.037689881609784238 0 0.033457215839598785 0.038559897380915927 0 0.030759645875071635 0.040333581684338822 0 0.031380472755081767 0.037689881609784238 0 0.033457215839598785 0.038559897380915927 0 0.035164220650450391 0.036645513153333635 0 0.030072974415986227 0.039426992866443057 0 0.03102476476573603 0.036555565133941981 0 0.033951345676604197 0.038310843881212309 0 0.030722699384769205 0.03857141696662672 0 0.034554660451073679 0.037442591259670935 0 0.030072974415986227 0.039426992866443057 0 0.029280457936291252 0.03758507902019316 0 0.03102476476573603 0.036555565133941981 0 0.02794088157368621 0.03803211055144326 0 0.030072974415986227 0.039426992866443057 0 0.029280457936291252 0.03758507902019316 0 0.027759846284628371 0.036141587171370754 0 0.03102476476573603 0.036555565133941981 0 0.030583400968466817 0.034200753059419671 0 0.027759846284628371 0.036141587171370754 0 0.029280457936291252 0.03758507902019316 0 0.03102476476573603 0.036555565133941981 0 0.03102476476573603 0.036555565133941981 0 0.032642042349753604 0.034767807951472267 0 0.030583400968466817 0.034200753059419671 0 0.03102476476573603 0.036555565133941981 0 0.032642042349753604 0.034767807951472267 0 0.033951345676604197 0.038310843881212309 0 0.032642042349753604 0.034767807951472267 0 0.030583400968466817 0.034200753059419671 0 0.033516995848012009 0.032805635290875636 0 0.027759846284628371 0.036141587171370754 0 0.030583400968466817 0.034200753059419671 0 0.027823366416806744 0.033289103737501345 0 0.037431214823040473 0.034215470102553665 0 0.035817713636185022 0.033000012606103898 0 0.038127761902184344 0.032383103681477364 0 0.037431214823040473 0.034215470102553665 0 0.035817713636185022 0.033000012606103898 0 0.035226260154787699 0.034872808161535741 0 0.032642042349753604 0.034767807951472267 0 0.035226260154787699 0.034872808161535741 0 0.033516995848012009 0.032805635290875636 0 0.035817713636185022 0.033000012606103898 0 0.035226260154787699 0.034872808161535741 0 0.033516995848012009 0.032805635290875636 0 0.032642042349753604 0.034767807951472267 0 0.035226260154787699 0.034872808161535741 0 0.033951345676604197 0.038310843881212309 0 0.035226260154787699 0.034872808161535741 0 0.033951345676604197 0.038310843881212309 0 0.037946678351252976 0.036168371119009696 0 0.037431214823040473 0.034215470102553665 0 0.035226260154787699 0.034872808161535741 0 0.037946678351252976 0.036168371119009696 0 0.035164220650450391 0.036645513153333635 0 0.036577580401219847 0.038317866577755919 0 0.037946678351252976 0.036168371119009696 0 0.034554660451073679 0.037442591259670935 0 0.037715265816492358 0.036272654487559064 0 0.033457215839598785 0.038559897380915927 0 0.035164220650450391 0.036645513153333635 0 0.036577580401219847 0.038317866577755919 0 0.033457215839598785 0.038559897380915927 0 0.036577580401219847 0.038317866577755919 0 0.034954221995588904 0.04000296491368905 0 0.036577580401219847 0.038317866577755919 0 0.039017671943240746 0.038193171894232103 0 0.037946678351252976 0.036168371119009696 0 0.036577580401219847 0.038317866577755919 0 0.037729486995595522 0.040033413233843698 0 0.039017671943240746 0.038193171894232103 0 0.036577580401219847 0.038317866577755919 0 0.037729486995595522 0.040033413233843698 0 0.034954221995588904 0.04000296491368905 0 0.046416521281940022 0.011303670897226798 0 0.044620719405665039 0.015446527152147154 0 0.040599045213826707 0.010812905621282743 0 0.043117409016430366 0.025936865001398707 0 0.032667592071741504 0.023141641545782219 0 0.046416521281940022 0.011303670897226798 0 0.044620719405665039 0.015446527152147154 0 0.047252874961272402 0.014394236534505236 0 0.023534597242843021 0.008065991350724791 0 0.021441220245181903 0.0079113717249993248 0 0.02232791509861156 0.0088525151201167551 0 0.031101534827601845 0.0082877708437853748 0 0.032667592071741504 0.023141641545782219 0 0.024717745616670145 0.008584199220493095 0 0.022954065415533742 0.00656151698331365 0 0.021441220245181903 0.0079113717249993248 0 0.031101534827601845 0.0082877708437853748 0 0.01851856525005809 0.0077905270230173062 0 0.036725799226805925 0.042597297103656867 0 0.032667592071741504 0.023141641545782219 0 0.032667592071741504 0.023141641545782219 0 0.024509399363255521 0.023317980949819996 0 0.022954065415533742 0.00656151698331365 0 0.02018427770518498 0.0064767218403220059 0 0.021441220245181903 0.0079113717249993248 0 0.033457215839598785 0.038559897380915927 0 0.035097963470352309 0.04045053485859261 0 0.030759645875071635 0.040333581684338822 0 0.018457381052251445 0.0074404459224512842 0 0.02018427770518498 0.0064767218403220059 0 0.019699362794936885 0.0081934084948156235 0 0.02018427770518498 0.0064767218403220059 0 0.019699362794936885 0.0081934084948156235 0 0.021441220245181903 0.0079113717249993248 0 0.019699362794936885 0.0081934084948156235 0 0.021441220245181903 0.0079113717249993248 0 0.021134769968540593 0.0087945795647919288 0 0.021134769968540593 0.0087945795647919288 0 0.021595261686909391 0.0095969662262143842 0 0.02232791509861156 0.0088525151201167551 0 0.021134769968540593 0.0087945795647919288 0 0.020275586589144391 0.0094628047134866135 0 0.021595261686909391 0.0095969662262143842 0 0.021441220245181903 0.0079113717249993248 0 0.021134769968540593 0.0087945795647919288 0 0.02232791509861156 0.0088525151201167551 0 0.019699362794936885 0.0081934084948156235 0 0.021134769968540593 0.0087945795647919288 0 0.020275586589144391 0.0094628047134866135 0 0.019002567121731741 0.0094255336024078439 0 0.019699362794936885 0.0081934084948156235 0 0.020275586589144391 0.0094628047134866135 0 0.020275586589144391 0.0094628047134866135 0 0.019661506236573898 0.0103901478931094 0 0.020780403663115728 0.010392127617355343 0 0.019002567121731741 0.0094255336024078439 0 0.020275586589144391 0.0094628047134866135 0 0.019661506236573898 0.0103901478931094 0 0.020275586589144391 0.0094628047134866135 0 0.021595261686909391 0.0095969662262143842 0 0.020780403663115728 0.010392127617355343 0 0.021920528193343898 0.010319789035477396 0 0.021595261686909391 0.0095969662262143842 0 0.020780403663115728 0.010392127617355343 0 0.021595261686909391 0.0095969662262143842 0 0.023007927183522216 0.0097732185230310267 0 0.02232791509861156 0.0088525151201167551 0 0.021920528193343898 0.010319789035477396 0 0.021595261686909391 0.0095969662262143842 0 0.023007927183522216 0.0097732185230310267 0 0.023839341492072619 0.010209545338102572 0 0.023007927183522216 0.0097732185230310267 0 0.024423761553143644 0.0091256088365329231 0 0.023007927183522216 0.0097732185230310267 0 0.023329062568319552 0.00896494226365286 0 0.024423761553143644 0.0091256088365329231 0 0.023534597242843021 0.008065991350724791 0 0.023329062568319552 0.00896494226365286 0 0.024423761553143644 0.0091256088365329231 0 0.031101534827601845 0.0082877708437853748 0 0.043452533188414882 0.011491911685681184 0 0.023007927183522216 0.0097732185230310267 0 0.023329062568319552 0.00896494226365286 0 0.02232791509861156 0.0088525151201167551 0 0.023534597242843021 0.008065991350724791 0 0.023329062568319552 0.00896494226365286 0 0.02232791509861156 0.0088525151201167551 0 0.056397651908110427 0.015249204609134067 0 0.056447981886965024 0.015252258059047704 0 0.056287720913626937 0.015141401609249074 0 0.056397651908110427 0.015249204609134067 0 0.056447981886965024 0.015252258059047704 0 0.056501161508133182 0.015265205932538783 0 0.056397651908110427 0.015249204609134067 0 0.056224000249804798 0.015237985211129927 0 0.056287720913626937 0.015141401609249074 0 0.036451307874479082 0.0080191655830172803 0 0.042675167236286941 0.015593793722186337 0 0.045207738736671485 0.0092991607685928394 0 0.043452533188414882 0.011491911685681184 0 0.050946684089061965 0.01327480259317051 0 0.054522894476476631 0.012756205576239462 0 0.043452533188414882 0.011491911685681184 0 0.035710627696496577 0.0094378594225888613 0 0.043452533188414882 0.011491911685681184 0 0.049849627304866848 0.009062422454755541 0 0.048608988919861595 0.0092842867331011918 0 0.049002592395464638 0.0082410053213488304 0 0.056475764646837054 0.015353031163002514 0 0.056397651908110427 0.015249204609134067 0 0.056224000249804798 0.015237985211129927 0 0.056475764646837054 0.015353031163002514 0 0.056397651908110427 0.015249204609134067 0 0.056501161508133182 0.015265205932538783 0 0.056475764646837054 0.015353031163002514 0 0.056723768600753899 0.015359805926644023 0 0.056501161508133182 0.015265205932538783 0 0.056723768600753899 0.015359805926644023 0 0.056501161508133182 0.015265205932538783 0 0.056696523421607983 0.015385266643028547 0 0.056942591117025154 0.015402162652700417 0 0.056696523421607983 0.015385266643028547 0 0.056982261298309973 0.015446346797583015 0 0.056942591117025154 0.015402162652700417 0 0.056723768600753899 0.015359805926644023 0 0.056696523421607983 0.015385266643028547 0 0.056696523421607983 0.015385266643028547 0 0.057159148352080962 0.015197536469717443 0 0.056982261298309973 0.015446346797583015 0 0.056201872438766849 0.015335591227878049 0 0.056726598001911932 0.014459989981320706 0 0.057159148352080962 0.015197536469717443 0 0.056696523421607983 0.015385266643028547 0 0.056201872438766849 0.015335591227878049 0 0.057159148352080962 0.015197536469717443 0 0.055213395828339562 0.015483923618370853 0 0.05585774574452184 0.015375054889472974 0 0.056447981886965024 0.015252258059047704 0 0.056501161508133182 0.015265205932538783 0 0.056201872438766849 0.015335591227878049 0 0.056501161508133182 0.015265205932538783 0 0.056696523421607983 0.015385266643028547 0 0.056201872438766849 0.015335591227878049 0 0.053275791645657086 0.015590067637339488 0 0.056201872438766849 0.015335591227878049 0 0.055672629435611319 0.013062572886909459 0 0.056726598001911932 0.014459989981320706 0 0.057475196428536823 0.01384629451265181 0 0.057159148352080962 0.015197536469717443 0 0.056726598001911932 0.014459989981320706 0 0.055672629435611319 0.013062572886909459 0 0.057475196428536823 0.01384629451265181 0 0.056201872438766849 0.015335591227878049 0 0.056726598001911932 0.014459989981320706 0 0.055672629435611319 0.013062572886909459 0 0.048838816509490499 0.026394956415856683 0 0.052815695730145155 0.026589312588455514 0 0.04387596849493032 0.038683800286059514 0 0.044876875571265788 0.037855571559962241 0 0.044957141780301794 0.039338592691002393 0 0.04387596849493032 0.038683800286059514 0 0.042806568831463991 0.039797788532488367 0 0.044957141780301794 0.039338592691002393 0 0.04387596849493032 0.038683800286059514 0 0.042806568831463991 0.039797788532488367 0 0.042972574110232947 0.038397440837703183 0 0.042806568831463991 0.039797788532488367 0 0.04028102681525475 0.040010476459355342 0 0.041549639885472417 0.038162507506371082 0 0.048838816509490499 0.026394956415856683 0 0.045842225910764797 0.026036588873655255 0 0.042806568831463991 0.039797788532488367 0 0.042972574110232947 0.038397440837703183 0 0.041549639885472417 0.038162507506371082 0 0.04028102681525475 0.040010476459355342 0 0.039017671943240746 0.038193171894232103 0 0.041549639885472417 0.038162507506371082 0 0.053275791645657086 0.015590067637339488 0 0.055672629435611319 0.013062572886909459 0 0.052277666590197877 0.014087793451647367 0 0.055213395828339562 0.015483923618370853 0 0.050946684089061965 0.01327480259317051 0 0.053275791645657086 0.015590067637339488 0 0.052277666590197877 0.014087793451647367 0 0.049671581656252614 0.01563489279678458 0 0.055672629435611319 0.013062572886909459 0 0.051838715837167475 0.012123865558689637 0 0.052277666590197877 0.014087793451647367 0 0.051838715837167475 0.012123865558689637 0 0.052277666590197877 0.014087793451647367 0 0.050068554531300734 0.014538197634265532 0 0.044620719405665039 0.015446527152147154 0 0.049468921249026014 0.016034649697060911 0 0.047252874961272402 0.014394236534505236 0 0.031101534827601845 0.0082877708437853748 0 0.050946684089061965 0.01327480259317051 0 0.049468921249026014 0.016034649697060911 0 0.050068554531300734 0.014538197634265532 0 0.047252874961272402 0.014394236534505236 0 0.052277666590197877 0.014087793451647367 0 0.049671581656252614 0.01563489279678458 0 0.050068554531300734 0.014538197634265532 0 0.050946684089061965 0.01327480259317051 0 0.050299406018676746 0.014613539867244453 0 0.046416521281940022 0.011303670897226798 0 0.050068554531300734 0.014538197634265532 0 0.047252874961272402 0.014394236534505236 0 0.043117409016430366 0.025936865001398707 0 0.045842225910764797 0.026036588873655255 0 0.046416521281940022 0.011303670897226798 0 0.051838715837167475 0.012123865558689637 0 0.050068554531300734 0.014538197634265532 0 0.037729486995595522 0.040033413233843698 0 0.04028102681525475 0.040010476459355342 0 0.039017671943240746 0.038193171894232103 0 0.039017671943240746 0.038193171894232103 0 0.040030343489804068 0.036700745110181961 0 0.041549639885472417 0.038162507506371082 0 0.040030343489804068 0.036700745110181961 0 0.042022760549943861 0.036029931746875056 0 0.041549639885472417 0.038162507506371082 0 0.039017671943240746 0.038193171894232103 0 0.040030343489804068 0.036700745110181961 0 0.037946678351252976 0.036168371119009696 0 0.037431214823040473 0.034215470102553665 0 0.037946678351252976 0.036168371119009696 0 0.039775487589186621 0.034562497507753184 0 0.040030343489804068 0.036700745110181961 0 0.037946678351252976 0.036168371119009696 0 0.039775487589186621 0.034562497507753184 0 0.039775487589186621 0.034562497507753184 0 0.042106999957558094 0.033534528749199106 0 0.042022760549943861 0.036029931746875056 0 0.040030343489804068 0.036700745110181961 0 0.039775487589186621 0.034562497507753184 0 0.042022760549943861 0.036029931746875056 0 0.039775487589186621 0.034562497507753184 0 0.042106999957558094 0.033534528749199106 0 0.040608592862932932 0.032400045045577558 0 0.037431214823040473 0.034215470102553665 0 0.039775487589186621 0.034562497507753184 0 0.038127761902184344 0.032383103681477364 0 0.039775487589186621 0.034562497507753184 0 0.038127761902184344 0.032383103681477364 0 0.040608592862932932 0.032400045045577558 0 0.044366433483790067 0.032127407798672097 0 0.044506404995056821 0.034107663298887231 0 0.045275971456634131 0.03308264470346281 0 0.04351267024066828 0.033615181379731338 0 0.044198921970125496 0.032338557033031463 0 0.042106999957558094 0.033534528749199106 0 0.045894076507232956 0.032732844437159257 0 0.044455457084354909 0.033673723389904091 0 0.045894076507232956 0.032732844437159257 0 0.041751840756583961 0.033551030950063794 0 0.04351267024066828 0.033615181379731338 0 0.044198921970125496 0.032338557033031463 0 0.044506404995056821 0.034107663298887231 0 0.044366433483790067 0.032127407798672097 0 0.045275971456634131 0.03308264470346281 0 0.045085069520086486 0.031801616644564684 0 0.042106999957558094 0.033534528749199106 0 0.042636762385336834 0.032190966007881683 0 0.040608592862932932 0.032400045045577558 0 0.044286475065608712 0.03247494602126879 0 0.042106999957558094 0.033534528749199106 0 0.042636762385336834 0.032190966007881683 0 0.04351267024066828 0.033615181379731338 0 0.042106999957558094 0.033534528749199106 0 0.043249944575414666 0.03448640680805163 0 0.042106999957558094 0.033534528749199106 0 0.043249944575414666 0.03448640680805163 0 0.042022760549943861 0.036029931746875056 0 0.043803293354261606 0.035414449937688115 0 0.043249944575414666 0.03448640680805163 0 0.042022760549943861 0.036029931746875056 0 0.043803293354261606 0.035414449937688115 0 0.043249944575414666 0.03448640680805163 0 0.044506404995056821 0.034107663298887231 0 0.04351267024066828 0.033615181379731338 0 0.043249944575414666 0.03448640680805163 0 0.044506404995056821 0.034107663298887231 0 0.043803293354261606 0.035414449937688115 0 0.044506404995056821 0.034107663298887231 0 0.045086684418290168 0.035048423242457639 0 0.043803293354261606 0.035414449937688115 0 0.044532893892017873 0.036201276486157057 0 0.043421049924511616 0.036714596903534784 0 0.043803293354261606 0.035414449937688115 0 0.044532893892017873 0.036201276486157057 0 0.045086684418290168 0.035048423242457639 0 0.043803293354261606 0.035414449937688115 0 0.043421049924511616 0.036714596903534784 0 0.042022760549943861 0.036029931746875056 0 0.044532893892017873 0.036201276486157057 0 0.043421049924511616 0.036714596903534784 0 0.044296895188146605 0.036984784999231454 0 0.044532893892017873 0.036201276486157057 0 0.044296895188146605 0.036984784999231454 0 0.045112506881441548 0.037053261419326119 0 0.043421049924511616 0.036714596903534784 0 0.042022760549943861 0.036029931746875056 0 0.042736421731813606 0.037502416957742792 0 0.042022760549943861 0.036029931746875056 0 0.042736421731813606 0.037502416957742792 0 0.041549639885472417 0.038162507506371082 0 0.042736421731813606 0.037502416957742792 0 0.042972574110232947 0.038397440837703183 0 0.041549639885472417 0.038162507506371082 0 0.044296895188146605 0.036984784999231454 0 0.044595346323456166 0.037577270539590216 0 0.045112506881441548 0.037053261419326119 0 0.044296895188146605 0.036984784999231454 0 0.044595346323456166 0.037577270539590216 0 0.043760844234686583 0.037867211644694844 0 0.043421049924511616 0.036714596903534784 0 0.042736421731813606 0.037502416957742792 0 0.043760844234686583 0.037867211644694844 0 0.043421049924511616 0.036714596903534784 0 0.044296895188146605 0.036984784999231454 0 0.043760844234686583 0.037867211644694844 0 0.042736421731813606 0.037502416957742792 0 0.042972574110232947 0.038397440837703183 0 0.043760844234686583 0.037867211644694844 0 0.04387596849493032 0.038683800286059514 0 0.042972574110232947 0.038397440837703183 0 0.043760844234686583 0.037867211644694844 0 0.044595346323456166 0.037577270539590216 0 0.043760844234686583 0.037867211644694844 0 0.045123907625530722 0.038286788565205475 0 0.04387596849493032 0.038683800286059514 0 0.043760844234686583 0.037867211644694844 0 0.044876875571265788 0.037855571559962241 0 0.04319096242448732 0.036892845256109634 0 0.050451259419938145 0.036026459495061253 0 0.045139791810249019 0.038251924344842057 0 0.045815588017937878 0.037762965816746173 0 0.04702831933630245 0.038696315931599903 0 0.050451259419938145 0.036026459495061253 0 0.050143596099414503 0.036467618304862781 0 0.044595346323456166 0.037577270539590216 0 0.045123907625530722 0.038286788565205475 0 0.045129817961505142 0.038039296352503416 0 0.044595346323456166 0.037577270539590216 0 0.045129817961505142 0.038039296352503416 0 0.045170688368796029 0.037607502597306663 0 0.045139791810249019 0.038251924344842057 0 0.045129817961505142 0.038039296352503416 0 0.045815588017937878 0.037762965816746173 0 0.045129817961505142 0.038039296352503416 0 0.045815588017937878 0.037762965816746173 0 0.045170688368796029 0.037607502597306663 0 0.045815588017937878 0.037762965816746173 0 0.046193835575763516 0.036983307379869053 0 0.045112506881441548 0.037053261419326119 0 0.045815588017937878 0.037762965816746173 0 0.045112506881441548 0.037053261419326119 0 0.045170688368796029 0.037607502597306663 0 0.044595346323456166 0.037577270539590216 0 0.045112506881441548 0.037053261419326119 0 0.045170688368796029 0.037607502597306663 0 0.046849293148115229 0.037634783973440993 0 0.047492587603635991 0.036654562121324827 0 0.047676350761800573 0.038047445382526447 0 0.046849293148115229 0.037634783973440993 0 0.047676350761800573 0.038047445382526447 0 0.04702831933630245 0.038696315931599903 0 0.045815588017937878 0.037762965816746173 0 0.046849293148115229 0.037634783973440993 0 0.04702831933630245 0.038696315931599903 0 0.046193835575763516 0.036983307379869053 0 0.046849293148115229 0.037634783973440993 0 0.047492587603635991 0.036654562121324827 0 0.045815588017937878 0.037762965816746173 0 0.046193835575763516 0.036983307379869053 0 0.046849293148115229 0.037634783973440993 0 0.047257629712771074 0.035484706033388713 0 0.046432671920349049 0.034375499830771122 0 0.047266029007380916 0.034288201852775639 0 0.046586390480038452 0.033828555036839777 0 0.047645339412201532 0.034147902845642855 0 0.047492587603635991 0.036654562121324827 0 0.045786948044507725 0.036039306448200498 0 0.046367761912276761 0.035034678053956596 0 0.046193835575763516 0.036983307379869053 0 0.047492587603635991 0.036654562121324827 0 0.045786948044507725 0.036039306448200498 0 0.044532893892017873 0.036201276486157057 0 0.045112506881441548 0.037053261419326119 0 0.045786948044507725 0.036039306448200498 0 0.046193835575763516 0.036983307379869053 0 0.045112506881441548 0.037053261419326119 0 0.045786948044507725 0.036039306448200498 0 0.044532893892017873 0.036201276486157057 0 0.045786948044507725 0.036039306448200498 0 0.045086684418290168 0.035048423242457639 0 0.046432671920349049 0.034375499830771122 0 0.045355529171484756 0.033133690789729768 0 0.046586390480038452 0.033828555036839777 0 0.046521340414382967 0.033197530747267161 0 0.045275971456634131 0.03308264470346281 0 0.044506404995056821 0.034107663298887231 0 0.045086684418290168 0.035048423242457639 0 0.045275971456634131 0.03308264470346281 0 0.045086684418290168 0.035048423242457639 0 0.046367761912276761 0.035034678053956596 0 0.045275971456634131 0.03308264470346281 0 0.045786948044507725 0.036039306448200498 0 0.045086684418290168 0.035048423242457639 0 0.046367761912276761 0.035034678053956596 0 0.046586390480038452 0.033828555036839777 0 0.047239479522440425 0.033188401838555766 0 0.047645339412201532 0.034147902845642855 0 0.046586390480038452 0.033828555036839777 0 0.046521340414382967 0.033197530747267161 0 0.047239479522440425 0.033188401838555766 0 0.052317943997937814 0.030157086010364299 0 0.053206190173630409 0.029875057044840281 0 0.046521340414382967 0.033197530747267161 0 0.047239479522440425 0.033188401838555766 0 0.046221665265367862 0.032406719550958238 0 0.047239479522440425 0.033188401838555766 0 0.046221665265367862 0.032406719550958238 0 0.046608242268010851 0.031501977565614715 0 0.046221665265367862 0.032406719550958238 0 0.045275971456634131 0.03308264470346281 0 0.045085069520086486 0.031801616644564684 0 0.046521340414382967 0.033197530747267161 0 0.046221665265367862 0.032406719550958238 0 0.045275971456634131 0.03308264470346281 0 0.056369016032808361 0.026667472285884779 0 0.056406800965608773 0.028254114496520367 0 0.055000014448573255 0.025024515626332629 0 0.056327374818518711 0.025754512491890619 0 0.054999880620434462 0.028184373345191249 0 0.056327374818518711 0.025754512491890619 0 0.054999880620434462 0.028184373345191249 0 0.056390351990340239 0.028451078766212605 0 0.056971633055802752 0.027641873343468609 0 0.056460477910400861 0.02718701137141322 0 0.056390351990340239 0.028451078766212605 0 0.057561869158778874 0.027291585135296243 0 0.056971633055802752 0.027641873343468609 0 0.057474555222828197 0.028354333005514251 0 0.057561869158778874 0.027291585135296243 0 0.056971633055802752 0.027641873343468609 0 0.056887007602153664 0.026900362836121402 0 0.056971633055802752 0.027641873343468609 0 0.056887007602153664 0.026900362836121402 0 0.056460477910400861 0.02718701137141322 0 0.057561869158778874 0.027291585135296243 0 0.056887007602153664 0.026900362836121402 0 0.056850390683934209 0.026127844190037046 0 0.052317943997937814 0.030157086010364299 0 0.05211598167985039 0.030776705914813476 0 0.055000014448573255 0.025024515626332629 0 0.056327374818518711 0.025754512491890619 0 0.056219392248431879 0.0231179018681388 0 0.056369016032808361 0.026667472285884779 0 0.056503434005762118 0.023847991704084744 0 0.056887007602153664 0.026900362836121402 0 0.056460477910400861 0.02718701137141322 0 0.056398009220408052 0.026072980747616936 0 0.055000014448573255 0.025024515626332629 0 0.056219392248431879 0.0231179018681388 0 0.054999995295748602 0.02186527201073445 0 0.056887007602153664 0.026900362836121402 0 0.056398009220408052 0.026072980747616936 0 0.056850390683934209 0.026127844190037046 0 0.047266029007380916 0.034288201852775639 0 0.047645339412201532 0.034147902845642855 0 0.047563021342662132 0.03430077878666149 0 0.047492587603635991 0.036654562121324827 0 0.048564291874234541 0.038092100048448749 0 0.047676350761800573 0.038047445382526447 0 0.047257629712771074 0.035484706033388713 0 0.049541852256078926 0.0354151267712784 0 0.047645339412201532 0.034147902845642855 0 0.047563021342662132 0.03430077878666149 0 0.047802510837123273 0.03438639012140518 0 0.05211598167985039 0.030776705914813476 0 0.053930669633848627 0.026330777185032069 0 0.047266029007380916 0.034288201852775639 0 0.047563021342662132 0.03430077878666149 0 0.04768910499086116 0.034394092529028079 0 0.047563021342662132 0.03430077878666149 0 0.04768910499086116 0.034394092529028079 0 0.047802510837123273 0.03438639012140518 0 0.056219392248431879 0.0231179018681388 0 0.054999995295748602 0.02186527201073445 0 0.056100728128437957 0.020499198689265433 0 0.056398009220408052 0.026072980747616936 0 0.056850390683934209 0.026127844190037046 0 0.056282607478645864 0.0251156131300109 0 0.056503434005762118 0.023847991704084744 0 0.053930669633848627 0.026330777185032069 0 0.054999995295748602 0.02186527201073445 0 0.056100728128437957 0.020499198689265433 0 0.054999984966343791 0.018705875934703683 0 0.056100728128437957 0.020499198689265433 0 0.054999984966343791 0.018705875934703683 0 0.05535289940571661 0.018827506544534224 0 0.053930669633848627 0.026330777185032069 0 0.051609101820787949 0.027193163396543499 0 0.04768910499086116 0.034394092529028079 0 0.047802510837123273 0.03438639012140518 0 0.047835827825031665 0.034390202424529295 0 0.049541852256078926 0.0354151267712784 0 0.051609101820787949 0.027193163396543499 0 0.052093302066756518 0.024359099461145825 0 0.049403461561506559 0.029551289420874857 0 0.049043852929699976 0.029075933560600346 0 0.049016565301693384 0.028391493269444942 0 0.051358890977052242 0.029178352355834887 0 0.051609101820787949 0.027193163396543499 0 0.052554832142466694 0.023416678666076447 0 0.051609101820787949 0.027193163396543499 0 0.052093302066756518 0.024359099461145825 0 0.051807502017735936 0.024679348503809626 0 0.051813505273016883 0.024783489391406639 0 0.051920173260729577 0.024814484691581217 0 0.052093302066756518 0.024359099461145825 0 0.052554832142466694 0.023416678666076447 0 0.054301599804977098 0.026288589937920107 0 0.054194837643240866 0.023891631607445091 0 0.052736171606691001 0.022823922573350926 0 0.053930669633848627 0.026330777185032069 0 0.054112867044142608 0.020437533913531793 0 0.054194837643240866 0.023891631607445091 0 0.0535999006076864 0.023112403647751679 0 0.052736171606691001 0.022823922573350926 0 0.05602419666485213 0.019085786117167006 0 0.055750499997250555 0.018993372891608736 0 0.055632021944034889 0.018832549460201114 0 0.050742765375376822 0.024807492381060298 0 0.052744514463664807 0.025482085253567634 0 0.052160108332794927 0.020755595505628856 0 0.054998030301605785 0.018710897049840906 0 0.054112867044142608 0.020437533913531793 0 0.054999992281157935 0.018705841708437868 0 0.055351411128594756 0.018824793506246607 0 0.055000001623083716 0.018039471372765743 0 0.050742765375376822 0.024807492381060298 0 0.050566258716456793 0.019878684018944576 0 0.052160108332794927 0.020755595505628856 0 0.05602419666485213 0.019085786117167006 0 0.055456869808830897 0.018314577696691765 0 0.055928460272386162 0.016672274754784222 0 0.052093302066756518 0.024359099461145825 0 0.053273984112415067 0.017672409441849894 0 0.054112867044142608 0.020437533913531793 0 0.054998608471238102 0.018040839695004644 0 0.055334270728437475 0.018850947324917711 0 0.055456869808830897 0.018314577696691765 0 0.054999926467051277 0.018039563061851907 0 0.055334270728437475 0.018850947324917711 0 0.055456869808830897 0.018314577696691765 0 0.055632021944034889 0.018832549460201114 0 0.05602419666485213 0.019085786117167006 0 0.055456869808830897 0.018314577696691765 0 0.055632021944034889 0.018832549460201114 0 0.052554832142466694 0.023416678666076447 0 0.054112867044142608 0.020437533913531793 0 0.055751110776992137 0.018996443593410711 0 0.055334270728437475 0.018850947324917711 0 0.055632021944034889 0.018832549460201114 0 0.052554832142466694 0.023416678666076447 0 0.052563147133607289 0.023156703298300999 0 0.055456869808830897 0.018314577696691765 0 0.054999926467051277 0.018039563061851907 0 0.055928460272386162 0.016672274754784222 0 0.050473990359923511 0.02475551206565706 0 0.047297982737650054 0.027488956147368158 0 0.046603639478796484 0.021247118033932363 0 0.049403461561506559 0.029551289420874857 0 0.049200358547976199 0.020224912342758635 0 0.050473990359923511 0.02475551206565706 0 0.052069434427147718 0.020727902553568687 0 0.046603639478796484 0.021247118033932363 0 0.049403461561506559 0.029551289420874857 0 0.050455291210462293 0.034476460330020588 0 0.047676350761800573 0.038047445382526447 0 0.04871185846816399 0.039127357451291436 0 0.04702831933630245 0.038696315931599903 0 0.050473990359923511 0.02475551206565706 0 0.047297982737650054 0.027488956147368158 0 0.0533435974277452 0.029668152315157664 0 0.051803517316909756 0.03273774905690318 0 0.049043852929699976 0.029075933560600346 0 0.051358890977052242 0.029178352355834887 0 0.048564291874234541 0.038092100048448749 0 0.047676350761800573 0.038047445382526447 0 0.04871185846816399 0.039127357451291436 0 0.049541852256078926 0.0354151267712784 0 0.049403461561506559 0.029551289420874857 0 0.050473990359923511 0.02475551206565706 0 0.0533435974277452 0.029668152315157664 0 0.054016922802527241 0.02569774156390895 0 0.0533435974277452 0.029668152315157664 0 0.055820002563167229 0.027554625562608428 0 0.054016922802527241 0.02569774156390895 0 0.060031606663903038 0.032417316952372432 0 0.058939206735694812 0.026292655965107496 0 0.060245422921682272 0.02558023628807285 0 0.060031606663903038 0.032417316952372432 0 0.0533435974277452 0.029668152315157664 0 0.055820002563167229 0.027554625562608428 0 0.050451259419938145 0.036026459495061253 0 0.052815695730145155 0.026589312588455514 0 0.050451259419938145 0.036026459495061253 0 0.050455291210462293 0.034476460330020588 0 0.060031606663903038 0.032417316952372432 0 0.055820002563167229 0.027554625562608428 0 0.058939206735694812 0.026292655965107496 0 0.055820002563167229 0.027554625562608428 0 0.058939206735694812 0.026292655965107496 0 0.054016922802527241 0.02569774156390895 0 0.059952566445871491 0.02552025359176921 0 0.057738653194305455 0.022203788387345973 0 0.059741514902873959 0.020357434939276199 0 0.052815695730145155 0.026589312588455514 0 0.058809630576717328 0.01640682748418899 0 0.052815695730145155 0.026589312588455514 0 0.055489494895151037 0.026634692817920327 0 0.058939206735694812 0.026292655965107496 0 0.060245422921682272 0.02558023628807285 0 0.059047711766296952 0.025523163248663307 0 0.059952566445871491 0.02552025359176921 0 0.059047711766296952 0.025523163248663307 0 0.057738653194305455 0.022203788387345973 0 0.058939206735694812 0.026292655965107496 0 0.059047711766296952 0.025523163248663307 0 0.057738653194305455 0.022203788387345973 0 0.058939206735694812 0.026292655965107496 0 0.057738653194305455 0.022203788387345973 0 0.055436463998525157 0.020858927870410583 0 0.05890533304551953 0.026075081302089693 0 0.053610423147882329 0.020864849481934278 0 0.058939206735694812 0.026292655965107496 0 0.054016922802527241 0.02569774156390895 0 0.052069434427147718 0.020727902553568687 0 0.050473990359923511 0.02475551206565706 0 0.054016922802527241 0.02569774156390895 0 0.052069434427147718 0.020727902553568687 0 0.055436463998525157 0.020858927870410583 0 0.057210297785571206 0.019052681467032838 0 0.055572496372856904 0.017938382944922813 0 0.057738653194305455 0.022203788387345973 0 0.055436463998525157 0.020858927870410583 0 0.057210297785571206 0.019052681467032838 0 0.057738653194305455 0.022203788387345973 0 0.057210297785571206 0.019052681467032838 0 0.059741514902873959 0.020357434939276199 0 0.058809630576717328 0.01640682748418899 0 0.057789958563593959 0.016642742070151571 0 0.057210297785571206 0.019052681467032838 0 0.059741514902873959 0.020357434939276199 0 0.058652215454937054 0.017051908030495316 0 0.057210297785571206 0.019052681467032838 0 0.058652215454937054 0.017051908030495316 0 0.056817230485742644 0.017212006936216065 0 0.057210297785571206 0.019052681467032838 0 0.056817230485742644 0.017212006936216065 0 0.055572496372856904 0.017938382944922813 0 0.055993220228939745 0.01625926722968065 0 0.056817230485742644 0.017212006936216065 0 0.055572496372856904 0.017938382944922813 0 0.055993220228939745 0.01625926722968065 0 0.055572496372856904 0.017938382944922813 0 0.054684743947096347 0.016695074509095957 0 0.055572496372856904 0.017938382944922813 0 0.054684743947096347 0.016695074509095957 0 0.053707993497050861 0.017887796555789939 0 0.054999984066544161 0.013540186855919139 0 0.055827155165148544 0.014290947227902254 0 0.0550000029674719 0.015789802359624315 0 0.053877090114925266 0.015432641131142243 0 0.051200505764555801 0.016624961143052223 0 0.053636799695954911 0.015626638546237623 0 0.054684743947096347 0.016695074509095957 0 0.053707993497050861 0.017887796555789939 0 0.050395782379862239 0.015026090555010464 0 0.051585702982292515 0.016104511691907842 0 0.050566258716456793 0.019878684018944576 0 0.054129515446541029 0.014917984345782627 0 0.053647700785212825 0.016456437845360945 0 0.05437754825990529 0.017121065162085992 0 0.053759931576503016 0.01539289960651424 0 0.051200505764555801 0.016624961143052223 0 0.054999578856189425 0.013541687958838583 0 0.053759931576503016 0.01539289960651424 0 0.053759931576503016 0.01539289960651424 0 0.053273984112415067 0.017672409441849894 0 0.051200505764555801 0.016624961143052223 0 0.049200358547976199 0.020224912342758635 0 0.051585702982292515 0.016104511691907842 0 0.050566258716456793 0.019878684018944576 0 0.052160108332794927 0.020755595505628856 0 0.054999926467051277 0.018039563061851907 0 0.0550000029674719 0.015789802359624315 0 0.055928460272386162 0.016672274754784222 0 0.055827155165148544 0.014290947227902254 0 0.0550000029674719 0.015789802359624315 0 0.055928460272386162 0.016672274754784222 0 0.055436463998525157 0.020858927870410583 0 0.055572496372856904 0.017938382944922813 0 0.053707993497050861 0.017887796555789939 0 0.053610423147882329 0.020864849481934278 0 0.051200505764555801 0.016624961143052223 0 0.052069434427147718 0.020727902553568687 0 0.045881989382517495 0.015245463658109294 0 0.046603639478796484 0.021247118033932363 0 0.05676676219049534 0.0379809207593651 0 0.054999429968878008 0.037872572545394195 0 0.056515677146276644 0.039546508902773642 0 0.054999429968878008 0.037872572545394195 0 0.055000158502428377 0.041130899529273082 0 0.056515677146276644 0.039546508902773642 0 0.056515677146276644 0.039546508902773642 0 0.057503911294940806 0.038248700872272681 0 0.057232702942737933 0.03932618134848051 0 0.057503911294940806 0.038248700872272681 0 0.057744359721573303 0.038905043976955822 0 0.057232702942737933 0.03932618134848051 0 0.057503911294940806 0.038248700872272681 0 0.057962093055414117 0.038186163442038172 0 0.057744359721573303 0.038905043976955822 0 0.057503911294940806 0.038248700872272681 0 0.057539596546042272 0.036940221585133728 0 0.058224469184819071 0.037344032880428035 0 0.057503911294940806 0.038248700872272681 0 0.058224469184819071 0.037344032880428035 0 0.057962093055414117 0.038186163442038172 0 0.05676676219049534 0.0379809207593651 0 0.057503911294940806 0.038248700872272681 0 0.057539596546042272 0.036940221585133728 0 0.05676676219049534 0.0379809207593651 0 0.056515677146276644 0.039546508902773642 0 0.057503911294940806 0.038248700872272681 0 0.05676676219049534 0.0379809207593651 0 0.057539596546042272 0.036940221585133728 0 0.056616154943170981 0.036645351354326137 0 0.057539596546042272 0.036940221585133728 0 0.058129231414845314 0.035996310489092499 0 0.058224469184819071 0.037344032880428035 0 0.057539596546042272 0.036940221585133728 0 0.058129231414845314 0.035996310489092499 0 0.057145099485651607 0.034916161011106714 0 0.057539596546042272 0.036940221585133728 0 0.056616154943170981 0.036645351354326137 0 0.057145099485651607 0.034916161011106714 0 0.056262246149451474 0.034874776372023138 0 0.056616154943170981 0.036645351354326137 0 0.057145099485651607 0.034916161011106714 0 0.05676676219049534 0.0379809207593651 0 0.054999429968878008 0.037872572545394195 0 0.056616154943170981 0.036645351354326137 0 0.054999429968878008 0.037872572545394195 0 0.056616154943170981 0.036645351354326137 0 0.05499940041079425 0.034607129881234037 0 0.056262246149451474 0.034874776372023138 0 0.056616154943170981 0.036645351354326137 0 0.05499940041079425 0.034607129881234037 0 0.056262246149451474 0.034874776372023138 0 0.05499940041079425 0.034607129881234037 0 0.056183876472715236 0.033320406301743564 0 0.05499940041079425 0.034607129881234037 0 0.056183876472715236 0.033320406301743564 0 0.054999684746014299 0.031347204458781704 0 0.056262246149451474 0.034874776372023138 0 0.056183876472715236 0.033320406301743564 0 0.057145099485651607 0.034916161011106714 0 0.056183876472715236 0.033320406301743564 0 0.056783030568684875 0.032892602415929978 0 0.057145099485651607 0.034916161011106714 0 0.056183876472715236 0.033320406301743564 0 0.05619285776557708 0.031971755739724779 0 0.056783030568684875 0.032892602415929978 0 0.056183876472715236 0.033320406301743564 0 0.054999684746014299 0.031347204458781704 0 0.05619285776557708 0.031971755739724779 0 0.054999968757626423 0.031343544260746689 0 0.056682371393326672 0.031005825104342272 0 0.05500001920060147 0.031342760450120542 0 0.054999880620434462 0.028184373345191249 0 0.056390351990340239 0.028451078766212605 0 0.05500001920060147 0.031342760450120542 0 0.056966182625092697 0.030008518774970863 0 0.056390351990340239 0.028451078766212605 0 0.056682371393326672 0.031005825104342272 0 0.056388822923477445 0.029632160571496702 0 0.05619285776557708 0.031971755739724779 0 0.057189750907855913 0.031780545710473118 0 0.056783030568684875 0.032892602415929978 0 0.056966182625092697 0.030008518774970863 0 0.057292360876872422 0.028948787093226552 0 0.058260795961986619 0.028976082509919527 0 0.056966182625092697 0.030008518774970863 0 0.057292360876872422 0.028948787093226552 0 0.056390351990340239 0.028451078766212605 0 0.056971633055802752 0.027641873343468609 0 0.057474555222828197 0.028354333005514251 0 0.056390351990340239 0.028451078766212605 0 0.057292360876872422 0.028948787093226552 0 0.057474555222828197 0.028354333005514251 0 0.056390351990340239 0.028451078766212605 0 0.057189750907855913 0.031780545710473118 0 0.057372113050379023 0.031701509976433395 0 0.058284267229507185 0.03213208910204466 0 0.046221665265367862 0.032406719550958238 0 0.045548662586858038 0.032076845802984477 0 0.046608242268010851 0.031501977565614715 0 0.049704541018336469 0.032091939438529414 0 0.053206190173630409 0.029875057044840281 0 0.058261839159427342 0.03124084985165242 0 0.057372113050379023 0.031701509976433395 0 0.058284267229507185 0.03213208910204466 0 0.045419883084917539 0.031590912848278141 0 0.049704541018336469 0.032091939438529414 0 0.057561869158778874 0.027291585135296243 0 0.057474555222828197 0.028354333005514251 0 0.058472244808894992 0.028851846672013858 0 0.057292360876872422 0.028948787093226552 0 0.057474555222828197 0.028354333005514251 0 0.058260795961986619 0.028976082509919527 0 0.057474555222828197 0.028354333005514251 0 0.058260795961986619 0.028976082509919527 0 0.058472244808894992 0.028851846672013858 0 0.056388822923477445 0.029632160571496702 0 0.053206190173630409 0.029875057044840281 0 0.057189750907855913 0.031780545710473118 0 0.057565319180586029 0.03279766684467593 0 0.056783030568684875 0.032892602415929978 0 0.057565319180586029 0.03279766684467593 0 0.057976897112062449 0.032566543942244661 0 0.058130276204080372 0.033212316490470441 0 0.057189750907855913 0.031780545710473118 0 0.057565319180586029 0.03279766684467593 0 0.057976897112062449 0.032566543942244661 0 0.057189750907855913 0.031780545710473118 0 0.058284267229507185 0.03213208910204466 0 0.057976897112062449 0.032566543942244661 0 0.058284267229507185 0.03213208910204466 0 0.057976897112062449 0.032566543942244661 0 0.058572101846905991 0.032864469105356661 0 0.057976897112062449 0.032566543942244661 0 0.058130276204080372 0.033212316490470441 0 0.058572101846905991 0.032864469105356661 0 0.057565319180586029 0.03279766684467593 0 0.058130276204080372 0.033212316490470441 0 0.057949755576207518 0.034135709209331906 0 0.058130276204080372 0.033212316490470441 0 0.057949755576207518 0.034135709209331906 0 0.058645594977749349 0.033755175736175744 0 0.057565319180586029 0.03279766684467593 0 0.056783030568684875 0.032892602415929978 0 0.057949755576207518 0.034135709209331906 0 0.056783030568684875 0.032892602415929978 0 0.057145099485651607 0.034916161011106714 0 0.057949755576207518 0.034135709209331906 0 0.058129231414845314 0.035996310489092499 0 0.057145099485651607 0.034916161011106714 0 0.057949755576207518 0.034135709209331906 0 0.058129231414845314 0.035996310489092499 0 0.057949755576207518 0.034135709209331906 0 0.059241055221741536 0.03471019471431417 0 0.059344339089028232 0.03688829859924303 0 0.0589147813254755 0.036312787492772107 0 0.059118162057640422 0.037807084650653501 0 0.058304162022484216 0.037495860461442827 0 0.058866033307082274 0.036642705707957648 0 0.059118162057640422 0.037807084650653501 0 0.058304162022484216 0.037495860461442827 0 0.058019210302483221 0.038593942644849527 0 0.055897553528662269 0.032851418258720254 0 0.05034237037743123 0.033247413921885842 0 0.059118162057640422 0.037807084650653501 0 0.05920365246635316 0.038651850931025779 0 0.058019210302483221 0.038593942644849527 0 0.059344339089028232 0.03688829859924303 0 0.055897553528662269 0.032851418258720254 0 0.057949755576207518 0.034135709209331906 0 0.059241055221741536 0.03471019471431417 0 0.058645594977749349 0.033755175736175744 0 0.059241055221741536 0.03471019471431417 0 0.058645594977749349 0.033755175736175744 0 0.059208311808622897 0.033003115408235202 0 0.058130276204080372 0.033212316490470441 0 0.058645594977749349 0.033755175736175744 0 0.058572101846905991 0.032864469105356661 0 0.058645594977749349 0.033755175736175744 0 0.059208311808622897 0.033003115408235202 0 0.058572101846905991 0.032864469105356661 0 0.058284267229507185 0.03213208910204466 0 0.059025055949446854 0.032941409306161282 0 0.05870183590924552 0.031431706009935917 0 0.055897553528662269 0.032851418258720254 0 0.049430430682362872 0.03255746353459326 0 0.055897553528662269 0.032851418258720254 0 0.058550986340607666 0.033124057384250283 0 0.058284267229507185 0.03213208910204466 0 0.059025055949446854 0.032941409306161282 0 0.058572101846905991 0.032864469105356661 0 0.04960083404727602 0.028781442376928774 0 0.04420869916889536 0.031728527431945097 0 0.043223485567779468 0.027648205268376688 0 0.04960083404727602 0.028781442376928774 0 0.050484454514849508 0.034605217377296903 0 0.04420869916889536 0.031728527431945097 0 0.049430430682362872 0.03255746353459326 0 0.042184615946059351 0.031008599320339024 0 0.042636762385336834 0.032190966007881683 0 0.044176710738160437 0.03169888213441515 0 0.041138770803134397 0.030315398065867839 0 0.042636762385336834 0.032190966007881683 0 0.040608592862932932 0.032400045045577558 0 0.041138770803134397 0.030315398065867839 0 0.044286475065608712 0.03247494602126879 0 0.042636762385336834 0.032190966007881683 0 0.044176710738160437 0.03169888213441515 0 0.045894076507232956 0.032732844437159257 0 0.049430430682362872 0.03255746353459326 0 0.045894076507232956 0.032732844437159257 0 0.049704541018336469 0.032091939438529414 0 0.048192661901225668 0.032247750353271772 0 0.048365397840755282 0.032158499786994262 0 0.048170017870156227 0.03207209433856853 0 0.049704541018336469 0.032091939438529414 0 0.049430430682362872 0.03255746353459326 0 0.058261839159427342 0.03124084985165242 0 0.058284267229507185 0.03213208910204466 0 0.05870183590924552 0.031431706009935917 0 0.03912231480357916 0.030817381520037421 0 0.038127761902184344 0.032383103681477364 0 0.037594495796135614 0.030329865322823633 0 0.03912231480357916 0.030817381520037421 0 0.038127761902184344 0.032383103681477364 0 0.040608592862932932 0.032400045045577558 0 0.03912231480357916 0.030817381520037421 0 0.040608592862932932 0.032400045045577558 0 0.041138770803134397 0.030315398065867839 0 0.04420869916889536 0.031728527431945097 0 0.038178565476027611 0.028787010960699737 0 0.043223485567779468 0.027648205268376688 0 0.042184615946059351 0.031008599320339024 0 0.03855775490440503 0.028926807079273659 0 0.03912231480357916 0.030817381520037421 0 0.041138770803134397 0.030315398065867839 0 0.038178565476027611 0.028787010960699737 0 0.03912231480357916 0.030817381520037421 0 0.038178565476027611 0.028787010960699737 0 0.037594495796135614 0.030329865322823633 0 0.038178565476027611 0.028787010960699737 0 0.043223485567779468 0.027648205268376688 0 0.037384325927284599 0.026910670961429715 0 0.058019210302483221 0.038593942644849527 0 0.05760185875570694 0.037757501238439267 0 0.056390385562272466 0.03893515659024499 0 0.05034237037743123 0.033247413921885842 0 0.046693184592352291 0.032886127316586154 0 0.058304162022484216 0.037495860461442827 0 0.058019210302483221 0.038593942644849527 0 0.05760185875570694 0.037757501238439267 0 0.058304162022484216 0.037495860461442827 0 0.05760185875570694 0.037757501238439267 0 0.058041283708285554 0.037050049389840897 0 0.05760185875570694 0.037757501238439267 0 0.056714689731743033 0.037155368158554247 0 0.056390385562272466 0.03893515659024499 0 0.058011175029337073 0.037053953586353383 0 0.058041283708285554 0.037050049389840897 0 0.056714689731743033 0.037155368158554247 0 0.057121471526816882 0.036010706886111798 0 0.056790824056912485 0.037099176447871682 0 0.05760185875570694 0.037757501238439267 0 0.058041283708285554 0.037050049389840897 0 0.056714689731743033 0.037155368158554247 0 0.058011175029337073 0.037053953586353383 0 0.058174922542032353 0.037199123944073334 0 0.058041283708285554 0.037050049389840897 0 0.058174922542032353 0.037199123944073334 0 0.058041283708285554 0.037050049389840897 0 0.058439760212807557 0.037110552411777804 0 0.058304162022484216 0.037495860461442827 0 0.058041283708285554 0.037050049389840897 0 0.058866033307082274 0.036642705707957648 0 0.058041283708285554 0.037050049389840897 0 0.058866033307082274 0.036642705707957648 0 0.058439760212807557 0.037110552411777804 0 0.058129231414845314 0.035996310489092499 0 0.058866033307082274 0.036642705707957648 0 0.058224469184819071 0.037344032880428035 0 0.058129231414845314 0.035996310489092499 0 0.059241055221741536 0.03471019471431417 0 0.058866033307082274 0.036642705707957648 0 0.058866033307082274 0.036642705707957648 0 0.058224469184819071 0.037344032880428035 0 0.058439760212807557 0.037110552411777804 0 0.058174922542032353 0.037199123944073334 0 0.058439760212807557 0.037110552411777804 0 0.058286054248669839 0.037737406609067103 0 0.058224469184819071 0.037344032880428035 0 0.058439760212807557 0.037110552411777804 0 0.058286054248669839 0.037737406609067103 0 0.058224469184819071 0.037344032880428035 0 0.058286054248669839 0.037737406609067103 0 0.057962093055414117 0.038186163442038172 0 0.057962093055414117 0.038186163442038172 0 0.058096875453219413 0.038623937951423271 0 0.057744359721573303 0.038905043976955822 0 0.058286054248669839 0.037737406609067103 0 0.057962093055414117 0.038186163442038172 0 0.058096875453219413 0.038623937951423271 0 0.058286054248669839 0.037737406609067103 0 0.058208444985603978 0.038227884892477033 0 0.058096875453219413 0.038623937951423271 0 0.058286054248669839 0.037737406609067103 0 0.058208444985603978 0.038227884892477033 0 0.058244023227245131 0.037661185846109599 0 0.058208444985603978 0.038227884892477033 0 0.058224727685734882 0.038186463571137273 0 0.058244023227245131 0.037661185846109599 0 0.058208444985603978 0.038227884892477033 0 0.058224727685734882 0.038186463571137273 0 0.058174659445818615 0.038435370425167342 0 0.058224727685734882 0.038186463571137273 0 0.058497428387015091 0.037794448186957035 0 0.058244023227245131 0.037661185846109599 0 0.058224727685734882 0.038186463571137273 0 0.058497428387015091 0.037794448186957035 0 0.058086767656489895 0.038632242304144838 0 0.056364186874427624 0.032326381182119765 0 0.055590046146200493 0.031807691644685991 0 0.05652274959427437 0.030192210654876948 0 0.058011175029337073 0.037053953586353383 0 0.058174922542032353 0.037199123944073334 0 0.058244023227245131 0.037661185846109599 0 0.057121471526816882 0.036010706886111798 0 0.057658398880824045 0.034358905398827307 0 0.058011175029337073 0.037053953586353383 0 0.058497428387015091 0.037794448186957035 0 0.058244023227245131 0.037661185846109599 0 0.058174922542032353 0.037199123944073334 0 0.058286054248669839 0.037737406609067103 0 0.058244023227245131 0.037661185846109599 0 0.053282467452792658 0.033403987717907709 0 0.053336010994562096 0.034966633967909881 0 0.054825675414406964 0.032898697192100285 0 0.053282467452792658 0.033403987717907709 0 0.053341877741433862 0.031955089048788278 0 0.051576698655290479 0.033901919500407954 0 0.043837514374413682 0.035939160924481829 0 0.04537812233080326 0.033124219304610972 0 0.053282467452792658 0.033403987717907709 0 0.053336010994562096 0.034966633967909881 0 0.051576698655290479 0.033901919500407954 0 0.054066962653232492 0.033942060956902463 0 0.055228495180314613 0.03382110219239156 0 0.054825675414406964 0.032898697192100285 0 0.053669838168086216 0.034465767178048563 0 0.054711879564355241 0.033073440917512568 0 0.056364186874427624 0.032326381182119765 0 0.055228495180314613 0.03382110219239156 0 0.054825675414406964 0.032898697192100285 0 0.056365187300822954 0.034427562531120053 0 0.056364186874427624 0.032326381182119765 0 0.055228495180314613 0.03382110219239156 0 0.054825675414406964 0.032898697192100285 0 0.055590046146200493 0.031807691644685991 0 0.054766840664493839 0.031940885069892205 0 0.056364186874427624 0.032326381182119765 0 0.054825675414406964 0.032898697192100285 0 0.055590046146200493 0.031807691644685991 0 0.055590046146200493 0.031807691644685991 0 0.054766840664493839 0.031940885069892205 0 0.055199798918361992 0.031075758852531256 0 0.052972592997594929 0.042295379394164022 0 0.054300252109634579 0.041515546255504604 0 0.054059114372157803 0.041464453704194347 0 0.054766840664493839 0.031940885069892205 0 0.053341877741433862 0.031955089048788278 0 0.055199798918361992 0.031075758852531256 0 0.043837514374413682 0.035939160924481829 0 0.05600069070776504 0.035592108504309494 0 0.054825675414406964 0.032898697192100285 0 0.054766840664493839 0.031940885069892205 0 0.053341877741433862 0.031955089048788278 0 0.053282467452792658 0.033403987717907709 0 0.054825675414406964 0.032898697192100285 0 0.053341877741433862 0.031955089048788278 0 0.030297115676139727 0.036722623496508421 0 0.029914619886097796 0.036667559924907549 0 0.029823451903594155 0.036304815506635113 0 0.030297115676139727 0.036722623496508421 0 0.029914619886097796 0.036667559924907549 0 0.029891250858911051 0.036926361084236616 0 0.029914619886097796 0.036667559924907549 0 0.029645576997610727 0.036713700375969577 0 0.029823451903594155 0.036304815506635113 0 0.043837514374413682 0.035939160924481829 0 0.032121674355910297 0.035580976108589291 0 0.029914619886097796 0.036667559924907549 0 0.029645576997610727 0.036713700375969577 0 0.029891250858911051 0.036926361084236616 0 0.028098199312391943 0.036572126026876824 0 0.027864893354622947 0.036444157906489659 0 0.027915377389215665 0.036337688032697886 0 0.028098199312391943 0.036572126026876824 0 0.027756015516256706 0.03649347224809972 0 0.027864893354622947 0.036444157906489659 0 0.028098199312391943 0.036572126026876824 0 0.027820952293579827 0.036605387949802073 0 0.027756015516256706 0.03649347224809972 0 0.032121674355910297 0.035580976108589291 0 0.028412654493482199 0.034492780851834166 0 0.029070556224409603 0.036882675666896458 0 0.026048763719792704 0.034745176953314284 0 0.029631855794466366 0.036944780413272663 0 0.029891250858911051 0.036926361084236616 0 0.02954554769338457 0.037126526860236618 0 0.029645576997610727 0.036713700375969577 0 0.029631855794466366 0.036944780413272663 0 0.029409286746885678 0.037060836896130198 0 0.028098199312391943 0.036572126026876824 0 0.027789820258315775 0.03677332873969804 0 0.027820952293579827 0.036605387949802073 0 0.036097769245126275 0.033417844684144569 0 0.035083718214949204 0.037492081122720407 0 0.032283238748786254 0.036146574004372101 0 0.029645576997610727 0.036713700375969577 0 0.029631855794466366 0.036944780413272663 0 0.029891250858911051 0.036926361084236616 0 0.029631855794466366 0.036944780413272663 0 0.02954554769338457 0.037126526860236618 0 0.029409286746885678 0.037060836896130198 0 0.028412654493482199 0.034492780851834166 0 0.026048763719792704 0.034745176953314284 0 0.039920547089693011 0.030789214083174789 0 0.036097769245126275 0.033417844684144569 0 0.037493116965898514 0.034090722357977776 0 0.036097769245126275 0.033417844684144569 0 0.037493116965898514 0.034090722357977776 0 0.035083718214949204 0.037492081122720407 0 0.04537812233080326 0.033124219304610972 0 0.033508130100946214 0.032741319176710131 0 0.053336010994562096 0.034966633967909881 0 0.051576698655290479 0.033901919500407954 0 0.051761046884253113 0.035497982528835528 0 0.051761046884253113 0.035497982528835528 0 0.049750004807232122 0.036249458931179618 0 0.051629532209137761 0.037138830161390878 0 0.051576698655290479 0.033901919500407954 0 0.051761046884253113 0.035497982528835528 0 0.049750004807232122 0.036249458931179618 0 0.033508130100946214 0.032741319176710131 0 0.048076856768974677 0.032488093923116149 0 0.023078316471932932 0.031392220990562568 0 0.023403255195597165 0.031157128248540045 0 0.023441828495131191 0.030662958711614344 0 0.023542314610061503 0.03146370670090811 0 0.023458903787727685 0.031393392371420366 0 0.023589441792955624 0.031403474307004506 0 0.023542314610061503 0.03146370670090811 0 0.02348806969330346 0.031561700469355372 0 0.023458903787727685 0.031393392371420366 0 0.023542314610061503 0.03146370670090811 0 0.02360842136140889 0.031492990355828761 0 0.023589441792955624 0.031403474307004506 0 0.02348806969330346 0.031561700469355372 0 0.02360842136140889 0.031492990355828761 0 0.023668412377482243 0.03161403623414543 0 0.023542314610061503 0.03146370670090811 0 0.02348806969330346 0.031561700469355372 0 0.02360842136140889 0.031492990355828761 0 0.033508130100946214 0.032741319176710131 0 0.028412654493482199 0.034492780851834166 0 0.023078316471932932 0.031392220990562568 0 0.02348806969330346 0.031561700469355372 0 0.023458903787727685 0.031393392371420366 0 0.023078316471932932 0.031392220990562568 0 0.023458903787727685 0.031393392371420366 0 0.023403255195597165 0.031157128248540045 0 0.023458903787727685 0.031393392371420366 0 0.023403255195597165 0.031157128248540045 0 0.023567100610663229 0.03118588174877571 0 0.023458903787727685 0.031393392371420366 0 0.023567100610663229 0.03118588174877571 0 0.023589441792955624 0.031403474307004506 0 0.029085907094105128 0.024929374150305109 0 0.027152226913243097 0.027469684178037908 0 0.029024255308333365 0.02789973543114712 0 0.033508130100946214 0.032741319176710131 0 0.024831462306442988 0.028853965126365538 0 0.023403255195597165 0.031157128248540045 0 0.023567100610663229 0.03118588174877571 0 0.023441828495131191 0.030662958711614344 0 0.023567100610663229 0.03118588174877571 0 0.023441828495131191 0.030662958711614344 0 0.023649112788868654 0.03095691328181489 0 0.027152226913243097 0.027469684178037908 0 0.029024255308333365 0.02789973543114712 0 0.026991413964665111 0.028829223330814377 0 0.029085907094105128 0.024929374150305109 0 0.030868465115052916 0.02577123217356651 0 0.029024255308333365 0.02789973543114712 0 0.052092090509965966 0.034337473578069252 0 0.0504375470076266 0.036335598402376726 0 0.053073899120355927 0.036736500632060659 0 0.048076856768974677 0.032488093923116149 0 0.039571039055891204 0.032237196732333599 0 0.052092090509965966 0.034337473578069252 0 0.053073899120355927 0.036736500632060659 0 0.054889514452376581 0.035959869913097985 0 0.048076856768974677 0.032488093923116149 0 0.056488529591755231 0.036709698670998277 0 0.053073899120355927 0.036736500632060659 0 0.054889514452376581 0.035959869913097985 0 0.054873766615016042 0.037620797200139632 0 0.054066962653232492 0.033942060956902463 0 0.053123858617770268 0.035106663622060573 0 0.054724616721358699 0.034663276000978405 0 0.053123858617770268 0.035106663622060573 0 0.054724616721358699 0.034663276000978405 0 0.054889514452376581 0.035959869913097985 0 0.054066962653232492 0.033942060956902463 0 0.055228495180314613 0.03382110219239156 0 0.054724616721358699 0.034663276000978405 0 0.053336010994562096 0.034966633967909881 0 0.051761046884253113 0.035497982528835528 0 0.051629532209137761 0.037138830161390878 0 0.053669838168086216 0.034465767178048563 0 0.048076856768974677 0.032488093923116149 0 0.056365187300822954 0.034427562531120053 0 0.055228495180314613 0.03382110219239156 0 0.054724616721358699 0.034663276000978405 0 0.056365187300822954 0.034427562531120053 0 0.054724616721358699 0.034663276000978405 0 0.054889514452376581 0.035959869913097985 0 0.056365187300822954 0.034427562531120053 0 0.054889514452376581 0.035959869913097985 0 0.056714689731743033 0.037155368158554247 0 0.054889514452376581 0.035959869913097985 0 0.056714689731743033 0.037155368158554247 0 0.054873766615016042 0.037620797200139632 0 0.056714689731743033 0.037155368158554247 0 0.054873766615016042 0.037620797200139632 0 0.056390385562272466 0.03893515659024499 0 0.053073899120355927 0.036736500632060659 0 0.054873766615016042 0.037620797200139632 0 0.052900055454675507 0.039048148977120077 0 0.054873766615016042 0.037620797200139632 0 0.052900055454675507 0.039048148977120077 0 0.056390385562272466 0.03893515659024499 0 0.033461528020824839 0.026346318334607325 0 0.03596313461701426 0.028963516721259176 0 0.033409480686482557 0.030145359980155179 0 0.044235660647662087 0.032702374607064925 0 0.046693184592352291 0.032886127316586154 0 0.033461528020824839 0.026346318334607325 0 0.037384325927284599 0.026910670961429715 0 0.03596313461701426 0.028963516721259176 0 0.038178565476027611 0.028787010960699737 0 0.037384325927284599 0.026910670961429715 0 0.03596313461701426 0.028963516721259176 0 0.038178565476027611 0.028787010960699737 0 0.037594495796135614 0.030329865322823633 0 0.03596313461701426 0.028963516721259176 0 0.037594495796135614 0.030329865322823633 0 0.03596313461701426 0.028963516721259176 0 0.035819610874589132 0.031135961353504243 0 0.03596313461701426 0.028963516721259176 0 0.033409480686482557 0.030145359980155179 0 0.035819610874589132 0.031135961353504243 0 0.033409480686482557 0.030145359980155179 0 0.033516995848012009 0.032805635290875636 0 0.035819610874589132 0.031135961353504243 0 0.035817713636185022 0.033000012606103898 0 0.033516995848012009 0.032805635290875636 0 0.035819610874589132 0.031135961353504243 0 0.035817713636185022 0.033000012606103898 0 0.038127761902184344 0.032383103681477364 0 0.035819610874589132 0.031135961353504243 0 0.038127761902184344 0.032383103681477364 0 0.037594495796135614 0.030329865322823633 0 0.035819610874589132 0.031135961353504243 0 0.030583400968466817 0.034200753059419671 0 0.030890216044322225 0.031590617644493363 0 0.027823366416806744 0.033289103737501345 0 0.030890216044322225 0.031590617644493363 0 0.028389040751542617 0.030346128329266159 0 0.027823366416806744 0.033289103737501345 0 0.033409480686482557 0.030145359980155179 0 0.033516995848012009 0.032805635290875636 0 0.030890216044322225 0.031590617644493363 0 0.030583400968466817 0.034200753059419671 0 0.033516995848012009 0.032805635290875636 0 0.030890216044322225 0.031590617644493363 0 0.033409480686482557 0.030145359980155179 0 0.030890216044322225 0.031590617644493363 0 0.030850908995712349 0.028575418558280722 0 0.030890216044322225 0.031590617644493363 0 0.028389040751542617 0.030346128329266159 0 0.030850908995712349 0.028575418558280722 0 0.028389040751542617 0.030346128329266159 0 0.028994896996574784 0.027737494092253852 0 0.030850908995712349 0.028575418558280722 0 0.028994896996574784 0.027737494092253852 0 0.030850908995712349 0.028575418558280722 0 0.029296292760600407 0.02554732781629044 0 0.033461528020824839 0.026346318334607325 0 0.033409480686482557 0.030145359980155179 0 0.030850908995712349 0.028575418558280722 0 0.033461528020824839 0.026346318334607325 0 0.030850908995712349 0.028575418558280722 0 0.029296292760600407 0.02554732781629044 0 0.0504375470076266 0.036335598402376726 0 0.053073899120355927 0.036736500632060659 0 0.052900055454675507 0.039048148977120077 0 0.044235660647662087 0.032702374607064925 0 0.034037281733186549 0.03229905918171911 0 0.0504375470076266 0.036335598402376726 0 0.052900055454675507 0.039048148977120077 0 0.048665285946531626 0.038424263792724539 0 0.027152226913243097 0.027469684178037908 0 0.026991413964665111 0.028829223330814377 0 0.025394752539922849 0.029689792324851486 0 0.027228273331892101 0.029847056018683975 0 0.026991413964665111 0.028829223330814377 0 0.026288933631886852 0.029605174521555953 0 0.034037281733186549 0.03229905918171911 0 0.028337607702659386 0.030879668623920126 0 0.039571039055891204 0.032237196732333599 0 0.034037281733186549 0.03229905918171911 0 0.029024255308333365 0.02789973543114712 0 0.027228273331892101 0.029847056018683975 0 0.026991413964665111 0.028829223330814377 0 0.024831462306442988 0.028853965126365538 0 0.02468007451667633 0.03009355544532847 0 0.023441828495131191 0.030662958711614344 0 0.023938133126195388 0.03034785105409913 0 0.023813138366500546 0.030482145904950995 0 0.023867762590723499 0.0303588658163562 0 0.023938133126195388 0.03034785105409913 0 0.023813138366500546 0.030482145904950995 0 0.023867762590723499 0.0303588658163562 0 0.023813138366500546 0.030482145904950995 0 0.023905542420251946 0.030433035653310219 0 0.023867762590723499 0.0303588658163562 0 0.023938133126195388 0.03034785105409913 0 0.023795876680348913 0.030593054254734121 0 0.026991413964665111 0.028829223330814377 0 0.025394752539922849 0.029689792324851486 0 0.026288933631886852 0.029605174521555953 0 0.023867762590723499 0.0303588658163562 0 0.023504615372026336 0.030178118540418967 0 0.023905542420251946 0.030433035653310219 0 0.023504615372026336 0.030178118540418967 0 0.023795876680348913 0.030593054254734121 0 0.023444989749554602 0.030813789916869311 0 0.023867762590723499 0.0303588658163562 0 0.023504615372026336 0.030178118540418967 0 0.023795876680348913 0.030593054254734121 0 0.023504615372026336 0.030178118540418967 0 0.023444989749554602 0.030813789916869311 0 0.022760802984056795 0.030642745973532757 0 0.023444989749554602 0.030813789916869311 0 0.024050296882062901 0.031233539216299039 0 0.022845773541075823 0.031698839441341262 0 0.023795876680348913 0.030593054254734121 0 0.023444989749554602 0.030813789916869311 0 0.024050296882062901 0.031233539216299039 0 0.025394752539922849 0.029689792324851486 0 0.024050296882062901 0.031233539216299039 0 0.024925240314029658 0.031464436231585749 0 0.02468007451667633 0.03009355544532847 0 0.024040454966943431 0.03115618320142631 0 0.026938389464112075 0.029732436964640365 0 0.026288933631886852 0.029605174521555953 0 0.024925240314029658 0.031464436231585749 0 0.025394752539922849 0.029689792324851486 0 0.026288933631886852 0.029605174521555953 0 0.024925240314029658 0.031464436231585749 0 0.028994896996574784 0.027737494092253852 0 0.029296292760600407 0.02554732781629044 0 0.026776007136467831 0.028555727290886242 0 0.023938133126195388 0.03034785105409913 0 0.023795876680348913 0.030593054254734121 0 0.024050296882062901 0.031233539216299039 0 0.034037281733186549 0.03229905918171911 0 0.025286913610525572 0.029557699140307474 0 0.028389040751542617 0.030346128329266159 0 0.028994896996574784 0.027737494092253852 0 0.026776007136467831 0.028555727290886242 0 0.028389040751542617 0.030346128329266159 0 0.026776007136467831 0.028555727290886242 0 0.024147810612173793 0.032485912983354584 0 0.024050296882062901 0.031233539216299039 0 0.024147810612173793 0.032485912983354584 0 0.022845773541075823 0.031698839441341262 0 0.024050296882062901 0.031233539216299039 0 0.024925240314029658 0.031464436231585749 0 0.024147810612173793 0.032485912983354584 0 0.025286913610525572 0.029557699140307474 0 0.024355259177062348 0.032408144793074724 0 0.024500602373812078 0.034995379246245836 0 0.024147810612173793 0.032485912983354584 0 0.027823366416806744 0.033289103737501345 0 0.024500602373812078 0.034995379246245836 0 0.024147810612173793 0.032485912983354584 0 0.021956938574240248 0.033564237130145898 0 0.028389040751542617 0.030346128329266159 0 0.024147810612173793 0.032485912983354584 0 0.027823366416806744 0.033289103737501345 0 0.020146268777647119 0.033397456243643382 0 0.021956938574240248 0.033564237130145898 0 0.021184406211305944 0.032465886827130142 0 0.020401574901691852 0.034567363245699784 0 0.020146268777647119 0.033397456243643382 0 0.018965714107837001 0.034382067249044017 0 0.020401574901691852 0.034567363245699784 0 0.020146268777647119 0.033397456243643382 0 0.021956938574240248 0.033564237130145898 0 0.024147810612173793 0.032485912983354584 0 0.021956938574240248 0.033564237130145898 0 0.022845773541075823 0.031698839441341262 0 0.021956938574240248 0.033564237130145898 0 0.022845773541075823 0.031698839441341262 0 0.021184406211305944 0.032465886827130142 0 0.022845773541075823 0.031698839441341262 0 0.021184406211305944 0.032465886827130142 0 0.021532848361499657 0.031322954834221373 0 0.021184406211305944 0.032465886827130142 0 0.021532848361499657 0.031322954834221373 0 0.019501029448899313 0.03213970387632345 0 0.020146268777647119 0.033397456243643382 0 0.021184406211305944 0.032465886827130142 0 0.019501029448899313 0.03213970387632345 0 0.021532848361499657 0.031322954834221373 0 0.020130538049195065 0.030857559097109622 0 0.019501029448899313 0.03213970387632345 0 0.021532848361499657 0.031322954834221373 0 0.020130538049195065 0.030857559097109622 0 0.021423073724462883 0.030335655111684793 0 0.022845773541075823 0.031698839441341262 0 0.021532848361499657 0.031322954834221373 0 0.022760802984056795 0.030642745973532757 0 0.023444989749554602 0.030813789916869311 0 0.022845773541075823 0.031698839441341262 0 0.022760802984056795 0.030642745973532757 0 0.021532848361499657 0.031322954834221373 0 0.022760802984056795 0.030642745973532757 0 0.021423073724462883 0.030335655111684793 0 0.023504615372026336 0.030178118540418967 0 0.022760802984056795 0.030642745973532757 0 0.022426590486368095 0.029339835272759063 0 0.022760802984056795 0.030642745973532757 0 0.021423073724462883 0.030335655111684793 0 0.022426590486368095 0.029339835272759063 0 0.026512665337809192 0.030922537295867605 0 0.026891208911895767 0.031526078577835077 0 0.027003208695429569 0.031322381977130227 0 0.020130538049195065 0.030857559097109622 0 0.021423073724462883 0.030335655111684793 0 0.018997175267960627 0.029428960064867393 0 0.021423073724462883 0.030335655111684793 0 0.022426590486368095 0.029339835272759063 0 0.018997175267960627 0.029428960064867393 0 0.024351805320649088 0.030211411305946557 0 0.022809962032420448 0.030398565131559554 0 0.026644038551980539 0.032034059870979591 0 0.026512665337809192 0.030922537295867605 0 0.027003208695429569 0.031322381977130227 0 0.025693496660702499 0.03429095145726254 0 0.027505449318520551 0.030184023345430386 0 0.026644038551980539 0.032034059870979591 0 0.027234774760406821 0.032578957972886527 0 0.027003208695429569 0.031322381977130227 0 0.026644038551980539 0.032034059870979591 0 0.027234774760406821 0.032578957972886527 0 0.026613429081867215 0.033122679885844636 0 0.026067990987960313 0.032886917494488008 0 0.026644038551980539 0.032034059870979591 0 0.025746246537513846 0.031983251586921953 0 0.026067990987960313 0.032886917494488008 0 0.026644038551980539 0.032034059870979591 0 0.026613429081867215 0.033122679885844636 0 0.025746246537513846 0.031983251586921953 0 0.026512665337809192 0.030922537295867605 0 0.024938276264638463 0.031426459824632838 0 0.026644038551980539 0.032034059870979591 0 0.025746246537513846 0.031983251586921953 0 0.026512665337809192 0.030922537295867605 0 0.023504615372026336 0.030178118540418967 0 0.022426590486368095 0.029339835272759063 0 0.024093501508457772 0.030617579538485439 0 0.024351805320649088 0.030211411305946557 0 0.023989954069634372 0.030587194397176169 0 0.026512665337809192 0.030922537295867605 0 0.024093501508457772 0.030617579538485439 0 0.024938276264638463 0.031426459824632838 0 0.023504615372026336 0.030178118540418967 0 0.023905542420251946 0.030433035653310219 0 0.024093501508457772 0.030617579538485439 0 0.024093501508457772 0.030617579538485439 0 0.023895229295708923 0.031333729954599446 0 0.024938276264638463 0.031426459824632838 0 0.023441828495131191 0.030662958711614344 0 0.023813138366500546 0.030482145904950995 0 0.023793856652921847 0.030674473128970842 0 0.023905542420251946 0.030433035653310219 0 0.024093501508457772 0.030617579538485439 0 0.023793856652921847 0.030674473128970842 0 0.023813138366500546 0.030482145904950995 0 0.023905542420251946 0.030433035653310219 0 0.023793856652921847 0.030674473128970842 0 0.024093501508457772 0.030617579538485439 0 0.023793856652921847 0.030674473128970842 0 0.023895229295708923 0.031333729954599446 0 0.023793856652921847 0.030674473128970842 0 0.023742747983157775 0.031248938245260083 0 0.023895229295708923 0.031333729954599446 0 0.023441828495131191 0.030662958711614344 0 0.023793856652921847 0.030674473128970842 0 0.023649112788868654 0.03095691328181489 0 0.023793856652921847 0.030674473128970842 0 0.023649112788868654 0.03095691328181489 0 0.023742747983157775 0.031248938245260083 0 0.023690541702282072 0.031395309754818822 0 0.023742747983157775 0.031248938245260083 0 0.023895229295708923 0.031333729954599446 0 0.023567100610663229 0.03118588174877571 0 0.023690541702282072 0.031395309754818822 0 0.023742747983157775 0.031248938245260083 0 0.023567100610663229 0.03118588174877571 0 0.023690541702282072 0.031395309754818822 0 0.023589441792955624 0.031403474307004506 0 0.023567100610663229 0.03118588174877571 0 0.023649112788868654 0.03095691328181489 0 0.023742747983157775 0.031248938245260083 0 0.023895229295708923 0.031333729954599446 0 0.02417568916088474 0.032192118104452445 0 0.02266405961497122 0.033251447873698714 0 0.02417568916088474 0.032192118104452445 0 0.024252171100333637 0.032973093801482403 0 0.02266405961497122 0.033251447873698714 0 0.023690541702282072 0.031395309754818822 0 0.02360842136140889 0.031492990355828761 0 0.023668412377482243 0.03161403623414543 0 0.023690541702282072 0.031395309754818822 0 0.023895229295708923 0.031333729954599446 0 0.023668412377482243 0.03161403623414543 0 0.023814124553440907 0.031238059249198379 0 0.026048763719792704 0.034745176953314284 0 0.023690541702282072 0.031395309754818822 0 0.02360842136140889 0.031492990355828761 0 0.023589441792955624 0.031403474307004506 0 0.025746246537513846 0.031983251586921953 0 0.024938276264638463 0.031426459824632838 0 0.024849165941044925 0.032257129543951733 0 0.02417568916088474 0.032192118104452445 0 0.024938276264638463 0.031426459824632838 0 0.024849165941044925 0.032257129543951733 0 0.023895229295708923 0.031333729954599446 0 0.02417568916088474 0.032192118104452445 0 0.024938276264638463 0.031426459824632838 0 0.024849165941044925 0.032257129543951733 0 0.024252171100333637 0.032973093801482403 0 0.025228788878860087 0.033051181871683474 0 0.02417568916088474 0.032192118104452445 0 0.024849165941044925 0.032257129543951733 0 0.024252171100333637 0.032973093801482403 0 0.026067990987960313 0.032886917494488008 0 0.025746246537513846 0.031983251586921953 0 0.025228788878860087 0.033051181871683474 0 0.025746246537513846 0.031983251586921953 0 0.024849165941044925 0.032257129543951733 0 0.025228788878860087 0.033051181871683474 0 0.025931517429296037 0.035370386418896442 0 0.026984101785017044 0.035804873884470075 0 0.024480217523005939 0.034251970268531003 0 0.025778687475118769 0.03433660379315534 0 0.027028092411074619 0.035779849878559651 0 0.025228788878860087 0.033051181871683474 0 0.024480217523005939 0.034251970268531003 0 0.025778687475118769 0.03433660379315534 0 0.026067990987960313 0.032886917494488008 0 0.025228788878860087 0.033051181871683474 0 0.025778687475118769 0.03433660379315534 0 0.024252171100333637 0.032973093801482403 0 0.025228788878860087 0.033051181871683474 0 0.024480217523005939 0.034251970268531003 0 0.025931517429296037 0.035370386418896442 0 0.026048763719792704 0.034745176953314284 0 0.027444143123295243 0.03656181209042178 0 0.027789820258315775 0.03677332873969804 0 0.027644706103791734 0.036580045707693527 0 0.024252171100333637 0.032973093801482403 0 0.024480217523005939 0.034251970268531003 0 0.02266405961497122 0.033251447873698714 0 0.027444143123295243 0.03656181209042178 0 0.027644706103791734 0.036580045707693527 0 0.027555362159874759 0.036403312423845924 0 0.027789820258315775 0.03677332873969804 0 0.027644706103791734 0.036580045707693527 0 0.027820952293579827 0.036605387949802073 0 0.027644706103791734 0.036580045707693527 0 0.027820952293579827 0.036605387949802073 0 0.027756015516256706 0.03649347224809972 0 0.027756015516256706 0.03649347224809972 0 0.027555362159874759 0.036403312423845924 0 0.027621123431583457 0.036327340872387648 0 0.027644706103791734 0.036580045707693527 0 0.027756015516256706 0.03649347224809972 0 0.027555362159874759 0.036403312423845924 0 0.027756015516256706 0.03649347224809972 0 0.027621123431583457 0.036327340872387648 0 0.027864893354622947 0.036444157906489659 0 0.027444143123295243 0.03656181209042178 0 0.027335735455843377 0.036168691513914941 0 0.027028092411074619 0.035779849878559651 0 0.027444143123295243 0.03656181209042178 0 0.027555362159874759 0.036403312423845924 0 0.027335735455843377 0.036168691513914941 0 0.027555362159874759 0.036403312423845924 0 0.027621123431583457 0.036327340872387648 0 0.027335735455843377 0.036168691513914941 0 0.027621123431583457 0.036327340872387648 0 0.027335735455843377 0.036168691513914941 0 0.027419580270078951 0.036252702482557832 0 0.027335735455843377 0.036168691513914941 0 0.027028092411074619 0.035779849878559651 0 0.027329944041204139 0.036203203418537458 0 0.027335735455843377 0.036168691513914941 0 0.027329944041204139 0.036203203418537458 0 0.027419580270078951 0.036252702482557832 0 0.027028092411074619 0.035779849878559651 0 0.027560827550299066 0.036084111789706268 0 0.027329944041204139 0.036203203418537458 0 0.027028092411074619 0.035779849878559651 0 0.027560827550299066 0.036084111789706268 0 0.02820329498607764 0.035790143650925949 0 0.027560827550299066 0.036084111789706268 0 0.02820329498607764 0.035790143650925949 0 0.027668684264481345 0.036485435020463537 0 0.025215155455128663 0.036597282887068108 0 0.025693496660702499 0.03429095145726254 0 0.022068968677367178 0.03775712420873386 0 0.021967732344604019 0.038266689073664137 0 0.021563570027900471 0.037924170930324026 0 0.02820329498607764 0.035790143650925949 0 0.028643685939509472 0.034229047967995731 0 0.027633258229004261 0.034523338674994547 0 0.025693496660702499 0.03429095145726254 0 0.027362186961203148 0.03373964253960509 0 0.027028092411074619 0.035779849878559651 0 0.02820329498607764 0.035790143650925949 0 0.027633258229004261 0.034523338674994547 0 0.025705836325513785 0.034323952966260646 0 0.027362186961203148 0.03373964253960509 0 0.026067990987960313 0.032886917494488008 0 0.025778687475118769 0.03433660379315534 0 0.026613429081867215 0.033122679885844636 0 0.025778687475118769 0.03433660379315534 0 0.027028092411074619 0.035779849878559651 0 0.027633258229004261 0.034523338674994547 0 0.026733144421695096 0.036470313918577538 0 0.02639733671340426 0.036216748640707931 0 0.026093831162647081 0.037216107232697797 0 0.026733144421695096 0.036470313918577538 0 0.026093831162647081 0.037216107232697797 0 0.026986736866922708 0.036775969334971056 0 0.026733144421695096 0.036470313918577538 0 0.026986736866922708 0.036775969334971056 0 0.027162846153599776 0.036237878275415442 0 0.026733144421695096 0.036470313918577538 0 0.02639733671340426 0.036216748640707931 0 0.026907558464432359 0.036040822372972854 0 0.026733144421695096 0.036470313918577538 0 0.027162846153599776 0.036237878275415442 0 0.026907558464432359 0.036040822372972854 0 0.020256811700367576 0.045567539078946215 0 0.020880382811148117 0.046570909449565205 0 0.019458722895296186 0.046241667896541314 0 0.023889391331886143 0.040360359046637428 0 0.023537822784930752 0.039428957604014034 0 0.02130700842821141 0.04503776750333862 0 0.020256811700367576 0.045567539078946215 0 0.020880382811148117 0.046570909449565205 0 0.020256811700367576 0.045567539078946215 0 0.02041183054079454 0.044346751514563694 0 0.019180392233438939 0.045471957126650975 0 0.025215155455128663 0.036597282887068108 0 0.023537822784930752 0.039428957604014034 0 0.022068968677367178 0.03775712420873386 0 0.022187913663596449 0.037256874415496487 0 0.021474631549335568 0.037428730933279107 0 0.023537822784930752 0.039428957604014034 0 0.027876753570247992 0.036312532487116196 0 0.027560827550299066 0.036084111789706268 0 0.027668684264481345 0.036485435020463537 0 0.027329944041204139 0.036203203418537458 0 0.027668684264481345 0.036485435020463537 0 0.027361623094573597 0.036305410656472192 0 0.027329944041204139 0.036203203418537458 0 0.027361623094573597 0.036305410656472192 0 0.027419580270078951 0.036252702482557832 0 0.027575243765027877 0.036269501607989474 0 0.027361623094573597 0.036305410656472192 0 0.027329944041204139 0.036203203418537458 0 0.027419580270078951 0.036252702482557832 0 0.027361623094573597 0.036305410656472192 0 0.027575243765027877 0.036269501607989474 0 0.027579411661782037 0.03619821925786032 0 0.027621123431583457 0.036327340872387648 0 0.027419580270078951 0.036252702482557832 0 0.027575243765027877 0.036269501607989474 0 0.027621123431583457 0.036327340872387648 0 0.027864893354622947 0.036444157906489659 0 0.027915377389215665 0.036337688032697886 0 0.027621123431583457 0.036327340872387648 0 0.027915377389215665 0.036337688032697886 0 0.027575243765027877 0.036269501607989474 0 0.027915377389215665 0.036337688032697886 0 0.027575243765027877 0.036269501607989474 0 0.027579411661782037 0.03619821925786032 0 0.027915377389215665 0.036337688032697886 0 0.027579411661782037 0.03619821925786032 0 0.028100530806424516 0.036099282770259151 0 0.027579411661782037 0.03619821925786032 0 0.027765129061750521 0.035885449964595265 0 0.028100530806424516 0.036099282770259151 0 0.027579411661782037 0.03619821925786032 0 0.027410566584993086 0.036016911223974962 0 0.027592282803298274 0.035918863324768464 0 0.027579411661782037 0.03619821925786032 0 0.027765129061750521 0.035885449964595265 0 0.027592282803298274 0.035918863324768464 0 0.026986736866922708 0.036775969334971056 0 0.027579411661782037 0.03619821925786032 0 0.027162846153599776 0.036237878275415442 0 0.027876753570247992 0.036312532487116196 0 0.027270424702741131 0.036354997346569946 0 0.027579411661782037 0.03619821925786032 0 0.027410566584993086 0.036016911223974962 0 0.027162846153599776 0.036237878275415442 0 0.027410566584993086 0.036016911223974962 0 0.027162846153599776 0.036237878275415442 0 0.027215675416750226 0.035941117963777323 0 0.027215675416750226 0.035941117963777323 0 0.027253728076583269 0.035673916958684042 0 0.026907558464432359 0.036040822372972854 0 0.027162846153599776 0.036237878275415442 0 0.027215675416750226 0.035941117963777323 0 0.026907558464432359 0.036040822372972854 0 0.027410566584993086 0.036016911223974962 0 0.027215675416750226 0.035941117963777323 0 0.027411839905716669 0.035851186551959645 0 0.027410566584993086 0.036016911223974962 0 0.027411839905716669 0.035851186551959645 0 0.027592282803298274 0.035918863324768464 0 0.027215675416750226 0.035941117963777323 0 0.027411839905716669 0.035851186551959645 0 0.027294008040934202 0.035793087986594266 0 0.027411839905716669 0.035851186551959645 0 0.027253728076583269 0.035673916958684042 0 0.027580556728959989 0.035797741550729185 0 0.027411839905716669 0.035851186551959645 0 0.027294008040934202 0.035793087986594266 0 0.027253728076583269 0.035673916958684042 0 0.027215675416750226 0.035941117963777323 0 0.027294008040934202 0.035793087986594266 0 0.027253728076583269 0.035673916958684042 0 0.027765129061750521 0.035885449964595265 0 0.027785362870101603 0.035684202967682065 0 0.027580556728959989 0.035797741550729185 0 0.027253728076583269 0.035673916958684042 0 0.027785362870101603 0.035684202967682065 0 0.027580556728959989 0.035797741550729185 0 0.029235822656558913 0.039505761459866104 0 0.03006418764776831 0.041981525255339443 0 0.027765129061750521 0.035885449964595265 0 0.027592282803298274 0.035918863324768464 0 0.027580556728959989 0.035797741550729185 0 0.027411839905716669 0.035851186551959645 0 0.027592282803298274 0.035918863324768464 0 0.027580556728959989 0.035797741550729185 0 0.031779393589328971 0.047942011226593348 0 0.032186353073541132 0.047912260738636317 0 0.03202099638717476 0.047761698681898362 0 0.032186353073541132 0.047912260738636317 0 0.03202099638717476 0.047761698681898362 0 0.032330321773071158 0.047667877424627192 0 0.03202099638717476 0.047761698681898362 0 0.032024053842146336 0.047533829228851202 0 0.032330321773071158 0.047667877424627192 0 0.031843314195894042 0.047746224981669201 0 0.031547070967098148 0.047753799474189354 0 0.032024053842146336 0.047533829228851202 0 0.027468047603885229 0.045864264302539107 0 0.031288012227923497 0.048974874198920909 0 0.029235822656558913 0.039505761459866104 0 0.027468047603885229 0.045864264302539107 0 0.031779393589328971 0.047942011226593348 0 0.031843314195894042 0.047746224981669201 0 0.031547070967098148 0.047753799474189354 0 0.031779393589328971 0.047942011226593348 0 0.03202099638717476 0.047761698681898362 0 0.031843314195894042 0.047746224981669201 0 0.03202099638717476 0.047761698681898362 0 0.031843314195894042 0.047746224981669201 0 0.032024053842146336 0.047533829228851202 0 0.0282189169268139 0.050463817300482654 0 0.0284269423209314 0.050649941165797234 0 0.028886091080623674 0.049700584157727476 0 0.018091120355607396 0.046426039290567836 0 0.018155028033145216 0.046170934645359776 0 0.018650551595431025 0.046427163624842969 0 0.025781285036069624 0.047655187977700283 0 0.024235325082822841 0.043522796496012157 0 0.026647243804883532 0.03560096251414243 0 0.026792841425630643 0.035512684527594388 0 0.026625858169916024 0.03584279348043929 0 0.024235325082822841 0.043522796496012157 0 0.027468047603885229 0.045864264302539107 0 0.025085664177825848 0.045700815373780034 0 0.025252960712081756 0.044937639951770268 0 0.024689640745283067 0.045351012000642586 0 0.025781285036069624 0.047655187977700283 0 0.027468047603885229 0.045864264302539107 0 0.027253728076583269 0.035673916958684042 0 0.026625858169916024 0.03584279348043929 0 0.026907558464432359 0.036040822372972854 0 0.023889391331886143 0.040360359046637428 0 0.024235325082822841 0.043522796496012157 0 0.029235822656558913 0.039505761459866104 0 0.026283225008600801 0.0361807300703939 0 0.02639733671340426 0.036216748640707931 0 0.026647243804883532 0.03560096251414243 0 0.026625858169916024 0.03584279348043929 0 0.027175504782569214 0.035847041400778837 0 0.026792841425630643 0.035512684527594388 0 0.026625858169916024 0.03584279348043929 0 0.02639733671340426 0.036216748640707931 0 0.026625858169916024 0.03584279348043929 0 0.026907558464432359 0.036040822372972854 0 0.02130700842821141 0.04503776750333862 0 0.021707009453664178 0.043414445439836809 0 0.02041183054079454 0.044346751514563694 0 0.02130700842821141 0.04503776750333862 0 0.020256811700367576 0.045567539078946215 0 0.02041183054079454 0.044346751514563694 0 0.024235325082822841 0.043522796496012157 0 0.018918999602227732 0.045496545908811623 0 0.018091120355607396 0.046426039290567836 0 0.018650551595431025 0.046427163624842969 0 0.018731218597615194 0.047131769669792302 0 0.01877175775472115 0.045723548717484928 0 0.018650551595431025 0.046427163624842969 0 0.019141773083070347 0.046115467230762278 0 0.018155028033145216 0.046170934645359776 0 0.01877175775472115 0.045723548717484928 0 0.018650551595431025 0.046427163624842969 0 0.018650551595431025 0.046427163624842969 0 0.019141773083070347 0.046115467230762278 0 0.019224940233046623 0.046809083342669124 0 0.025781285036069624 0.047655187977700283 0 0.022169616772058962 0.047887858902378004 0 0.018650551595431025 0.046427163624842969 0 0.018731218597615194 0.047131769669792302 0 0.019224940233046623 0.046809083342669124 0 0.026817081957808374 0.049663974434125263 0 0.027741722506349518 0.04947053556096935 0 0.027529905346516319 0.048752194779704147 0 0.025781285036069624 0.047655187977700283 0 0.029010920413227836 0.049948098804547113 0 0.02805343012102118 0.050730107469149383 0 0.026817081957808374 0.049663974434125263 0 0.027741722506349518 0.04947053556096935 0 0.02805343012102118 0.050730107469149383 0 0.027741722506349518 0.04947053556096935 0 0.028575725216285389 0.048735888555445139 0 0.0282189169268139 0.050463817300482654 0 0.028575725216285389 0.048735888555445139 0 0.028886091080623674 0.049700584157727476 0 0.027529905346516319 0.048752194779704147 0 0.027024648188847436 0.047897392004978973 0 0.028774903150198778 0.04743772306683975 0 0.028575725216285389 0.048735888555445139 0 0.027529905346516319 0.048752194779704147 0 0.028774903150198778 0.04743772306683975 0 0.027741722506349518 0.04947053556096935 0 0.028575725216285389 0.048735888555445139 0 0.027529905346516319 0.048752194779704147 0 0.026817081957808374 0.049663974434125263 0 0.026614981184642172 0.04865440091889385 0 0.0255739055062498 0.048642688699616493 0 0.026817081957808374 0.049663974434125263 0 0.027529905346516319 0.048752194779704147 0 0.026614981184642172 0.04865440091889385 0 0.027529905346516319 0.048752194779704147 0 0.026614981184642172 0.04865440091889385 0 0.027024648188847436 0.047897392004978973 0 0.026614981184642172 0.04865440091889385 0 0.027024648188847436 0.047897392004978973 0 0.026160856448557611 0.048293968194680813 0 0.028545226039538268 0.05840233640203308 0 0.028768166818954069 0.056627059390607873 0 0.026620806051529489 0.05696989142643441 0 0.028545226039538268 0.05840233640203308 0 0.028768166818954069 0.056627059390607873 0 0.030925652440258588 0.05773728710520961 0 0.027808564460406734 0.052973535510618085 0 0.030045955309424884 0.053336998506741728 0 0.030189657436340792 0.054999943978900803 0 0.028768166818954069 0.056627059390607873 0 0.030925652440258588 0.05773728710520961 0 0.030191745871889546 0.055007452017061288 0 0.030045955309424884 0.053336998506741728 0 0.030189657436340792 0.054999943978900803 0 0.02751629084764684 0.054999992177065964 0 0.028768166818954069 0.056627059390607873 0 0.02751629084764684 0.054999992177065964 0 0.028768166818954069 0.056627059390607873 0 0.026620806051529489 0.05696989142643441 0 0.033049108617195726 0.054999965041968822 0 0.031853414213675192 0.056240245915194782 0 0.033164355494139076 0.05719976409503677 0 0.033049108617195726 0.054999965041968822 0 0.033164355494139076 0.05719976409503677 0 0.035350944909603388 0.056635733422316946 0 0.030189888671821579 0.054999961835695041 0 0.033049108617195726 0.054999965041968822 0 0.031853414213675192 0.056240245915194782 0 0.030189888671821579 0.054999961835695041 0 0.031853414213675192 0.056240245915194782 0 0.031011368437322679 0.057749501736942946 0 0.028837490272647162 0.047504004440393981 0 0.030262946156971119 0.047117166055105193 0 0.029605264562753551 0.047952526194461616 0 0.030045955309424884 0.053336998506741728 0 0.031832237729239821 0.052086841171063512 0 0.031853414213675192 0.056240245915194782 0 0.031011368437322679 0.057749501736942946 0 0.033164355494139076 0.05719976409503677 0 0.031832237729239821 0.052086841171063512 0 0.032911552975099907 0.051891808836203486 0 0.030262946156971119 0.047117166055105193 0 0.03016248207541463 0.048493122673811694 0 0.029605264562753551 0.047952526194461616 0 0.03016248207541463 0.048493122673811694 0 0.02994956838743108 0.049630744421697431 0 0.031497306870160093 0.0484536938250145 0 0.030262946156971119 0.047117166055105193 0 0.03016248207541463 0.048493122673811694 0 0.031497306870160093 0.0484536938250145 0 0.030045955309424884 0.053336998506741728 0 0.028564143341405543 0.046600831348517543 0 0.028575725216285389 0.048735888555445139 0 0.028774903150198778 0.04743772306683975 0 0.029147643636728265 0.048707327834782842 0 0.028837490272647162 0.047504004440393981 0 0.029605264562753551 0.047952526194461616 0 0.029147643636728265 0.048707327834782842 0 0.03016248207541463 0.048493122673811694 0 0.029605264562753551 0.047952526194461616 0 0.029147643636728265 0.048707327834782842 0 0.03016248207541463 0.048493122673811694 0 0.029147643636728265 0.048707327834782842 0 0.029484876695498201 0.04917970353291342 0 0.028575725216285389 0.048735888555445139 0 0.029147643636728265 0.048707327834782842 0 0.029029498705257315 0.049088044824146554 0 0.03016248207541463 0.048493122673811694 0 0.029484876695498201 0.04917970353291342 0 0.02994956838743108 0.049630744421697431 0 0.0284269423209314 0.050649941165797234 0 0.028886091080623674 0.049700584157727476 0 0.02994956838743108 0.049630744421697431 0 0.029029498705257315 0.049088044824146554 0 0.029484876695498201 0.04917970353291342 0 0.028886091080623674 0.049700584157727476 0 0.028575725216285389 0.048735888555445139 0 0.029029498705257315 0.049088044824146554 0 0.028886091080623674 0.049700584157727476 0 0.029147643636728265 0.048707327834782842 0 0.029029498705257315 0.049088044824146554 0 0.029484876695498201 0.04917970353291342 0 0.029484876695498201 0.04917970353291342 0 0.028886091080623674 0.049700584157727476 0 0.02994956838743108 0.049630744421697431 0 0.032024053842146336 0.047533829228851202 0 0.03244959523728258 0.047384270710741624 0 0.032330321773071158 0.047667877424627192 0 0.031288012227923497 0.048974874198920909 0 0.031924362861231369 0.047865630474341975 0 0.03258664846672843 0.047627036542696635 0 0.03244959523728258 0.047384270710741624 0 0.032330321773071158 0.047667877424627192 0 0.03258664846672843 0.047627036542696635 0 0.032725638379053103 0.047516542701701414 0 0.03244959523728258 0.047384270710741624 0 0.032725638379053103 0.047516542701701414 0 0.032916160081493256 0.047603646665068867 0 0.032745536851280427 0.047726611965961709 0 0.03258664846672843 0.047627036542696635 0 0.032725638379053103 0.047516542701701414 0 0.032745536851280427 0.047726611965961709 0 0.031924362861231369 0.047865630474341975 0 0.032731524485321059 0.04731386651370531 0 0.032725638379053103 0.047516542701701414 0 0.03244959523728258 0.047384270710741624 0 0.032770591798293065 0.04724761150733639 0 0.032725638379053103 0.047516542701701414 0 0.032770591798293065 0.04724761150733639 0 0.032894833577677064 0.047430080163194971 0 0.031497306870160093 0.0484536938250145 0 0.032770591798293065 0.04724761150733639 0 0.03167457760177575 0.046763387703194423 0 0.030262946156971119 0.047117166055105193 0 0.031497306870160093 0.0484536938250145 0 0.03167457760177575 0.046763387703194423 0 0.032770591798293065 0.04724761150733639 0 0.032797779429220887 0.046660719902657022 0 0.032894833577677064 0.047430080163194971 0 0.038105379446346989 0.050224048347019865 0 0.038267256255157416 0.047441353253785262 0 0.032770591798293065 0.04724761150733639 0 0.032797779429220887 0.046660719902657022 0 0.03167457760177575 0.046763387703194423 0 0.038105379446346989 0.050224048347019865 0 0.032911552975099907 0.051891808836203486 0 0.037429943625461974 0.05544562405958272 0 0.035908474287475789 0.054999957306068638 0 0.038767831931029187 0.054999951780148403 0 0.037544771530001401 0.056055816285998608 0 0.035350944909603388 0.056635733422316946 0 0.035908474287475789 0.054999957306068638 0 0.037544771530001401 0.056055816285998608 0 0.037429943625461974 0.05544562405958272 0 0.035908474287475789 0.054999957306068638 0 0.038105379446346989 0.050224048347019865 0 0.038347946651653121 0.053959606510583735 0 0.033049108617195726 0.054999965041968822 0 0.035350944909603388 0.056635733422316946 0 0.035908474287475789 0.054999957306068638 0 0.040702159744933311 0.055245279760876793 0 0.038767831931029187 0.054999951780148403 0 0.041627175750079036 0.055000008637800586 0 0.044465047076678671 0.048326030941739942 0 0.043810566308562456 0.048521285787785889 0 0.043825036905251247 0.04804970092931251 0 0.042184782659075264 0.05309526233773379 0 0.041626264409204 0.054998737744018311 0 0.037550922377349825 0.056060215566369795 0 0.040702159744933311 0.055245279760876793 0 0.038767831931029187 0.054999951780148403 0 0.038105379446346989 0.050224048347019865 0 0.042184782659075264 0.05309526233773379 0 0.037550922377349825 0.056060215566369795 0 0.037429943625461974 0.05544562405958272 0 0.038767831931029187 0.054999951780148403 0 0.044465047076678671 0.048326030941739942 0 0.043825036905251247 0.04804970092931251 0 0.044407979432694943 0.047713465823037433 0 0.043825036905251247 0.04804970092931251 0 0.043855649417079909 0.047548406013254212 0 0.044407979432694943 0.047713465823037433 0 0.043855649417079909 0.047548406013254212 0 0.044407979432694943 0.047713465823037433 0 0.044330396734573084 0.047054320579685817 0 0.038267256255157416 0.047441353253785262 0 0.043027996201840162 0.044785513385218606 0 0.032725638379053103 0.047516542701701414 0 0.032894833577677064 0.047430080163194971 0 0.032916160081493256 0.047603646665068867 0 0.054878842408066716 0.042967457822037557 0 0.053817490041306232 0.043166175466988935 0 0.054204252053690054 0.042442999428405584 0 0.043027996201840162 0.044785513385218606 0 0.033936759018559595 0.04532651665642113 0 0.049804017419849134 0.045301816610164039 0 0.043027996201840162 0.044785513385218606 0 0.053604590453661526 0.044325845898284144 0 0.054878842408066716 0.042967457822037557 0 0.053817490041306232 0.043166175466988935 0 0.053604590453661526 0.044325845898284144 0 0.053817490041306232 0.043166175466988935 0 0.052594161856629684 0.043729970498758014 0 0.053817490041306232 0.043166175466988935 0 0.053574003036771761 0.042618671070350805 0 0.052594161856629684 0.043729970498758014 0 0.053817490041306232 0.043166175466988935 0 0.053574003036771761 0.042618671070350805 0 0.054204252053690054 0.042442999428405584 0 0.05375012486300057 0.041913531999801058 0 0.054100472149879474 0.041499858822562151 0 0.054443869751923453 0.041760558571326954 0 0.053574003036771761 0.042618671070350805 0 0.05375012486300057 0.041913531999801058 0 0.053378480577449691 0.041940849535888454 0 0.057335467714635359 0.041351563896103873 0 0.042881737538118803 0.039821994044035282 0 0.054204252053690054 0.042442999428405584 0 0.05375012486300057 0.041913531999801058 0 0.054615589608812735 0.04183890559732243 0 0.053574003036771761 0.042618671070350805 0 0.054204252053690054 0.042442999428405584 0 0.05375012486300057 0.041913531999801058 0 0.05375012486300057 0.041913531999801058 0 0.054100472149879474 0.041499858822562151 0 0.053378480577449691 0.041940849535888454 0 0.054365127736191649 0.04105472102485113 0 0.05487348826116125 0.040996306316004441 0 0.055234311710258506 0.041008023446641256 0 0.054394841060682333 0.041025065126814156 0 0.054154145489024377 0.041846704672173517 0 0.054100472149879474 0.041499858822562151 0 0.054365127736191649 0.04105472102485113 0 0.053378480577449691 0.041940849535888454 0 0.054100472149879474 0.041499858822562151 0 0.054365127736191649 0.04105472102485113 0 0.054322817269964803 0.041074415401920687 0 0.042881737538118803 0.039821994044035282 0 0.042001051405946552 0.037672611629598098 0 0.054100472149879474 0.041499858822562151 0 0.054443869751923453 0.041760558571326954 0 0.054322817269964803 0.041074415401920687 0 0.030405606096784304 0.034585170081690368 0 0.030526043562687961 0.03570979613314245 0 0.029850376739263582 0.035695604605551837 0 0.030405606096784304 0.034585170081690368 0 0.029431703816806751 0.035182091544824684 0 0.029850376739263582 0.035695604605551837 0 0.043027996201840162 0.044785513385218606 0 0.042881737538118803 0.039821994044035282 0 0.054878842408066716 0.042967457822037557 0 0.054204252053690054 0.042442999428405584 0 0.054615589608812735 0.04183890559732243 0 0.039034458234766943 0.039635141980011002 0 0.039759000753627018 0.043482556652601458 0 0.036475135024659835 0.041863480947638872 0 0.03258664846672843 0.047627036542696635 0 0.032745536851280427 0.047726611965961709 0 0.03254918190181217 0.0478705074197407 0 0.042881737538118803 0.039821994044035282 0 0.029779788663046862 0.04003373748704555 0 0.039759000753627018 0.043482556652601458 0 0.036475135024659835 0.041863480947638872 0 0.033908173901540405 0.044101767221518547 0 0.033936759018559595 0.04532651665642113 0 0.029779788663046862 0.04003373748704555 0 0.032186353073541132 0.047912260738636317 0 0.032330321773071158 0.047667877424627192 0 0.03254918190181217 0.0478705074197407 0 0.03258664846672843 0.047627036542696635 0 0.032330321773071158 0.047667877424627192 0 0.03254918190181217 0.0478705074197407 0 0.027750434475577793 0.034351675465292997 0 0.029779788663046862 0.04003373748704555 0 0.03006418764776831 0.041981525255339443 0 0.029779788663046862 0.04003373748704555 0 0.027765129061750521 0.035885449964595265 0 0.028800384144442307 0.03473336044671587 0 0.028651656384717717 0.035731809451380707 0 0.027765129061750521 0.035885449964595265 0 0.027785362870101603 0.035684202967682065 0 0.028079495614081292 0.035703139805811725 0 0.030405606096784304 0.034585170081690368 0 0.028800384144442307 0.03473336044671587 0 0.029431703816806751 0.035182091544824684 0 0.028800384144442307 0.03473336044671587 0 0.029431703816806751 0.035182091544824684 0 0.028651656384717717 0.035731809451380707 0 0.029431703816806751 0.035182091544824684 0 0.028651656384717717 0.035731809451380707 0 0.029850376739263582 0.035695604605551837 0 0.02930386334267867 0.03627174087035652 0 0.029811712859783766 0.035706659313365766 0 0.028651656384717717 0.035731809451380707 0 0.028738849186804093 0.036431213589544743 0 0.029850376739263582 0.035695604605551837 0 0.029823451903594155 0.036304815506635113 0 0.030210283568152245 0.036218591980268562 0 0.029850376739263582 0.035695604605551837 0 0.028100530806424516 0.036099282770259151 0 0.028651656384717717 0.035731809451380707 0 0.028738849186804093 0.036431213589544743 0 0.027765129061750521 0.035885449964595265 0 0.028100530806424516 0.036099282770259151 0 0.028651656384717717 0.035731809451380707 0 0.029070556224409603 0.036882675666896458 0 0.02930386334267867 0.03627174087035652 0 0.028098199312391943 0.036572126026876824 0 0.027915377389215665 0.036337688032697886 0 0.028738849186804093 0.036431213589544743 0 0.027915377389215665 0.036337688032697886 0 0.028100530806424516 0.036099282770259151 0 0.028738849186804093 0.036431213589544743 0 0.030297115676139727 0.036722623496508421 0 0.029823451903594155 0.036304815506635113 0 0.030210283568152245 0.036218591980268562 0 0.043837514374413682 0.035939160924481829 0 0.046965743657126038 0.04046733503716806 0 0.030297115676139727 0.036722623496508421 0 0.030210283568152245 0.036218591980268562 0 0.03063726290425112 0.036372935177769926 0 0.052972592997594929 0.042295379394164022 0 0.054059114372157803 0.041464453704194347 0 0.053995521394117077 0.041123694447569914 0 0.054300252109634579 0.041515546255504604 0 0.054578063941322905 0.041305888769114306 0 0.054752641366468055 0.041319802058341702 0 0.055590046146200493 0.031807691644685991 0 0.055199798918361992 0.031075758852531256 0 0.05652274959427437 0.030192210654876948 0 0.05600069070776504 0.035592108504309494 0 0.055694617732368369 0.037777312409651112 0 0.054300252109634579 0.041515546255504604 0 0.054059114372157803 0.041464453704194347 0 0.054299048530608129 0.041393082552412183 0 0.054059114372157803 0.041464453704194347 0 0.054138540693635773 0.041374947782195866 0 0.054299048530608129 0.041393082552412183 0 0.048471370813992318 0.041446120730888804 0 0.046965743657126038 0.04046733503716806 0 0.054300252109634579 0.041515546255504604 0 0.054441608043644632 0.04132363097557986 0 0.054578063941322905 0.041305888769114306 0 0.054441608043644632 0.04132363097557986 0 0.054299048530608129 0.041393082552412183 0 0.054346477166048214 0.041318848794367084 0 0.054441608043644632 0.04132363097557986 0 0.054346477166048214 0.041318848794367084 0 0.054362318921756879 0.041241367269239784 0 0.054213548499464144 0.041341072650013078 0 0.054273438843927692 0.041301504719866225 0 0.054331617933092637 0.04118355516114499 0 0.054300252109634579 0.041515546255504604 0 0.054441608043644632 0.04132363097557986 0 0.054299048530608129 0.041393082552412183 0 0.046965743657126038 0.04046733503716806 0 0.048802732590591903 0.039680853093919007 0 0.054299048530608129 0.041393082552412183 0 0.054346477166048214 0.041318848794367084 0 0.054273438843927692 0.041301504719866225 0 0.054138540693635773 0.041374947782195866 0 0.054299048530608129 0.041393082552412183 0 0.054273438843927692 0.041301504719866225 0 0.054346477166048214 0.041318848794367084 0 0.054273438843927692 0.041301504719866225 0 0.054362318921756879 0.041241367269239784 0 0.054213548499464144 0.041341072650013078 0 0.054331617933092637 0.04118355516114499 0 0.054322817269964803 0.041074415401920687 0 0.054273438843927692 0.041301504719866225 0 0.054362318921756879 0.041241367269239784 0 0.054331617933092637 0.04118355516114499 0 0.054362318921756879 0.041241367269239784 0 0.054331617933092637 0.04118355516114499 0 0.05444889797905679 0.041205295709060619 0 0.054578063941322905 0.041305888769114306 0 0.05444889797905679 0.041205295709060619 0 0.054658595887665029 0.041159282896076448 0 0.054441608043644632 0.04132363097557986 0 0.054578063941322905 0.041305888769114306 0 0.05444889797905679 0.041205295709060619 0 0.054441608043644632 0.04132363097557986 0 0.054362318921756879 0.041241367269239784 0 0.05444889797905679 0.041205295709060619 0 0.054365127736191649 0.04105472102485113 0 0.054658595887665029 0.041159282896076448 0 0.05487348826116125 0.040996306316004441 0 0.054331617933092637 0.04118355516114499 0 0.05444889797905679 0.041205295709060619 0 0.054365127736191649 0.04105472102485113 0 0.05444889797905679 0.041205295709060619 0 0.054365127736191649 0.04105472102485113 0 0.054658595887665029 0.041159282896076448 0 0.054331617933092637 0.04118355516114499 0 0.054365127736191649 0.04105472102485113 0 0.054322817269964803 0.041074415401920687 0 0.030210283568152245 0.036218591980268562 0 0.030526043562687961 0.03570979613314245 0 0.029850376739263582 0.035695604605551837 0 0.030210283568152245 0.036218591980268562 0 0.03063726290425112 0.036372935177769926 0 0.030526043562687961 0.03570979613314245 0 0.046965743657126038 0.04046733503716806 0 0.042001051405946552 0.037672611629598098 0 0.055546692464557089 0.040865265705627152 0 0.058086767656489895 0.038632242304144838 0 0.054794865565371345 0.039712349538309877 0 0.055740641615673645 0.041490767192570041 0 0.055694617732368369 0.037777312409651112 0 0.055546692464557089 0.040865265705627152 0 0.058086767656489895 0.038632242304144838 0 0.058464640227620934 0.039036612182879016 0 0.055546692464557089 0.040865265705627152 0 0.05492713651260954 0.04108306948893533 0 0.054890858295227676 0.041516545062042665 0 0.054658595887665029 0.041159282896076448 0 0.05492713651260954 0.04108306948893533 0 0.05487348826116125 0.040996306316004441 0 0.054880442272990049 0.042076219513971384 0 0.055694617732368369 0.037777312409651112 0 0.054578063941322905 0.041305888769114306 0 0.054658595887665029 0.041159282896076448 0 0.054752641366468055 0.041319802058341702 0 0.054658595887665029 0.041159282896076448 0 0.05492713651260954 0.04108306948893533 0 0.054752641366468055 0.041319802058341702 0 0.057658398880824045 0.034358905398827307 0 0.055694617732368369 0.037777312409651112 0 0.058497428387015091 0.037794448186957035 0 0.058086767656489895 0.038632242304144838 0 0.058464640227620934 0.039036612182879016 0 0.058007112871608986 0.038675251796127304 0 0.056543472863958333 0.039352711268944886 0 0.058086767656489895 0.038632242304144838 0 0.058174659445818615 0.038435370425167342 0 0.058176882638880149 0.038611034747254615 0 0.058224727685734882 0.038186463571137273 0 0.058086767656489895 0.038632242304144838 0 0.058174659445818615 0.038435370425167342 0 0.058086767656489895 0.038632242304144838 0 0.058176882638880149 0.038611034747254615 0 0.058203012470301532 0.038861164847148758 0 0.058208444985603978 0.038227884892477033 0 0.058174659445818615 0.038435370425167342 0 0.058176882638880149 0.038611034747254615 0 0.058176882638880149 0.038611034747254615 0 0.058096875453219413 0.038623937951423271 0 0.058203012470301532 0.038861164847148758 0 0.058208444985603978 0.038227884892477033 0 0.058176882638880149 0.038611034747254615 0 0.058096875453219413 0.038623937951423271 0 0.058096875453219413 0.038623937951423271 0 0.058203012470301532 0.038861164847148758 0 0.057669099871677593 0.039751727969356929 0 0.058096875453219413 0.038623937951423271 0 0.057669099871677593 0.039751727969356929 0 0.057744359721573303 0.038905043976955822 0 0.054416044767245285 0.040503113368578161 0 0.054794865565371345 0.039712349538309877 0 0.053915240607958839 0.040353661176093306 0 0.056543472863958333 0.039352711268944886 0 0.05570043666188202 0.039659697997606297 0 0.055546692464557089 0.040865265705627152 0 0.054416044767245285 0.040503113368578161 0 0.054794865565371345 0.039712349538309877 0 0.055546692464557089 0.040865265705627152 0 0.054416044767245285 0.040503113368578161 0 0.054672879170310162 0.041108219208794802 0 0.055546692464557089 0.040865265705627152 0 0.054672879170310162 0.041108219208794802 0 0.05510850394126645 0.041061135956208174 0 0.054416044767245285 0.040503113368578161 0 0.054672879170310162 0.041108219208794802 0 0.053728420492988302 0.041141437087836373 0 0.054672879170310162 0.041108219208794802 0 0.054363644137929684 0.041612994563546418 0 0.053728420492988302 0.041141437087836373 0 0.054672879170310162 0.041108219208794802 0 0.054998505335824496 0.041329875409363274 0 0.054363644137929684 0.041612994563546418 0 0.054672879170310162 0.041108219208794802 0 0.054998505335824496 0.041329875409363274 0 0.05510850394126645 0.041061135956208174 0 0.054998505335824496 0.041329875409363274 0 0.055155799103640116 0.041002658493524524 0 0.055155738981053762 0.041097422396389964 0 0.054998505335824496 0.041329875409363274 0 0.055155738981053762 0.041097422396389964 0 0.05515170809560415 0.041350398468788074 0 0.054998505335824496 0.041329875409363274 0 0.05510850394126645 0.041061135956208174 0 0.055155799103640116 0.041002658493524524 0 0.055546692464557089 0.040865265705627152 0 0.05492713651260954 0.04108306948893533 0 0.055115672975485669 0.040957735155261174 0 0.055546692464557089 0.040865265705627152 0 0.05510850394126645 0.041061135956208174 0 0.055155799103640116 0.041002658493524524 0 0.055546692464557089 0.040865265705627152 0 0.055155799103640116 0.041002658493524524 0 0.055115672975485669 0.040957735155261174 0 0.05487348826116125 0.040996306316004441 0 0.055108667372088964 0.040985299251897422 0 0.055234311710258506 0.041008023446641256 0 0.05492713651260954 0.04108306948893533 0 0.05487348826116125 0.040996306316004441 0 0.055115672975485669 0.040957735155261174 0 0.055155799103640116 0.041002658493524524 0 0.055115672975485669 0.040957735155261174 0 0.055108667372088964 0.040985299251897422 0 0.05487348826116125 0.040996306316004441 0 0.055115672975485669 0.040957735155261174 0 0.055108667372088964 0.040985299251897422 0 0.055108667372088964 0.040985299251897422 0 0.055234311710258506 0.041008023446641256 0 0.055155738981053762 0.041097422396389964 0 0.055155799103640116 0.041002658493524524 0 0.055108667372088964 0.040985299251897422 0 0.055155738981053762 0.041097422396389964 0 0.055234311710258506 0.041008023446641256 0 0.055155738981053762 0.041097422396389964 0 0.05515170809560415 0.041350398468788074 0 0.055234311710258506 0.041008023446641256 0 0.05515170809560415 0.041350398468788074 0 0.055355889699031428 0.041733700242235335 0 0.053574003036771761 0.042618671070350805 0 0.053378480577449691 0.041940849535888454 0 0.052594161856629684 0.043729970498758014 0 0.054154145489024377 0.041846704672173517 0 0.054717855475556729 0.041479963215639869 0 0.05515170809560415 0.041350398468788074 0 0.055051116830303816 0.0416644264143749 0 0.055355889699031428 0.041733700242235335 0 0.054998505335824496 0.041329875409363274 0 0.055051116830303816 0.0416644264143749 0 0.054723356095811956 0.041953351476840477 0 0.054998505335824496 0.041329875409363274 0 0.05515170809560415 0.041350398468788074 0 0.055051116830303816 0.0416644264143749 0 0.055075851189243415 0.04206023435653769 0 0.055143735499695506 0.042460533063982946 0 0.054723356095811956 0.041953351476840477 0 0.055051116830303816 0.0416644264143749 0 0.055075851189243415 0.04206023435653769 0 0.054723356095811956 0.041953351476840477 0 0.055075851189243415 0.04206023435653769 0 0.055355889699031428 0.041733700242235335 0 0.055143735499695506 0.042460533063982946 0 0.053604590453661526 0.044325845898284144 0 0.052594161856629684 0.043729970498758014 0 0.051922411257280802 0.045890632577785327 0 0.054717855475556729 0.041479963215639869 0 0.04842175229390782 0.049465321170866203 0 0.055051116830303816 0.0416644264143749 0 0.055075851189243415 0.04206023435653769 0 0.055355889699031428 0.041733700242235335 0 0.049804017419849134 0.045301816610164039 0 0.04842175229390782 0.049465321170866203 0 0.043825036905251247 0.04804970092931251 0 0.043397728406256018 0.048073840848419327 0 0.043408681014961363 0.048031948340107808 0 0.043825036905251247 0.04804970092931251 0 0.043855649417079909 0.047548406013254212 0 0.043408681014961363 0.048031948340107808 0 0.045346664003484152 0.052441936207483227 0 0.04842175229390782 0.049465321170866203 0 0.04613389720191554 0.055017636688553383 0 0.045320462945413822 0.05532687714602251 0 0.047795920991725291 0.054430321833941024 0 0.04842175229390782 0.049465321170866203 0 0.051516363750682109 0.048127140424943184 0 0.044240097465016913 0.05617369608276869 0 0.044201829444199939 0.056312764332895691 0 0.045320462945413822 0.05532687714602251 0 0.04842175229390782 0.049465321170866203 0 0.043714369621523391 0.056861959768558831 0 0.045346664003484152 0.052441936207483227 0 0.043447333256068345 0.055005318498461207 0 0.044240097465016913 0.05617369608276869 0 0.043453876497327799 0.054998028594286437 0 0.045320462945413822 0.05532687714602251 0 0.043453876497327799 0.054998028594286437 0 0.045320462945413822 0.05532687714602251 0 0.046234627953992517 0.05499902683752407 0 0.043810566308562456 0.048521285787785889 0 0.043825036905251247 0.04804970092931251 0 0.043397728406256018 0.048073840848419327 0 0.042184782659075264 0.05309526233773379 0 0.045346664003484152 0.052441936207483227 0 0.042822540860158485 0.05714706959254201 0 0.043448506656344373 0.054999958452091484 0 0.041627413294800075 0.054999949152087273 0 0.040747459426572839 0.055227169292054588 0 0.042822540860158485 0.05714706959254201 0 0.041627413294800075 0.054999949152087273 0 0.046234627953992517 0.05499902683752407 0 0.04703590516960357 0.054858856921863229 0 0.048844441188500828 0.054497102306023122 0 0.046234627953992517 0.05499902683752407 0 0.048844441188500828 0.054497102306023122 0 0.049019907190629465 0.054998691327553577 0 0.045320462945413822 0.05532687714602251 0 0.046234627953992517 0.05499902683752407 0 0.04703590516960357 0.054858856921863229 0 0.04703590516960357 0.054858856921863229 0 0.048844441188500828 0.054497102306023122 0 0.047795920991725291 0.054430321833941024 0 0.045320462945413822 0.05532687714602251 0 0.04703590516960357 0.054858856921863229 0 0.047795920991725291 0.054430321833941024 0 0.048844441188500828 0.054497102306023122 0 0.049886791930896165 0.053280817120107953 0 0.047795920991725291 0.054430321833941024 0 0.049886791930896165 0.053280817120107953 0 0.047795920991725291 0.054430321833941024 0 0.050347788356269053 0.052863152597240809 0 0.054998505335824496 0.041329875409363274 0 0.054723356095811956 0.041953351476840477 0 0.054363644137929684 0.041612994563546418 0 0.051516363750682109 0.048127140424943184 0 0.052217415876168717 0.047099916550846957 0 0.049886791930896165 0.053280817120107953 0 0.050347788356269053 0.052863152597240809 0 0.051528129826414637 0.051773646892727579 0 0.054990832390395733 0.055001855611975965 0 0.055362620174343444 0.050511840685387166 0 0.054999986148185749 0.047866847172160845 0 0.051528129826414637 0.051773646892727579 0 0.053276819955662955 0.050952794857635285 0 0.050891838882632205 0.052078992696012051 0 0.051528129826414637 0.051773646892727579 0 0.053276819955662955 0.050952794857635285 0 0.053846734217453743 0.050140697145653661 0 0.053276819955662955 0.050952794857635285 0 0.050891838882632205 0.052078992696012051 0 0.052909965926520523 0.049422317648918787 0 0.050891838882632205 0.052078992696012051 0 0.050060368427045754 0.054308119780236447 0 0.049907631965615429 0.054156360553013733 0 0.051035009678423275 0.052011904146611027 0 0.051598781249022188 0.051708681469250985 0 0.049886791930896165 0.053280817120107953 0 0.050891838882632205 0.052078992696012051 0 0.050060368427045754 0.054308119780236447 0 0.049886791930896165 0.053280817120107953 0 0.051528129826414637 0.051773646892727579 0 0.050891838882632205 0.052078992696012051 0 0.048844441188500828 0.054497102306023122 0 0.049886791930896165 0.053280817120107953 0 0.050060368427045754 0.054308119780236447 0 0.048844441188500828 0.054497102306023122 0 0.050060368427045754 0.054308119780236447 0 0.049019907190629465 0.054998691327553577 0 0.050060368427045754 0.054308119780236447 0 0.049907631965615429 0.054156360553013733 0 0.050381354103365764 0.054931663479854613 0 0.049907631965615429 0.054156360553013733 0 0.050381354103365764 0.054931663479854613 0 0.050402365031959648 0.054819775619322206 0 0.050381354103365764 0.054931663479854613 0 0.049019907190629465 0.054998691327553577 0 0.051798128284881687 0.054998913304093802 0 0.050060368427045754 0.054308119780236447 0 0.050381354103365764 0.054931663479854613 0 0.049019907190629465 0.054998691327553577 0 0.054990832390395733 0.055001855611975965 0 0.056347237004434517 0.052912978514259412 0 0.055362620174343444 0.050511840685387166 0 0.054772058632512215 0.054995608812549869 0 0.054990832390395733 0.055001855611975965 0 0.056347237004434517 0.052912978514259412 0 0.054758151598560866 0.055001061361242942 0 0.053415025689993949 0.053375304610680387 0 0.050381354103365764 0.054931663479854613 0 0.051798128284881687 0.054998913304093802 0 0.050402365031959648 0.054819775619322206 0 0.05475790920746846 0.05499999729571331 0 0.051803073984120158 0.054999947823883871 0 0.052535768546421474 0.056955493311399326 0 0.051802914728890315 0.055001747549129634 0 0.053415025689993949 0.053375304610680387 0 0.052909965926520523 0.049422317648918787 0 0.054396288220851109 0.048115718775766994 0 0.055362620174343444 0.050511840685387166 0 0.053415025689993949 0.053375304610680387 0 0.055518258727065915 0.049616859001532385 0 0.051598781249022188 0.051708681469250985 0 0.053415025689993949 0.053375304610680387 0 0.053276819955662955 0.050952794857635285 0 0.052909965926520523 0.049422317648918787 0 0.055362620174343444 0.050511840685387166 0 0.053276819955662955 0.050952794857635285 0 0.055362620174343444 0.050511840685387166 0 0.053846734217453743 0.050140697145653661 0 0.055362620174343444 0.050511840685387166 0 0.053846734217453743 0.050140697145653661 0 0.054999986148185749 0.047866847172160845 0 0.054999986148185749 0.047866847172160845 0 0.054610746702878993 0.048178703708778692 0 0.054998362151767642 0.045367904492235045 0 0.053846734217453743 0.050140697145653661 0 0.054999986148185749 0.047866847172160845 0 0.054610746702878993 0.048178703708778692 0 0.054610746702878993 0.048178703708778692 0 0.054998362151767642 0.045367904492235045 0 0.054417170502216956 0.048437408156317113 0 0.054999731823476013 0.045361092481785548 0 0.05530155666662178 0.046506399273426063 0 0.054417170502216956 0.048437408156317113 0 0.053885944582591994 0.049372120508477717 0 0.053813934466280584 0.049565061464998859 0 0.05530155666662178 0.046506399273426063 0 0.055481874307885176 0.04337510831357036 0 0.054610746702878993 0.048178703708778692 0 0.054417170502216956 0.048437408156317113 0 0.053885944582591994 0.049372120508477717 0 0.053846734217453743 0.050140697145653661 0 0.054610746702878993 0.048178703708778692 0 0.053885944582591994 0.049372120508477717 0 0.051528129826414637 0.051773646892727579 0 0.053846734217453743 0.050140697145653661 0 0.052346893731075754 0.050953271856480853 0 0.053846734217453743 0.050140697145653661 0 0.053885944582591994 0.049372120508477717 0 0.052346893731075754 0.050953271856480853 0 0.052217415876168717 0.047099916550846957 0 0.052675042546202214 0.046176455059330601 0 0.050347788356269053 0.052863152597240809 0 0.051528129826414637 0.051773646892727579 0 0.052346893731075754 0.050953271856480853 0 0.054416044767245285 0.040503113368578161 0 0.053728420492988302 0.041141437087836373 0 0.053915240607958839 0.040353661176093306 0 0.053728420492988302 0.041141437087836373 0 0.053187032316087811 0.040613444891021262 0 0.053915240607958839 0.040353661176093306 0 0.053885944582591994 0.049372120508477717 0 0.052346893731075754 0.050953271856480853 0 0.053813934466280584 0.049565061464998859 0 0.052675042546202214 0.046176455059330601 0 0.055481874307885176 0.04337510831357036 0 0.055481874307885176 0.04337510831357036 0 0.05570043666188202 0.039659697997606297 0 0.056743133024855605 0.040496822743217219 0 0.057669099871677593 0.039751727969356929 0 0.056778648627324374 0.039982454188308036 0 0.057669099871677593 0.039751727969356929 0 0.057744359721573303 0.038905043976955822 0 0.057232702942737933 0.03932618134848051 0 0.057669099871677593 0.039751727969356929 0 0.056778648627324374 0.039982454188308036 0 0.057232702942737933 0.03932618134848051 0 0.056515677146276644 0.039546508902773642 0 0.056778648627324374 0.039982454188308036 0 0.057232702942737933 0.03932618134848051 0 0.056515677146276644 0.039546508902773642 0 0.056778648627324374 0.039982454188308036 0 0.056079270429359493 0.040445674511364445 0 0.054999996946984854 0.041135876969801033 0 0.056725233850294633 0.042833332336557839 0 0.054999982898946947 0.043248034089184137 0 0.05500005055140534 0.041135569042168085 0 0.056558807560619526 0.041637093480307218 0 0.055000158502428377 0.041130899529273082 0 0.056515677146276644 0.039546508902773642 0 0.056079270429359493 0.040445674511364445 0 0.056717698238394357 0.044904367297793311 0 0.056725233850294633 0.042833332336557839 0 0.054999982898946947 0.043248034089184137 0 0.054999965775596162 0.045360071855016511 0 0.056717698238394357 0.044904367297793311 0 0.054999982898946947 0.043248034089184137 0 0.055481874307885176 0.04337510831357036 0 0.056558807560619526 0.041637093480307218 0 0.056743133024855605 0.040496822743217219 0 0.056778648627324374 0.039982454188308036 0 0.056079270429359493 0.040445674511364445 0 0.056717698238394357 0.044904367297793311 0 0.058401588012194396 0.044477064910020521 0 0.056725233850294633 0.042833332336557839 0 -0.0031401286837837335 0.034161280346999938 0 -0.0023521291591870625 0.035031112139415385 0 -0.0028840404201038654 0.036098267675597047 0 -0.0021685833308975519 0.034341522943364386 0 -0.0013404407502930729 0.034225662783841454 0 -0.0017842200083895796 0.033277882203191694 0 -0.0021685833308975519 0.034341522943364386 0 -0.0031401286837837335 0.034161280346999938 0 -0.0017842200083895796 0.033277882203191694 0 -0.0021685833308975519 0.034341522943364386 0 -0.0031401286837837335 0.034161280346999938 0 -0.0023521291591870625 0.035031112139415385 0 -0.0021685833308975519 0.034341522943364386 0 -0.0014467223813951406 0.035063601993137725 0 -0.0013404407502930729 0.034225662783841454 0 -0.0021685833308975519 0.034341522943364386 0 -0.0023521291591870625 0.035031112139415385 0 -0.0014467223813951406 0.035063601993137725 0 -0.0014467223813951406 0.035063601993137725 0 -0.00079020303579250585 0.034808094587438596 0 -0.0013404407502930729 0.034225662783841454 0 -0.0013404407502930729 0.034225662783841454 0 -0.0017842200083895796 0.033277882203191694 0 8.5480019353628199e-06 0.033906358239162659 0 -0.0014467223813951406 0.035063601993137725 0 -0.00079020303579250585 0.034808094587438596 0 -0.00066597668610545097 0.035652171452212264 0 -0.00079020303579250585 0.034808094587438596 0 -8.4976889193493231e-05 0.035204504008573952 0 -0.00066597668610545097 0.035652171452212264 0 -0.00079020303579250585 0.034808094587438596 0 -8.4976889193493231e-05 0.035204504008573952 0 8.5480019353628199e-06 0.033906358239162659 0 -0.00079020303579250585 0.034808094587438596 0 -0.0013404407502930729 0.034225662783841454 0 8.5480019353628199e-06 0.033906358239162659 0 -0.016295700797000708 0.020203172748553492 0 -0.017044735514505038 0.021470115451327459 0 -0.015080541805435324 0.021303772143445573 0 -0.0034275821096667373 0.032649686864701016 0 -0.0031025300204994511 0.032702248193928862 0 -0.0034056357206071921 0.032213637919306967 0 -0.00794215592685984 0.0288228100799287 0 -0.010140933689892597 0.026186813884786459 0 -0.0013229325242194959 0.03338445121701325 0 -0.00794215592685984 0.0288228100799287 0 -0.0031401286837837335 0.034161280346999938 0 -0.0017842200083895796 0.033277882203191694 0 -0.0040068471463133035 0.032799779820841708 0 -0.0013229325242194959 0.03338445121701325 0 -0.0043767682817422012 0.032675410980745077 0 -0.0034275821096667373 0.032649686864701016 0 -0.0040068471463133035 0.032799779820841708 0 -0.0034056357206071921 0.032213637919306967 0 -0.0040068471463133035 0.032799779820841708 0 -0.0034056357206071921 0.032213637919306967 0 -0.0041097206020138839 0.032017162550652303 0 -0.0040068471463133035 0.032799779820841708 0 -0.0048353840283092012 0.032879008750750595 0 -0.0049299996412971517 0.03190666055774348 0 -0.0040068471463133035 0.032799779820841708 0 -0.0048353840283092012 0.032879008750750595 0 -0.0045803272329420263 0.034225978968250512 0 -0.0048353840283092012 0.032879008750750595 0 -0.0045803272329420263 0.034225978968250512 0 -0.0058081189837461454 0.032847849537420246 0 0.0021955097199350378 0.039286015777643887 0 0.0012380229085268975 0.03804431667297388 0 0.0013183042772679937 0.037936194196665343 0 -0.0014003920810923239 0.036693273916877316 0 -0.00096945527068458589 0.035255596618958503 0 -0.0030127698138683692 0.033543980215225248 0 -0.00096945527068458589 0.035255596618958503 0 -0.0048353840283092012 0.032879008750750595 0 -0.0049299996412971517 0.03190666055774348 0 -0.0058081189837461454 0.032847849537420246 0 0.0013367198963264862 0.038856622266587218 0 0.0021955097199350378 0.039286015777643887 0 0.0012380229085268975 0.03804431667297388 0 0.0012420775555399759 0.039414247806771135 0 0.0021955097199350378 0.039286015777643887 0 0.0016596683815441084 0.040016629899042727 0 0.0013367198963264862 0.038856622266587218 0 0.0012420775555399759 0.039414247806771135 0 0.0021955097199350378 0.039286015777643887 0 -0.0031401286837837335 0.034161280346999938 0 -0.0045803272329420263 0.034225978968250512 0 -0.0028840404201038654 0.036098267675597047 0 -0.0014003920810923239 0.036693273916877316 0 4.9145943103638531e-05 0.03825850668699305 0 -0.0031401286837837335 0.034161280346999938 0 -0.0040068471463133035 0.032799779820841708 0 -0.0045803272329420263 0.034225978968250512 0 0.0021955097199350378 0.039286015777643887 0 0.0022298901499696101 0.040217129220953295 0 0.0028282422715662295 0.040373430257391082 0 0.0022298901499696101 0.040217129220953295 0 0.0018170763420612625 0.040821195769023912 0 0.0023226437450925815 0.040938481010638149 0 0.0022298901499696101 0.040217129220953295 0 0.0025133004886779536 0.040614637887234462 0 0.0028282422715662295 0.040373430257391082 0 0.0022298901499696101 0.040217129220953295 0 0.0025133004886779536 0.040614637887234462 0 0.0023226437450925815 0.040938481010638149 0 0.0016596683815441084 0.040016629899042727 0 0.0018170763420612625 0.040821195769023912 0 0.00071949425775018859 0.040337134155095739 0 0.0012420775555399759 0.039414247806771135 0 0.0016596683815441084 0.040016629899042727 0 0.00071949425775018859 0.040337134155095739 0 0.0021955097199350378 0.039286015777643887 0 0.0022298901499696101 0.040217129220953295 0 0.0016596683815441084 0.040016629899042727 0 0.0022298901499696101 0.040217129220953295 0 0.0016596683815441084 0.040016629899042727 0 0.0018170763420612625 0.040821195769023912 0 0.009575568886513253 0.04037052534433111 0 0.011185352390158524 0.042251198523075781 0 0.0018170763420612625 0.040821195769023912 0 0.002223836979154189 0.041539939613405998 0 0.0016441408029972413 0.041720367068261953 0 0.0018170763420612625 0.040821195769023912 0 0.00071949425775018859 0.040337134155095739 0 0.0016441408029972413 0.041720367068261953 0 0.0025133004886779536 0.040614637887234462 0 0.0023226437450925815 0.040938481010638149 0 0.0026670215651768423 0.040923225689751902 0 0.0023226437450925815 0.040938481010638149 0 0.0025773146003264711 0.041402212416374463 0 0.0026670215651768423 0.040923225689751902 0 0.0018170763420612625 0.040821195769023912 0 0.0023226437450925815 0.040938481010638149 0 0.002223836979154189 0.041539939613405998 0 0.0023226437450925815 0.040938481010638149 0 0.002223836979154189 0.041539939613405998 0 0.0025773146003264711 0.041402212416374463 0 0.002223836979154189 0.041539939613405998 0 0.0025773146003264711 0.041402212416374463 0 0.0026586200114241546 0.041791742041286682 0 0.0025773146003264711 0.041402212416374463 0 0.0026916400266894579 0.041704039064659339 0 0.0026586200114241546 0.041791742041286682 0 0.0030145258348191445 0.041044158744390179 0 0.0028282422715662295 0.040373430257391082 0 0.0036625319730895336 0.041278772569006882 0 0.0025773146003264711 0.041402212416374463 0 0.0026916400266894579 0.041704039064659339 0 0.0027844390396164318 0.041297754400036954 0 0.0026916400266894579 0.041704039064659339 0 0.003178169405010014 0.041440135517131244 0 0.0027844390396164318 0.041297754400036954 0 0.0026916400266894579 0.041704039064659339 0 0.003178169405010014 0.041440135517131244 0 0.003489690916104704 0.042089001164565779 0 0.003178169405010014 0.041440135517131244 0 0.0030145258348191445 0.041044158744390179 0 0.0027844390396164318 0.041297754400036954 0 0.003178169405010014 0.041440135517131244 0 0.0030145258348191445 0.041044158744390179 0 0.0036625319730895336 0.041278772569006882 0 0.0030145258348191445 0.041044158744390179 0 0.0026670215651768423 0.040923225689751902 0 0.0027844390396164318 0.041297754400036954 0 0.0025773146003264711 0.041402212416374463 0 0.0026670215651768423 0.040923225689751902 0 0.0027844390396164318 0.041297754400036954 0 0.0030145258348191445 0.041044158744390179 0 0.0026670215651768423 0.040923225689751902 0 0.0028282422715662295 0.040373430257391082 0 4.9145943103638531e-05 0.03825850668699305 0 0.0024304506123683329 0.04042418758133106 0 0.0025133004886779536 0.040614637887234462 0 0.0026670215651768423 0.040923225689751902 0 0.0028282422715662295 0.040373430257391082 0 -0.0015549566880137067 0.035952818293754511 0 -0.0028840404201038654 0.036098267675597047 0 0.0011131058677944098 0.039602823720760474 0 -0.0023521291591870625 0.035031112139415385 0 -0.0014467223813951406 0.035063601993137725 0 -0.0015549566880137067 0.035952818293754511 0 -0.0023521291591870625 0.035031112139415385 0 -0.0015549566880137067 0.035952818293754511 0 -0.0028840404201038654 0.036098267675597047 0 -0.0015549566880137067 0.035952818293754511 0 -0.00030560121494881853 0.036270013836954086 0 0.00016488310307065599 0.037330523091930939 0 -0.0015549566880137067 0.035952818293754511 0 -0.00066597668610545097 0.035652171452212264 0 -0.00030560121494881853 0.036270013836954086 0 -8.4976889193493231e-05 0.035204504008573952 0 -0.00066597668610545097 0.035652171452212264 0 -9.265444776013617e-06 0.035960335276298085 0 -0.0014467223813951406 0.035063601993137725 0 -0.0015549566880137067 0.035952818293754511 0 -0.00066597668610545097 0.035652171452212264 0 -0.00066597668610545097 0.035652171452212264 0 -0.00030560121494881853 0.036270013836954086 0 -9.265444776013617e-06 0.035960335276298085 0 -0.0015549566880137067 0.035952818293754511 0 0.0011131058677944098 0.039602823720760474 0 0.0039962741469812121 0.040116203356932813 0 0.0036625319730895336 0.041278772569006882 0 0.003489690916104704 0.042089001164565779 0 0.0051242940978731867 0.042456997182826021 0 0.0024304506123683329 0.04042418758133106 0 0.0048898897564522009 0.042339396183913684 0 -0.0015547147837580481 0.036169499068542589 0 0.0026233683083522002 0.038294102384252376 0 0.003178169405010014 0.041440135517131244 0 0.0036625319730895336 0.041278772569006882 0 0.003489690916104704 0.042089001164565779 0 0.00016488310307065599 0.037330523091930939 0 0.0015064520528618411 0.036871486359900243 0 0.00058536060180615845 0.036440113952497237 0 0.0011131058677944098 0.039602823720760474 0 0.0039962741469812121 0.040116203356932813 0 0.0051242940978731867 0.042456997182826021 0 -0.00030560121494881853 0.036270013836954086 0 0.00016488310307065599 0.037330523091930939 0 0.00058536060180615845 0.036440113952497237 0 0.00060480865496031024 0.035395139405601184 0 0.00082070004761169058 0.035450087513555537 0 0.00067364423022905733 0.035792633291212891 0 0.0010439431336979295 0.035457801166117291 0 0.00025466321306067216 0.040825329809587307 0 0.00016488310307065599 0.037330523091930939 0 0.0015064520528618411 0.036871486359900243 0 0.0022336961697211957 0.03883906867628939 0 -0.012548281380494221 0.0335238803025006 0 -0.01169353539839406 0.034434818209659074 0 -0.011889504563955072 0.033549173024652011 0 0.00060480865496031024 0.035395139405601184 0 0.00069288587067281278 0.035151209460281253 0 0.00082070004761169058 0.035450087513555537 0 -0.0056405324140198776 0.034311645240822697 0 -0.0070018427627659783 0.035768951142134797 0 0.00060480865496031024 0.035395139405601184 0 0.00069288587067281278 0.035151209460281253 0 0.00072481819335291756 0.035028234685136203 0 0.0010439431336979295 0.035457801166117291 0 0.00079449040330250317 0.035380254663172135 0 0.00030672300498884637 0.035659004268596778 0 0.00058536060180615845 0.036440113952497237 0 0.00072481819335291756 0.035028234685136203 0 0.0015064520528618411 0.036871486359900243 0 0.00058536060180615845 0.036440113952497237 0 0.00072481819335291756 0.035028234685136203 0 -8.4976889193493231e-05 0.035204504008573952 0 0.00030672300498884637 0.035659004268596778 0 -9.265444776013617e-06 0.035960335276298085 0 -8.4976889193493231e-05 0.035204504008573952 0 0.00030672300498884637 0.035659004268596778 0 0.00072481819335291756 0.035028234685136203 0 0.00030672300498884637 0.035659004268596778 0 -9.265444776013617e-06 0.035960335276298085 0 0.00058536060180615845 0.036440113952497237 0 -0.00030560121494881853 0.036270013836954086 0 -9.265444776013617e-06 0.035960335276298085 0 0.00058536060180615845 0.036440113952497237 0 -0.015429887441386743 0.038463588062079029 0 -0.016266245612193142 0.036541542820902488 0 -0.016571719713666121 0.03966111333279311 0 -0.011442067902922693 0.033956219015947781 0 -0.010872594436251121 0.033901200277668075 0 -0.011024937530944121 0.035400493154165547 0 -0.013185090189194955 0.03540694509613896 0 -0.011127274788493435 0.03874732854910045 0 -0.015429887441386743 0.038463588062079029 0 -0.016266245612193142 0.036541542820902488 0 -0.013962217417864613 0.037936152809742447 0 -0.015429887441386743 0.038463588062079029 0 -0.015613160625549082 0.039421494978480694 0 -0.014385161757972069 0.039352093703135735 0 -0.015429887441386743 0.038463588062079029 0 -0.015613160625549082 0.039421494978480694 0 -0.016571719713666121 0.03966111333279311 0 -0.01180314264838315 0.034632035890939883 0 -0.011442067902922693 0.033956219015947781 0 -0.011024937530944121 0.035400493154165547 0 -0.0070018427627659783 0.035768951142134797 0 -0.010509290353690151 0.034900900356342877 0 -0.0070018427627659783 0.035768951142134797 0 -0.011127274788493435 0.03874732854910045 0 -0.01169353539839406 0.034434818209659074 0 -0.011889504563955072 0.033549173024652011 0 -0.011442067902922693 0.033956219015947781 0 -0.011889504563955072 0.033549173024652011 0 -0.011540574571595748 0.033469695576047551 0 -0.011442067902922693 0.033956219015947781 0 -0.011540574571595748 0.033469695576047551 0 -0.011442067902922693 0.033956219015947781 0 -0.010872594436251121 0.033901200277668075 0 -0.016266245612193142 0.036541542820902488 0 -0.01588890832060853 0.033339882012376865 0 -0.0135851036322209 0.035946494941880895 0 -0.011540574571595748 0.033469695576047551 0 -0.010872594436251121 0.033901200277668075 0 -0.011207066573725517 0.033063297661861453 0 -0.013185090189194955 0.03540694509613896 0 -0.02021214558838285 0.030507501203673546 0 -0.010872594436251121 0.033901200277668075 0 -0.01077470702935638 0.032626349250384615 0 -0.011207066573725517 0.033063297661861453 0 -0.01077470702935638 0.032626349250384615 0 -0.011207066573725517 0.033063297661861453 0 -0.011028945951602668 0.032329250884830879 0 -0.011772593071309281 0.033003413985613191 0 -0.011028945951602668 0.032329250884830879 0 -0.012396338265768242 0.032855048270461519 0 -0.017650660515437643 0.024882990203648103 0 -0.014664214963400557 0.028460018688768851 0 -0.011207066573725517 0.033063297661861453 0 -0.011772593071309281 0.033003413985613191 0 -0.011028945951602668 0.032329250884830879 0 -0.011540574571595748 0.033469695576047551 0 -0.011207066573725517 0.033063297661861453 0 -0.011772593071309281 0.033003413985613191 0 -0.011889504563955072 0.033549173024652011 0 -0.011540574571595748 0.033469695576047551 0 -0.011772593071309281 0.033003413985613191 0 -0.011889504563955072 0.033549173024652011 0 -0.011772593071309281 0.033003413985613191 0 -0.012258462966705207 0.032936767199373287 0 -0.011104873162163137 0.032031178447498664 0 -0.014664214963400557 0.028460018688768851 0 -0.019524942216333139 0.020468187518122613 0 -0.017939998997912276 0.019886009452837014 0 -0.018811602001913411 0.021270153452271807 0 -0.017650660515437643 0.024882990203648103 0 -0.019914732961733655 0.019879390068904854 0 -0.019652907404505798 0.020458763512221204 0 -0.019636182966007724 0.021303010577233307 0 -0.018811602001913411 0.021270153452271807 0 -0.019652907404505798 0.020458763512221204 0 -0.020018155573627093 0.020598788121446832 0 -0.019636182966007724 0.021303010577233307 0 -0.034550030223108881 0.030447768202163123 0 -0.034391830140333028 0.029356372719504843 0 -0.032752799679798626 0.030160847105971805 0 -0.017650660515437643 0.024882990203648103 0 -0.026505567240854604 0.026501299444661213 0 -0.02021214558838285 0.030507501203673546 0 -0.017650660515437643 0.024882990203648103 0 -0.021705218791487301 0.027116665336464757 0 -0.022416333886558327 0.026308809650395906 0 -0.021552729242057516 0.025990853721806002 0 -0.02021214558838285 0.030507501203673546 0 -0.026505567240854604 0.026501299444661213 0 -0.00794215592685984 0.0288228100799287 0 -0.014664214963400557 0.028460018688768851 0 -0.0076588575068636576 0.030735950817724053 0 -0.0097532156089614117 0.028747532570976699 0 -0.012413687599079083 0.029767580048735181 0 -0.00794215592685984 0.0288228100799287 0 -0.0068287488884090095 0.033508358619965269 0 8.5480019353628199e-06 0.033906358239162659 0 0.00072481819335291756 0.035028234685136203 0 0.00078407844548146434 0.034986821044290656 0 -8.4976889193493231e-05 0.035204504008573952 0 8.5480019353628199e-06 0.033906358239162659 0 0.00072481819335291756 0.035028234685136203 0 0.00069288587067281278 0.035151209460281253 0 0.00072481819335291756 0.035028234685136203 0 0.00078407844548146434 0.034986821044290656 0 -0.0056405324140198776 0.034311645240822697 0 -0.0068287488884090095 0.033508358619965269 0 -0.012548281380494221 0.0335238803025006 0 -0.012839642632277919 0.033209124651878842 0 -0.012258462966705207 0.032936767199373287 0 -0.0068287488884090095 0.033508358619965269 0 -0.014664214963400557 0.028460018688768851 0 -0.012548281380494221 0.0335238803025006 0 -0.011889504563955072 0.033549173024652011 0 -0.012258462966705207 0.032936767199373287 0 -0.017939998997912276 0.019886009452837014 0 -0.017044735514505038 0.021470115451327459 0 -0.018811602001913411 0.021270153452271807 0 -0.016295700797000708 0.020203172748553492 0 -0.017939998997912276 0.019886009452837014 0 -0.017044735514505038 0.021470115451327459 0 -0.017044735514505038 0.021470115451327459 0 -0.018811602001913411 0.021270153452271807 0 -0.018346540219436488 0.022343108176114745 0 -0.017044735514505038 0.021470115451327459 0 -0.017121107405720416 0.022787468788556111 0 -0.018346540219436488 0.022343108176114745 0 -0.017121107405720416 0.022787468788556111 0 -0.018346540219436488 0.022343108176114745 0 -0.018278896401956821 0.023559366977852002 0 -0.017044735514505038 0.021470115451327459 0 -0.017121107405720416 0.022787468788556111 0 -0.015678530854950419 0.022514059782880076 0 -0.020018155573627093 0.020598788121446832 0 -0.019636182966007724 0.021303010577233307 0 -0.020280991029412981 0.02219151984104507 0 -0.026505567240854604 0.026501299444661213 0 -0.026728784757088151 0.023108650900105381 0 -0.019636182966007724 0.021303010577233307 0 -0.019301250046737637 0.022025015742438502 0 -0.020280991029412981 0.02219151984104507 0 -0.019301250046737637 0.022025015742438502 0 -0.018811602001913411 0.021270153452271807 0 -0.018346540219436488 0.022343108176114745 0 -0.019636182966007724 0.021303010577233307 0 -0.019301250046737637 0.022025015742438502 0 -0.018811602001913411 0.021270153452271807 0 -0.019301250046737637 0.022025015742438502 0 -0.018346540219436488 0.022343108176114745 0 -0.01938873746906121 0.022995681810823149 0 -0.019301250046737637 0.022025015742438502 0 -0.01938873746906121 0.022995681810823149 0 -0.020280991029412981 0.02219151984104507 0 -0.01938873746906121 0.022995681810823149 0 -0.020562284252709964 0.023730828247564662 0 -0.020280991029412981 0.02219151984104507 0 -0.01938873746906121 0.022995681810823149 0 -0.019446634502637131 0.024277565063098392 0 -0.020562284252709964 0.023730828247564662 0 -0.018346540219436488 0.022343108176114745 0 -0.01938873746906121 0.022995681810823149 0 -0.018278896401956821 0.023559366977852002 0 -0.01938873746906121 0.022995681810823149 0 -0.019446634502637131 0.024277565063098392 0 -0.018278896401956821 0.023559366977852002 0 -0.0184446575168427 0.024963797376929105 0 -0.019446634502637131 0.024277565063098392 0 -0.018278896401956821 0.023559366977852002 0 -0.019446634502637131 0.024277565063098392 0 -0.021188003758580879 0.024378625157249336 0 -0.022270514253189801 0.023472935896530968 0 -0.018063787829907849 0.024497223147853412 0 -0.02537842640148813 0.023969401056572429 0 -0.020447661696572007 0.025081055377878393 0 -0.019446634502637131 0.024277565063098392 0 -0.021188003758580879 0.024378625157249336 0 -0.017121107405720416 0.022787468788556111 0 -0.017031215092690708 0.024192369375178654 0 -0.016087288883379115 0.023542669183918782 0 -0.017121107405720416 0.022787468788556111 0 -0.018278896401956821 0.023559366977852002 0 -0.017031215092690708 0.024192369375178654 0 -0.0184446575168427 0.024963797376929105 0 -0.018278896401956821 0.023559366977852002 0 -0.017031215092690708 0.024192369375178654 0 -0.015791782474387974 0.024672361716729346 0 -0.014829727355300156 0.023543374276860089 0 -0.016087288883379115 0.023542669183918782 0 -0.017031215092690708 0.024192369375178654 0 -0.015791782474387974 0.024672361716729346 0 -0.016087288883379115 0.023542669183918782 0 -0.011817642806484277 0.021968576419531375 0 -0.011288513389761171 0.020075559475926399 0 -0.0072250074394329305 0.019005325006170758 0 -0.0077897183247801968 0.018927165217083035 0 -0.0072203145219362861 0.018409251080418122 0 -0.0072250074394329305 0.019005325006170758 0 -0.0072203145219362861 0.018409251080418122 0 -0.0067391055212531522 0.018797971469583445 0 -0.014829727355300156 0.023543374276860089 0 -0.016087288883379115 0.023542669183918782 0 -0.015678530854950419 0.022514059782880076 0 -0.017121107405720416 0.022787468788556111 0 -0.016087288883379115 0.023542669183918782 0 -0.015678530854950419 0.022514059782880076 0 -0.015678530854950419 0.022514059782880076 0 -0.015080541805435324 0.021303772143445573 0 -0.01384368822625461 0.022427268088391027 0 -0.014829727355300156 0.023543374276860089 0 -0.015678530854950419 0.022514059782880076 0 -0.01384368822625461 0.022427268088391027 0 -0.010140933689892597 0.026186813884786459 0 -0.0062060873449286142 0.026538124626805309 0 -0.017044735514505038 0.021470115451327459 0 -0.015678530854950419 0.022514059782880076 0 -0.015080541805435324 0.021303772143445573 0 -0.00064421883609196368 0.034309501932606533 0 -0.00075392968595831649 0.034063760274641183 0 -0.00088663891797361577 0.034289827290360148 0 -0.00064421883609196368 0.034309501932606533 0 -0.00088663891797361577 0.034289827290360148 0 -0.00082125153731082935 0.03456777659414606 0 -0.0034056357206071921 0.032213637919306967 0 -0.0041097206020138839 0.032017162550652303 0 -0.0042451134617369768 0.031158732201891179 0 -0.0049299996412971517 0.03190666055774348 0 -0.0041097206020138839 0.032017162550652303 0 -0.0042451134617369768 0.031158732201891179 0 -0.0040068471463133035 0.032799779820841708 0 -0.0049299996412971517 0.03190666055774348 0 -0.0041097206020138839 0.032017162550652303 0 -0.0030127698138683692 0.033543980215225248 0 -0.0062060873449286142 0.026538124626805309 0 -0.00064421883609196368 0.034309501932606533 0 -0.00047911862317379013 0.034008893807523706 0 -0.00075392968595831649 0.034063760274641183 0 -0.0062060873449286142 0.026538124626805309 0 -0.0031401141921660759 0.026400207156138989 0 -0.00047911862317379013 0.034008893807523706 0 -0.00075392968595831649 0.034063760274641183 0 -0.00070240037204134559 0.033759303642848758 0 -0.0062020153032014197 0.018326537447824042 0 -0.0066824204334312723 0.018382000915331407 0 -0.0063885772914008109 0.018670793858155909 0 -0.011288513389761171 0.020075559475926399 0 -0.0062060873449286142 0.026538124626805309 0 -0.0072203145219362861 0.018409251080418122 0 -0.0066824204334312723 0.018382000915331407 0 -0.0067391055212531522 0.018797971469583445 0 -0.0067123684762103565 0.017934028620418631 0 -0.0062020153032014197 0.018326537447824042 0 -0.0066824204334312723 0.018382000915331407 0 -0.0072203145219362861 0.018409251080418122 0 -0.0067123684762103565 0.017934028620418631 0 -0.0066824204334312723 0.018382000915331407 0 -0.0066824204334312723 0.018382000915331407 0 -0.0067391055212531522 0.018797971469583445 0 -0.0063885772914008109 0.018670793858155909 0 -0.0063983718981854296 0.019161479229013224 0 -0.0067391055212531522 0.018797971469583445 0 -0.0063885772914008109 0.018670793858155909 0 -0.0063983718981854296 0.019161479229013224 0 -0.0063885772914008109 0.018670793858155909 0 -0.0059945074522106808 0.018852879542250817 0 -0.0062020153032014197 0.018326537447824042 0 -0.0063885772914008109 0.018670793858155909 0 -0.0059945074522106808 0.018852879542250817 0 -0.0055702398557763771 0.019170617378344201 0 -0.0059945074522106808 0.018852879542250817 0 -0.0055486189570447412 0.018666262177307769 0 -0.0062020153032014197 0.018326537447824042 0 -0.0059945074522106808 0.018852879542250817 0 -0.0056625067641117863 0.018758096721634424 0 -0.0055479664142024385 0.020415718962083353 0 -0.002030358034744426 0.023487336187205991 0 -0.0049935671874442667 0.019128989313766796 0 -0.0055702398557763771 0.019170617378344201 0 -0.0055486189570447412 0.018666262177307769 0 -0.00070240037204134559 0.033759303642848758 0 -0.00095255534695671748 0.033427256835602576 0 -0.0010259594649879543 0.033972619864252707 0 -0.0031401141921660759 0.026400207156138989 0 -0.002030358034744426 0.023487336187205991 0 -0.0013865337232859605 0.033643820908960884 0 -0.0016014771908768848 0.034306211677647996 0 -0.0010259594649879543 0.033972619864252707 0 -0.00095255534695671748 0.033427256835602576 0 -0.0013865337232859605 0.033643820908960884 0 -0.0010259594649879543 0.033972619864252707 0 -0.002030358034744426 0.023487336187205991 0 0.00044771990909509783 0.028942115639010644 0 0.0030664530851353391 0.024700566770071739 0 0.0021906641186892018 0.023923590064763269 0 0.0037224966409028708 0.023385994423127006 0 -0.0013368615664536121 0.021534207868970527 0 -0.002030358034744426 0.023487336187205991 0 0.0040932490075658899 0.024373578527177343 0 0.0047582818528219845 0.023804679861669543 0 0.0037224966409028708 0.023385994423127006 0 0.0030664530851353391 0.024700566770071739 0 0.0040932490075658899 0.024373578527177343 0 0.0037224966409028708 0.023385994423127006 0 0.0049786483041777893 0.024633144366454154 0 0.0047582818528219845 0.023804679861669543 0 0.0059603057661144123 0.024101437421251242 0 0.0049786483041777893 0.024633144366454154 0 0.0040932490075658899 0.024373578527177343 0 0.0047582818528219845 0.023804679861669543 0 0.0047582818528219845 0.023804679861669543 0 0.0051352635910550748 0.0229712413636405 0 0.0059603057661144123 0.024101437421251242 0 0.0069370011223431772 0.031178844705211671 0 0.00044771990909509783 0.028942115639010644 0 0.0047582818528219845 0.023804679861669543 0 0.0051352635910550748 0.0229712413636405 0 0.0037224966409028708 0.023385994423127006 0 -0.0026935706670867632 0.03389449112673288 0 -0.0013865337232859605 0.033643820908960884 0 -0.0016014771908768848 0.034306211677647996 0 0.0069370011223431772 0.031178844705211671 0 0.0064046200393633084 0.035195515495876413 0 -0.0026935706670867632 0.03389449112673288 0 -0.0016014771908768848 0.034306211677647996 0 -0.0018345771508200253 0.036038704499799158 0 0.013714295018939681 0.032292282196134857 0 0.014924225918369061 0.033589025078696148 0 0.01353762954785688 0.033082765257678858 0 0.014924225918369061 0.033589025078696148 0 0.01353762954785688 0.033082765257678858 0 0.013380918838953404 0.034071158566075579 0 0.014924225918369061 0.033589025078696148 0 0.013380918838953404 0.034071158566075579 0 0.013857417212855022 0.035341655272659631 0 -0.0016014771908768848 0.034306211677647996 0 -0.0018345771508200253 0.036038704499799158 0 -4.4568733708289753e-05 0.036099353833270106 0 -0.0018345771508200253 0.036038704499799158 0 -4.4568733708289753e-05 0.036099353833270106 0 0.00024937161756086667 0.037467655968857094 0 -0.0011493895132535035 0.034345613114781813 0 -0.00088663891797361577 0.034289827290360148 0 -0.00082125153731082935 0.03456777659414606 0 -0.00035867174650964123 0.035436227469474779 0 -0.00096945527068458589 0.035255596618958503 0 -0.0011493895132535035 0.034345613114781813 0 -0.00088663891797361577 0.034289827290360148 0 -0.0010259594649879543 0.033972619864252707 0 -0.00075392968595831649 0.034063760274641183 0 -0.00088663891797361577 0.034289827290360148 0 -0.0010259594649879543 0.033972619864252707 0 -0.00075392968595831649 0.034063760274641183 0 -0.00070240037204134559 0.033759303642848758 0 -0.0010259594649879543 0.033972619864252707 0 -0.0016863608357913235 0.034238848653225282 0 -0.00035867174650964123 0.035436227469474779 0 -0.0016014771908768848 0.034306211677647996 0 -0.0011493895132535035 0.034345613114781813 0 -0.0010259594649879543 0.033972619864252707 0 0.020146268777647119 0.033397456243643382 0 0.019501029448899313 0.03213970387632345 0 0.018863270932642659 0.033276678027403236 0 0.019501029448899313 0.03213970387632345 0 0.01776926940289322 0.032812089079700318 0 0.017731836049694884 0.031840686480100744 0 0.019501029448899313 0.03213970387632345 0 0.01776926940289322 0.032812089079700318 0 0.018863270932642659 0.033276678027403236 0 0.01776926940289322 0.032812089079700318 0 0.018863270932642659 0.033276678027403236 0 0.01759464564664821 0.033830081570655833 0 0.020146268777647119 0.033397456243643382 0 0.018863270932642659 0.033276678027403236 0 0.018965714107837001 0.034382067249044017 0 0.017582104460390512 0.034893051330457857 0 0.018965714107837001 0.034382067249044017 0 0.01759464564664821 0.033830081570655833 0 0.018863270932642659 0.033276678027403236 0 0.018965714107837001 0.034382067249044017 0 0.01759464564664821 0.033830081570655833 0 0.016360667496322354 0.034852103729291192 0 0.01759464564664821 0.033830081570655833 0 0.016171504185000393 0.033292856048497639 0 0.016360667496322354 0.034852103729291192 0 0.017582104460390512 0.034893051330457857 0 0.01759464564664821 0.033830081570655833 0 0.01776926940289322 0.032812089079700318 0 0.01759464564664821 0.033830081570655833 0 0.016171504185000393 0.033292856048497639 0 0.01776926940289322 0.032812089079700318 0 0.016413971577627987 0.032307773823543981 0 0.017731836049694884 0.031840686480100744 0 0.01776926940289322 0.032812089079700318 0 0.016171504185000393 0.033292856048497639 0 0.016413971577627987 0.032307773823543981 0 0.016171504185000393 0.033292856048497639 0 0.015404765782013894 0.032470816169928536 0 0.016413971577627987 0.032307773823543981 0 0.016171504185000393 0.033292856048497639 0 0.015404765782013894 0.032470816169928536 0 0.01481717312807106 0.032840687703909625 0 0.016171504185000393 0.033292856048497639 0 0.01481717312807106 0.032840687703909625 0 0.014565563721882455 0.034175395345595334 0 0.015404765782013894 0.032470816169928536 0 0.01481717312807106 0.032840687703909625 0 0.014673402578546551 0.031992264904374949 0 0.016360667496322354 0.034852103729291192 0 0.016171504185000393 0.033292856048497639 0 0.014565563721882455 0.034175395345595334 0 0.013325375632900427 0.032423077057574301 0 0.01481717312807106 0.032840687703909625 0 0.014673402578546551 0.031992264904374949 0 0.0069370011223431772 0.031178844705211671 0 0.010514107192828671 0.028635638083396184 0 0.013325375632900427 0.032423077057574301 0 0.01481717312807106 0.032840687703909625 0 0.014565563721882455 0.034175395345595334 0 0.013286078953576409 0.032801073454330157 0 0.01353762954785688 0.033082765257678858 0 0.013254967046996687 0.033026466577569878 0 0.0069370011223431772 0.031178844705211671 0 0.015004602467485915 0.031976559321986252 0 0.013714295018939681 0.032292282196134857 0 0.013286078953576409 0.032801073454330157 0 0.01353762954785688 0.033082765257678858 0 0.01353762954785688 0.033082765257678858 0 0.013380918838953404 0.034071158566075579 0 0.013254967046996687 0.033026466577569878 0 0.013380918838953404 0.034071158566075579 0 0.013254967046996687 0.033026466577569878 0 0.01225747827103517 0.034394735547978367 0 0.02077499482944237 0.032849210839407429 0 0.019030103662418748 0.03259200144405984 0 0.025894161063343048 0.031906706803989819 0 0.025772458718166105 0.032086525884343103 0 0.025778616496799855 0.031414352822243717 0 0.025772458718166105 0.032086525884343103 0 0.025778616496799855 0.031414352822243717 0 0.025409362490188613 0.031258487143643252 0 0.013254967046996687 0.033026466577569878 0 0.014420559265063795 0.03189602474818707 0 0.01225747827103517 0.034394735547978367 0 0.025894161063343048 0.031906706803989819 0 0.026097104571931207 0.031577550966908938 0 0.025778616496799855 0.031414352822243717 0 0.013286078953576409 0.032801073454330157 0 0.014420559265063795 0.03189602474818707 0 0.015166323223441962 0.03185009320907748 0 0.014673402578546551 0.031992264904374949 0 0.015166323223441962 0.03185009320907748 0 0.015422503394601749 0.032097815117926122 0 0.013286078953576409 0.032801073454330157 0 0.013254967046996687 0.033026466577569878 0 0.014420559265063795 0.03189602474818707 0 0.015004602467485915 0.031976559321986252 0 0.014675664166139234 0.032070303155827803 0 0.015404765782013894 0.032470816169928536 0 0.014673402578546551 0.031992264904374949 0 0.015422503394601749 0.032097815117926122 0 0.015404765782013894 0.032470816169928536 0 0.015422503394601749 0.032097815117926122 0 0.016413971577627987 0.032307773823543981 0 0.014420559265063795 0.03189602474818707 0 0.015166323223441962 0.03185009320907748 0 0.016960943136868318 0.031148945164073887 0 0.015422503394601749 0.032097815117926122 0 0.016297796302337499 0.0318224223801594 0 0.016413971577627987 0.032307773823543981 0 0.016297796302337499 0.0318224223801594 0 0.016413971577627987 0.032307773823543981 0 0.017731836049694884 0.031840686480100744 0 0.016297796302337499 0.0318224223801594 0 0.016960943136868318 0.031148945164073887 0 0.017731836049694884 0.031840686480100744 0 0.015166323223441962 0.03185009320907748 0 0.016297796302337499 0.0318224223801594 0 0.016960943136868318 0.031148945164073887 0 0.015166323223441962 0.03185009320907748 0 0.015422503394601749 0.032097815117926122 0 0.016297796302337499 0.0318224223801594 0 0.014420559265063795 0.03189602474818707 0 0.016960943136868318 0.031148945164073887 0 0.018997175267960627 0.029428960064867393 0 0.025894161063343048 0.031906706803989819 0 0.026097104571931207 0.031577550966908938 0 0.02645566630973558 0.031623599198810796 0 0.025772458718166105 0.032086525884343103 0 0.02645566630973558 0.031623599198810796 0 0.026891208911895767 0.031526078577835077 0 0.025894161063343048 0.031906706803989819 0 0.025772458718166105 0.032086525884343103 0 0.02645566630973558 0.031623599198810796 0 0.02077499482944237 0.032849210839407429 0 0.022809962032420448 0.030398565131559554 0 0.026097104571931207 0.031577550966908938 0 0.026236212140517846 0.031372545042892663 0 0.025778616496799855 0.031414352822243717 0 0.026097104571931207 0.031577550966908938 0 0.02645566630973558 0.031623599198810796 0 0.026236212140517846 0.031372545042892663 0 0.02645566630973558 0.031623599198810796 0 0.02662921872336645 0.031357316712395604 0 0.026236212140517846 0.031372545042892663 0 0.026891208911895767 0.031526078577835077 0 0.027003208695429569 0.031322381977130227 0 0.02662921872336645 0.031357316712395604 0 0.02645566630973558 0.031623599198810796 0 0.026891208911895767 0.031526078577835077 0 0.02662921872336645 0.031357316712395604 0 0.020130538049195065 0.030857559097109622 0 0.018997175267960627 0.029428960064867393 0 0.01868226872625206 0.031156398705912816 0 0.016960943136868318 0.031148945164073887 0 0.018997175267960627 0.029428960064867393 0 0.01868226872625206 0.031156398705912816 0 0.016960943136868318 0.031148945164073887 0 0.01868226872625206 0.031156398705912816 0 0.017731836049694884 0.031840686480100744 0 0.019501029448899313 0.03213970387632345 0 0.01868226872625206 0.031156398705912816 0 0.017731836049694884 0.031840686480100744 0 0.020130538049195065 0.030857559097109622 0 0.019501029448899313 0.03213970387632345 0 0.01868226872625206 0.031156398705912816 0 0.025693496660702499 0.03429095145726254 0 0.023984951650627879 0.034677600394042496 0 0.027153273404342322 0.030517731793338731 0 0.027003208695429569 0.031322381977130227 0 0.026273484509065262 0.030718549734595948 0 0.027003208695429569 0.031322381977130227 0 0.02662921872336645 0.031357316712395604 0 0.026273484509065262 0.030718549734595948 0 0.026236212140517846 0.031372545042892663 0 0.026273484509065262 0.030718549734595948 0 0.025778616496799855 0.031414352822243717 0 0.02662921872336645 0.031357316712395604 0 0.026236212140517846 0.031372545042892663 0 0.026273484509065262 0.030718549734595948 0 0.023984951650627879 0.034677600394042496 0 0.020574438264220136 0.034294098052145471 0 0.021233558117295152 0.038501815244599571 0 0.020722143994555957 0.038322398211277121 0 0.020463687555728846 0.03872101195835833 0 0.026273484509065262 0.030718549734595948 0 0.025778616496799855 0.031414352822243717 0 0.025255479893971963 0.030963720758836868 0 0.025778616496799855 0.031414352822243717 0 0.025255479893971963 0.030963720758836868 0 0.025409362490188613 0.031258487143643252 0 0.012086810594649102 0.035771075481837111 0 0.01225747827103517 0.034394735547978367 0 0.013001145710720847 0.035660257827722301 0 0.020574438264220136 0.034294098052145471 0 0.019030103662418748 0.03259200144405984 0 0.013380918838953404 0.034071158566075579 0 0.01225747827103517 0.034394735547978367 0 0.013001145710720847 0.035660257827722301 0 0.012086810594649102 0.035771075481837111 0 0.013001145710720847 0.035660257827722301 0 0.012095205826314794 0.037839142086363679 0 0.020722143994555957 0.038322398211277121 0 0.020463687555728846 0.03872101195835833 0 0.020287013798206258 0.038379103194379136 0 0.020574438264220136 0.034294098052145471 0 0.016340907065801193 0.037774000755594069 0 0.016340907065801193 0.037774000755594069 0 0.016749307331865811 0.041328272320660726 0 0.020722143994555957 0.038322398211277121 0 0.020287013798206258 0.038379103194379136 0 0.020563511245479681 0.038033313843663964 0 0.020287013798206258 0.038379103194379136 0 0.020563511245479681 0.038033313843663964 0 0.019984675240982692 0.037819095657160372 0 0.019243474323555814 0.042670810146361947 0 0.016749307331865811 0.041328272320660726 0 0.01712304793910607 0.047499873563327681 0 0.015629295519614974 0.04780265667132625 0 0.016193670204250967 0.047055753591624366 0 0.020563511245479681 0.038033313843663964 0 0.020729189408189307 0.037612711505904457 0 0.019984675240982692 0.037819095657160372 0 0.020563511245479681 0.038033313843663964 0 0.020729189408189307 0.037612711505904457 0 0.021054453086804585 0.037981813198277065 0 0.021233558117295152 0.038501815244599571 0 0.020722143994555957 0.038322398211277121 0 0.021054453086804585 0.037981813198277065 0 0.020722143994555957 0.038322398211277121 0 0.020563511245479681 0.038033313843663964 0 0.021054453086804585 0.037981813198277065 0 0.021233558117295152 0.038501815244599571 0 0.021054453086804585 0.037981813198277065 0 0.021563570027900471 0.037924170930324026 0 0.021054453086804585 0.037981813198277065 0 0.021563570027900471 0.037924170930324026 0 0.021474631549335568 0.037428730933279107 0 0.020729189408189307 0.037612711505904457 0 0.021054453086804585 0.037981813198277065 0 0.021474631549335568 0.037428730933279107 0 0.019243474323555814 0.042670810146361947 0 0.01961256697537098 0.042655109249470705 0 0.022068968677367178 0.03775712420873386 0 0.021563570027900471 0.037924170930324026 0 0.021474631549335568 0.037428730933279107 0 0.021967732344604019 0.038266689073664137 0 0.021233558117295152 0.038501815244599571 0 0.021563570027900471 0.037924170930324026 0 0.0081596724391508196 0.037455944771009858 0 0.009575568886513253 0.04037052534433111 0 0.016849787399812695 0.036621848216937293 0 0.016124973126803301 0.03942702767846179 0 0.018540352430368258 0.04026075300740424 0 0.0012420775555399759 0.039414247806771135 0 0.00056191948969945657 0.038694288350334928 0 0.00071949425775018859 0.040337134155095739 0 -0.00052701763686548381 0.038466470570116609 0 0.00056191948969945657 0.038694288350334928 0 0.00071949425775018859 0.040337134155095739 0 0.0013367198963264862 0.038856622266587218 0 0.0012420775555399759 0.039414247806771135 0 0.00056191948969945657 0.038694288350334928 0 -4.4568733708289753e-05 0.036099353833270106 0 0.0013535385023515506 0.037900989649319226 0 0.00024937161756086667 0.037467655968857094 0 0.00056191948969945657 0.038694288350334928 0 0.0012380229085268975 0.03804431667297388 0 0.00024937161756086667 0.037467655968857094 0 0.0013367198963264862 0.038856622266587218 0 0.00056191948969945657 0.038694288350334928 0 0.0012380229085268975 0.03804431667297388 0 -0.00092791950171034138 0.035447338837022779 0 -0.00096945527068458589 0.035255596618958503 0 0.0012380229085268975 0.03804431667297388 0 0.0013535385023515506 0.037900989649319226 0 0.00024937161756086667 0.037467655968857094 0 -0.0018345771508200253 0.036038704499799158 0 -0.00052701763686548381 0.038466470570116609 0 0.00024937161756086667 0.037467655968857094 0 -0.00052701763686548381 0.038466470570116609 0 0.00056191948969945657 0.038694288350334928 0 0.00024937161756086667 0.037467655968857094 0 0.0064046200393633084 0.035195515495876413 0 0.0081596724391508196 0.037455944771009858 0 0.014924225918369061 0.033589025078696148 0 0.016849787399812695 0.036621848216937293 0 0.014879159344459245 0.036431802587846861 0 0.014924225918369061 0.033589025078696148 0 0.013857417212855022 0.035341655272659631 0 0.014879159344459245 0.036431802587846861 0 0.013380918838953404 0.034071158566075579 0 0.013001145710720847 0.035660257827722301 0 0.013857417212855022 0.035341655272659631 0 0.013857417212855022 0.035341655272659631 0 0.013570166058040879 0.037057460402435322 0 0.014879159344459245 0.036431802587846861 0 0.013001145710720847 0.035660257827722301 0 0.013857417212855022 0.035341655272659631 0 0.013570166058040879 0.037057460402435322 0 0.013001145710720847 0.035660257827722301 0 0.012095205826314794 0.037839142086363679 0 0.013570166058040879 0.037057460402435322 0 0.013570166058040879 0.037057460402435322 0 0.014879159344459245 0.036431802587846861 0 0.01476437211277392 0.038253276849351092 0 0.013570166058040879 0.037057460402435322 0 0.01476437211277392 0.038253276849351092 0 0.013161525201914114 0.039237350391924226 0 0.012095205826314794 0.037839142086363679 0 0.013570166058040879 0.037057460402435322 0 0.013161525201914114 0.039237350391924226 0 0.016849787399812695 0.036621848216937293 0 0.014879159344459245 0.036431802587846861 0 0.01476437211277392 0.038253276849351092 0 0.016849787399812695 0.036621848216937293 0 0.01476437211277392 0.038253276849351092 0 0.016124973126803301 0.03942702767846179 0 0.014379318442794909 0.040354380379016355 0 0.016078050284119488 0.0417061967496156 0 0.016124973126803301 0.03942702767846179 0 0.01476437211277392 0.038253276849351092 0 0.014379318442794909 0.040354380379016355 0 0.016124973126803301 0.03942702767846179 0 0.012095205826314794 0.037839142086363679 0 0.013161525201914114 0.039237350391924226 0 0.012721040086655117 0.041420800745104812 0 0.01476437211277392 0.038253276849351092 0 0.014379318442794909 0.040354380379016355 0 0.013161525201914114 0.039237350391924226 0 0.014379318442794909 0.040354380379016355 0 0.013417062131781839 0.040601801567362324 0 0.013832938676789336 0.04124358452451482 0 0.014379318442794909 0.040354380379016355 0 0.013161525201914114 0.039237350391924226 0 0.013417062131781839 0.040601801567362324 0 0.013161525201914114 0.039237350391924226 0 0.013417062131781839 0.040601801567362324 0 0.012721040086655117 0.041420800745104812 0 0.012721040086655117 0.041420800745104812 0 0.01432220155491944 0.042270438520635896 0 0.013638257281767019 0.043923773678278023 0 0.016749307331865811 0.041328272320660726 0 0.014559378897273375 0.045764551589570053 0 0.015629295519614974 0.04780265667132625 0 0.015673184059118123 0.047258593375490432 0 0.015222742550343789 0.046910520685637148 0 0.012721040086655117 0.041420800745104812 0 0.013832938676789336 0.04124358452451482 0 0.01432220155491944 0.042270438520635896 0 0.013417062131781839 0.040601801567362324 0 0.012721040086655117 0.041420800745104812 0 0.013832938676789336 0.04124358452451482 0 0.015629295519614974 0.04780265667132625 0 0.015673184059118123 0.047258593375490432 0 0.016193670204250967 0.047055753591624366 0 0.014379318442794909 0.040354380379016355 0 0.01432220155491944 0.042270438520635896 0 0.016078050284119488 0.0417061967496156 0 0.01432220155491944 0.042270438520635896 0 0.016078050284119488 0.0417061967496156 0 0.015535719867946969 0.044108356892360569 0 0.014379318442794909 0.040354380379016355 0 0.013832938676789336 0.04124358452451482 0 0.01432220155491944 0.042270438520635896 0 0.016078050284119488 0.0417061967496156 0 0.018540352430368258 0.04026075300740424 0 0.017575535003554937 0.043773759648972045 0 0.016078050284119488 0.0417061967496156 0 0.017575535003554937 0.043773759648972045 0 0.015535719867946969 0.044108356892360569 0 0.016078050284119488 0.0417061967496156 0 0.016124973126803301 0.03942702767846179 0 0.018540352430368258 0.04026075300740424 0 0.018540352430368258 0.04026075300740424 0 0.017575535003554937 0.043773759648972045 0 0.020140500380830085 0.043859607301239251 0 0.017575535003554937 0.043773759648972045 0 0.020140500380830085 0.043859607301239251 0 0.018911083868008809 0.047404047847820562 0 0.017575535003554937 0.043773759648972045 0 0.016320096032197976 0.046788090375461278 0 0.018911083868008809 0.047404047847820562 0 0.016320096032197976 0.046788090375461278 0 0.01695207668148363 0.049232551072237798 0 0.018911083868008809 0.047404047847820562 0 0.016320096032197976 0.046788090375461278 0 0.015535719867946969 0.044108356892360569 0 0.014883610211136359 0.04600449360736774 0 0.017575535003554937 0.043773759648972045 0 0.016320096032197976 0.046788090375461278 0 0.015535719867946969 0.044108356892360569 0 0.015535719867946969 0.044108356892360569 0 0.013638257281767019 0.043923773678278023 0 0.014883610211136359 0.04600449360736774 0 0.01432220155491944 0.042270438520635896 0 0.015535719867946969 0.044108356892360569 0 0.013638257281767019 0.043923773678278023 0 0.014559378897273375 0.045764551589570053 0 0.014744902115950068 0.045823635235982589 0 0.015222742550343789 0.046910520685637148 0 0.015666753698266825 0.046308297738560808 0 0.014883610211136359 0.04600449360736774 0 0.015673184059118123 0.047258593375490432 0 0.015222742550343789 0.046910520685637148 0 0.015666753698266825 0.046308297738560808 0 0.015673184059118123 0.047258593375490432 0 0.015666753698266825 0.046308297738560808 0 0.016193670204250967 0.047055753591624366 0 0.015666753698266825 0.046308297738560808 0 0.014924271373579325 0.045733795610256568 0 0.01605495051427171 0.045752433775360243 0 0.015666753698266825 0.046308297738560808 0 0.014883610211136359 0.04600449360736774 0 0.014924271373579325 0.045733795610256568 0 0.016320096032197976 0.046788090375461278 0 0.014883610211136359 0.04600449360736774 0 0.014924271373579325 0.045733795610256568 0 0.012738749479072923 0.04948267830613625 0 0.014331193968925307 0.05149034083134077 0 0.015380948960581155 0.049733930914322301 0 0.014924271373579325 0.045733795610256568 0 0.01605495051427171 0.045752433775360243 0 0.016171183542560454 0.044546821789372061 0 0.015380432367000851 0.049094939699375957 0 0.013868463989757789 0.054101236223209864 0 0.012738749479072923 0.04948267830613625 0 0.0097439917942545983 0.05142642656245832 0 0.01269791615793317 0.052973449868755261 0 0.013490813846915122 0.047507773020013723 0 0.015380432367000851 0.049094939699375957 0 0.012738749479072923 0.04948267830613625 0 0.014331193968925307 0.05149034083134077 0 0.01269791615793317 0.052973449868755261 0 0.014331193968925307 0.05149034083134077 0 0.015955968164503041 0.052917875065430234 0 0.01269791615793317 0.052973449868755261 0 0.014331193968925307 0.05149034083134077 0 0.016559849027068686 0.051328776856474641 0 0.015380948960581155 0.049733930914322301 0 0.014331193968925307 0.05149034083134077 0 0.016559849027068686 0.051328776856474641 0 0.015955968164503041 0.052917875065430234 0 0.016559849027068686 0.051328776856474641 0 0.017216310366239124 0.052811912242673099 0 0.015955968164503041 0.052917875065430234 0 0.018068173181046011 0.051962470393328665 0 0.016559849027068686 0.051328776856474641 0 0.017216310366239124 0.052811912242673099 0 0.018068173181046011 0.051962470393328665 0 0.016559849027068686 0.051328776856474641 0 0.01817869822296117 0.050359273277304328 0 0.016559849027068686 0.051328776856474641 0 0.01817869822296117 0.050359273277304328 0 0.01695207668148363 0.049232551072237798 0 0.01817869822296117 0.050359273277304328 0 0.01695207668148363 0.049232551072237798 0 0.018911083868008809 0.047404047847820562 0 0.016417099336582818 0.046709031715388351 0 0.013490813846915122 0.047507773020013723 0 0.016320096032197976 0.046788090375461278 0 0.01695207668148363 0.049232551072237798 0 0.015380948960581155 0.049733930914322301 0 0.016320096032197976 0.046788090375461278 0 0.012738749479072923 0.04948267830613625 0 0.015380948960581155 0.049733930914322301 0 0.016559849027068686 0.051328776856474641 0 0.01695207668148363 0.049232551072237798 0 0.015380948960581155 0.049733930914322301 0 0.019180392233438939 0.045471957126650975 0 0.019458722895296186 0.046241667896541314 0 0.018300369926943144 0.046442410330856138 0 0.019180392233438939 0.045471957126650975 0 0.019175897856504944 0.045480482097367922 0 0.018312904875840204 0.045704375819992517 0 0.020256811700367576 0.045567539078946215 0 0.019180392233438939 0.045471957126650975 0 0.019458722895296186 0.046241667896541314 0 0.019458722895296186 0.046241667896541314 0 0.018818344233361262 0.047153905280515877 0 0.018300369926943144 0.046442410330856138 0 0.020880382811148117 0.046570909449565205 0 0.019458722895296186 0.046241667896541314 0 0.018818344233361262 0.047153905280515877 0 0.023537822784930752 0.039428957604014034 0 0.01961256697537098 0.042655109249470705 0 0.01712304793910607 0.047499873563327681 0 0.018818344233361262 0.047153905280515877 0 0.018300369926943144 0.046442410330856138 0 0.018300369926943144 0.046442410330856138 0 0.018312904875840204 0.045704375819992517 0 0.017062686598912705 0.046318648882699653 0 0.019180392233438939 0.045471957126650975 0 0.018300369926943144 0.046442410330856138 0 0.018312904875840204 0.045704375819992517 0 0.018312904875840204 0.045704375819992517 0 0.017062686598912705 0.046318648882699653 0 0.017580972977152803 0.044947204453931737 0 0.01712304793910607 0.047499873563327681 0 0.018300369926943144 0.046442410330856138 0 0.017062686598912705 0.046318648882699653 0 0.01712304793910607 0.047499873563327681 0 0.017062686598912705 0.046318648882699653 0 0.016193670204250967 0.047055753591624366 0 0.015666753698266825 0.046308297738560808 0 0.017062686598912705 0.046318648882699653 0 0.016193670204250967 0.047055753591624366 0 0.015666753698266825 0.046308297738560808 0 0.017062686598912705 0.046318648882699653 0 0.01605495051427171 0.045752433775360243 0 0.017062686598912705 0.046318648882699653 0 0.01605495051427171 0.045752433775360243 0 0.016690537676119253 0.04526104828552089 0 0.01605495051427171 0.045752433775360243 0 0.016690537676119253 0.04526104828552089 0 0.016171183542560454 0.044546821789372061 0 0.015380432367000851 0.049094939699375957 0 0.01788534740659483 0.050409148634946672 0 0.019721655693713796 0.045968975385790055 0 0.019607415757939332 0.046234698318769731 0 0.019852255763445278 0.046361318751656534 0 0.02002415840644867 0.046247983583664561 0 0.019721655693713796 0.045968975385790055 0 0.019852255763445278 0.046361318751656534 0 0.015380432367000851 0.049094939699375957 0 0.019084783440468222 0.045022994998566136 0 0.017062686598912705 0.046318648882699653 0 0.016690537676119253 0.04526104828552089 0 0.017580972977152803 0.044947204453931737 0 0.016690537676119253 0.04526104828552089 0 0.016171183542560454 0.044546821789372061 0 0.017580972977152803 0.044947204453931737 0 0.019003589769487648 0.045595961439550706 0 0.019084783440468222 0.045022994998566136 0 0.019175897856504944 0.045480482097367922 0 0.019721655693713796 0.045968975385790055 0 0.019378257738505048 0.045985676443227028 0 0.019175897856504944 0.045480482097367922 0 0.018312904875840204 0.045704375819992517 0 0.017580972977152803 0.044947204453931737 0 0.019721655693713796 0.045968975385790055 0 0.019378257738505048 0.045985676443227028 0 0.019607415757939332 0.046234698318769731 0 0.019378257738505048 0.045985676443227028 0 0.019607415757939332 0.046234698318769731 0 0.01938615925290197 0.046307981444229894 0 0.019378257738505048 0.045985676443227028 0 0.01938615925290197 0.046307981444229894 0 0.019141773083070347 0.046115467230762278 0 0.019191513633447087 0.046146901195038594 0 0.019360811054596097 0.046276898627602335 0 0.01994352379372117 0.046677115136149916 0 0.019141773083070347 0.046115467230762278 0 0.019224940233046623 0.046809083342669124 0 0.01877175775472115 0.045723548717484928 0 0.019141773083070347 0.046115467230762278 0 0.019117964602256801 0.045814757051742067 0 0.019378257738505048 0.045985676443227028 0 0.019141773083070347 0.046115467230762278 0 0.019117964602256801 0.045814757051742067 0 0.019175897856504944 0.045480482097367922 0 0.019378257738505048 0.045985676443227028 0 0.019117964602256801 0.045814757051742067 0 0.01877175775472115 0.045723548717484928 0 0.019180392233438939 0.045471957126650975 0 0.019175897856504944 0.045480482097367922 0 0.01877175775472115 0.045723548717484928 0 0.019175897856504944 0.045480482097367922 0 0.019117964602256801 0.045814757051742067 0 0.018918999602227732 0.045496545908811623 0 0.019453743038285475 0.045234120244543582 0 0.027808564460406734 0.052973535510618085 0 0.025672982605908917 0.055043215315705087 0 0.027024648188847436 0.047897392004978973 0 0.026160856448557611 0.048293968194680813 0 0.025246402153922876 0.04844574955623384 0 0.026160856448557611 0.048293968194680813 0 0.025246402153922876 0.04844574955623384 0 0.025542651337859948 0.048703524689176193 0 0.026379163020780229 0.048958373027091134 0 0.023117649882761101 0.05178743474291049 0 0.025672982605908917 0.055043215315705087 0 0.02467875131205282 0.056006213645265722 0 0.02481917860188726 0.058274107998510911 0 0.025085917950932433 0.058500124048234944 0 0.02445510934435869 0.058389830073751141 0 0.025672982605908917 0.055043215315705087 0 0.023117649882761101 0.05178743474291049 0 0.026614981184642172 0.04865440091889385 0 0.026160856448557611 0.048293968194680813 0 0.0255739055062498 0.048642688699616493 0 0.022169616772058962 0.047887858902378004 0 0.023117649882761101 0.05178743474291049 0 0.018731218597615194 0.047131769669792302 0 0.019552321284047634 0.047948841490408345 0 0.019224940233046623 0.046809083342669124 0 0.01994352379372117 0.046677115136149916 0 0.019552321284047634 0.047948841490408345 0 0.019224940233046623 0.046809083342669124 0 0.023117649882761101 0.05178743474291049 0 0.020300053682221174 0.052015896727301975 0 0.01994352379372117 0.046677115136149916 0 0.019552321284047634 0.047948841490408345 0 0.020678802434886307 0.047287350988402699 0 0.019191513633447087 0.046146901195038594 0 0.020300053682221174 0.052015896727301975 0 0.019607415757939332 0.046234698318769731 0 0.01938615925290197 0.046307981444229894 0 0.019639145437390433 0.046523672289001415 0 0.025085917950932433 0.058500124048234944 0 0.023547760330502418 0.059454725186766505 0 0.02445510934435869 0.058389830073751141 0 0.023547760330502418 0.059454725186766505 0 0.02445510934435869 0.058389830073751141 0 0.023412916821877568 0.058411142553942613 0 0.024809356829716384 0.058290796463061061 0 0.02445510934435869 0.058389830073751141 0 0.023844527512826581 0.057412028747788106 0 0.025672982605908917 0.055043215315705087 0 0.024440025825523112 0.057887737316256418 0 0.02445510934435869 0.058389830073751141 0 0.023412916821877568 0.058411142553942613 0 0.023844527512826581 0.057412028747788106 0 0.023547760330502418 0.059454725186766505 0 0.023412916821877568 0.058411142553942613 0 0.022316738395458658 0.058626096976042784 0 0.023412916821877568 0.058411142553942613 0 0.022316738395458658 0.058626096976042784 0 0.022345705066420321 0.057520589542411675 0 0.020300053682221174 0.052015896727301975 0 0.019337748623693807 0.057049339544620686 0 0.019607415757939332 0.046234698318769731 0 0.019639145437390433 0.046523672289001415 0 0.019852255763445278 0.046361318751656534 0 0.015964310729166698 0.054435365654983435 0 0.015846074432072449 0.054422188161247595 0 0.015869172685580135 0.054468766712337462 0 0.020300053682221174 0.052015896727301975 0 0.01788534740659483 0.050409148634946672 0 0.015846074432072449 0.054422188161247595 0 0.015869172685580135 0.054468766712337462 0 0.015771453275774037 0.054444841812786797 0 0.015790286478930656 0.054482446400099138 0 0.015869172685580135 0.054468766712337462 0 0.015771453275774037 0.054444841812786797 0 0.015846074432072449 0.054422188161247595 0 0.015771453275774037 0.054444841812786797 0 0.015764468068175625 0.054456862418471669 0 0.022316738395458658 0.058626096976042784 0 0.020755995743258166 0.057718997297549521 0 0.022345705066420321 0.057520589542411675 0 0.019337748623693807 0.057049339544620686 0 0.018119697468397825 0.055935244634698358 0 0.020755995743258166 0.057718997297549521 0 0.021589424694812204 0.056497689179087596 0 0.022345705066420321 0.057520589542411675 0 0.020755995743258166 0.057718997297549521 0 0.021589424694812204 0.056497689179087596 0 0.020328869483790344 0.0565127135072458 0 0.020688925518590237 0.055831996233657512 0 0.021589424694812204 0.056497689179087596 0 0.020328869483790344 0.0565127135072458 0 0.020688925518590237 0.055831996233657512 0 0.022168949551965526 0.055000008103547583 0 0.019495770156501512 0.054999886023425912 0 0.020688925518590237 0.055831996233657512 0 0.022168949551965526 0.055000008103547583 0 0.021589424694812204 0.056497689179087596 0 0.022168949551965526 0.055000008103547583 0 0.021589424694812204 0.056497689179087596 0 0.022894945505879085 0.056379366666099107 0 0.022168949551965526 0.055000008103547583 0 0.022894945505879085 0.056379366666099107 0 0.024842637564265677 0.054999913064094637 0 0.022894945505879085 0.056379366666099107 0 0.022345705066420321 0.057520589542411675 0 0.023844527512826581 0.057412028747788106 0 0.023412916821877568 0.058411142553942613 0 0.022345705066420321 0.057520589542411675 0 0.023844527512826581 0.057412028747788106 0 0.022900759729342704 0.056400550706795276 0 0.024440025825523112 0.057887737316256418 0 0.021589424694812204 0.056497689179087596 0 0.022894945505879085 0.056379366666099107 0 0.022345705066420321 0.057520589542411675 0 0.025689126078679177 0.057790842237499883 0 0.024691335866861057 0.05657825529982996 0 0.026620806051529489 0.05696989142643441 0 0.026119443621050727 0.05907049717172351 0 0.024554511184173594 0.057766973088920467 0 0.025689126078679177 0.057790842237499883 0 0.024554511184173594 0.057766973088920467 0 0.025689126078679177 0.057790842237499883 0 0.024691335866861057 0.05657825529982996 0 0.022894945505879085 0.056379366666099107 0 0.024554511184173594 0.057766973088920467 0 0.024691335866861057 0.05657825529982996 0 0.022894945505879085 0.056379366666099107 0 0.024691335866861057 0.05657825529982996 0 0.024842637564265677 0.054999913064094637 0 0.024691335866861057 0.05657825529982996 0 0.024842637564265677 0.054999913064094637 0 0.026620806051529489 0.05696989142643441 0 0.02751629084764684 0.054999992177065964 0 0.024842637564265677 0.054999913064094637 0 0.026620806051529489 0.05696989142643441 0 0.028545226039538268 0.05840233640203308 0 0.026119443621050727 0.05907049717172351 0 0.026620806051529489 0.05696989142643441 0 0.026119443621050727 0.05907049717172351 0 0.025689126078679177 0.057790842237499883 0 0.026620806051529489 0.05696989142643441 0 0.015879683899566694 0.05426354676381312 0 0.015723477984678529 0.054430271798092976 0 0.01569079184224563 0.054617311239814469 0 0.01601518351731656 0.055067994363673635 0 0.015681189968946241 0.055656647620334704 0 0.015879683899566694 0.05426354676381312 0 0.016714220544720451 0.05427115316071085 0 0.01569079184224563 0.054617311239814469 0 0.014553727312443343 0.057100336496044207 0 0.014825686394667806 0.055978862561679492 0 0.015854714528750553 0.056963825796178015 0 0.014553727312443343 0.057100336496044207 0 0.014825686394667806 0.055978862561679492 0 0.01802537193450978 0.054581740904557127 0 0.016714220544720451 0.05427115316071085 0 0.017216310366239124 0.052811912242673099 0 0.018738766421043787 0.053048643801202847 0 0.01601518351731656 0.055067994363673635 0 0.018437038606816138 0.05316959639115286 0 0.016714220544720451 0.05427115316071085 0 0.017216310366239124 0.052811912242673099 0 0.015955968164503041 0.052917875065430234 0 0.015879683899566694 0.05426354676381312 0 0.015955968164503041 0.052917875065430234 0 0.01269791615793317 0.052973449868755261 0 0.015879683899566694 0.05426354676381312 0 0.016714220544720451 0.05427115316071085 0 0.015955968164503041 0.052917875065430234 0 0.01586681746125063 0.054180458073364933 0 0.013868463989757789 0.054101236223209864 0 0.015879683899566694 0.05426354676381312 0 0.015693292286550295 0.054426201221776861 0 0.015723477984678529 0.054430271798092976 0 0.015771453275774037 0.054444841812786797 0 0.015693292286550295 0.054426201221776861 0 0.015714743821683107 0.054475414869792016 0 0.015790286478930656 0.054482446400099138 0 0.015771453275774037 0.054444841812786797 0 0.015693292286550295 0.054426201221776861 0 0.015771453275774037 0.054444841812786797 0 0.015764468068175625 0.054456862418471669 0 0.015714743821683107 0.054475414869792016 0 0.015693292286550295 0.054426201221776861 0 0.015714743821683107 0.054475414869792016 0 0.015723477984678529 0.054430271798092976 0 0.015714743821683107 0.054475414869792016 0 0.015723477984678529 0.054430271798092976 0 0.01569079184224563 0.054617311239814469 0 0.017441930847406882 0.056027592991014258 0 0.016380607933693881 0.056060023029851358 0 0.015854714528750553 0.056963825796178015 0 0.017579183967202618 0.055945902077354184 0 0.015681189968946241 0.055656647620334704 0 0.015714743821683107 0.054475414869792016 0 0.015735149965431707 0.054498572173715162 0 0.01569079184224563 0.054617311239814469 0 0.015764468068175625 0.054456862418471669 0 0.015714743821683107 0.054475414869792016 0 0.015735149965431707 0.054498572173715162 0 0.018119697468397825 0.055935244634698358 0 0.017579183967202618 0.055945902077354184 0 0.020755995743258166 0.057718997297549521 0 0.020328869483790344 0.0565127135072458 0 0.018965470880263874 0.056535491618317842 0 0.020688925518590237 0.055831996233657512 0 0.020328869483790344 0.0565127135072458 0 0.019500730980082207 0.056046408927249304 0 0.019500730980082207 0.056046408927249304 0 0.019495770156501512 0.054999886023425912 0 0.018886079977496344 0.05657589181124139 0 0.020328869483790344 0.0565127135072458 0 0.019500730980082207 0.056046408927249304 0 0.018965470880263874 0.056535491618317842 0 0.018664733810839333 0.055689525064501942 0 0.017579183967202618 0.055945902077354184 0 0.020688925518590237 0.055831996233657512 0 0.019500730980082207 0.056046408927249304 0 0.019495770156501512 0.054999886023425912 0 0.017579183967202618 0.055945902077354184 0 0.016822919048729519 0.055000780891479188 0 0.017441930847406882 0.056027592991014258 0 0.016819269245256945 0.054999895186476688 0 0.016380607933693881 0.056060023029851358 0 0.019495770156501512 0.054999886023425912 0 0.018886079977496344 0.05657589181124139 0 0.016821965032106357 0.055000037702298034 0 0.016819269245256945 0.054999895186476688 0 0.015285981203136833 0.056159736072968286 0 0.016380607933693881 0.056060023029851358 0 0.015285981203136833 0.056159736072968286 0 0.016380607933693881 0.056060023029851358 0 0.015854714528750553 0.056963825796178015 0 0.014553727312443343 0.057100336496044207 0 0.015285981203136833 0.056159736072968286 0 0.015854714528750553 0.056963825796178015 0 0.014553727312443343 0.057100336496044207 0 0.015285981203136833 0.056159736072968286 0 0.014063871013750546 0.056227008881861447 0 0.016819269245256945 0.054999895186476688 0 0.015285981203136833 0.056159736072968286 0 0.01371409054570724 0.054999359988858167 0 0.015285981203136833 0.056159736072968286 0 0.014063871013750546 0.056227008881861447 0 0.01371409054570724 0.054999359988858167 0 0.01371409054570724 0.054999359988858167 0 0.010604176455358079 0.054999469365052921 0 0.0125820862383307 0.056663697125231581 0 0.014063871013750546 0.056227008881861447 0 0.01371409054570724 0.054999359988858167 0 0.0125820862383307 0.056663697125231581 0 0.010604176455358079 0.054999469365052921 0 0.0125820862383307 0.056663697125231581 0 0.01029098452596708 0.056160819161977425 0 0.0125820862383307 0.056663697125231581 0 0.01029098452596708 0.056160819161977425 0 0.011177290627735164 0.057024374609222744 0 0.0125820862383307 0.056663697125231581 0 0.012015202883716949 0.05723026244057481 0 0.011177290627735164 0.057024374609222744 0 0.014553727312443343 0.057100336496044207 0 0.014063871013750546 0.056227008881861447 0 0.0125820862383307 0.056663697125231581 0 0.0075000901167783015 0.054999813535804729 0 0.0090861759758477482 0.056445145419010814 0 0.0079022046997523857 0.0561502884805406 0 0.0075000901167783015 0.054999813535804729 0 0.01029098452596708 0.056160819161977425 0 0.0090861759758477482 0.056445145419010814 0 0.010604176455358079 0.054999469365052921 0 0.0075000901167783015 0.054999813535804729 0 0.01029098452596708 0.056160819161977425 0 0.01029098452596708 0.056160819161977425 0 0.010246126321214008 0.056888263380602384 0 0.0090861759758477482 0.056445145419010814 0 0.01029098452596708 0.056160819161977425 0 0.010246126321214008 0.056888263380602384 0 0.011177290627735164 0.057024374609222744 0 0.010246126321214008 0.056888263380602384 0 0.0090861759758477482 0.056445145419010814 0 0.0099150483920165036 0.05729944805014104 0 0.0090861759758477482 0.056445145419010814 0 0.0089478305225585992 0.057226403542426162 0 0.0079022046997523857 0.0561502884805406 0 0.0089478305225585992 0.057226403542426162 0 0.009425076662577794 0.058539520314490522 0 0.0078587534579350974 0.057067338540484513 0 0.0090861759758477482 0.056445145419010814 0 0.0089478305225585992 0.057226403542426162 0 0.0099150483920165036 0.05729944805014104 0 0.0089478305225585992 0.057226403542426162 0 0.0099150483920165036 0.05729944805014104 0 0.0099172603562589137 0.057831316791805733 0 0.0099150483920165036 0.05729944805014104 0 0.010494538140946639 0.057691291350728841 0 0.0099172603562589137 0.057831316791805733 0 0.0099150483920165036 0.05729944805014104 0 0.010607985246284871 0.05745805155165478 0 0.010494538140946639 0.057691291350728841 0 0.010246126321214008 0.056888263380602384 0 0.0099150483920165036 0.05729944805014104 0 0.010607985246284871 0.05745805155165478 0 0.010246126321214008 0.056888263380602384 0 0.010607985246284871 0.05745805155165478 0 0.011177290627735164 0.057024374609222744 0 0.010607985246284871 0.05745805155165478 0 0.011168736754425994 0.057543408049757085 0 0.011201102021697055 0.057755051228688833 0 0.010890400237746702 0.057702449464396149 0 0.011201102021697055 0.057755051228688833 0 0.01140720755265533 0.057379622916889389 0 0.010607985246284871 0.05745805155165478 0 0.010494538140946639 0.057691291350728841 0 0.011201102021697055 0.057755051228688833 0 0.010890400237746702 0.057702449464396149 0 0.010494538140946639 0.057691291350728841 0 0.011201102021697055 0.057755051228688833 0 0.010890400237746702 0.057702449464396149 0 0.010494538140946639 0.057691291350728841 0 0.0099172603562589137 0.057831316791805733 0 0.0043594167039229491 0.055193145494603184 0 0.0043181721323233896 0.055266955487478321 0 0.004100202020346385 0.054906747972536592 0 0.0089478305225585992 0.057226403542426162 0 0.0099172603562589137 0.057831316791805733 0 0.009425076662577794 0.058539520314490522 0 0.010890400237746702 0.057702449464396149 0 0.0099172603562589137 0.057831316791805733 0 0.01026894831891554 0.057849470064911888 0 0.0087907338251604159 0.057251475836065956 0 0.0080454870885228597 0.056130433836958808 0 0.0080454870885228597 0.056130433836958808 0 0.0041677914120326247 0.053013279635102641 0 0.014553727312443343 0.057100336496044207 0 0.012608439609658089 0.057557351039954213 0 0.012017542308371555 0.058093994129295889 0 0.0125820862383307 0.056663697125231581 0 0.012608439609658089 0.057557351039954213 0 0.012015202883716949 0.05723026244057481 0 0.014706190437588463 0.056882676697421461 0 0.014981598456574248 0.056107006373405141 0 0.014553727312443343 0.057100336496044207 0 0.0125820862383307 0.056663697125231581 0 0.012608439609658089 0.057557351039954213 0 0.012608439609658089 0.057557351039954213 0 0.011713400088673144 0.05762651513530425 0 0.011733875457944073 0.057869381158648987 0 0.012608439609658089 0.057557351039954213 0 0.012015202883716949 0.05723026244057481 0 0.011713400088673144 0.05762651513530425 0 0.012015202883716949 0.05723026244057481 0 0.011177290627735164 0.057024374609222744 0 0.011713400088673144 0.05762651513530425 0 0.010607985246284871 0.05745805155165478 0 0.011177290627735164 0.057024374609222744 0 0.011168736754425994 0.057543408049757085 0 0.011177290627735164 0.057024374609222744 0 0.011168736754425994 0.057543408049757085 0 0.011713400088673144 0.05762651513530425 0 0.011201102021697055 0.057755051228688833 0 0.01149275109284629 0.057662697917090167 0 0.01140720755265533 0.057379622916889389 0 0.011713400088673144 0.05762651513530425 0 0.011201102021697055 0.057755051228688833 0 0.011733875457944073 0.057869381158648987 0 0.011168736754425994 0.057543408049757085 0 0.011713400088673144 0.05762651513530425 0 0.011201102021697055 0.057755051228688833 0 0.011201102021697055 0.057755051228688833 0 0.01149275109284629 0.057662697917090167 0 0.011733875457944073 0.057869381158648987 0 0.01149275109284629 0.057662697917090167 0 0.011733875457944073 0.057869381158648987 0 0.012017542308371555 0.058093994129295889 0 0.014825686394667806 0.055978862561679492 0 0.01802537193450978 0.054581740904557127 0 0.018738766421043787 0.053048643801202847 0 0.012608439609658089 0.057557351039954213 0 0.011733875457944073 0.057869381158648987 0 0.012017542308371555 0.058093994129295889 0 0.014981598456574248 0.056107006373405141 0 0.016534258502304854 0.054116733424566431 0 0.018068173181046011 0.051962470393328665 0 0.017216310366239124 0.052811912242673099 0 0.018738766421043787 0.053048643801202847 0 0.018068173181046011 0.051962470393328665 0 0.01817869822296117 0.050359273277304328 0 0.020464728980549091 0.050926572859878817 0 0.01802537193450978 0.054581740904557127 0 0.018738766421043787 0.053048643801202847 0 0.020464728980549091 0.050926572859878817 0 0.01149275109284629 0.057662697917090167 0 0.012017542308371555 0.058093994129295889 0 0.011040936789849142 0.056827585844722736 0 0.018068173181046011 0.051962470393328665 0 0.018738766421043787 0.053048643801202847 0 0.020464728980549091 0.050926572859878817 0 0.01817869822296117 0.050359273277304328 0 0.020464728980549091 0.050926572859878817 0 0.018911083868008809 0.047404047847820562 0 0.020464728980549091 0.050926572859878817 0 0.018911083868008809 0.047404047847820562 0 0.021941474176585853 0.047850603790568526 0 0.016534258502304854 0.054116733424566431 0 0.0096705021067182099 0.048420575655365693 0 0.01140720755265533 0.057379622916889389 0 0.011040936789849142 0.056827585844722736 0 0.011664772049567819 0.054924492338462569 0 0.01149275109284629 0.057662697917090167 0 0.01140720755265533 0.057379622916889389 0 0.011040936789849142 0.056827585844722736 0 0.010890400237746702 0.057702449464396149 0 0.01140720755265533 0.057379622916889389 0 0.011670092957535612 0.057164836809780857 0 0.010890400237746702 0.057702449464396149 0 0.01026894831891554 0.057849470064911888 0 0.011670092957535612 0.057164836809780857 0 0.0080454870885228597 0.056130433836958808 0 0.0092313844672674682 0.054578096813793595 0 0.0041677914120326247 0.053013279635102641 0 0.0058011449585909118 0.048751622295361417 0 0.009273361115173703 0.053587756237551243 0 0.0067134169408822148 0.051118231909103098 0 0.008098052027392711 0.050839431784463263 0 0.0041827904062004297 0.049129634050344997 0 0.0032906547606003996 0.047038589617845017 0 0.0057195179756871087 0.046320261075441106 0 0.0088845333473025097 0.054287266668687974 0 0.009273361115173703 0.053587756237551243 0 0.0067134169408822148 0.051118231909103098 0 0.0032906547606003996 0.047038589617845017 0 0.0025025380632358631 0.044823653232259578 0 0.0046652473152393832 0.044539172094648569 0 0.0067134169408822148 0.051118231909103098 0 0.0068972103609883824 0.048042788336391549 0 0.0044758436055521633 0.047885659199174188 0 0.0058011449585909118 0.048751622295361417 0 0.0047827337055872925 0.046637625507407 0 0.0092313844672674682 0.054578096813793595 0 0.0096705021067182099 0.048420575655365693 0 0.0067134169408822148 0.051118231909103098 0 0.008098052027392711 0.050839431784463263 0 0.0068972103609883824 0.048042788336391549 0 0.01140720755265533 0.057379622916889389 0 0.011670092957535612 0.057164836809780857 0 0.011664772049567819 0.054924492338462569 0 0.0047827337055872925 0.046637625507407 0 0.0035300118670045519 0.043097741622554205 0 0.0025025380632358631 0.044823653232259578 0 0.0037120009485143535 0.043212877414422667 0 0.002870631267084874 0.042876144534967936 0 0.0068972103609883824 0.048042788336391549 0 0.0056578071972869706 0.045229087986032729 0 0.0044758436055521633 0.047885659199174188 0 0.0025025380632358631 0.044823653232259578 0 0.0037120009485143535 0.043212877414422667 0 0.0046652473152393832 0.044539172094648569 0 0.0037120009485143535 0.043212877414422667 0 0.003489690916104704 0.042089001164565779 0 0.0051242940978731867 0.042456997182826021 0 0.0037120009485143535 0.043212877414422667 0 0.003489690916104704 0.042089001164565779 0 0.002870631267084874 0.042876144534967936 0 0.0025025380632358631 0.044823653232259578 0 0.0019391555896358338 0.042732789420648856 0 0.002870631267084874 0.042876144534967936 0 0.0026916400266894579 0.041704039064659339 0 0.003489690916104704 0.042089001164565779 0 0.002870631267084874 0.042876144534967936 0 0.0030141339321959741 0.04204565642815699 0 0.0035300118670045519 0.043097741622554205 0 0.0026916400266894579 0.041704039064659339 0 0.0019391555896358338 0.042732789420648856 0 0.002870631267084874 0.042876144534967936 0 0.0026916400266894579 0.041704039064659339 0 0.0026860119976616064 0.041846665021602961 0 0.0026586200114241546 0.041791742041286682 0 0.0035300118670045519 0.043097741622554205 0 0.0031114075077432108 0.042296543034511698 0 0.0023669799302322323 0.042000192688662105 0 0.0016441408029972413 0.041720367068261953 0 0.0024877188629139134 0.04293585077467376 0 0.0027997023380644933 0.042030686297668693 0 0.0023669799302322323 0.042000192688662105 0 0.0024877188629139134 0.04293585077467376 0 0.0027997023380644933 0.042030686297668693 0 0.0026586200114241546 0.041791742041286682 0 0.0023669799302322323 0.042000192688662105 0 0.011185352390158524 0.042251198523075781 0 0.0096705021067182099 0.048420575655365693 0 0.002223836979154189 0.041539939613405998 0 0.0026586200114241546 0.041791742041286682 0 0.0023669799302322323 0.042000192688662105 0 0.002223836979154189 0.041539939613405998 0 0.0023669799302322323 0.042000192688662105 0 0.0016441408029972413 0.041720367068261953 0 0.020140500380830085 0.043859607301239251 0 0.018911083868008809 0.047404047847820562 0 0.021941474176585853 0.047850603790568526 0 0.0035300118670045519 0.043097741622554205 0 0.0096705021067182099 0.048420575655365693 0 0.00024217659026842814 0.052298137646581803 0 -0.00079949705633645593 0.051343573977789346 0 -0.00016924742367387121 0.052848781598652243 0 -0.0057904750555257236 0.04647132141305934 0 -0.00023071627071518793 0.046836236274236803 0 -0.0043438188546767367 0.044323411862478963 0 -0.0055069406443422758 0.041461051565824261 0 -0.0067970464920174669 0.042264419766604687 0 -0.00023071627071518793 0.046836236274236803 0 3.4260498121456179e-05 0.054549525498576244 0 -0.0057904750555257236 0.04647132141305934 0 -0.0055416946863325696 0.04758841819533479 0 -0.016937179335418311 0.043200584552789321 0 -0.015660840608812628 0.04130026150804178 0 -0.016571719713666121 0.03966111333279311 0 -0.016937179335418311 0.043200584552789321 0 -0.015406488038126285 0.042831291647807405 0 -0.015660840608812628 0.04130026150804178 0 -0.0057904750555257236 0.04647132141305934 0 -0.011127274788493435 0.03874732854910045 0 -0.015406488038126285 0.042831291647807405 0 -0.015660840608812628 0.04130026150804178 0 -0.014544105891101068 0.041922696754464819 0 -0.015660840608812628 0.04130026150804178 0 -0.015643188710706617 0.0401966953986942 0 -0.016571719713666121 0.03966111333279311 0 -0.015660840608812628 0.04130026150804178 0 -0.015643188710706617 0.0401966953986942 0 -0.014924086453909007 0.040469597050954723 0 -0.015660840608812628 0.04130026150804178 0 -0.014544105891101068 0.041922696754464819 0 -0.014924086453909007 0.040469597050954723 0 -0.015643188710706617 0.0401966953986942 0 -0.015613160625549082 0.039421494978480694 0 -0.014924086453909007 0.040469597050954723 0 -0.015643188710706617 0.0401966953986942 0 -0.015613160625549082 0.039421494978480694 0 -0.016571719713666121 0.03966111333279311 0 -0.0055407146938477141 0.038728905615293192 0 -0.0055069406443422758 0.041461051565824261 0 -0.0070608821942477447 0.041555828820277731 0 -0.0070018427627659783 0.035768951142134797 0 0.00025466321306067216 0.040825329809587307 0 -0.0043438188546767367 0.044323411862478963 0 -0.0037942725576791997 0.040429778908259738 0 -0.0055069406443422758 0.041461051565824261 0 -0.0055407146938477141 0.038728905615293192 0 -0.0037942725576791997 0.040429778908259738 0 -0.0055069406443422758 0.041461051565824261 0 -0.0055069406443422758 0.041461051565824261 0 -0.0067970464920174669 0.042264419766604687 0 -0.0070608821942477447 0.041555828820277731 0 0.00016488310307065599 0.037330523091930939 0 0.0021186711098916578 0.039049251742490527 0 0.0022336961697211957 0.03883906867628939 0 -0.00056860628427491842 0.044765810551373741 0 -6.1685183283914375e-05 0.045191185630680739 0 -0.00035854838963028001 0.044386825476505756 0 0.0012472056552115193 0.044399037103059522 0 -0.00023071627071518793 0.046836236274236803 0 -0.00023071627071518793 0.046836236274236803 0 0.00025466321306067216 0.040825329809587307 0 0.0012472056552115193 0.044399037103059522 0 0.00025466321306067216 0.040825329809587307 0 0.0077537773613831204 0.04345423495660642 0 0.0051242940978731867 0.042456997182826021 0 0.0058100902716233579 0.044231493289800604 0 0.0039962741469812121 0.040116203356932813 0 0.0077537773613831204 0.04345423495660642 0 0.0051242940978731867 0.042456997182826021 0 0.0026233683083522002 0.038294102384252376 0 0.0012472056552115193 0.044399037103059522 0 0.0037120009485143535 0.043212877414422667 0 0.0051242940978731867 0.042456997182826021 0 0.0046652473152393832 0.044539172094648569 0 0.0051242940978731867 0.042456997182826021 0 0.0058100902716233579 0.044231493289800604 0 0.0046652473152393832 0.044539172094648569 0 0.0058100902716233579 0.044231493289800604 0 0.0046652473152393832 0.044539172094648569 0 0.0057195179756871087 0.046320261075441106 0 -0.00035250692729688342 0.051597954468001618 0 -0.00052984226375114092 0.052336601110329305 0 -0.00016924742367387121 0.052848781598652243 0 0.0012472056552115193 0.044399037103059522 0 0.0022120693135786436 0.0498591499730449 0 0.0077537773613831204 0.04345423495660642 0 0.0058100902716233579 0.044231493289800604 0 0.0057195179756871087 0.046320261075441106 0 -0.00051716556003132783 0.051446999874370153 0 -0.00035250692729688342 0.051597954468001618 0 -0.00052984226375114092 0.052336601110329305 0 -0.00051716556003132783 0.051446999874370153 0 -0.00052984226375114092 0.052336601110329305 0 -0.0011110670057259779 0.05279753624531637 0 -0.00052984226375114092 0.052336601110329305 0 -0.00053270202996744673 0.05293443220420007 0 -0.00016924742367387121 0.052848781598652243 0 -0.00052984226375114092 0.052336601110329305 0 -0.00053270202996744673 0.05293443220420007 0 -0.0011110670057259779 0.05279753624531637 0 -0.00053270202996744673 0.05293443220420007 0 -0.0011110670057259779 0.05279753624531637 0 -0.00058566808959602203 0.053373199606724007 0 0.0032906547606003996 0.047038589617845017 0 0.0046652473152393832 0.044539172094648569 0 0.0057195179756871087 0.046320261075441106 0 0.0041677914120326247 0.053013279635102641 0 0.0022120693135786436 0.0498591499730449 0 -0.0014605413753612107 0.05379438835700575 0 -0.0011110670057259779 0.05279753624531637 0 -0.00080023832512767011 0.053837811693322947 0 -0.0011110670057259779 0.05279753624531637 0 -0.00058566808959602203 0.053373199606724007 0 -0.00080023832512767011 0.053837811693322947 0 -0.00058566808959602203 0.053373199606724007 0 -0.0002129397105289798 0.053812333124984991 0 -0.00080023832512767011 0.053837811693322947 0 -0.00053270202996744673 0.05293443220420007 0 -0.00058566808959602203 0.053373199606724007 0 -0.00029702566777133261 0.053292508086790327 0 -0.0002129397105289798 0.053812333124984991 0 3.0671861212998605e-05 0.053554870159920914 0 6.0008228041461289e-05 0.053885563459114272 0 -0.0002129397105289798 0.053812333124984991 0 3.0671861212998605e-05 0.053554870159920914 0 -0.00029702566777133261 0.053292508086790327 0 -0.00058566808959602203 0.053373199606724007 0 -0.0002129397105289798 0.053812333124984991 0 -0.00029702566777133261 0.053292508086790327 0 -0.00053270202996744673 0.05293443220420007 0 -0.00029702566777133261 0.053292508086790327 0 -0.00016924742367387121 0.052848781598652243 0 3.0671861212998605e-05 0.053554870159920914 0 -0.00016924742367387121 0.052848781598652243 0 0.00021471822896059056 0.052448178096254683 0 3.0671861212998605e-05 0.053554870159920914 0 -0.00029702566777133261 0.053292508086790327 0 -0.00016924742367387121 0.052848781598652243 0 0.00024217659026842814 0.052298137646581803 0 -0.00016924742367387121 0.052848781598652243 0 0.00021471822896059056 0.052448178096254683 0 3.0671861212998605e-05 0.053554870159920914 0 0.00021471822896059056 0.052448178096254683 0 0.0007152563620605707 0.052847294396093807 0 -0.015406488038126285 0.042831291647807405 0 -0.015449654751745952 0.044410952143565767 0 -0.014440496774457154 0.043584068810714256 0 -0.016937179335418311 0.043200584552789321 0 -0.015406488038126285 0.042831291647807405 0 -0.015449654751745952 0.044410952143565767 0 0.00022811879675265851 0.052323569550922884 0 0.00021471822896059056 0.052448178096254683 0 0.0007152563620605707 0.052847294396093807 0 -0.0057904750555257236 0.04647132141305934 0 -0.0077851780269184044 0.048146726742627821 0 3.0671861212998605e-05 0.053554870159920914 0 0.0007152563620605707 0.052847294396093807 0 0.0012213548290689927 0.053282013620079657 0 3.0671861212998605e-05 0.053554870159920914 0 6.5801387153229955e-05 0.054045802692447402 0 3.2485948179697177e-05 0.054363201581580929 0 0.0020250122665486535 0.054017158410274567 0 -0.0042502053530896989 0.051768351304077233 0 3.0671861212998605e-05 0.053554870159920914 0 6.0008228041461289e-05 0.053885563459114272 0 6.5801387153229955e-05 0.054045802692447402 0 6.5801387153229955e-05 0.054045802692447402 0 8.7990619661232621e-05 0.054038461993932078 0 5.5446106452792237e-05 0.054223823626625194 0 6.0008228041461289e-05 0.053885563459114272 0 6.5801387153229955e-05 0.054045802692447402 0 8.7990619661232621e-05 0.054038461993932078 0 8.7990619661232621e-05 0.054038461993932078 0 0.00010720713783400397 0.054270478757763273 0 3.829105763554906e-05 0.054030152241179408 0 8.7990619661232621e-05 0.054038461993932078 0 3.6290962802413689e-05 0.054147891351480085 0 0.00010720713783400397 0.054270478757763273 0 -0.00070928334525817991 0.055465814886865104 0 -0.00029850243257946771 0.054943542497327393 0 3.6290962802413689e-05 0.054147891351480085 0 4.3250504401242373e-05 0.054008549661425979 0 -0.00011999288948029949 0.054158770373248857 0 8.7990619661232621e-05 0.054038461993932078 0 3.6290962802413689e-05 0.054147891351480085 0 4.3250504401242373e-05 0.054008549661425979 0 6.0008228041461289e-05 0.053885563459114272 0 8.7990619661232621e-05 0.054038461993932078 0 4.3250504401242373e-05 0.054008549661425979 0 -0.0002129397105289798 0.053812333124984991 0 4.3250504401242373e-05 0.054008549661425979 0 -0.00011999288948029949 0.054158770373248857 0 -0.0002129397105289798 0.053812333124984991 0 6.0008228041461289e-05 0.053885563459114272 0 4.3250504401242373e-05 0.054008549661425979 0 -0.0002129397105289798 0.053812333124984991 0 -0.00011999288948029949 0.054158770373248857 0 -0.00042145348102868511 0.054190960442200314 0 -0.00011999288948029949 0.054158770373248857 0 -7.9193298385534311e-05 0.054325032234561414 0 -0.00025705186790796143 0.054386362739492697 0 3.6290962802413689e-05 0.054147891351480085 0 -0.00011999288948029949 0.054158770373248857 0 -7.9193298385534311e-05 0.054325032234561414 0 -0.00011999288948029949 0.054158770373248857 0 -0.00025705186790796143 0.054386362739492697 0 -0.00042145348102868511 0.054190960442200314 0 -0.00025705186790796143 0.054386362739492697 0 -0.00051285964557448444 0.054528069185782853 0 -0.00018288590009766194 0.05474634785121206 0 -7.9193298385534311e-05 0.054325032234561414 0 -0.00025705186790796143 0.054386362739492697 0 -0.00018288590009766194 0.05474634785121206 0 -7.9193298385534311e-05 0.054325032234561414 0 0.00010720713783400397 0.054270478757763273 0 -0.00018288590009766194 0.05474634785121206 0 -0.00070928334525817991 0.055465814886865104 0 0.00022934332023531357 0.056435616997777049 0 -0.0011671440285434137 0.056853251711138433 0 -0.0012751894830864857 0.056635882635886273 0 -0.001673302759487307 0.057156431287550997 0 -0.0011671440285434137 0.056853251711138433 0 -0.0012751894830864857 0.056635882635886273 0 -0.00037460803593916073 0.056482407150222569 0 0.00047629045937814184 0.057275518055949978 0 0.00080160225405032342 0.057005867370073862 0 9.4982105048960639e-05 0.056951894742094805 0 3.6290962802413689e-05 0.054147891351480085 0 -7.9193298385534311e-05 0.054325032234561414 0 0.00010720713783400397 0.054270478757763273 0 -0.0014605413753612107 0.05379438835700575 0 -0.00081894886039627995 0.05420463386332617 0 -0.00080023832512767011 0.053837811693322947 0 0.0041677914120326247 0.053013279635102641 0 0.002467413249579462 0.055548463533806963 0 -0.0014605413753612107 0.05379438835700575 0 -0.00081894886039627995 0.05420463386332617 0 -0.0010510956103220604 0.054510133523353557 0 -0.0002129397105289798 0.053812333124984991 0 -0.00080023832512767011 0.053837811693322947 0 -0.00042145348102868511 0.054190960442200314 0 -0.00081894886039627995 0.05420463386332617 0 -0.00080023832512767011 0.053837811693322947 0 -0.00042145348102868511 0.054190960442200314 0 -0.00081894886039627995 0.05420463386332617 0 -0.00051285964557448444 0.054528069185782853 0 -0.0010510956103220604 0.054510133523353557 0 -0.00025705186790796143 0.054386362739492697 0 -0.00042145348102868511 0.054190960442200314 0 -0.00051285964557448444 0.054528069185782853 0 -0.00081894886039627995 0.05420463386332617 0 -0.00042145348102868511 0.054190960442200314 0 -0.00051285964557448444 0.054528069185782853 0 0.0080454870885228597 0.056130433836958808 0 0.002467413249579462 0.055548463533806963 0 0.0089478305225585992 0.057226403542426162 0 0.0078587534579350974 0.057067338540484513 0 0.0079022046997523857 0.0561502884805406 0 0.0078587534579350974 0.057067338540484513 0 0.0079022046997523857 0.0561502884805406 0 0.007133571346651487 0.05578020648326746 0 -0.00074632172875512221 0.054654809315984931 0 -0.00067958237875645965 0.054897779701222914 0 -0.00069677903151292759 0.055034533948315464 0 0.002467413249579462 0.055548463533806963 0 0.0036025824260717421 0.055366676444324539 0 0.002467413249579462 0.055548463533806963 0 -0.0013694642894054277 0.054129206632216952 0 0.0042126074250651239 0.055383349009044895 0 0.00022934332023531357 0.056435616997777049 0 0.0036025824260717421 0.055366676444324539 0 0.00022934332023531357 0.056435616997777049 0 -0.00051285964557448444 0.054528069185782853 0 -0.0010510956103220604 0.054510133523353557 0 -0.00067958237875645965 0.054897779701222914 0 -0.00051285964557448444 0.054528069185782853 0 -0.00067958237875645965 0.054897779701222914 0 -0.00018288590009766194 0.05474634785121206 0 -0.00067958237875645965 0.054897779701222914 0 -0.00069677903151292759 0.055034533948315464 0 -0.00018288590009766194 0.05474634785121206 0 0.0032062068314329612 0.054625988525659058 0 0.0035910417657727452 0.055494324243558456 0 0.0010235337581255548 0.05696092566635063 0 0.0044942454446757372 0.055587591567964729 0 0.0043037390787825916 0.054999800227610487 0 0.0028097382729311087 0.055878373131654994 0 0.0045872262988822772 0.055635050948493379 0 0.0043045148816921782 0.054999998463370815 0 0.0051767993810478558 0.05499999893622283 0 0.0045872571481730016 0.055631863752158839 0 0.00495100209461113 0.056455115724050112 0 0.0051767983026191743 0.054999982535239078 0 0.0042126074250651239 0.055383349009044895 0 0.0043043588178039056 0.05500047726224732 0 0.0042126074250651239 0.055383349009044895 0 0.0051760963740705409 0.055000102641813951 0 0.0042126074250651239 0.055383349009044895 0 0.0036025824260717421 0.055366676444324539 0 0.0075000901167783015 0.054999813535804729 0 0.0079022046997523857 0.0561502884805406 0 0.007133571346651487 0.05578020648326746 0 0.0074987954571694949 0.054999636990570061 0 0.0036025824260717421 0.055366676444324539 0 0.0074960561239103881 0.055000003227883502 0 0.00495100209461113 0.056455115724050112 0 0.0051767983026191743 0.054999982535239078 0 -0.00030840901414383285 0.057050049812441821 0 0.00022934332023531357 0.056435616997777049 0 0.00047629045937814184 0.057275518055949978 0 0.00080160225405032342 0.057005867370073862 0 0.0021585502036579078 0.057270791249478523 0 0.0012486153346310137 0.056751865254921555 0 0.001887453588902515 0.056450189689748097 0 0.0010361869792284322 0.056251611352402961 0 0.0012486153346310137 0.056751865254921555 0 0.00055707573146609568 0.056790748425001078 0 0.0010361869792284322 0.056251611352402961 0 0.00055707573146609568 0.056790748425001078 0 0.0010361869792284322 0.056251611352402961 0 -2.5409924851341348e-05 0.056771213431798195 0 0.00055707573146609568 0.056790748425001078 0 0.00080160225405032342 0.057005867370073862 0 9.4982105048960639e-05 0.056951894742094805 0 0.0012486153346310137 0.056751865254921555 0 0.00080160225405032342 0.057005867370073862 0 0.0021585502036579078 0.057270791249478523 0 0.0012486153346310137 0.056751865254921555 0 0.00055707573146609568 0.056790748425001078 0 0.00080160225405032342 0.057005867370073862 0 0.0021585502036579078 0.057270791249478523 0 0.001887453588902515 0.056450189689748097 0 0.0028097382729311087 0.055878373131654994 0 0.0012486153346310137 0.056751865254921555 0 0.0021585502036579078 0.057270791249478523 0 0.001887453588902515 0.056450189689748097 0 0.0043037390787825916 0.054999800227610487 0 0.0028097382729311087 0.055878373131654994 0 0.001207535583934859 0.054999806169781507 0 0.0044942454446757372 0.055587591567964729 0 0.0021585502036579078 0.057270791249478523 0 0.0028097382729311087 0.055878373131654994 0 0.001887453588902515 0.056450189689748097 0 0.0028097382729311087 0.055878373131654994 0 0.001207535583934859 0.054999806169781507 0 0.001887453588902515 0.056450189689748097 0 0.001207535583934859 0.054999806169781507 0 0.0010361869792284322 0.056251611352402961 0 0.001207535583934859 0.054999806169781507 0 0.0010361869792284322 0.056251611352402961 0 -0.00032383587776283249 0.055531836729888318 0 0.0010361869792284322 0.056251611352402961 0 -0.00040603850155136403 0.056574450568741108 0 -0.0010511819090597582 0.055689362671759141 0 0.001207535583934859 0.054999806169781507 0 -0.00032383587776283249 0.055531836729888318 0 -0.0018893496868476363 0.054999993947417593 0 0.0010361869792284322 0.056251611352402961 0 -0.00032383587776283249 0.055531836729888318 0 -0.0019535826019594507 0.055743290706111857 0 0.00090049681468650975 0.056231541503950912 0 -0.0014952138150940504 0.055720321171876377 0 -0.00032383587776283249 0.055531836729888318 0 -0.0018893496868476363 0.054999993947417593 0 -0.0019535826019594507 0.055743290706111857 0 0.0010361869792284322 0.056251611352402961 0 -2.5409924851341348e-05 0.056771213431798195 0 -0.00040603850155136403 0.056574450568741108 0 -2.5409924851341348e-05 0.056771213431798195 0 -0.00040603850155136403 0.056574450568741108 0 -0.00023304265030807495 0.056702639690122757 0 -2.5409924851341348e-05 0.056771213431798195 0 -0.00023304265030807495 0.056702639690122757 0 -0.00017612787456068393 0.056758025723222361 0 0.00055707573146609568 0.056790748425001078 0 -2.5409924851341348e-05 0.056771213431798195 0 9.4982105048960639e-05 0.056951894742094805 0 -2.5409924851341348e-05 0.056771213431798195 0 9.4982105048960639e-05 0.056951894742094805 0 -0.00017612787456068393 0.056758025723222361 0 -0.00023304265030807495 0.056702639690122757 0 9.8015788872368162e-05 0.056840919893929982 0 -0.00010200178717715335 0.056584301472219871 0 -0.00040603850155136403 0.056574450568741108 0 -0.00023304265030807495 0.056702639690122757 0 9.8015788872368162e-05 0.056840919893929982 0 -0.00071735677936031006 0.05673851572306704 0 -0.00081533808554786781 0.05734058629824456 0 -0.00023304265030807495 0.056702639690122757 0 -0.00017612787456068393 0.056758025723222361 0 -0.00010200178717715335 0.056584301472219871 0 -0.00040603850155136403 0.056574450568741108 0 -0.0010511819090597582 0.055689362671759141 0 -0.0031168722167175403 0.057853494263179692 0 -0.0018893496868476363 0.054999993947417593 0 -0.0019535826019594507 0.055743290706111857 0 -0.0049864748326400943 0.054999998263179355 0 -0.0010511819090597582 0.055689362671759141 0 -0.0034245719200172303 0.056177000988669276 0 -0.0031168722167175403 0.057853494263179692 0 -0.0014952138150940504 0.055720321171876377 0 -0.0049857565865013909 0.055000114420948813 0 -0.0010511819090597582 0.055689362671759141 0 -0.0049857256348010744 0.054999684589097438 0 -0.0034245719200172303 0.056177000988669276 0 -0.0049857256348010744 0.054999684589097438 0 -0.0045145878518128516 0.056156685138547775 0 -0.0034245719200172303 0.056177000988669276 0 -0.0049857256348010744 0.054999684589097438 0 -0.0045145878518128516 0.056156685138547775 0 -0.0053941152357193977 0.055000074418737672 0 -0.0045145878518128516 0.056156685138547775 0 -0.0034245719200172303 0.056177000988669276 0 -0.0031168722167175403 0.057853494263179692 0 -0.0053937419673615282 0.054999984362669382 0 -0.005677324072534456 0.056620683227942115 0 -0.0082280424522643576 0.054999955633149758 0 -0.005393754997792953 0.055000248833342459 0 -0.0057634650391143296 0.057149036960060171 0 -0.0045145878518128516 0.056156685138547775 0 -0.0053941152357193977 0.055000074418737672 0 -0.0056207768635827479 0.05683055689686968 0 -0.005677324072534456 0.056620683227942115 0 -0.0059431755954692887 0.05823427399746537 0 -0.0078770506358176069 0.05733762739172011 0 -0.0057634650391143296 0.057149036960060171 0 -0.0064384852590017149 0.055380377825755174 0 -0.0045145878518128516 0.056156685138547775 0 -0.0056207768635827479 0.05683055689686968 0 -0.0031168722167175403 0.057853494263179692 0 -0.0064384852590017149 0.055380377825755174 0 -0.00081533808554786781 0.05734058629824456 0 0.00081121100457154653 0.05665189511297742 0 9.8015788872368162e-05 0.056840919893929982 0 0.00034906766167260223 0.056377799559154611 0 -0.0056207768635827479 0.05683055689686968 0 -0.0059186652041090665 0.058776262362805941 0 -0.0031168722167175403 0.057853494263179692 0 0.00034906766167260223 0.056377799559154611 0 0.00029885778615312657 0.05580219787054904 0 4.6468599538604375e-06 0.056207109440468084 0 0.00081121100457154653 0.05665189511297742 0 0.00034906766167260223 0.056377799559154611 0 0.0010016993357032673 0.055709010709796926 0 -0.0064384852590017149 0.055380377825755174 0 -0.0056132137751057519 0.053706431779483782 0 0.0010016993357032673 0.055709010709796926 0 0.00029885778615312657 0.05580219787054904 0 0.00063476581352767656 0.05525041891702185 0 0.00034906766167260223 0.056377799559154611 0 0.0010016993357032673 0.055709010709796926 0 0.00029885778615312657 0.05580219787054904 0 0.00029885778615312657 0.05580219787054904 0 -0.00013756847002346673 0.055716487545271011 0 0.00017909191171615817 0.055268087915338882 0 0.00029885778615312657 0.05580219787054904 0 -0.00013756847002346673 0.055716487545271011 0 4.6468599538604375e-06 0.056207109440468084 0 -0.00013756847002346673 0.055716487545271011 0 -0.00037460803593916073 0.056482407150222569 0 4.6468599538604375e-06 0.056207109440468084 0 -0.0012751894830864857 0.056635882635886273 0 -0.0007153358197755995 0.055844570324921718 0 -0.00037460803593916073 0.056482407150222569 0 -0.00013756847002346673 0.055716487545271011 0 -0.0007153358197755995 0.055844570324921718 0 -0.00016921594038486661 0.054825215681525305 0 8.7990619661232621e-05 0.054038461993932078 0 3.829105763554906e-05 0.054030152241179408 0 5.5446106452792237e-05 0.054223823626625194 0 -0.00013756847002346673 0.055716487545271011 0 -0.0007153358197755995 0.055844570324921718 0 -0.00037460803593916073 0.056482407150222569 0 -0.00030840901414383285 0.057050049812441821 0 -0.00024404617279194854 0.056576713959416471 0 0.00047629045937814184 0.057275518055949978 0 -0.00037460803593916073 0.056482407150222569 0 9.4982105048960639e-05 0.056951894742094805 0 -0.00037460803593916073 0.056482407150222569 0 9.4982105048960639e-05 0.056951894742094805 0 -0.00017612787456068393 0.056758025723222361 0 -0.00037460803593916073 0.056482407150222569 0 -0.00017612787456068393 0.056758025723222361 0 -0.00010200178717715335 0.056584301472219871 0 9.8015788872368162e-05 0.056840919893929982 0 0.00034906766167260223 0.056377799559154611 0 -0.00010200178717715335 0.056584301472219871 0 0.00034906766167260223 0.056377799559154611 0 -0.00010200178717715335 0.056584301472219871 0 4.6468599538604375e-06 0.056207109440468084 0 -0.00037460803593916073 0.056482407150222569 0 -0.00010200178717715335 0.056584301472219871 0 4.6468599538604375e-06 0.056207109440468084 0 -0.013478670377692429 0.058228894408880065 0 -0.012619520212470122 0.056237884006943073 0 -0.015800535923069525 0.055623491520837197 0 -0.013478670377692429 0.058228894408880065 0 -0.012619520212470122 0.056237884006943073 0 -0.010576886553158442 0.057388888612211059 0 -0.012619520212470122 0.056237884006943073 0 -0.011061760535008696 0.054999997116956453 0 -0.013898233143113455 0.054999257867059149 0 -0.012619520212470122 0.056237884006943073 0 -0.011061760535008696 0.054999997116956453 0 -0.010576886553158442 0.057388888612211059 0 -0.010576886553158442 0.057388888612211059 0 -0.0078770506358176069 0.05733762739172011 0 -0.0087493871317802542 0.059172337943988615 0 -0.010576886553158442 0.057388888612211059 0 -0.0082280424522643576 0.054999955633149758 0 -0.0078770506358176069 0.05733762739172011 0 -0.011061760535008696 0.054999997116956453 0 -0.010576886553158442 0.057388888612211059 0 -0.0082280424522643576 0.054999955633149758 0 -0.005677324072534456 0.056620683227942115 0 -0.0082280424522643576 0.054999955633149758 0 -0.0078770506358176069 0.05733762739172011 0 -0.0059431755954692887 0.05823427399746537 0 -0.0078770506358176069 0.05733762739172011 0 -0.0087493871317802542 0.059172337943988615 0 -0.0064384852590017149 0.055380377825755174 0 -0.010407581995224582 0.055664922192040132 0 -0.012346893080118623 0.051718204033396477 0 -0.012391535816474487 0.051552691720088209 0 -0.012279088902820425 0.051641913739831659 0 -0.012391535816474487 0.051552691720088209 0 -0.01232040112827788 0.051492446034289381 0 -0.012279088902820425 0.051641913739831659 0 -0.01232040112827788 0.051492446034289381 0 -0.012252261517703327 0.051487785415404982 0 -0.012279088902820425 0.051641913739831659 0 -0.012252261517703327 0.051487785415404982 0 -0.012279088902820425 0.051641913739831659 0 -0.01221448624802755 0.051584877446803817 0 -0.010407581995224582 0.055664922192040132 0 -0.015469346477257083 0.053339386759228904 0 -0.010576886553158442 0.057388888612211059 0 -0.0087493871317802542 0.059172337943988615 0 -0.011655085865453677 0.060150509854814613 0 -0.013478670377692429 0.058228894408880065 0 -0.010576886553158442 0.057388888612211059 0 -0.011655085865453677 0.060150509854814613 0 -0.022805095784933872 0.04950987928096956 0 -0.020855251022371724 0.051765055119201063 0 -0.020283862427059804 0.049242707181739433 0 -0.017779364940900259 0.05017218993282218 0 -0.015469346477257083 0.053339386759228904 0 -0.020855251022371724 0.051765055119201063 0 -0.018520422604174764 0.051029754775333697 0 -0.020283862427059804 0.049242707181739433 0 -0.015469346477257083 0.053339386759228904 0 -0.020120780572250856 0.051568222680728609 0 -0.018520422604174764 0.051029754775333697 0 -0.018159157365074168 0.049202461910500317 0 -0.020283862427059804 0.049242707181739433 0 -0.015881179430326822 0.05632403454462289 0 -0.015469346477257083 0.053339386759228904 0 -0.018485333320787306 0.053753101152078805 0 -0.020353961768143043 0.051688432805687752 0 -0.018520422604174764 0.051029754775333697 0 -0.018822817815500072 0.04719199592464806 0 -0.02180085965533405 0.046185923960449446 0 -0.019315830554769584 0.043454122190160427 0 -0.018822817815500072 0.04719199592464806 0 -0.019315830554769584 0.043454122190160427 0 -0.017456112494383107 0.045774960681507625 0 -0.018822817815500072 0.04719199592464806 0 -0.018159157365074168 0.049202461910500317 0 -0.020283862427059804 0.049242707181739433 0 -0.022805095784933872 0.04950987928096956 0 -0.020283862427059804 0.049242707181739433 0 -0.02180085965533405 0.046185923960449446 0 -0.018822817815500072 0.04719199592464806 0 -0.020283862427059804 0.049242707181739433 0 -0.02180085965533405 0.046185923960449446 0 -0.02180085965533405 0.046185923960449446 0 -0.024701125138002069 0.047275356932145171 0 -0.02382914935572869 0.0445606301892617 0 -0.01232040112827788 0.051492446034289381 0 -0.012252261517703327 0.051487785415404982 0 -0.012308869178073271 0.051323642783207377 0 -0.022805095784933872 0.04950987928096956 0 -0.02180085965533405 0.046185923960449446 0 -0.024701125138002069 0.047275356932145171 0 -0.017779364940900259 0.05017218993282218 0 -0.018495738685873175 0.04959098406707424 0 -0.012391535816474487 0.051552691720088209 0 -0.01232040112827788 0.051492446034289381 0 -0.012382318388390086 0.051385298715652408 0 -0.01232040112827788 0.051492446034289381 0 -0.012308869178073271 0.051323642783207377 0 -0.012382318388390086 0.051385298715652408 0 -0.012382318388390086 0.051385298715652408 0 -0.012438024302835998 0.051264053742089512 0 -0.012450782015222039 0.051271219084427763 0 -0.012308869178073271 0.051323642783207377 0 -0.012382318388390086 0.051385298715652408 0 -0.012438024302835998 0.051264053742089512 0 -0.024701125138002069 0.047275356932145171 0 -0.025269435058335364 0.044407975339844905 0 -0.02382914935572869 0.0445606301892617 0 -0.012438024302835998 0.051264053742089512 0 -0.012457705610547163 0.051071501624528434 0 -0.012462024321375878 0.05126576461479021 0 -0.024701125138002069 0.047275356932145171 0 -0.026579988122592994 0.045098219622010174 0 -0.025269435058335364 0.044407975339844905 0 -0.012308869178073271 0.051323642783207377 0 -0.012438024302835998 0.051264053742089512 0 -0.012457705610547163 0.051071501624528434 0 -0.0065855827329716569 0.051406844218073268 0 -0.005808220354679732 0.051350881773361993 0 -0.018495738685873175 0.04959098406707424 0 -0.017531686025629101 0.045263703360235691 0 -0.017531686025629101 0.045263703360235691 0 -0.005808220354679732 0.051350881773361993 0 -0.026579988122592994 0.045098219622010174 0 -0.025269435058335364 0.044407975339844905 0 -0.026265687241791385 0.042930253289795314 0 -0.023970512474895688 0.042953220126339106 0 -0.023998846652380043 0.041374748684248432 0 -0.023600266978546749 0.040278184833463751 0 -0.017531686025629101 0.045263703360235691 0 -0.024687483563441887 0.041691221002069997 0 -0.025269435058335364 0.044407975339844905 0 -0.024714986973387896 0.042881676288996147 0 -0.02382914935572869 0.0445606301892617 0 -0.025269435058335364 0.044407975339844905 0 -0.024714986973387896 0.042881676288996147 0 -0.026265687241791385 0.042930253289795314 0 -0.023998846652380043 0.041374748684248432 0 -0.023600266978546749 0.040278184833463751 0 -0.02476888082066505 0.036998601306284795 0 -0.024687483563441887 0.041691221002069997 0 -0.025400070743825293 0.038764320790628914 0 -0.023600266978546749 0.040278184833463751 0 -0.023215374285417749 0.037649019464134591 0 -0.02476888082066505 0.036998601306284795 0 -0.024714986973387896 0.042881676288996147 0 -0.026265687241791385 0.042930253289795314 0 -0.02593336861777722 0.040782652459848107 0 -0.024714986973387896 0.042881676288996147 0 -0.02593336861777722 0.040782652459848107 0 -0.022626807663655581 0.042156191083742398 0 -0.025400070743825293 0.038764320790628914 0 -0.022652604609200187 0.04133268897718928 0 -0.025917446074062565 0.038647953505265634 0 -0.022535647906083717 0.040276046056465148 0 -0.023743542171521383 0.036730304534012687 0 -0.02180085965533405 0.046185923960449446 0 -0.022626807663655581 0.042156191083742398 0 -0.02382914935572869 0.0445606301892617 0 -0.024714986973387896 0.042881676288996147 0 -0.022626807663655581 0.042156191083742398 0 -0.02382914935572869 0.0445606301892617 0 -0.022652604609200187 0.04133268897718928 0 -0.019172955203167766 0.04285602382450289 0 -0.02180085965533405 0.046185923960449446 0 -0.022626807663655581 0.042156191083742398 0 -0.019315830554769584 0.043454122190160427 0 -0.022535647906083717 0.040276046056465148 0 -0.019768397077599278 0.038883473240479458 0 -0.019246382222782098 0.042202912150242251 0 -0.019768397077599278 0.038883473240479458 0 -0.019246382222782098 0.042202912150242251 0 -0.016665324862872033 0.041331144481154096 0 -0.010650191688297355 0.045226143810164099 0 -0.010794719137451591 0.042860395193693904 0 -0.01285460204927621 0.043127983207080431 0 -0.013953323461199251 0.04561165004469514 0 -0.010650191688297355 0.045226143810164099 0 -0.01285460204927621 0.043127983207080431 0 -0.015449654751745952 0.044410952143565767 0 -0.014440496774457154 0.043584068810714256 0 -0.013953323461199251 0.04561165004469514 0 -0.014440496774457154 0.043584068810714256 0 -0.013953323461199251 0.04561165004469514 0 -0.01285460204927621 0.043127983207080431 0 -0.0077851780269184044 0.048146726742627821 0 -0.0042502053530896989 0.051768351304077233 0 3.2485948179697177e-05 0.054363201581580929 0 5.5446106452792237e-05 0.054223823626625194 0 -0.0001196082917443356 0.054622241137454043 0 -0.00038236219459283953 0.054652567840184532 0 -0.0001196082917443356 0.054622241137454043 0 -0.00016921594038486661 0.054825215681525305 0 -0.0042502053530896989 0.051768351304077233 0 2.6594276705694321e-05 0.054946437446302225 0 6.5801387153229955e-05 0.054045802692447402 0 3.2485948179697177e-05 0.054363201581580929 0 5.5446106452792237e-05 0.054223823626625194 0 3.829105763554906e-05 0.054030152241179408 0 -0.0001196082917443356 0.054622241137454043 0 -0.00016921594038486661 0.054825215681525305 0 3.829105763554906e-05 0.054030152241179408 0 5.5446106452792237e-05 0.054223823626625194 0 -0.0001196082917443356 0.054622241137454043 0 -0.00029850243257946771 0.054943542497327393 0 -0.00015970492928031808 0.054790957868078465 0 -0.00038236219459283953 0.054652567840184532 0 -0.00016921594038486661 0.054825215681525305 0 0.00019201581627271524 0.054825849104857854 0 -0.0042502053530896989 0.051768351304077233 0 -0.005260390083366818 0.049626746475407851 0 -0.00016921594038486661 0.054825215681525305 0 0.00017909191171615817 0.055268087915338882 0 0.00019201581627271524 0.054825849104857854 0 -0.00013756847002346673 0.055716487545271011 0 -0.00016921594038486661 0.054825215681525305 0 0.00017909191171615817 0.055268087915338882 0 0.00029885778615312657 0.05580219787054904 0 0.00017909191171615817 0.055268087915338882 0 0.00063476581352767656 0.05525041891702185 0 0.00017909191171615817 0.055268087915338882 0 0.00063476581352767656 0.05525041891702185 0 0.00019201581627271524 0.054825849104857854 0 -0.0056132137751057519 0.053706431779483782 0 -0.005808220354679732 0.051350881773361993 0 0.0010016993357032673 0.055709010709796926 0 0.00063476581352767656 0.05525041891702185 0 0.0011030343142402106 0.054740035826616004 0 -0.012391535816474487 0.051552691720088209 0 -0.012382318388390086 0.051385298715652408 0 -0.012450782015222039 0.051271219084427763 0 0.00063476581352767656 0.05525041891702185 0 0.0011030343142402106 0.054740035826616004 0 0.00019201581627271524 0.054825849104857854 0 -0.0071859044388697495 0.043413896207410076 0 -0.009109677443500332 0.043601884858295643 0 -0.0073927044087346216 0.044885836646548716 0 -0.009109677443500332 0.043601884858295643 0 -0.0073927044087346216 0.044885836646548716 0 -0.010650191688297355 0.045226143810164099 0 -0.005808220354679732 0.051350881773361993 0 -0.005260390083366818 0.049626746475407851 0 -0.009109677443500332 0.043601884858295643 0 -0.010650191688297355 0.045226143810164099 0 -0.010794719137451591 0.042860395193693904 0 -0.010794719137451591 0.042860395193693904 0 -0.0092730714034020018 0.040989439103730652 0 -0.011765948874898907 0.041071852458643456 0 -0.009109677443500332 0.043601884858295643 0 -0.010794719137451591 0.042860395193693904 0 -0.0092730714034020018 0.040989439103730652 0 -0.023970512474895688 0.042953220126339106 0 -0.023998846652380043 0.041374748684248432 0 -0.026996687900905918 0.039587353044881882 0 -0.017531686025629101 0.045263703360235691 0 -0.017946822675950633 0.0400176127707478 0 -0.0071859044388697495 0.043413896207410076 0 -0.009109677443500332 0.043601884858295643 0 -0.0092730714034020018 0.040989439103730652 0 -0.023998846652380043 0.041374748684248432 0 -0.026533109189780479 0.037608565552697613 0 -0.026996687900905918 0.039587353044881882 0 -0.023998846652380043 0.041374748684248432 0 -0.026533109189780479 0.037608565552697613 0 -0.024856132272569515 0.036924480945871516 0 -0.023954676284146985 0.041060513750242125 0 -0.025260916173928668 0.037205933671942193 0 -0.017946822675950633 0.0400176127707478 0 -0.020466914555100524 0.037471299685883273 0 -0.0092730714034020018 0.040989439103730652 0 -0.011765948874898907 0.041071852458643456 0 -0.011395684295937526 0.038507045690435761 0 -0.026533109189780479 0.037608565552697613 0 -0.026996687900905918 0.039587353044881882 0 -0.029745762671003088 0.036269357243708396 0 -0.012996032098157561 0.039568060905867154 0 -0.011765948874898907 0.041071852458643456 0 -0.011395684295937526 0.038507045690435761 0 -0.012996032098157561 0.039568060905867154 0 -0.011765948874898907 0.041071852458643456 0 -0.013486468094176234 0.040947989993100856 0 -0.010794719137451591 0.042860395193693904 0 -0.011765948874898907 0.041071852458643456 0 -0.01285460204927621 0.043127983207080431 0 -0.011765948874898907 0.041071852458643456 0 -0.01285460204927621 0.043127983207080431 0 -0.013486468094176234 0.040947989993100856 0 -0.01285460204927621 0.043127983207080431 0 -0.014544105891101068 0.041922696754464819 0 -0.013486468094176234 0.040947989993100856 0 -0.015406488038126285 0.042831291647807405 0 -0.014440496774457154 0.043584068810714256 0 -0.014544105891101068 0.041922696754464819 0 -0.014440496774457154 0.043584068810714256 0 -0.01285460204927621 0.043127983207080431 0 -0.014544105891101068 0.041922696754464819 0 -0.014544105891101068 0.041922696754464819 0 -0.014924086453909007 0.040469597050954723 0 -0.013486468094176234 0.040947989993100856 0 -0.012996032098157561 0.039568060905867154 0 -0.013486468094176234 0.040947989993100856 0 -0.014385161757972069 0.039352093703135735 0 -0.015613160625549082 0.039421494978480694 0 -0.014924086453909007 0.040469597050954723 0 -0.014385161757972069 0.039352093703135735 0 -0.014924086453909007 0.040469597050954723 0 -0.013486468094176234 0.040947989993100856 0 -0.014385161757972069 0.039352093703135735 0 -0.015429887441386743 0.038463588062079029 0 -0.014385161757972069 0.039352093703135735 0 -0.013962217417864613 0.037936152809742447 0 -0.012996032098157561 0.039568060905867154 0 -0.014385161757972069 0.039352093703135735 0 -0.013962217417864613 0.037936152809742447 0 -0.012996032098157561 0.039568060905867154 0 -0.013962217417864613 0.037936152809742447 0 -0.011395684295937526 0.038507045690435761 0 -0.013962217417864613 0.037936152809742447 0 -0.011395684295937526 0.038507045690435761 0 -0.0135851036322209 0.035946494941880895 0 -0.029745762671003088 0.036269357243708396 0 -0.032231628724376855 0.033255977333885363 0 -0.028300185918156039 0.032524422265745478 0 -0.020466914555100524 0.037471299685883273 0 -0.023630993843036845 0.034574580811026108 0 -0.016266245612193142 0.036541542820902488 0 -0.013962217417864613 0.037936152809742447 0 -0.0135851036322209 0.035946494941880895 0 -0.034550030223108881 0.030447768202163123 0 -0.032231628724376855 0.033255977333885363 0 -0.032752799679798626 0.030160847105971805 0 -0.032231628724376855 0.033255977333885363 0 -0.032752799679798626 0.030160847105971805 0 -0.030511841465308265 0.030133637278094337 0 -0.02021214558838285 0.030507501203673546 0 -0.023630993843036845 0.034574580811026108 0 -0.032231628724376855 0.033255977333885363 0 -0.030511841465308265 0.030133637278094337 0 -0.028300185918156039 0.032524422265745478 0 -0.033054222263687677 0.028580203770895266 0 -0.029261655934720594 0.027232744964707588 0 -0.030511841465308265 0.030133637278094337 0 -0.03200349067286587 0.028406184172819711 0 -0.029549162925512754 0.027357060325053768 0 -0.034391830140333028 0.029356372719504843 0 -0.032752799679798626 0.030160847105971805 0 -0.03200349067286587 0.028406184172819711 0 -0.026505567240854604 0.026501299444661213 0 -0.033054222263687677 0.028580203770895266 0 -0.032752799679798626 0.030160847105971805 0 -0.030511841465308265 0.030133637278094337 0 -0.03200349067286587 0.028406184172819711 0 -0.028397104092110666 0.029173602471050886 0 -0.026476253811618732 0.030634917467102903 0 -0.02748054311428029 0.028041243605126945 0 -0.02757960649045476 0.031767915606908767 0 -0.025732722004799216 0.029917489395388883 0 -0.02748054311428029 0.028041243605126945 0 -0.027000647527525599 0.031191441583393209 0 -0.027440967639337541 0.028415958575882437 0 -0.025732722004799216 0.029917489395388883 0 -0.02748054311428029 0.028041243605126945 0 -0.026178067510563209 0.028025925396388731 0 -0.028397104092110666 0.029173602471050886 0 -0.028262275054273572 0.027106194873957712 0 -0.02748054311428029 0.028041243605126945 0 -0.030511841465308265 0.030133637278094337 0 -0.028397104092110666 0.029173602471050886 0 -0.029549162925512754 0.027357060325053768 0 -0.028397104092110666 0.029173602471050886 0 -0.029549162925512754 0.027357060325053768 0 -0.028262275054273572 0.027106194873957712 0 -0.030511841465308265 0.030133637278094337 0 -0.028397104092110666 0.029173602471050886 0 -0.028300185918156039 0.032524422265745478 0 -0.028397104092110666 0.029173602471050886 0 -0.026476253811618732 0.030634917467102903 0 -0.028300185918156039 0.032524422265745478 0 -0.02757960649045476 0.031767915606908767 0 -0.027114987944702209 0.034858200687994209 0 -0.025754432830594896 0.032521865892330887 0 -0.026476253811618732 0.030634917467102903 0 -0.02566965645415499 0.033696010514833397 0 -0.028300185918156039 0.032524422265745478 0 -0.027000647527525599 0.031191441583393209 0 -0.026420665973469596 0.034287639673764865 0 -0.02757960649045476 0.031767915606908767 0 -0.025754432830594896 0.032521865892330887 0 -0.025732722004799216 0.029917489395388883 0 -0.02566965645415499 0.033696010514833397 0 -0.028300185918156039 0.032524422265745478 0 -0.027114514515663414 0.035309765816142563 0 -0.029745762671003088 0.036269357243708396 0 -0.028300185918156039 0.032524422265745478 0 -0.027114514515663414 0.035309765816142563 0 -0.026533109189780479 0.037608565552697613 0 -0.029745762671003088 0.036269357243708396 0 -0.027114514515663414 0.035309765816142563 0 -0.02566965645415499 0.033696010514833397 0 -0.025624935309621795 0.036624321974626763 0 -0.024928129570742627 0.036910111895923886 0 -0.02566965645415499 0.033696010514833397 0 -0.027114514515663414 0.035309765816142563 0 -0.025624935309621795 0.036624321974626763 0 -0.026420665973469596 0.034287639673764865 0 -0.025260916173928668 0.037205933671942193 0 -0.026533109189780479 0.037608565552697613 0 -0.027114514515663414 0.035309765816142563 0 -0.025624935309621795 0.036624321974626763 0 -0.026533109189780479 0.037608565552697613 0 -0.025624935309621795 0.036624321974626763 0 -0.024856132272569515 0.036924480945871516 0 -0.025379223455746835 0.037075479289553535 0 -0.025260916173928668 0.037205933671942193 0 -0.025400070743825293 0.038764320790628914 0 -0.024965949521272176 0.034184944258856265 0 -0.025445524314055685 0.03805081963085799 0 -0.026656845428071542 0.037544246585364927 0 -0.024838482836174687 0.03416517436947946 0 -0.025400070743825293 0.038764320790628914 0 -0.025260916173928668 0.037205933671942193 0 -0.025917446074062565 0.038647953505265634 0 -0.023743542171521383 0.036730304534012687 0 -0.024838482836174687 0.03416517436947946 0 -0.022535647906083717 0.040276046056465148 0 -0.023743542171521383 0.036730304534012687 0 -0.021276214830323974 0.035939496560812301 0 -0.023743542171521383 0.036730304534012687 0 -0.023052422638040089 0.034361117495367355 0 -0.024838482836174687 0.03416517436947946 0 -0.023743542171521383 0.036730304534012687 0 -0.023052422638040089 0.034361117495367355 0 -0.021276214830323974 0.035939496560812301 0 -0.027114987944702209 0.034858200687994209 0 -0.026656845428071542 0.037544246585364927 0 -0.024838482836174687 0.03416517436947946 0 -0.027114987944702209 0.034858200687994209 0 -0.024838482836174687 0.03416517436947946 0 -0.025754432830594896 0.032521865892330887 0 -0.019768397077599278 0.038883473240479458 0 -0.018938882177799855 0.035324558793381242 0 -0.017127989355626996 0.038329425014484136 0 -0.019768397077599278 0.038883473240479458 0 -0.021276214830323974 0.035939496560812301 0 -0.018938882177799855 0.035324558793381242 0 -0.022535647906083717 0.040276046056465148 0 -0.019768397077599278 0.038883473240479458 0 -0.021276214830323974 0.035939496560812301 0 -0.023052422638040089 0.034361117495367355 0 -0.021276214830323974 0.035939496560812301 0 -0.021707019232942118 0.032859924421442525 0 -0.021276214830323974 0.035939496560812301 0 -0.018938882177799855 0.035324558793381242 0 -0.021707019232942118 0.032859924421442525 0 -0.018938882177799855 0.035324558793381242 0 -0.019179393875105734 0.032298951130385653 0 -0.016472102740843691 0.033909396870998781 0 -0.018938882177799855 0.035324558793381242 0 -0.019179393875105734 0.032298951130385653 0 -0.021707019232942118 0.032859924421442525 0 -0.019179393875105734 0.032298951130385653 0 -0.021707019232942118 0.032859924421442525 0 -0.02066887288057067 0.031383142980944252 0 -0.021707019232942118 0.032859924421442525 0 -0.02066887288057067 0.031383142980944252 0 -0.022371844007949154 0.030954492797852066 0 -0.02066887288057067 0.031383142980944252 0 -0.022371844007949154 0.030954492797852066 0 -0.021040321415584699 0.029770316616359767 0 -0.026525094615420696 0.02849296454183721 0 -0.024439852099848756 0.028561004093535798 0 -0.019179393875105734 0.032298951130385653 0 -0.02066887288057067 0.031383142980944252 0 -0.018542955365474515 0.030666056170723835 0 -0.02066887288057067 0.031383142980944252 0 -0.021040321415584699 0.029770316616359767 0 -0.018542955365474515 0.030666056170723835 0 -0.024838482836174687 0.03416517436947946 0 -0.023953221414864133 0.031852639719724588 0 -0.025754432830594896 0.032521865892330887 0 -0.023953221414864133 0.031852639719724588 0 -0.025754432830594896 0.032521865892330887 0 -0.025732722004799216 0.029917489395388883 0 -0.023052422638040089 0.034361117495367355 0 -0.024838482836174687 0.03416517436947946 0 -0.023953221414864133 0.031852639719724588 0 -0.023052422638040089 0.034361117495367355 0 -0.021707019232942118 0.032859924421442525 0 -0.023953221414864133 0.031852639719724588 0 -0.021707019232942118 0.032859924421442525 0 -0.023953221414864133 0.031852639719724588 0 -0.022371844007949154 0.030954492797852066 0 -0.023259084525434924 0.032228463118070108 0 -0.026394530744743853 0.026729431452693662 0 -0.023953221414864133 0.031852639719724588 0 -0.022371844007949154 0.030954492797852066 0 -0.023724023938446474 0.029129719382467983 0 -0.023953221414864133 0.031852639719724588 0 -0.025732722004799216 0.029917489395388883 0 -0.023286248388634773 0.027299079945795689 0 -0.025732722004799216 0.029917489395388883 0 -0.023286248388634773 0.027299079945795689 0 -0.026178067510563209 0.028025925396388731 0 -0.026394530744743853 0.026729431452693662 0 -0.027024033903445502 0.025122919584675826 0 -0.028194645705288793 0.023392629809515664 0 -0.027807798885858766 0.023866387565660681 0 -0.0274160894263803 0.023972939210026755 0 -0.023286248388634773 0.027299079945795689 0 -0.026178067510563209 0.028025925396388731 0 -0.026545915867150296 0.026489468696940088 0 -0.030625646318910286 0.027186569239615908 0 -0.031292483602353642 0.026949631169488505 0 -0.031034034788395396 0.027500588320090308 0 -0.026394530744743853 0.026729431452693662 0 -0.026525094615420696 0.02849296454183721 0 -0.022371844007949154 0.030954492797852066 0 -0.023724023938446474 0.029129719382467983 0 -0.021040321415584699 0.029770316616359767 0 -0.030625646318910286 0.027186569239615908 0 -0.031034034788395396 0.027500588320090308 0 -0.030803845865465938 0.027764454838747742 0 -0.026394530744743853 0.026729431452693662 0 -0.030211848687248261 0.025752356510690851 0 -0.031034034788395396 0.027500588320090308 0 -0.031200425940978823 0.027800838777094748 0 -0.030803845865465938 0.027764454838747742 0 -0.028194645705288793 0.023392629809515664 0 -0.027807798885858766 0.023866387565660681 0 -0.02883326206074948 0.02424973444815829 0 -0.031292483602353642 0.026949631169488505 0 -0.031748235314186177 0.027567672698370901 0 -0.032418949753268783 0.026706697911013967 0 -0.031748235314186177 0.027567672698370901 0 -0.032572957185081755 0.027681938172660816 0 -0.032418949753268783 0.026706697911013967 0 -0.031292483602353642 0.026949631169488505 0 -0.031034034788395396 0.027500588320090308 0 -0.031748235314186177 0.027567672698370901 0 -0.031034034788395396 0.027500588320090308 0 -0.031748235314186177 0.027567672698370901 0 -0.031200425940978823 0.027800838777094748 0 -0.031748235314186177 0.027567672698370901 0 -0.031798371846472946 0.027962719887525009 0 -0.031200425940978823 0.027800838777094748 0 -0.031748235314186177 0.027567672698370901 0 -0.031798371846472946 0.027962719887525009 0 -0.032284022975685882 0.027990472637440075 0 -0.031748235314186177 0.027567672698370901 0 -0.032284022975685882 0.027990472637440075 0 -0.032572957185081755 0.027681938172660816 0 -0.032252631751155086 0.028369474312412536 0 -0.031526426481332512 0.02806087947920315 0 -0.032128948558624547 0.028529167499610632 0 -0.031798371846472946 0.027962719887525009 0 -0.032284022975685882 0.027990472637440075 0 -0.032252631751155086 0.028369474312412536 0 -0.031798371846472946 0.027962719887525009 0 -0.031526426481332512 0.02806087947920315 0 -0.031200425940978823 0.027800838777094748 0 -0.031798371846472946 0.027962719887525009 0 -0.032252631751155086 0.028369474312412536 0 -0.031526426481332512 0.02806087947920315 0 -0.031526426481332512 0.02806087947920315 0 -0.031200425940978823 0.027800838777094748 0 -0.030857767415707137 0.027723287992527764 0 -0.031526426481332512 0.02806087947920315 0 -0.030857767415707137 0.027723287992527764 0 -0.031050648874997418 0.027869513848243613 0 -0.030857767415707137 0.027723287992527764 0 -0.031050648874997418 0.027869513848243613 0 -0.029872751738583669 0.02707801172600564 0 -0.031526426481332512 0.02806087947920315 0 -0.031050648874997418 0.027869513848243613 0 -0.032128948558624547 0.028529167499610632 0 -0.031050648874997418 0.027869513848243613 0 -0.032128948558624547 0.028529167499610632 0 -0.031626916549252579 0.028284740588695373 0 -0.02883326206074948 0.02424973444815829 0 -0.027921176584973697 0.026012396234703423 0 -0.027558402563017542 0.024368745294945409 0 -0.027807798885858766 0.023866387565660681 0 -0.02883326206074948 0.02424973444815829 0 -0.027558402563017542 0.024368745294945409 0 -0.031200425940978823 0.027800838777094748 0 -0.030857767415707137 0.027723287992527764 0 -0.030803845865465938 0.027764454838747742 0 -0.030211848687248261 0.025752356510690851 0 -0.029776892309640795 0.027242632785609708 0 -0.030857767415707137 0.027723287992527764 0 -0.030803845865465938 0.027764454838747742 0 -0.029872751738583669 0.02707801172600564 0 -0.02883326206074948 0.02424973444815829 0 -0.027921176584973697 0.026012396234703423 0 -0.029872751738583669 0.02707801172600564 0 -0.027921176584973697 0.026012396234703423 0 -0.026773738960228565 0.024988201062663831 0 -0.027558402563017542 0.024368745294945409 0 -0.027921176584973697 0.026012396234703423 0 -0.026856600646941509 0.025845714173754884 0 -0.026773738960228565 0.024988201062663831 0 -0.026856600646941509 0.025845714173754884 0 -0.026773738960228565 0.024988201062663831 0 -0.025779725563174753 0.025534930537665482 0 -0.027558402563017542 0.024368745294945409 0 -0.026530488454505455 0.024140885945612124 0 -0.027394505057581224 0.023767965999485826 0 -0.026773738960228565 0.024988201062663831 0 -0.027558402563017542 0.024368745294945409 0 -0.026530488454505455 0.024140885945612124 0 -0.026530488454505455 0.024140885945612124 0 -0.025580064967456902 0.024478940554023814 0 -0.025048762989652577 0.023354869839290863 0 -0.026530488454505455 0.024140885945612124 0 -0.025048762989652577 0.023354869839290863 0 -0.027394505057581224 0.023767965999485826 0 -0.026773738960228565 0.024988201062663831 0 -0.026530488454505455 0.024140885945612124 0 -0.025580064967456902 0.024478940554023814 0 -0.026773738960228565 0.024988201062663831 0 -0.025580064967456902 0.024478940554023814 0 -0.025779725563174753 0.025534930537665482 0 -0.025580064967456902 0.024478940554023814 0 -0.025779725563174753 0.025534930537665482 0 -0.024470964484529172 0.024926937167276213 0 -0.025779725563174753 0.025534930537665482 0 -0.024470964484529172 0.024926937167276213 0 -0.024671769883128299 0.025492322750125865 0 -0.024470964484529172 0.024926937167276213 0 -0.023605733217808709 0.025017567153936653 0 -0.023936917108651885 0.02547885436931208 0 -0.024470964484529172 0.024926937167276213 0 -0.023605733217808709 0.025017567153936653 0 -0.023666753195575874 0.02457992622607726 0 -0.023605733217808709 0.025017567153936653 0 -0.023666753195575874 0.02457992622607726 0 -0.022936446115096269 0.024762547122135783 0 -0.023666753195575874 0.02457992622607726 0 -0.023750788073301089 0.023949111100368875 0 -0.024681467899644337 0.024177693938748787 0 -0.023666753195575874 0.02457992622607726 0 -0.023750788073301089 0.023949111100368875 0 -0.023086322615657153 0.024123936968672884 0 -0.024470964484529172 0.024926937167276213 0 -0.023666753195575874 0.02457992622607726 0 -0.024681467899644337 0.024177693938748787 0 -0.025580064967456902 0.024478940554023814 0 -0.024470964484529172 0.024926937167276213 0 -0.024681467899644337 0.024177693938748787 0 -0.021569473582350594 0.025121205412575374 0 -0.021188003758580879 0.024378625157249336 0 -0.022211040987349617 0.024866287398508949 0 -0.021188003758580879 0.024378625157249336 0 -0.022211040987349617 0.024866287398508949 0 -0.022342663202134103 0.024304087276447346 0 -0.022211040987349617 0.024866287398508949 0 -0.022936446115096269 0.024762547122135783 0 -0.022342663202134103 0.024304087276447346 0 -0.023666753195575874 0.02457992622607726 0 -0.022936446115096269 0.024762547122135783 0 -0.023086322615657153 0.024123936968672884 0 -0.022936446115096269 0.024762547122135783 0 -0.023086322615657153 0.024123936968672884 0 -0.022342663202134103 0.024304087276447346 0 -0.022211040987349617 0.024866287398508949 0 -0.022936446115096269 0.024762547122135783 0 -0.022979419822773902 0.02534892335794145 0 -0.023605733217808709 0.025017567153936653 0 -0.022936446115096269 0.024762547122135783 0 -0.022979419822773902 0.02534892335794145 0 -0.023750788073301089 0.023949111100368875 0 -0.023086322615657153 0.024123936968672884 0 -0.022270514253189801 0.023472935896530968 0 -0.023086322615657153 0.024123936968672884 0 -0.022494965839337223 0.023872341100699971 0 -0.022270514253189801 0.023472935896530968 0 -0.023086322615657153 0.024123936968672884 0 -0.022342663202134103 0.024304087276447346 0 -0.022494965839337223 0.023872341100699971 0 -0.022342663202134103 0.024304087276447346 0 -0.022494965839337223 0.023872341100699971 0 -0.022270514253189801 0.023472935896530968 0 -0.021188003758580879 0.024378625157249336 0 -0.022342663202134103 0.024304087276447346 0 -0.022270514253189801 0.023472935896530968 0 -0.02537842640148813 0.023969401056572429 0 -0.026728784757088151 0.023108650900105381 0 -0.02537842640148813 0.023969401056572429 0 -0.027772584233678801 0.023142251150331535 0 -0.032380900807042846 0.022144405270237699 0 -0.029710076583103477 0.023369289892047718 0 -0.031365928479547632 0.024127341149450261 0 -0.023750788073301089 0.023949111100368875 0 -0.022270514253189801 0.023472935896530968 0 -0.025048762989652577 0.023354869839290863 0 -0.023750788073301089 0.023949111100368875 0 -0.024681467899644337 0.024177693938748787 0 -0.025048762989652577 0.023354869839290863 0 -0.025580064967456902 0.024478940554023814 0 -0.024681467899644337 0.024177693938748787 0 -0.025048762989652577 0.023354869839290863 0 -0.029710076583103477 0.023369289892047718 0 -0.030287349124356055 0.024568298512002529 0 -0.029162109495836367 0.025141197568482761 0 -0.029710076583103477 0.023369289892047718 0 -0.030287349124356055 0.024568298512002529 0 -0.031365928479547632 0.024127341149450261 0 -0.030287349124356055 0.024568298512002529 0 -0.031365928479547632 0.024127341149450261 0 -0.030853308197103455 0.025705836711884773 0 -0.030287349124356055 0.024568298512002529 0 -0.030853308197103455 0.025705836711884773 0 -0.029162109495836367 0.025141197568482761 0 -0.032914164886342856 0.025283755862973885 0 -0.031365928479547632 0.024127341149450261 0 -0.030853308197103455 0.025705836711884773 0 -0.032380900807042846 0.022144405270237699 0 -0.032914164886342856 0.025283755862973885 0 -0.031365928479547632 0.024127341149450261 0 -0.033338821113667948 0.028442843579624212 0 -0.031470246558056914 0.027777966186663335 0 -0.032914164886342856 0.025283755862973885 0 -0.031470246558056914 0.027777966186663335 0 -0.032914164886342856 0.025283755862973885 0 -0.030853308197103455 0.025705836711884773 0 -0.031470246558056914 0.027777966186663335 0 -0.030853308197103455 0.025705836711884773 0 -0.029549162925512754 0.027357060325053768 0 -0.030853308197103455 0.025705836711884773 0 -0.029549162925512754 0.027357060325053768 0 -0.029162109495836367 0.025141197568482761 0 -0.027024033903445502 0.025122919584675826 0 -0.029151961452925292 0.025073974150602356 0 -0.028262275054273572 0.027106194873957712 0 -0.026545915867150296 0.026489468696940088 0 -0.029162109495836367 0.025141197568482761 0 -0.029549162925512754 0.027357060325053768 0 -0.028262275054273572 0.027106194873957712 0 -0.029162109495836367 0.025141197568482761 0 -0.028262275054273572 0.027106194873957712 0 -0.02748054311428029 0.028041243605126945 0 -0.026545915867150296 0.026489468696940088 0 -0.02748054311428029 0.028041243605126945 0 -0.026178067510563209 0.028025925396388731 0 -0.026545915867150296 0.026489468696940088 0 -0.0274160894263803 0.023972939210026755 0 -0.027394505057581224 0.023767965999485826 0 -0.029162109495836367 0.025141197568482761 0 -0.027807798885858766 0.023866387565660681 0 -0.027558402563017542 0.024368745294945409 0 -0.027394505057581224 0.023767965999485826 0 -0.027807798885858766 0.023866387565660681 0 -0.0274160894263803 0.023972939210026755 0 -0.027394505057581224 0.023767965999485826 0 -0.029710076583103477 0.023369289892047718 0 -0.027394505057581224 0.023767965999485826 0 -0.029162109495836367 0.025141197568482761 0 -0.027772584233678801 0.023142251150331535 0 -0.027086760387441039 0.023848644731994034 0 -0.037919679197248521 0.03218820622433613 0 -0.037799460789129512 0.032013027205256721 0 -0.038103528849501911 0.032516446518894002 0 -0.037919679197248521 0.03218820622433613 0 -0.037799460789129512 0.032013027205256721 0 -0.037484752336161151 0.031710327708776909 0 -0.037799460789129512 0.032013027205256721 0 -0.037845713180479169 0.03209190786900426 0 -0.037400452457996378 0.03151381145650245 0 -0.037799460789129512 0.032013027205256721 0 -0.037484752336161151 0.031710327708776909 0 -0.037400452457996378 0.03151381145650245 0 -0.037799460789129512 0.032013027205256721 0 -0.038103528849501911 0.032516446518894002 0 -0.037845713180479169 0.03209190786900426 0 -0.038103528849501911 0.032516446518894002 0 -0.037845713180479169 0.03209190786900426 0 -0.03816797678034687 0.032588222884958253 0 -0.037919679197248521 0.03218820622433613 0 -0.038103528849501911 0.032516446518894002 0 -0.038448586201781258 0.033266936148280662 0 -0.037919679197248521 0.03218820622433613 0 -0.038448586201781258 0.033266936148280662 0 -0.038049965321617606 0.033044460882918514 0 -0.040100080570668446 0.034018506947806525 0 -0.040716432079554346 0.033254617628818442 0 -0.042079796737971208 0.035254416484812937 0 -0.043782552113499067 0.034623136875376839 0 -0.043009259312083575 0.035008029247814342 0 -0.037919679197248521 0.03218820622433613 0 -0.038049965321617606 0.033044460882918514 0 -0.037643850080010359 0.032065246405710332 0 -0.037919679197248521 0.03218820622433613 0 -0.037643850080010359 0.032065246405710332 0 -0.037617813337134376 0.03185451354787619 0 -0.040716432079554346 0.033254617628818442 0 -0.041041412931456758 0.032890421074389865 0 -0.043782552113499067 0.034623136875376839 0 -0.043807317955481775 0.034302681890053525 0 -0.044671637137032483 0.033637913473197667 0 -0.037643850080010359 0.032065246405710332 0 -0.037617813337134376 0.03185451354787619 0 -0.037644057293264817 0.031876082870198913 0 -0.037617813337134376 0.03185451354787619 0 -0.0373979448941281 0.031843232114038278 0 -0.037644057293264817 0.031876082870198913 0 -0.037617813337134376 0.03185451354787619 0 -0.037116706800693199 0.031692767140697659 0 -0.0373979448941281 0.031843232114038278 0 -0.037919679197248521 0.03218820622433613 0 -0.037617813337134376 0.03185451354787619 0 -0.037484752336161151 0.031710327708776909 0 -0.037484752336161151 0.031710327708776909 0 -0.037116706800693199 0.031692767140697659 0 -0.037114445311716301 0.031399876194461662 0 -0.037617813337134376 0.03185451354787619 0 -0.037484752336161151 0.031710327708776909 0 -0.037116706800693199 0.031692767140697659 0 -0.037116706800693199 0.031692767140697659 0 -0.036602906521893172 0.031234588629857934 0 -0.036460997760326595 0.031861610556674212 0 -0.037116706800693199 0.031692767140697659 0 -0.036602906521893172 0.031234588629857934 0 -0.037114445311716301 0.031399876194461662 0 -0.036602906521893172 0.031234588629857934 0 -0.035909682398406702 0.031167993589874307 0 -0.036460997760326595 0.031861610556674212 0 -0.036602906521893172 0.031234588629857934 0 -0.035909682398406702 0.031167993589874307 0 -0.035992652487312114 0.030563085345738667 0 -0.036819335138468058 0.031011455719876155 0 -0.035992652487312114 0.030563085345738667 0 -0.036612752771596591 0.030692726412971834 0 -0.036602906521893172 0.031234588629857934 0 -0.036819335138468058 0.031011455719876155 0 -0.037114445311716301 0.031399876194461662 0 -0.036602906521893172 0.031234588629857934 0 -0.036819335138468058 0.031011455719876155 0 -0.035992652487312114 0.030563085345738667 0 -0.036819335138468058 0.031011455719876155 0 -0.037114445311716301 0.031399876194461662 0 -0.037400452457996378 0.03151381145650245 0 -0.037484752336161151 0.031710327708776909 0 -0.037114445311716301 0.031399876194461662 0 -0.037400452457996378 0.03151381145650245 0 -0.032128948558624547 0.028529167499610632 0 -0.032565581923303312 0.028706593834193897 0 -0.031626916549252579 0.028284740588695373 0 -0.032128948558624547 0.028529167499610632 0 -0.032650361768980021 0.028899188481135978 0 -0.032565581923303312 0.028706593834193897 0 -0.032128948558624547 0.028529167499610632 0 -0.032650361768980021 0.028899188481135978 0 -0.032627178970670044 0.028765953607775112 0 -0.032565581923303312 0.028706593834193897 0 -0.033711868628396154 0.029600961072482109 0 -0.033327197024387786 0.029381792677779801 0 -0.032650361768980021 0.028899188481135978 0 -0.032565581923303312 0.028706593834193897 0 -0.033327197024387786 0.029381792677779801 0 -0.035909682398406702 0.031167993589874307 0 -0.033711868628396154 0.029600961072482109 0 -0.035651175122215245 0.032003429056573232 0 -0.032565581923303312 0.028706593834193897 0 -0.033711868628396154 0.029600961072482109 0 -0.032147015450957786 0.028450223844902919 0 -0.033666876787673335 0.029542391414599047 0 -0.033922022952235939 0.030122049875615019 0 -0.033711868628396154 0.029600961072482109 0 -0.033327197024387786 0.029381792677779801 0 -0.036612752771596591 0.030692726412971834 0 -0.035909682398406702 0.031167993589874307 0 -0.035992652487312114 0.030563085345738667 0 -0.033711868628396154 0.029600961072482109 0 -0.035992652487312114 0.030563085345738667 0 -0.033711868628396154 0.029600961072482109 0 -0.036612752771596591 0.030692726412971834 0 -0.033503953983669274 0.029631988960562454 0 -0.03527741018865075 0.029448195468753539 0 -0.03349356203561598 0.028413087446427291 0 -0.033327197024387786 0.029381792677779801 0 -0.03427835946810287 0.028012234812169027 0 -0.033053313133646511 0.028832677629041153 0 -0.032946287506081334 0.028521822978934228 0 -0.032627178970670044 0.028765953607775112 0 -0.033327197024387786 0.029381792677779801 0 -0.032900261107558469 0.029009833113824008 0 -0.033053313133646511 0.028832677629041153 0 -0.032650361768980021 0.028899188481135978 0 -0.033327197024387786 0.029381792677779801 0 -0.032900261107558469 0.029009833113824008 0 -0.032900261107558469 0.029009833113824008 0 -0.033053313133646511 0.028832677629041153 0 -0.032627178970670044 0.028765953607775112 0 -0.03349356203561598 0.028413087446427291 0 -0.033327197024387786 0.029381792677779801 0 -0.033053313133646511 0.028832677629041153 0 -0.03349356203561598 0.028413087446427291 0 -0.033053313133646511 0.028832677629041153 0 -0.032946287506081334 0.028521822978934228 0 -0.03349356203561598 0.028413087446427291 0 -0.032946287506081334 0.028521822978934228 0 -0.033148210485605192 0.028277223238150451 0 -0.032946287506081334 0.028521822978934228 0 -0.032619994666978486 0.028236910464857927 0 -0.033148210485605192 0.028277223238150451 0 -0.032252631751155086 0.028369474312412536 0 -0.032946287506081334 0.028521822978934228 0 -0.032619994666978486 0.028236910464857927 0 -0.032252631751155086 0.028369474312412536 0 -0.032946287506081334 0.028521822978934228 0 -0.032627178970670044 0.028765953607775112 0 -0.032284022975685882 0.027990472637440075 0 -0.032252631751155086 0.028369474312412536 0 -0.032619994666978486 0.028236910464857927 0 -0.032252631751155086 0.028369474312412536 0 -0.032128948558624547 0.028529167499610632 0 -0.032627178970670044 0.028765953607775112 0 -0.032650361768980021 0.028899188481135978 0 -0.032900261107558469 0.029009833113824008 0 -0.032627178970670044 0.028765953607775112 0 -0.032284022975685882 0.027990472637440075 0 -0.032572957185081755 0.027681938172660816 0 -0.032905246387497776 0.028069634365136171 0 -0.032284022975685882 0.027990472637440075 0 -0.032619994666978486 0.028236910464857927 0 -0.032905246387497776 0.028069634365136171 0 -0.032619994666978486 0.028236910464857927 0 -0.032905246387497776 0.028069634365136171 0 -0.033148210485605192 0.028277223238150451 0 -0.03349356203561598 0.028413087446427291 0 -0.033148210485605192 0.028277223238150451 0 -0.033519380413615907 0.028068306800216294 0 -0.032905246387497776 0.028069634365136171 0 -0.033148210485605192 0.028277223238150451 0 -0.033519380413615907 0.028068306800216294 0 -0.032572957185081755 0.027681938172660816 0 -0.033519380413615907 0.028068306800216294 0 -0.033175133260997192 0.027515646818879823 0 -0.032572957185081755 0.027681938172660816 0 -0.032905246387497776 0.028069634365136171 0 -0.033519380413615907 0.028068306800216294 0 -0.03349356203561598 0.028413087446427291 0 -0.033519380413615907 0.028068306800216294 0 -0.03427835946810287 0.028012234812169027 0 -0.033519380413615907 0.028068306800216294 0 -0.03427835946810287 0.028012234812169027 0 -0.034404048717077418 0.02824639790689858 0 -0.034404048717077418 0.02824639790689858 0 -0.033598466217046562 0.027126235923715252 0 -0.034307526200531464 0.026191960372867754 0 -0.034863428226940579 0.027219125242455768 0 -0.03098930005985721 0.030852445247149661 0 -0.034404048717077418 0.02824639790689858 0 -0.0345038349551278 0.029188199695760354 0 -0.035027016586340387 0.029848063809453328 0 -0.03427835946810287 0.028012234812169027 0 -0.034404048717077418 0.02824639790689858 0 -0.0345038349551278 0.029188199695760354 0 -0.033519380413615907 0.028068306800216294 0 -0.034404048717077418 0.02824639790689858 0 -0.033175133260997192 0.027515646818879823 0 -0.034404048717077418 0.02824639790689858 0 -0.033598466217046562 0.027126235923715252 0 -0.033175133260997192 0.027515646818879823 0 -0.032572957185081755 0.027681938172660816 0 -0.033175133260997192 0.027515646818879823 0 -0.032418949753268783 0.026706697911013967 0 -0.033598466217046562 0.027126235923715252 0 -0.033175133260997192 0.027515646818879823 0 -0.032418949753268783 0.026706697911013967 0 -0.037400452457996378 0.03151381145650245 0 -0.037183910767195398 0.031279205906234446 0 -0.037874030925914709 0.032020264649234763 0 -0.036612752771596591 0.030692726412971834 0 -0.037183910767195398 0.031279205906234446 0 -0.037874030925914709 0.032020264649234763 0 -0.036819335138468058 0.031011455719876155 0 -0.037400452457996378 0.03151381145650245 0 -0.037183910767195398 0.031279205906234446 0 -0.036819335138468058 0.031011455719876155 0 -0.036612752771596591 0.030692726412971834 0 -0.037183910767195398 0.031279205906234446 0 -0.03527741018865075 0.029448195468753539 0 -0.035964009172991702 0.030775188127592522 0 -0.03427835946810287 0.028012234812169027 0 -0.0345038349551278 0.029188199695760354 0 -0.034022806488686247 0.029471436330376109 0 -0.037845713180479169 0.03209190786900426 0 -0.037874030925914709 0.032020264649234763 0 -0.03816797678034687 0.032588222884958253 0 -0.037845713180479169 0.03209190786900426 0 -0.037400452457996378 0.03151381145650245 0 -0.037874030925914709 0.032020264649234763 0 -0.035964009172991702 0.030775188127592522 0 -0.036194791032886496 0.032792778934069948 0 -0.034022806488686247 0.029471436330376109 0 -0.034146391790318253 0.031665725427820451 0 -0.033782377904483282 0.032391804877424976 0 -0.037874030925914709 0.032020264649234763 0 -0.038597321151933477 0.033274757347543364 0 -0.03816797678034687 0.032588222884958253 0 -0.0345038349551278 0.029188199695760354 0 -0.034146391790318253 0.031665725427820451 0 -0.035027016586340387 0.029848063809453328 0 -0.034146391790318253 0.031665725427820451 0 -0.035646477455003767 0.032295694074415911 0 -0.036901128740522482 0.031416404034632424 0 -0.036257213580428306 0.031363990639605863 0 -0.03098930005985721 0.030852445247149661 0 -0.0345038349551278 0.029188199695760354 0 -0.034022806488686247 0.029471436330376109 0 -0.034146391790318253 0.031665725427820451 0 -0.035646477455003767 0.032295694074415911 0 -0.036781570234713123 0.032854995207970132 0 -0.035344474534633109 0.033537497206150992 0 -0.035646477455003767 0.032295694074415911 0 -0.034946180751717404 0.032694929330576467 0 -0.035344474534633109 0.033537497206150992 0 -0.03455085349376346 0.033067997914658094 0 -0.034946180751717404 0.032694929330576467 0 -0.035344474534633109 0.033537497206150992 0 -0.03455085349376346 0.033067997914658094 0 -0.034391073077944444 0.034097857165925838 0 -0.033782377904483282 0.032391804877424976 0 -0.034146391790318253 0.031665725427820451 0 -0.03455085349376346 0.033067997914658094 0 -0.033782377904483282 0.032391804877424976 0 -0.034146391790318253 0.031665725427820451 0 -0.03455085349376346 0.033067997914658094 0 -0.034946180751717404 0.032694929330576467 0 -0.034146391790318253 0.031665725427820451 0 -0.035646477455003767 0.032295694074415911 0 -0.034946180751717404 0.032694929330576467 0 -0.024439852099848756 0.028561004093535798 0 -0.03098930005985721 0.030852445247149661 0 -0.018542955365474515 0.030666056170723835 0 -0.017006460756595346 0.031261298470973281 0 -0.017889539908765854 0.031882674418511198 0 -0.033598466217046562 0.027126235923715252 0 -0.032418949753268783 0.026706697911013967 0 -0.034307526200531464 0.026191960372867754 0 -0.019179393875105734 0.032298951130385653 0 -0.018542955365474515 0.030666056170723835 0 -0.017889539908765854 0.031882674418511198 0 -0.03098930005985721 0.030852445247149661 0 -0.026876056730925878 0.032121307774634025 0 -0.017006460756595346 0.031261298470973281 0 -0.017012892800342426 0.032404353645517976 0 -0.017889539908765854 0.031882674418511198 0 -0.035646477455003767 0.032295694074415911 0 -0.036901128740522482 0.031416404034632424 0 -0.036781570234713123 0.032854995207970132 0 -0.019179393875105734 0.032298951130385653 0 -0.01807029829293251 0.032830848533700968 0 -0.017889539908765854 0.031882674418511198 0 -0.017012892800342426 0.032404353645517976 0 -0.01807029829293251 0.032830848533700968 0 -0.017889539908765854 0.031882674418511198 0 -0.01921240146310935 0.032253733605771572 0 -0.016603976971256519 0.033577774010752556 0 -0.018938882177799855 0.035324558793381242 0 -0.016472102740843691 0.033909396870998781 0 -0.016031283149025136 0.03651874075107335 0 -0.016472102740843691 0.033909396870998781 0 -0.013842862050469961 0.035638898570447143 0 -0.016031283149025136 0.03651874075107335 0 -0.026876056730925878 0.032121307774634025 0 -0.021596012593393086 0.037430783958218784 0 -0.017012892800342426 0.032404353645517976 0 -0.01807029829293251 0.032830848533700968 0 -0.017039554190845869 0.033524911167948854 0 -0.016603976971256519 0.033577774010752556 0 -0.021596012593393086 0.037430783958218784 0 -0.013842862050469961 0.035638898570447143 0 -0.016031283149025136 0.03651874075107335 0 -0.013769313404082351 0.040402351305896061 0 -0.021596012593393086 0.037430783958218784 0 -0.015046365618184067 0.045451521790492395 0 -0.018938882177799855 0.035324558793381242 0 -0.016031283149025136 0.03651874075107335 0 -0.017127989355626996 0.038329425014484136 0 -0.016031283149025136 0.03651874075107335 0 -0.017127989355626996 0.038329425014484136 0 -0.013769313404082351 0.040402351305896061 0 -0.034391073077944444 0.034097857165925838 0 -0.035344474534633109 0.033537497206150992 0 -0.034937711241684204 0.035255508182627036 0 -0.03455085349376346 0.033067997914658094 0 -0.034391073077944444 0.034097857165925838 0 -0.035344474534633109 0.033537497206150992 0 -0.036781570234713123 0.032854995207970132 0 -0.036629684575813497 0.034203462291943071 0 -0.035344474534633109 0.033537497206150992 0 -0.036629684575813497 0.034203462291943071 0 -0.035344474534633109 0.033537497206150992 0 -0.034937711241684204 0.035255508182627036 0 -0.021596012593393086 0.037430783958218784 0 -0.027170077457514482 0.042159927852113914 0 -0.018068499802110817 0.047411912799491009 0 -0.017220871726146825 0.048414050001464148 0 -0.017881708850915008 0.048633817159277712 0 -0.034391073077944444 0.034097857165925838 0 -0.034937711241684204 0.035255508182627036 0 -0.034498674556364385 0.035190978539932354 0 -0.034937711241684204 0.035255508182627036 0 -0.034498674556364385 0.035190978539932354 0 -0.034733225769594964 0.035678082913158292 0 -0.034498674556364385 0.035190978539932354 0 -0.033966883435647764 0.034635580015605544 0 -0.034591143217552911 0.036108642111765295 0 -0.036498209587858009 0.034440476853596552 0 -0.036954148569097428 0.035528126568619457 0 -0.034391073077944444 0.034097857165925838 0 -0.034498674556364385 0.035190978539932354 0 -0.033966883435647764 0.034635580015605544 0 -0.034391073077944444 0.034097857165925838 0 -0.033966883435647764 0.034635580015605544 0 -0.033782377904483282 0.032391804877424976 0 -0.039025691938216311 0.034297473543054763 0 -0.038597321151933477 0.033274757347543364 0 -0.038506722664118705 0.033303173513686654 0 -0.036498209587858009 0.034440476853596552 0 -0.036194791032886496 0.032792778934069948 0 -0.039025691938216311 0.034297473543054763 0 -0.038506722664118705 0.033303173513686654 0 -0.038821989364774573 0.033989908554909264 0 -0.038103528849501911 0.032516446518894002 0 -0.038448586201781258 0.033266936148280662 0 -0.038506722664118705 0.033303173513686654 0 -0.038448586201781258 0.033266936148280662 0 -0.038506722664118705 0.033303173513686654 0 -0.038821989364774573 0.033989908554909264 0 -0.038103528849501911 0.032516446518894002 0 -0.038506722664118705 0.033303173513686654 0 -0.03816797678034687 0.032588222884958253 0 -0.038597321151933477 0.033274757347543364 0 -0.038506722664118705 0.033303173513686654 0 -0.03816797678034687 0.032588222884958253 0 -0.040100080570668446 0.034018506947806525 0 -0.039840552881415095 0.034533284111375483 0 -0.038448586201781258 0.033266936148280662 0 -0.038049965321617606 0.033044460882918514 0 -0.039794738285248349 0.034763615676432907 0 -0.038448586201781258 0.033266936148280662 0 -0.038821989364774573 0.033989908554909264 0 -0.039794738285248349 0.034763615676432907 0 -0.038821989364774573 0.033989908554909264 0 -0.039794738285248349 0.034763615676432907 0 -0.039122964751726684 0.034633531836841543 0 -0.039794738285248349 0.034763615676432907 0 -0.039122964751726684 0.034633531836841543 0 -0.040247145519802609 0.035179097480645072 0 -0.039122964751726684 0.034633531836841543 0 -0.040247145519802609 0.035179097480645072 0 -0.039540203145349249 0.035278083949550613 0 -0.039025691938216311 0.034297473543054763 0 -0.038821989364774573 0.033989908554909264 0 -0.039122964751726684 0.034633531836841543 0 -0.039196907319359618 0.035136926228209943 0 -0.039074627948779063 0.035063019206486842 0 -0.038805183137619298 0.035456886009051024 0 -0.039025691938216311 0.034297473543054763 0 -0.039122964751726684 0.034633531836841543 0 -0.039196907319359618 0.035136926228209943 0 -0.039122964751726684 0.034633531836841543 0 -0.039196907319359618 0.035136926228209943 0 -0.039074627948779063 0.035063019206486842 0 -0.039122964751726684 0.034633531836841543 0 -0.039074627948779063 0.035063019206486842 0 -0.039540203145349249 0.035278083949550613 0 -0.039074627948779063 0.035063019206486842 0 -0.038805183137619298 0.035456886009051024 0 -0.039540203145349249 0.035278083949550613 0 -0.038805183137619298 0.035456886009051024 0 -0.038770121389883595 0.035646463955928381 0 -0.037614418196384003 0.035840014556007556 0 -0.039196907319359618 0.035136926228209943 0 -0.038805183137619298 0.035456886009051024 0 -0.037614418196384003 0.035840014556007556 0 -0.037614418196384003 0.035840014556007556 0 -0.035331555191405399 0.035957484744970673 0 -0.0392780132115291 0.034551993259082578 0 -0.038770121389883595 0.035646463955928381 0 -0.037614418196384003 0.035840014556007556 0 -0.03905305634415529 0.035376171437155109 0 -0.035302178292443545 0.036428950395381285 0 -0.032053085856789267 0.038354749729914012 0 -0.037614418196384003 0.035840014556007556 0 -0.03905305634415529 0.035376171437155109 0 -0.0392780132115291 0.034551993259082578 0 -0.035331555191405399 0.035957484744970673 0 -0.035583255582240812 0.037956031979166797 0 -0.025353156465237885 0.04378968985269862 0 -0.034591143217552911 0.036108642111765295 0 -0.037614418196384003 0.035840014556007556 0 -0.035331555191405399 0.035957484744970673 0 -0.036954148569097428 0.035528126568619457 0 -0.037608798755627587 0.035662132696316497 0 -0.034498674556364385 0.035190978539932354 0 -0.034591143217552911 0.036108642111765295 0 -0.034733225769594964 0.035678082913158292 0 -0.034591143217552911 0.036108642111765295 0 -0.035331555191405399 0.035957484744970673 0 -0.034733225769594964 0.035678082913158292 0 -0.027170077457514482 0.042159927852113914 0 -0.025964942525702937 0.042726499875468671 0 -0.017736289354361466 0.049144464293230182 0 -0.017023531997531066 0.04912512509651016 0 -0.016832658683363179 0.049015498010807165 0 -0.017322666376462532 0.049678512663434635 0 -0.017736289354361466 0.049144464293230182 0 -0.017023531997531066 0.04912512509651016 0 -0.027975780176999792 0.043801422175922367 0 -0.025964942525702937 0.042726499875468671 0 -0.020801726717850137 0.049695339939527676 0 -0.017322666376462532 0.049678512663434635 0 -0.017736289354361466 0.049144464293230182 0 -0.020801726717850137 0.049695339939527676 0 -0.017736289354361466 0.049144464293230182 0 -0.019670875615707694 0.048623199915836503 0 -0.035331555191405399 0.035957484744970673 0 -0.035583255582240812 0.037956031979166797 0 -0.034733225769594964 0.035678082913158292 0 -0.017736289354361466 0.049144464293230182 0 -0.019451049323134191 0.047821292655826034 0 -0.016756555931715378 0.048466786569755727 0 -0.017736289354361466 0.049144464293230182 0 -0.019670875615707694 0.048623199915836503 0 -0.019451049323134191 0.047821292655826034 0 -0.019451049323134191 0.047821292655826034 0 -0.016756555931715378 0.048466786569755727 0 -0.019562809059272056 0.046042601557127971 0 -0.019670875615707694 0.048623199915836503 0 -0.019451049323134191 0.047821292655826034 0 -0.020979491831326365 0.047684916654929958 0 -0.017736289354361466 0.049144464293230182 0 -0.016756555931715378 0.048466786569755727 0 -0.016832658683363179 0.049015498010807165 0 -0.016756555931715378 0.048466786569755727 0 -0.014859264075944789 0.050692598243917843 0 -0.016057869219752493 0.050912930836664608 0 -0.016624735365598824 0.048732482334070522 0 -0.016564856975507386 0.046649166007273417 0 -0.016756555931715378 0.048466786569755727 0 -0.019562809059272056 0.046042601557127971 0 -0.018517340215057812 0.044150955386228118 0 -0.019451049323134191 0.047821292655826034 0 -0.019562809059272056 0.046042601557127971 0 -0.021613758971140845 0.04606171415001787 0 -0.019562809059272056 0.046042601557127971 0 -0.021112260610711839 0.043960699927431443 0 -0.018517340215057812 0.044150955386228118 0 -0.021613758971140845 0.04606171415001787 0 -0.024093903058099508 0.045129607662966365 0 -0.021112260610711839 0.043960699927431443 0 -0.019562809059272056 0.046042601557127971 0 -0.021613758971140845 0.04606171415001787 0 -0.021112260610711839 0.043960699927431443 0 -0.024093903058099508 0.045129607662966365 0 -0.025516111104173393 0.044737232355519289 0 -0.02515148192567529 0.045362510104742168 0 -0.024093903058099508 0.045129607662966365 0 -0.025645656133329423 0.045786180068984925 0 -0.02515148192567529 0.045362510104742168 0 -0.021613758971140845 0.04606171415001787 0 -0.024093903058099508 0.045129607662966365 0 -0.023061738720063479 0.046507810110779819 0 -0.035583255582240812 0.037956031979166797 0 -0.025645656133329423 0.045786180068984925 0 -0.025353156465237885 0.04378968985269862 0 -0.027975780176999792 0.043801422175922367 0 -0.025715422295920859 0.045735680430440739 0 -0.020801726717850137 0.049695339939527676 0 -0.023061738720063479 0.046507810110779819 0 -0.025645656133329423 0.045786180068984925 0 -0.024093903058099508 0.045129607662966365 0 -0.023061738720063479 0.046507810110779819 0 -0.025645656133329423 0.045786180068984925 0 -0.020801726717850137 0.049695339939527676 0 -0.023061738720063479 0.046507810110779819 0 -0.020979491831326365 0.047684916654929958 0 -0.020801726717850137 0.049695339939527676 0 -0.019670875615707694 0.048623199915836503 0 -0.020979491831326365 0.047684916654929958 0 -0.019451049323134191 0.047821292655826034 0 -0.021613758971140845 0.04606171415001787 0 -0.020979491831326365 0.047684916654929958 0 -0.021613758971140845 0.04606171415001787 0 -0.023061738720063479 0.046507810110779819 0 -0.020979491831326365 0.047684916654929958 0 -0.019315830554769584 0.043454122190160427 0 -0.015671804456652248 0.044521084934464807 0 -0.017456112494383107 0.045774960681507625 0 -0.019172955203167766 0.04285602382450289 0 -0.015823257194517985 0.044427343918201627 0 -0.019246382222782098 0.042202912150242251 0 -0.015671804456652248 0.044521084934464807 0 -0.016665324862872033 0.041331144481154096 0 -0.017127989355626996 0.038329425014484136 0 -0.016665324862872033 0.041331144481154096 0 -0.013769313404082351 0.040402351305896061 0 -0.019768397077599278 0.038883473240479458 0 -0.017127989355626996 0.038329425014484136 0 -0.016665324862872033 0.041331144481154096 0 -0.015046365618184067 0.045451521790492395 0 -0.016035943700370779 0.047286950585224738 0 -0.017881708850915008 0.048633817159277712 0 -0.017412894337978612 0.049051865155172181 0 -0.017827210291813972 0.049377688940830534 0 -0.015671804456652248 0.044521084934464807 0 -0.013769313404082351 0.040402351305896061 0 -0.013988330188949785 0.045660975880755482 0 -0.015671804456652248 0.044521084934464807 0 -0.016665324862872033 0.041331144481154096 0 -0.013769313404082351 0.040402351305896061 0 -0.017412894337978612 0.049051865155172181 0 -0.017255265771556859 0.048869406861199907 0 -0.017023531997531066 0.04912512509651016 0 -0.017412894337978612 0.049051865155172181 0 -0.017023531997531066 0.04912512509651016 0 -0.017244160910302786 0.04932058812886117 0 -0.017881708850915008 0.048633817159277712 0 -0.017412894337978612 0.049051865155172181 0 -0.017255265771556859 0.048869406861199907 0 -0.017220871726146825 0.048414050001464148 0 -0.017881708850915008 0.048633817159277712 0 -0.017255265771556859 0.048869406861199907 0 -0.017220871726146825 0.048414050001464148 0 -0.017322666376462532 0.049678512663434635 0 -0.017255265771556859 0.048869406861199907 0 -0.017322666376462532 0.049678512663434635 0 -0.017255265771556859 0.048869406861199907 0 -0.017023531997531066 0.04912512509651016 0 -0.016832658683363179 0.049015498010807165 0 -0.016826608029870113 0.050172349408488123 0 -0.017244160910302786 0.04932058812886117 0 -0.016756555931715378 0.048466786569755727 0 -0.016832658683363179 0.049015498010807165 0 -0.016826608029870113 0.050172349408488123 0 -0.017023531997531066 0.04912512509651016 0 -0.016832658683363179 0.049015498010807165 0 -0.017244160910302786 0.04932058812886117 0 -0.016756555931715378 0.048466786569755727 0 -0.016826608029870113 0.050172349408488123 0 -0.016057869219752493 0.050912930836664608 0 -0.016826608029870113 0.050172349408488123 0 -0.017373169679533895 0.049993874351883578 0 -0.017675973402854105 0.051180457122048946 0 -0.017373169679533895 0.049993874351883578 0 -0.017244160910302786 0.04932058812886117 0 -0.017827210291813972 0.049377688940830534 0 -0.016826608029870113 0.050172349408488123 0 -0.017373169679533895 0.049993874351883578 0 -0.017244160910302786 0.04932058812886117 0 -0.017412894337978612 0.049051865155172181 0 -0.017244160910302786 0.04932058812886117 0 -0.017827210291813972 0.049377688940830534 0 -0.015671804456652248 0.044521084934464807 0 -0.013988330188949785 0.045660975880755482 0 -0.016409785998761982 0.047595580030729868 0 -0.017373169679533895 0.049993874351883578 0 -0.017827210291813972 0.049377688940830534 0 -0.017675973402854105 0.051180457122048946 0 -0.013988330188949785 0.045660975880755482 0 -0.016409785998761982 0.047595580030729868 0 -0.014733404665176272 0.050376347935953025 0 -0.016035943700370779 0.047286950585224738 0 -0.016170661050097398 0.050768416796884389 0 -0.018822817815500072 0.04719199592464806 0 -0.018159157365074168 0.049202461910500317 0 -0.016409785998761982 0.047595580030729868 0 -0.018159157365074168 0.049202461910500317 0 -0.016409785998761982 0.047595580030729868 0 -0.016862058824907804 0.050511600426566848 0 -0.016409785998761982 0.047595580030729868 0 -0.016862058824907804 0.050511600426566848 0 -0.014733404665176272 0.050376347935953025 0 -0.015671804456652248 0.044521084934464807 0 -0.016409785998761982 0.047595580030729868 0 -0.017456112494383107 0.045774960681507625 0 -0.018822817815500072 0.04719199592464806 0 -0.016409785998761982 0.047595580030729868 0 -0.017456112494383107 0.045774960681507625 0 -0.018485333320787306 0.053753101152078805 0 -0.018520422604174764 0.051029754775333697 0 -0.016824041521477529 0.052543462792836775 0 -0.018485333320787306 0.053753101152078805 0 -0.016824041521477529 0.052543462792836775 0 -0.016647290510637017 0.053934822124786674 0 -0.018520422604174764 0.051029754775333697 0 -0.016824041521477529 0.052543462792836775 0 -0.016862058824907804 0.050511600426566848 0 -0.016824041521477529 0.052543462792836775 0 -0.016862058824907804 0.050511600426566848 0 -0.014733404665176272 0.050376347935953025 0 -0.018520422604174764 0.051029754775333697 0 -0.018159157365074168 0.049202461910500317 0 -0.016862058824907804 0.050511600426566848 0 -0.016170661050097398 0.050768416796884389 0 -0.016277245786660236 0.053369478470506763 0 -0.016824041521477529 0.052543462792836775 0 -0.014733404665176272 0.050376347935953025 0 -0.016279066132922376 0.053667876035234291 0 -0.016824041521477529 0.052543462792836775 0 -0.016279066132922376 0.053667876035234291 0 -0.016647290510637017 0.053934822124786674 0 -0.016234181918106362 0.052527220545555267 0 -0.016147878427715992 0.05340660232761018 0 -0.016279066132922376 0.053667876035234291 0 -0.017675973402854105 0.051180457122048946 0 -0.016234181918106362 0.052527220545555267 0 -0.016279066132922376 0.053667876035234291 0 -0.016826608029870113 0.050172349408488123 0 -0.017675973402854105 0.051180457122048946 0 -0.016234181918106362 0.052527220545555267 0 -0.016234181918106362 0.052527220545555267 0 -0.016057869219752493 0.050912930836664608 0 -0.015271197961901788 0.052017151707416102 0 -0.016826608029870113 0.050172349408488123 0 -0.016234181918106362 0.052527220545555267 0 -0.016057869219752493 0.050912930836664608 0 -0.016234181918106362 0.052527220545555267 0 -0.015854019392548376 0.054040813981963094 0 -0.015370662317038722 0.05307256751478534 0 -0.017410226047768259 0.05538853282074082 0 -0.018026845316300187 0.05592887669394931 0 -0.018848774852553214 0.056753546078354929 0 -0.021209458721903607 0.058002872089517397 0 -0.020918041370900989 0.056308368355420274 0 -0.01956489165017614 0.055000090425871576 0 -0.018848774852553214 0.056753546078354929 0 -0.020918041370900989 0.056308368355420274 0 -0.015854019392548376 0.054040813981963094 0 -0.016268679206673315 0.054399927781619166 0 -0.016492495033650179 0.0553476549212195 0 -0.01956489165017614 0.055000090425871576 0 -0.018848774852553214 0.056753546078354929 0 -0.01672971587853429 0.054999386382143751 0 -0.018848774852553214 0.056753546078354929 0 -0.016492495033650179 0.0553476549212195 0 -0.01672971587853429 0.054999386382143751 0 -0.017410226047768259 0.05538853282074082 0 -0.016607228864620332 0.055334106959504872 0 -0.015854019392548376 0.054040813981963094 0 -0.016147878427715992 0.05340660232761018 0 -0.016268679206673315 0.054399927781619166 0 -0.016234181918106362 0.052527220545555267 0 -0.015854019392548376 0.054040813981963094 0 -0.016147878427715992 0.05340660232761018 0 -0.016147878427715992 0.05340660232761018 0 -0.016279066132922376 0.053667876035234291 0 -0.016268679206673315 0.054399927781619166 0 -0.016279066132922376 0.053667876035234291 0 -0.015800535923069525 0.055623491520837197 0 -0.016647290510637017 0.053934822124786674 0 -0.016279066132922376 0.053667876035234291 0 -0.016268679206673315 0.054399927781619166 0 -0.015800535923069525 0.055623491520837197 0 -0.016268679206673315 0.054399927781619166 0 -0.016492495033650179 0.0553476549212195 0 -0.015800535923069525 0.055623491520837197 0 -0.016492495033650179 0.0553476549212195 0 -0.01672971587853429 0.054999386382143751 0 -0.013898233143113455 0.054999257867059149 0 -0.012619520212470122 0.056237884006943073 0 -0.015800535923069525 0.055623491520837197 0 -0.013898233143113455 0.054999257867059149 0 -0.016492495033650179 0.0553476549212195 0 -0.015800535923069525 0.055623491520837197 0 -0.013898233143113455 0.054999257867059149 0 -0.018485333320787306 0.053753101152078805 0 -0.015800535923069525 0.055623491520837197 0 -0.016647290510637017 0.053934822124786674 0 -0.015881179430326822 0.05632403454462289 0 -0.01595579704148313 0.055529578372287253 0 -0.026408759928935259 0.054473600905771677 0 -0.025505537164748578 0.054698066171493261 0 -0.026186427250899452 0.054536661278194419 0 -0.026408759928935259 0.054473600905771677 0 -0.026323797222120932 0.05552423207785407 0 -0.025505537164748578 0.054698066171493261 0 -0.024985175395673916 0.048846577349443428 0 -0.021226199565274665 0.05195915010776711 0 -0.026408759928935259 0.054473600905771677 0 -0.027132978445274045 0.053804479457778755 0 -0.028608274206205004 0.054844916750463636 0 -0.026408759928935259 0.054473600905771677 0 -0.026323797222120932 0.05552423207785407 0 -0.028608274206205004 0.054844916750463636 0 -0.024985175395673916 0.048846577349443428 0 -0.025948058966137277 0.0512612305928586 0 -0.026323797222120932 0.05552423207785407 0 -0.028608274206205004 0.054844916750463636 0 -0.028454761252879053 0.056878332974105189 0 -0.024093903058099508 0.045129607662966365 0 -0.023129454903001386 0.042870628468301392 0 -0.025516111104173393 0.044737232355519289 0 -0.023129454903001386 0.042870628468301392 0 -0.021112260610711839 0.043960699927431443 0 -0.02020625385071978 0.041253117116972757 0 -0.024093903058099508 0.045129607662966365 0 -0.023129454903001386 0.042870628468301392 0 -0.021112260610711839 0.043960699927431443 0 -0.014859264075944789 0.050692598243917843 0 -0.015271197961901788 0.052017151707416102 0 -0.014254898123245506 0.05230235926516897 0 -0.016564856975507386 0.046649166007273417 0 -0.021226199565274665 0.05195915010776711 0 -0.021112260610711839 0.043960699927431443 0 -0.018517340215057812 0.044150955386228118 0 -0.02020625385071978 0.041253117116972757 0 -0.014859264075944789 0.050692598243917843 0 -0.016057869219752493 0.050912930836664608 0 -0.015271197961901788 0.052017151707416102 0 -0.016234181918106362 0.052527220545555267 0 -0.015271197961901788 0.052017151707416102 0 -0.015370662317038722 0.05307256751478534 0 -0.015271197961901788 0.052017151707416102 0 -0.014254898123245506 0.05230235926516897 0 -0.015370662317038722 0.05307256751478534 0 -0.021226199565274665 0.05195915010776711 0 -0.018026845316300187 0.05592887669394931 0 -0.023501117486981211 0.059195131543332245 0 -0.022528689476973299 0.056912026954508768 0 -0.02434497733038329 0.05712381307138796 0 -0.023501117486981211 0.059195131543332245 0 -0.022528689476973299 0.056912026954508768 0 -0.021209458721903607 0.058002872089517397 0 -0.021226199565274665 0.05195915010776711 0 -0.025243734975126057 0.056557781021527781 0 -0.022528689476973299 0.056912026954508768 0 -0.021209458721903607 0.058002872089517397 0 -0.020918041370900989 0.056308368355420274 0 -0.022528689476973299 0.056912026954508768 0 -0.020918041370900989 0.056308368355420274 0 -0.022398838568579126 0.054999920589327331 0 -0.01956489165017614 0.055000090425871576 0 -0.020918041370900989 0.056308368355420274 0 -0.022398838568579126 0.054999920589327331 0 -0.022528689476973299 0.056912026954508768 0 -0.022398838568579126 0.054999920589327331 0 -0.02434497733038329 0.05712381307138796 0 -0.022398838568579126 0.054999920589327331 0 -0.02523299624207849 0.054999980232704623 0 -0.02434497733038329 0.05712381307138796 0 -0.025237037305177189 0.054999271271629686 0 -0.026186427250899452 0.054536661278194419 0 -0.026504854745446494 0.054667178219814865 0 -0.025233492185225921 0.05499923842231827 0 -0.025243734975126057 0.056557781021527781 0 -0.026408759928935259 0.054473600905771677 0 -0.026186427250899452 0.054536661278194419 0 -0.026504854745446494 0.054667178219814865 0 -0.026504854745446494 0.054667178219814865 0 -0.027132978445274045 0.053804479457778755 0 -0.026974514217631484 0.055339078345425265 0 -0.026408759928935259 0.054473600905771677 0 -0.026504854745446494 0.054667178219814865 0 -0.027132978445274045 0.053804479457778755 0 -0.025237037305177189 0.054999271271629686 0 -0.026974514217631484 0.055339078345425265 0 -0.027820583819168913 0.054999007982682764 0 -0.025237037305177189 0.054999271271629686 0 -0.026504854745446494 0.054667178219814865 0 -0.026974514217631484 0.055339078345425265 0 -0.026974514217631484 0.055339078345425265 0 -0.027820583819168913 0.054999007982682764 0 -0.029538033204592369 0.056975962490842746 0 -0.02595404594017519 0.05543379346405037 0 -0.030664419705127614 0.054479175282495421 0 -0.030411933758790487 0.055000166893342202 0 -0.029538033204592369 0.056975962490842746 0 -0.032579067236399674 0.056041354836693404 0 -0.027820583819168913 0.054999007982682764 0 -0.030411933758790487 0.055000166893342202 0 -0.029538033204592369 0.056975962490842746 0 -0.030399152299182212 0.051456969182815469 0 -0.030240891449820607 0.053490657730324805 0 -0.033445528018252402 0.052413828010459039 0 -0.030664419705127614 0.054479175282495421 0 -0.035585032622379741 0.053723093758633107 0 -0.027132978445274045 0.053804479457778755 0 -0.030399152299182212 0.051456969182815469 0 -0.030240891449820607 0.053490657730324805 0 -0.026413020615313223 0.053590913572405335 0 -0.030664419705127614 0.054479175282495421 0 -0.027132978445274045 0.053804479457778755 0 -0.026974514217631484 0.055339078345425265 0 -0.025525648846099432 0.05438618939853556 0 -0.027132978445274045 0.053804479457778755 0 -0.028608274206205004 0.054844916750463636 0 -0.030240891449820607 0.053490657730324805 0 -0.030240891449820607 0.053490657730324805 0 -0.031793069853902484 0.054350365696156852 0 -0.033445528018252402 0.052413828010459039 0 -0.028608274206205004 0.054844916750463636 0 -0.030240891449820607 0.053490657730324805 0 -0.031793069853902484 0.054350365696156852 0 -0.028608274206205004 0.054844916750463636 0 -0.031793069853902484 0.054350365696156852 0 -0.031339762157776313 0.056181602479099445 0 -0.031793069853902484 0.054350365696156852 0 -0.031339762157776313 0.056181602479099445 0 -0.032676162401863204 0.055170127457760454 0 -0.031339762157776313 0.056181602479099445 0 -0.033296800166112202 0.055998612458542124 0 -0.032305602555899468 0.057204861830213657 0 -0.031339762157776313 0.056181602479099445 0 -0.033296800166112202 0.055998612458542124 0 -0.032676162401863204 0.055170127457760454 0 -0.028608274206205004 0.054844916750463636 0 -0.031339762157776313 0.056181602479099445 0 -0.028454761252879053 0.056878332974105189 0 -0.035671492876084003 0.055465443968307764 0 -0.037210476664732477 0.055685591288210573 0 -0.037107523885863997 0.056694415356063892 0 -0.035671492876084003 0.055465443968307764 0 -0.035704120465972551 0.053351985178442682 0 -0.03018695131031925 0.046644053901350013 0 -0.035671492876084003 0.055465443968307764 0 -0.036240982533210384 0.053729405294684604 0 -0.037210476664732477 0.055685591288210573 0 -0.034427715658473461 0.055221291932415928 0 -0.040761711115770309 0.04891340726349229 0 -0.035671492876084003 0.055465443968307764 0 -0.035704120465972551 0.053351985178442682 0 -0.035175803944542929 0.054825433318980564 0 -0.035671492876084003 0.055465443968307764 0 -0.035175803944542929 0.054825433318980564 0 -0.034920908661919894 0.054716991411842532 0 -0.036115096643699822 0.053498426367227611 0 -0.038540081940149282 0.052013046883933232 0 -0.035704120465972551 0.053351985178442682 0 -0.034572687281266008 0.0552183425305059 0 -0.035175803944542929 0.054825433318980564 0 -0.035704120465972551 0.053351985178442682 0 -0.034572687281266008 0.0552183425305059 0 -0.03393230312850052 0.057206939827428555 0 -0.034572687281266008 0.0552183425305059 0 -0.033296800166112202 0.055998612458542124 0 -0.03424391658964239 0.054993964125104336 0 -0.034572687281266008 0.0552183425305059 0 -0.033296800166112202 0.055998612458542124 0 -0.03393230312850052 0.057206939827428555 0 -0.032676162401863204 0.055170127457760454 0 -0.03424391658964239 0.054993964125104336 0 -0.034441280592176771 0.054012330192626877 0 -0.033296800166112202 0.055998612458542124 0 -0.032676162401863204 0.055170127457760454 0 -0.03424391658964239 0.054993964125104336 0 -0.034572687281266008 0.0552183425305059 0 -0.035175803944542929 0.054825433318980564 0 -0.03424391658964239 0.054993964125104336 0 -0.035175803944542929 0.054825433318980564 0 -0.03424391658964239 0.054993964125104336 0 -0.034920908661919894 0.054716991411842532 0 -0.036602036251226495 0.05428281075979817 0 -0.035585032622379741 0.053723093758633107 0 -0.031793069853902484 0.054350365696156852 0 -0.032676162401863204 0.055170127457760454 0 -0.034441280592176771 0.054012330192626877 0 -0.034441280592176771 0.054012330192626877 0 -0.036240982533210384 0.053729405294684604 0 -0.033445528018252402 0.052413828010459039 0 -0.03424391658964239 0.054993964125104336 0 -0.034441280592176771 0.054012330192626877 0 -0.034920908661919894 0.054716991411842532 0 -0.031793069853902484 0.054350365696156852 0 -0.034441280592176771 0.054012330192626877 0 -0.033445528018252402 0.052413828010459039 0 -0.034441280592176771 0.054012330192626877 0 -0.034920908661919894 0.054716991411842532 0 -0.036240982533210384 0.053729405294684604 0 -0.035671492876084003 0.055465443968307764 0 -0.034920908661919894 0.054716991411842532 0 -0.036240982533210384 0.053729405294684604 0 -0.037106294638898467 0.054899536729660477 0 -0.03700202969311453 0.054792590723201279 0 -0.036906918284828054 0.054865110607756042 0 -0.03700202969311453 0.054792590723201279 0 -0.037054797762328007 0.05481783308325161 0 -0.036857894790254642 0.054704349649614278 0 -0.037106294638898467 0.054899536729660477 0 -0.03700202969311453 0.054792590723201279 0 -0.036857894790254642 0.054704349649614278 0 -0.036667471043143808 0.054786153518399217 0 -0.036906918284828054 0.054865110607756042 0 -0.037054797762328007 0.05481783308325161 0 -0.03700202969311453 0.054792590723201279 0 -0.036906918284828054 0.054865110607756042 0 -0.037054797762328007 0.05481783308325161 0 -0.030411933758790487 0.055000166893342202 0 -0.032579067236399674 0.056041354836693404 0 -0.033000641627892173 0.054999919821434443 0 -0.030664419705127614 0.054479175282495421 0 -0.035275146584504501 0.055553512981449137 0 -0.037054797762328007 0.05481783308325161 0 -0.035597328292561736 0.054998771690130899 0 -0.036857894790254642 0.054704349649614278 0 -0.035275146584504501 0.055553512981449137 0 -0.035589246629356489 0.055000137387292376 0 -0.032579067236399674 0.056041354836693404 0 -0.033000641627892173 0.054999919821434443 0 -0.035590046814203039 0.055000039982819049 0 -0.035597328292561736 0.054998771690130899 0 -0.037556970463898297 0.054994121998150264 0 -0.036857894790254642 0.054704349649614278 0 -0.035597328292561736 0.054998771690130899 0 -0.037556970463898297 0.054994121998150264 0 -0.038734754290558754 0.054998115214386377 0 -0.037556970463898297 0.054994121998150264 0 -0.03830483239162321 0.054801548051513334 0 -0.036857894790254642 0.054704349649614278 0 -0.03830483239162321 0.054801548051513334 0 -0.039868260525636613 0.05463333607866902 0 -0.03894298322174064 0.054764540534536929 0 -0.037556970463898297 0.054994121998150264 0 -0.03830483239162321 0.054801548051513334 0 -0.039038730988795713 0.0548822634662006 0 -0.03830483239162321 0.054801548051513334 0 -0.036857894790254642 0.054704349649614278 0 -0.037632502403010686 0.054832967610863606 0 -0.037106294638898467 0.054899536729660477 0 -0.036857894790254642 0.054704349649614278 0 -0.037632502403010686 0.054832967610863606 0 -0.039933579698380517 0.054919372401809094 0 -0.038734754290558754 0.054998115214386377 0 -0.041879859657690345 0.05499963173124197 0 -0.040202210927262776 0.054918031833022324 0 -0.042423260171977374 0.055001882875273578 0 -0.039933579698380517 0.054919372401809094 0 -0.038734754290558754 0.054998115214386377 0 -0.039038730988795713 0.0548822634662006 0 -0.037556970463898297 0.054994121998150264 0 -0.038734754290558754 0.054998115214386377 0 -0.039038730988795713 0.0548822634662006 0 -0.03830483239162321 0.054801548051513334 0 -0.039038730988795713 0.0548822634662006 0 -0.039868260525636613 0.05463333607866902 0 -0.039933579698380517 0.054919372401809094 0 -0.039038730988795713 0.0548822634662006 0 -0.039868260525636613 0.05463333607866902 0 -0.039933579698380517 0.054919372401809094 0 -0.041246096967244905 0.05431032304186155 0 -0.042212734348876145 0.053650907951481162 0 -0.039933579698380517 0.054919372401809094 0 -0.039868260525636613 0.05463333607866902 0 -0.041246096967244905 0.05431032304186155 0 -0.039868260525636613 0.05463333607866902 0 -0.041246096967244905 0.05431032304186155 0 -0.040688301048146802 0.054476989257623662 0 -0.041246096967244905 0.05431032304186155 0 -0.040688301048146802 0.054476989257623662 0 -0.042853484061631766 0.053778322871621508 0 -0.039868260525636613 0.05463333607866902 0 -0.040688301048146802 0.054476989257623662 0 -0.03894298322174064 0.054764540534536929 0 -0.040688301048146802 0.054476989257623662 0 -0.03894298322174064 0.054764540534536929 0 -0.039563916534047651 0.055056025317315155 0 -0.040688301048146802 0.054476989257623662 0 -0.041067065746788485 0.054782491110677969 0 -0.039563916534047651 0.055056025317315155 0 -0.040688301048146802 0.054476989257623662 0 -0.041067065746788485 0.054782491110677969 0 -0.042853484061631766 0.053778322871621508 0 -0.037106294638898467 0.054899536729660477 0 -0.037632502403010686 0.054832967610863606 0 -0.038103591072672978 0.054944588180657027 0 -0.036240982533210384 0.053729405294684604 0 -0.038103591072672978 0.054944588180657027 0 -0.037210476664732477 0.055685591288210573 0 -0.036602036251226495 0.05428281075979817 0 -0.03795814053650709 0.054892523718204106 0 -0.037632502403010686 0.054832967610863606 0 -0.038103591072672978 0.054944588180657027 0 -0.03894298322174064 0.054764540534536929 0 -0.03830483239162321 0.054801548051513334 0 -0.037632502403010686 0.054832967610863606 0 -0.03894298322174064 0.054764540534536929 0 -0.038103591072672978 0.054944588180657027 0 -0.03894298322174064 0.054764540534536929 0 -0.039563916534047651 0.055056025317315155 0 -0.038103591072672978 0.054944588180657027 0 -0.039563916534047651 0.055056025317315155 0 -0.038312606213488344 0.055716183286748544 0 -0.039563916534047651 0.055056025317315155 0 -0.038312606213488344 0.055716183286748544 0 -0.039489323309498545 0.056270163476532221 0 -0.038103591072672978 0.054944588180657027 0 -0.038312606213488344 0.055716183286748544 0 -0.037210476664732477 0.055685591288210573 0 -0.038312606213488344 0.055716183286748544 0 -0.037210476664732477 0.055685591288210573 0 -0.037107523885863997 0.056694415356063892 0 -0.038312606213488344 0.055716183286748544 0 -0.039489323309498545 0.056270163476532221 0 -0.037107523885863997 0.056694415356063892 0 -0.046569646671995139 0.053086749930858546 0 -0.040761711115770309 0.04891340726349229 0 -0.051955950157336464 0.048985719011256486 0 -0.052590148718792348 0.048046318262576333 0 -0.052654946695154498 0.048421435187165962 0 -0.046281776869395462 0.046505586009299306 0 -0.040761711115770309 0.04891340726349229 0 -0.039184335490701244 0.043561442994981457 0 -0.03936140614973041 0.044704141314379595 0 -0.039843697385225862 0.043915224315429262 0 -0.051955950157336464 0.048985719011256486 0 -0.052130225160482539 0.047991920391616837 0 -0.051308189155383717 0.047662336322789857 0 -0.051955950157336464 0.048985719011256486 0 -0.052130225160482539 0.047991920391616837 0 -0.052590148718792348 0.048046318262576333 0 -0.052130225160482539 0.047991920391616837 0 -0.051308189155383717 0.047662336322789857 0 -0.052554923908662725 0.047111189413092149 0 -0.046281776869395462 0.046505586009299306 0 -0.044589581912664149 0.041087620843734032 0 -0.052130225160482539 0.047991920391616837 0 -0.052590148718792348 0.048046318262576333 0 -0.052554923908662725 0.047111189413092149 0 -0.039184335490701244 0.043561442994981457 0 -0.039175196173200651 0.043440983072561619 0 -0.039419881634595921 0.043332596405315622 0 -0.041067065746788485 0.054782491110677969 0 -0.042199386810541528 0.054733294404206191 0 -0.042853484061631766 0.053778322871621508 0 -0.046569646671995139 0.053086749930858546 0 -0.045602357371851067 0.052161330258996837 0 -0.041067065746788485 0.054782491110677969 0 -0.039563916534047651 0.055056025317315155 0 -0.039489323309498545 0.056270163476532221 0 -0.041067065746788485 0.054782491110677969 0 -0.039489323309498545 0.056270163476532221 0 -0.042199386810541528 0.054733294404206191 0 -0.051955950157336464 0.048985719011256486 0 -0.049942347875444951 0.04996461323809559 0 -0.051308189155383717 0.047662336322789857 0 -0.049942347875444951 0.04996461323809559 0 -0.051308189155383717 0.047662336322789857 0 -0.049800455911073294 0.046400413170879458 0 -0.049942347875444951 0.04996461323809559 0 -0.049800455911073294 0.046400413170879458 0 -0.047934147479933562 0.046522420557199691 0 -0.051308189155383717 0.047662336322789857 0 -0.049800455911073294 0.046400413170879458 0 -0.050909255975171923 0.045153822338605057 0 -0.048620888569476273 0.042295164677448843 0 -0.046451910699068281 0.040601139412145687 0 -0.049800455911073294 0.046400413170879458 0 -0.047934147479933562 0.046522420557199691 0 -0.048482867863703524 0.042827895889008018 0 -0.049800455911073294 0.046400413170879458 0 -0.050909255975171923 0.045153822338605057 0 -0.048482867863703524 0.042827895889008018 0 -0.044589581912664149 0.041087620843734032 0 -0.039157222116982714 0.03949737037952971 0 -0.041526234606407246 0.035342842658087799 0 -0.040641996982116547 0.035626848112372871 0 -0.039872768096908602 0.035853579306413176 0 -0.041205169343528768 0.035631791479950319 0 -0.041526234606407246 0.035342842658087799 0 -0.041757625463222654 0.035876893735832284 0 -0.041205169343528768 0.035631791479950319 0 -0.041526234606407246 0.035342842658087799 0 -0.040641996982116547 0.035626848112372871 0 -0.041205169343528768 0.035631791479950319 0 -0.040958921671461354 0.035668625992501056 0 -0.040641996982116547 0.035626848112372871 0 -0.048620888569476273 0.042295164677448843 0 -0.044589581912664149 0.041087620843734032 0 -0.051308189155383717 0.047662336322789857 0 -0.050909255975171923 0.045153822338605057 0 -0.052554923908662725 0.047111189413092149 0 -0.044589581912664149 0.041087620843734032 0 -0.043395966875977195 0.036392471492782109 0 -0.044543197246828356 0.038508391845886447 0 -0.044862411910503358 0.03881442498582692 0 -0.044635698380950863 0.038444786374288747 0 -0.041526234606407246 0.035342842658087799 0 -0.041757625463222654 0.035876893735832284 0 -0.042973118063025555 0.036062159265424311 0 -0.041757625463222654 0.035876893735832284 0 -0.040958921671461354 0.035668625992501056 0 -0.041419313378319542 0.03607264329764745 0 -0.041205169343528768 0.035631791479950319 0 -0.041757625463222654 0.035876893735832284 0 -0.040958921671461354 0.035668625992501056 0 -0.040958921671461354 0.035668625992501056 0 -0.040863513459667794 0.035912350098210234 0 -0.041419313378319542 0.03607264329764745 0 -0.040958921671461354 0.035668625992501056 0 -0.040677671727888089 0.035607327446331029 0 -0.040863513459667794 0.035912350098210234 0 -0.040958921671461354 0.035668625992501056 0 -0.040763599330407942 0.035618344812628377 0 -0.040641996982116547 0.035626848112372871 0 -0.040958921671461354 0.035668625992501056 0 -0.040763599330407942 0.035618344812628377 0 -0.040677671727888089 0.035607327446331029 0 -0.040513508667849779 0.035804314779613579 0 -0.040641996982116547 0.035626848112372871 0 -0.039872768096908602 0.035853579306413176 0 -0.040763599330407942 0.035618344812628377 0 -0.040513508667849779 0.035804314779613579 0 -0.040641996982116547 0.035626848112372871 0 -0.040615724930513825 0.035543733578719101 0 -0.040341476825135031 0.035499892837921779 0 -0.04035457295452545 0.035403244712564751 0 -0.040615724930513825 0.035543733578719101 0 -0.04035457295452545 0.035403244712564751 0 -0.04035392717820057 0.035307910218072364 0 -0.040763599330407942 0.035618344812628377 0 -0.040615724930513825 0.035543733578719101 0 -0.040776259605501061 0.035783157160199232 0 -0.040763599330407942 0.035618344812628377 0 -0.040615724930513825 0.035543733578719101 0 -0.040677671727888089 0.035607327446331029 0 -0.040615724930513825 0.035543733578719101 0 -0.040677671727888089 0.035607327446331029 0 -0.040341476825135031 0.035499892837921779 0 -0.040677671727888089 0.035607327446331029 0 -0.04028045593417267 0.035620696094504613 0 -0.040863513459667794 0.035912350098210234 0 -0.040677671727888089 0.035607327446331029 0 -0.04028045593417267 0.035620696094504613 0 -0.040341476825135031 0.035499892837921779 0 -0.04028045593417267 0.035620696094504613 0 -0.039875084265966178 0.035529905824261319 0 -0.039672724667761464 0.035553460639647372 0 -0.04028045593417267 0.035620696094504613 0 -0.039875084265966178 0.035529905824261319 0 -0.040341476825135031 0.035499892837921779 0 -0.038805183137619298 0.035456886009051024 0 -0.038770121389883595 0.035646463955928381 0 -0.039672724667761464 0.035553460639647372 0 -0.039875084265966178 0.035529905824261319 0 -0.039672724667761464 0.035553460639647372 0 -0.03945602810306257 0.035490652850836822 0 -0.038770121389883595 0.035646463955928381 0 -0.039672724667761464 0.035553460639647372 0 -0.03945602810306257 0.035490652850836822 0 -0.038770121389883595 0.035646463955928381 0 -0.03905305634415529 0.035376171437155109 0 -0.03945602810306257 0.035490652850836822 0 -0.03905305634415529 0.035376171437155109 0 -0.03945602810306257 0.035490652850836822 0 -0.039650116849142159 0.035157816928736901 0 -0.03945602810306257 0.035490652850836822 0 -0.039650116849142159 0.035157816928736901 0 -0.039884218419553696 0.035378314485722206 0 -0.039875084265966178 0.035529905824261319 0 -0.03945602810306257 0.035490652850836822 0 -0.039884218419553696 0.035378314485722206 0 -0.03905305634415529 0.035376171437155109 0 -0.039650116849142159 0.035157816928736901 0 -0.0392780132115291 0.034551993259082578 0 -0.039875084265966178 0.035529905824261319 0 -0.040341476825135031 0.035499892837921779 0 -0.039884218419553696 0.035378314485722206 0 -0.040341476825135031 0.035499892837921779 0 -0.039884218419553696 0.035378314485722206 0 -0.040091978121615551 0.035241172702301746 0 -0.039650116849142159 0.035157816928736901 0 -0.039884218419553696 0.035378314485722206 0 -0.040091978121615551 0.035241172702301746 0 -0.039650116849142159 0.035157816928736901 0 -0.040091978121615551 0.035241172702301746 0 -0.039768079284717379 0.034977625601857833 0 -0.040091978121615551 0.035241172702301746 0 -0.04035457295452545 0.035403244712564751 0 -0.04035392717820057 0.035307910218072364 0 -0.040341476825135031 0.035499892837921779 0 -0.040091978121615551 0.035241172702301746 0 -0.04035457295452545 0.035403244712564751 0 -0.040030003511245131 0.034960333563628827 0 -0.0392780132115291 0.034551993259082578 0 -0.040169472243897171 0.034856106999521651 0 -0.040091978121615551 0.035241172702301746 0 -0.04035392717820057 0.035307910218072364 0 -0.040030003511245131 0.034960333563628827 0 -0.04035392717820057 0.035307910218072364 0 -0.040030003511245131 0.034960333563628827 0 -0.040335260243761932 0.035137788257793331 0 -0.040091978121615551 0.035241172702301746 0 -0.040030003511245131 0.034960333563628827 0 -0.039768079284717379 0.034977625601857833 0 -0.040030003511245131 0.034960333563628827 0 -0.040335260243761932 0.035137788257793331 0 -0.040169472243897171 0.034856106999521651 0 -0.032053085856789267 0.038354749729914012 0 -0.035595085386568394 0.045246327577985371 0 -0.025353156465237885 0.04378968985269862 0 -0.025419976355563905 0.045537423669136927 0 -0.025240780245823023 0.045941201008453759 0 -0.040030003511245131 0.034960333563628827 0 -0.0392780132115291 0.034551993259082578 0 -0.039768079284717379 0.034977625601857833 0 -0.039650116849142159 0.035157816928736901 0 -0.0392780132115291 0.034551993259082578 0 -0.039768079284717379 0.034977625601857833 0 -0.025645656133329423 0.045786180068984925 0 -0.025353156465237885 0.04378968985269862 0 -0.025419976355563905 0.045537423669136927 0 -0.025516111104173393 0.044737232355519289 0 -0.025419976355563905 0.045537423669136927 0 -0.025240780245823023 0.045941201008453759 0 -0.025948058966137277 0.0512612305928586 0 -0.035595085386568394 0.045246327577985371 0 -0.025516111104173393 0.044737232355519289 0 -0.025419976355563905 0.045537423669136927 0 -0.02515148192567529 0.045362510104742168 0 -0.025645656133329423 0.045786180068984925 0 -0.025419976355563905 0.045537423669136927 0 -0.02515148192567529 0.045362510104742168 0 -0.031339762157776313 0.056181602479099445 0 -0.03154694101060538 0.058529458597104823 0 -0.032305602555899468 0.057204861830213657 0 -0.031339762157776313 0.056181602479099445 0 -0.028454761252879053 0.056878332974105189 0 -0.03154694101060538 0.058529458597104823 0 -0.03154694101060538 0.058529458597104823 0 -0.032305602555899468 0.057204861830213657 0 -0.03393230312850052 0.057206939827428555 0 -0.035595085386568394 0.045246327577985371 0 -0.038540081940149282 0.052013046883933232 0 -0.033296800166112202 0.055998612458542124 0 -0.032305602555899468 0.057204861830213657 0 -0.03393230312850052 0.057206939827428555 0 -0.048970369749773715 0.043858073188166119 0 -0.043763260648071574 0.04436922382825241 0 -0.043605609603679533 0.040919955534605125 0 -0.035595085386568394 0.045246327577985371 0 -0.042601868444109889 0.038569691231045582 0 -0.048970369749773715 0.043858073188166119 0 -0.044085436621877638 0.047508771074617658 0 -0.043763260648071574 0.04436922382825241 0 -0.043763260648071574 0.04436922382825241 0 -0.042219407097770667 0.043011860088469932 0 -0.043605609603679533 0.040919955534605125 0 -0.043763260648071574 0.04436922382825241 0 -0.042219407097770667 0.043011860088469932 0 -0.041797337598315762 0.04471017047846193 0 -0.041797337598315762 0.04471017047846193 0 -0.041251816297441096 0.046388393810573164 0 -0.040685811581797938 0.044658831468668933 0 -0.042219407097770667 0.043011860088469932 0 -0.041797337598315762 0.04471017047846193 0 -0.040685811581797938 0.044658831468668933 0 -0.035704120465972551 0.053351985178442682 0 -0.044085436621877638 0.047508771074617658 0 -0.041251816297441096 0.046388393810573164 0 -0.044085436621877638 0.047508771074617658 0 -0.043763260648071574 0.04436922382825241 0 -0.041251816297441096 0.046388393810573164 0 -0.043763260648071574 0.04436922382825241 0 -0.041797337598315762 0.04471017047846193 0 -0.041251816297441096 0.046388393810573164 0 -0.035704120465972551 0.053351985178442682 0 -0.041251816297441096 0.046388393810573164 0 -0.03018695131031925 0.046644053901350013 0 -0.041251816297441096 0.046388393810573164 0 -0.03936140614973041 0.044704141314379595 0 -0.040685811581797938 0.044658831468668933 0 -0.038686642087733945 0.045988643251455956 0 -0.040761711115770309 0.04891340726349229 0 -0.03936140614973041 0.044704141314379595 0 -0.039843697385225862 0.043915224315429262 0 -0.040685811581797938 0.044658831468668933 0 -0.042219407097770667 0.043011860088469932 0 -0.039843697385225862 0.043915224315429262 0 -0.040685811581797938 0.044658831468668933 0 -0.042753770143323336 0.042930076775972388 0 -0.039157222116982714 0.03949737037952971 0 -0.042219407097770667 0.043011860088469932 0 -0.039843697385225862 0.043915224315429262 0 -0.039419881634595921 0.043332596405315622 0 -0.042219407097770667 0.043011860088469932 0 -0.039872768096908602 0.035853579306413176 0 -0.040948798791890763 0.036465882512892879 0 -0.039184335490701244 0.043561442994981457 0 -0.039843697385225862 0.043915224315429262 0 -0.039419881634595921 0.043332596405315622 0 -0.040513508667849779 0.035804314779613579 0 -0.039872768096908602 0.035853579306413176 0 -0.040948798791890763 0.036465882512892879 0 -0.040763599330407942 0.035618344812628377 0 -0.040513508667849779 0.035804314779613579 0 -0.040948798791890763 0.036465882512892879 0 -0.040763599330407942 0.035618344812628377 0 -0.040948798791890763 0.036465882512892879 0 -0.040776259605501061 0.035783157160199232 0 -0.040948798791890763 0.036465882512892879 0 -0.040776259605501061 0.035783157160199232 0 -0.040645040386267192 0.035176230543855505 0 -0.040776259605501061 0.035783157160199232 0 -0.040545796046295185 0.035447206044617652 0 -0.040645040386267192 0.035176230543855505 0 -0.040615724930513825 0.035543733578719101 0 -0.040776259605501061 0.035783157160199232 0 -0.040545796046295185 0.035447206044617652 0 -0.040615724930513825 0.035543733578719101 0 -0.04035392717820057 0.035307910218072364 0 -0.040545796046295185 0.035447206044617652 0 -0.04035392717820057 0.035307910218072364 0 -0.040335260243761932 0.035137788257793331 0 -0.040545796046295185 0.035447206044617652 0 -0.040335260243761932 0.035137788257793331 0 -0.040169472243897171 0.034856106999521651 0 -0.040645040386267192 0.035176230543855505 0 -0.040335260243761932 0.035137788257793331 0 -0.040545796046295185 0.035447206044617652 0 -0.040645040386267192 0.035176230543855505 0 -0.042219407097770667 0.043011860088469932 0 -0.040948798791890763 0.036465882512892879 0 -0.043605609603679533 0.040919955534605125 0 -0.040495358134023843 0.036600054688502651 0 -0.042601868444109889 0.038569691231045582 0 -0.054994267189533597 0.054997719874751896 0 -0.054137715432865594 0.053337580784351114 0 -0.054997082307711609 0.045815330563700955 0 -0.05450085497179577 0.05081578652349944 0 -0.054137715432865594 0.053337580784351114 0 -0.054997082307711609 0.045815330563700955 0 -0.05450085497179577 0.05081578652349944 0 -0.053366045708014745 0.052477130549426633 0 -0.054931440043426503 0.049320893889813595 0 -0.054867894246012038 0.049292832120473931 0 -0.05450085497179577 0.05081578652349944 0 -0.054931440043426503 0.049320893889813595 0 -0.05450085497179577 0.05081578652349944 0 -0.054137715432865594 0.053337580784351114 0 -0.053366045708014745 0.052477130549426633 0 -0.054994267189533597 0.054997719874751896 0 -0.054137715432865594 0.053337580784351114 0 -0.051209691355327706 0.054553610287317464 0 -0.054994267189533597 0.054997719874751896 0 -0.04818397155053792 0.054994912706312078 0 -0.051209691355327706 0.054553610287317464 0 -0.054137715432865594 0.053337580784351114 0 -0.051209691355327706 0.054553610287317464 0 -0.053366045708014745 0.052477130549426633 0 -0.04818397155053792 0.054994912706312078 0 -0.051209691355327706 0.054553610287317464 0 -0.049487973332472145 0.055095665585659793 0 -0.051209691355327706 0.054553610287317464 0 -0.053366045708014745 0.052477130549426633 0 -0.052235028143044072 0.054039846791783752 0 -0.051209691355327706 0.054553610287317464 0 -0.052235028143044072 0.054039846791783752 0 -0.052159354326933527 0.05462837981173338 0 -0.051977391428100962 0.05471605452961345 0 -0.047204302053248319 0.054532484925153196 0 -0.039826737693820169 0.053700249286845823 0 -0.041824117933041909 0.052838284473134822 0 -0.041656362281907965 0.055300362890977339 0 -0.046305350472065819 0.053154122767258206 0 -0.044668561674714009 0.054820203324638626 0 -0.046305350472065819 0.053154122767258206 0 -0.050344547119601707 0.048810363431346641 0 -0.039826737693820169 0.053700249286845823 0 -0.041824117933041909 0.052838284473134822 0 -0.041270830710578084 0.050856373039264213 0 -0.041824117933041909 0.052838284473134822 0 -0.043085263921923814 0.052819203767846837 0 -0.042757574616076995 0.053598571479417621 0 -0.043085263921923814 0.052819203767846837 0 -0.042757574616076995 0.053598571479417621 0 -0.043093172706208459 0.053553564057194587 0 -0.042757574616076995 0.053598571479417621 0 -0.042735309273859587 0.05380024894819329 0 -0.042763548987164321 0.053835950984928223 0 -0.042757574616076995 0.053598571479417621 0 -0.042318235570772841 0.053702930701465937 0 -0.042551195651605117 0.053854455476450978 0 -0.041824117933041909 0.052838284473134822 0 -0.042757574616076995 0.053598571479417621 0 -0.042318235570772841 0.053702930701465937 0 -0.041824117933041909 0.052838284473134822 0 -0.042318235570772841 0.053702930701465937 0 -0.042129618066088219 0.053920403298052789 0 -0.041095417677343753 0.052846378668013935 0 -0.044668561674714009 0.054820203324638626 0 -0.042217377401324259 0.053944467893589178 0 -0.042177238217648766 0.05410640198860172 0 -0.042551195651605117 0.053854455476450978 0 -0.042318235570772841 0.053702930701465937 0 -0.042217377401324259 0.053944467893589178 0 -0.042129618066088219 0.053920403298052789 0 -0.042177238217648766 0.05410640198860172 0 -0.042774875016257721 0.053866668612335161 0 -0.042551195651605117 0.053854455476450978 0 -0.047204302053248319 0.054532484925153196 0 -0.043505464649364306 0.055349589698625218 0 -0.044081579606902142 0.054407345514647092 0 -0.044668561674714009 0.054820203324638626 0 -0.042318235570772841 0.053702930701465937 0 -0.042217377401324259 0.053944467893589178 0 -0.042551195651605117 0.053854455476450978 0 -0.044668561674714009 0.054820203324638626 0 -0.047204302053248319 0.054532484925153196 0 -0.042217377401324259 0.053944467893589178 0 -0.042169898236149375 0.053900393570301318 0 -0.042177238217648766 0.05410640198860172 0 -0.048170334360748544 0.054999949568212872 0 -0.046591192246119885 0.055879182364991967 0 -0.045025254703867638 0.05499995305924029 0 -0.048170334360748544 0.054999949568212872 0 -0.047965728386538536 0.056841418693590946 0 -0.046591192246119885 0.055879182364991967 0 -0.047965728386538536 0.056841418693590946 0 -0.046591192246119885 0.055879182364991967 0 -0.045211344596008264 0.056672382983081047 0 -0.048170681998290665 0.055001047514544217 0 -0.047204302053248319 0.054532484925153196 0 -0.046591192246119885 0.055879182364991967 0 -0.045025254703867638 0.05499995305924029 0 -0.045211344596008264 0.056672382983081047 0 -0.042774875016257721 0.053866668612335161 0 -0.042551195651605117 0.053854455476450978 0 -0.042735309273859587 0.05380024894819329 0 -0.042757574616076995 0.053598571479417621 0 -0.042551195651605117 0.053854455476450978 0 -0.042735309273859587 0.05380024894819329 0 -0.042774875016257721 0.053866668612335161 0 -0.042735309273859587 0.05380024894819329 0 -0.042763548987164321 0.053835950984928223 0 -0.042774875016257721 0.053866668612335161 0 -0.042763548987164321 0.053835950984928223 0 -0.042212734348876145 0.053650907951481162 0 -0.042763548987164321 0.053835950984928223 0 -0.042212734348876145 0.053650907951481162 0 -0.04247147399204175 0.053973289410101211 0 -0.045025254703867638 0.05499995305924029 0 -0.045211344596008264 0.056672382983081047 0 -0.042395684801075896 0.056309163424075416 0 -0.045025254703867638 0.05499995305924029 0 -0.042395684801075896 0.056309163424075416 0 -0.041879859657690345 0.05499963173124197 0 -0.043505464649364306 0.055349589698625218 0 -0.042423260171977374 0.055001882875273578 0 -0.039933579698380517 0.054919372401809094 0 -0.042395684801075896 0.056309163424075416 0 -0.041879859657690345 0.05499963173124197 0 -0.041246096967244905 0.05431032304186155 0 -0.042212734348876145 0.053650907951481162 0 -0.04247147399204175 0.053973289410101211 0 -0.04247147399204175 0.053973289410101211 0 -0.043093172706208459 0.053553564057194587 0 -0.042853484061631766 0.053778322871621508 0 -0.041246096967244905 0.05431032304186155 0 -0.04247147399204175 0.053973289410101211 0 -0.042853484061631766 0.053778322871621508 0 -0.042757574616076995 0.053598571479417621 0 -0.042763548987164321 0.053835950984928223 0 -0.043093172706208459 0.053553564057194587 0 -0.042763548987164321 0.053835950984928223 0 -0.04247147399204175 0.053973289410101211 0 -0.043093172706208459 0.053553564057194587 0 -0.043093172706208459 0.053553564057194587 0 -0.042853484061631766 0.053778322871621508 0 -0.043898543804237376 0.052577968604053026 0 -0.043085263921923814 0.052819203767846837 0 -0.043093172706208459 0.053553564057194587 0 -0.043898543804237376 0.052577968604053026 0 -0.042853484061631766 0.053778322871621508 0 -0.043898543804237376 0.052577968604053026 0 -0.045415999819957253 0.051252971439625636 0 -0.042199386810541528 0.054733294404206191 0 -0.042853484061631766 0.053778322871621508 0 -0.045415999819957253 0.051252971439625636 0 -0.045602357371851067 0.052161330258996837 0 -0.045247739104656785 0.051440872742617529 0 -0.043898543804237376 0.052577968604053026 0 -0.045415999819957253 0.051252971439625636 0 -0.043476304277230197 0.050560484206819904 0 -0.045415999819957253 0.051252971439625636 0 -0.045958105648339312 0.046942062015018916 0 -0.043476304277230197 0.050560484206819904 0 -0.045415999819957253 0.051252971439625636 0 -0.047934147479933562 0.046522420557199691 0 -0.045958105648339312 0.046942062015018916 0 -0.049942347875444951 0.04996461323809559 0 -0.045415999819957253 0.051252971439625636 0 -0.047934147479933562 0.046522420557199691 0 -0.047934147479933562 0.046522420557199691 0 -0.04683932415684474 0.044289718593324819 0 -0.048482867863703524 0.042827895889008018 0 -0.04683932415684474 0.044289718593324819 0 -0.045958105648339312 0.046942062015018916 0 -0.04597020846324984 0.04341942907658581 0 -0.047934147479933562 0.046522420557199691 0 -0.04683932415684474 0.044289718593324819 0 -0.045958105648339312 0.046942062015018916 0 -0.04597020846324984 0.04341942907658581 0 -0.041142080490818335 0.047623350885087859 0 -0.043476304277230197 0.050560484206819904 0 -0.045958105648339312 0.046942062015018916 0 -0.04597020846324984 0.04341942907658581 0 -0.043476304277230197 0.050560484206819904 0 -0.04683932415684474 0.044289718593324819 0 -0.04597020846324984 0.04341942907658581 0 -0.046513737567468426 0.042740274991874015 0 -0.04597020846324984 0.04341942907658581 0 -0.049592410096448117 0.042573686940058655 0 -0.046513737567468426 0.042740274991874015 0 -0.04597020846324984 0.04341942907658581 0 -0.049592410096448117 0.042573686940058655 0 -0.050962574419274084 0.040942724736671841 0 -0.045944016944325934 0.043553403280426707 0 -0.046192200712692727 0.04435582782611585 0 -0.041142080490818335 0.047623350885087859 0 -0.043476304277230197 0.050560484206819904 0 -0.041270830710578084 0.050856373039264213 0 -0.041824117933041909 0.052838284473134822 0 -0.043085263921923814 0.052819203767846837 0 -0.043476304277230197 0.050560484206819904 0 -0.043085263921923814 0.052819203767846837 0 -0.043898543804237376 0.052577968604053026 0 -0.043476304277230197 0.050560484206819904 0 -0.041824117933041909 0.052838284473134822 0 -0.043476304277230197 0.050560484206819904 0 -0.041270830710578084 0.050856373039264213 0 -0.039826737693820169 0.053700249286845823 0 -0.041270830710578084 0.050856373039264213 0 -0.039506706519141115 0.050306294878563029 0 -0.039826737693820169 0.053700249286845823 0 -0.039506706519141115 0.050306294878563029 0 -0.038134488475205966 0.051986807352294918 0 -0.045679647756358278 0.046148568858697961 0 -0.050344547119601707 0.048810363431346641 0 -0.046192200712692727 0.04435582782611585 0 -0.045679647756358278 0.046148568858697961 0 -0.041142080490818335 0.047623350885087859 0 -0.041270830710578084 0.050856373039264213 0 -0.039506706519141115 0.050306294878563029 0 -0.053424640532081027 0.042121309334620598 0 -0.052557516967903818 0.04186563284174559 0 -0.054348654799762995 0.042373431226765602 0 -0.050962574419274084 0.040942724736671841 0 -0.053424640532081027 0.042121309334620598 0 -0.052557516967903818 0.04186563284174559 0 -0.049592410096448117 0.042573686940058655 0 -0.050962574419274084 0.040942724736671841 0 -0.052557516967903818 0.04186563284174559 0 -0.049592410096448117 0.042573686940058655 0 -0.052557516967903818 0.04186563284174559 0 -0.052406067419987962 0.042026710573173615 0 -0.052557516967903818 0.04186563284174559 0 -0.053877023161551442 0.041655355710571558 0 -0.052406067419987962 0.042026710573173615 0 -0.052557516967903818 0.04186563284174559 0 -0.054348654799762995 0.042373431226765602 0 -0.053877023161551442 0.041655355710571558 0 -0.054348654799762995 0.042373431226765602 0 -0.054998829329750032 0.042621567117287561 0 -0.054660467169716676 0.043616475587877949 0 -0.054348654799762995 0.042373431226765602 0 -0.054757341500553884 0.041363022910004876 0 -0.053877023161551442 0.041655355710571558 0 -0.054348654799762995 0.042373431226765602 0 -0.054998829329750032 0.042621567117287561 0 -0.054757341500553884 0.041363022910004876 0 -0.054998829329750032 0.042621567117287561 0 -0.054998403195721288 0.045796130478126792 0 -0.054660467169716676 0.043616475587877949 0 -0.054998403195721288 0.045796130478126792 0 -0.054660467169716676 0.043616475587877949 0 -0.054464458126852147 0.042844434785783647 0 -0.054867894246012038 0.049292832120473931 0 -0.05450085497179577 0.05081578652349944 0 -0.054997082307711609 0.045815330563700955 0 -0.053424640532081027 0.042121309334620598 0 -0.054348654799762995 0.042373431226765602 0 -0.054660467169716676 0.043616475587877949 0 -0.053424640532081027 0.042121309334620598 0 -0.054660467169716676 0.043616475587877949 0 -0.054464458126852147 0.042844434785783647 0 -0.051030683524589178 0.048521907956353832 0 -0.050344547119601707 0.048810363431346641 0 -0.055003085843836126 0.045804830871311479 0 -0.050344547119601707 0.048810363431346641 0 -0.054867894246012038 0.049292832120473931 0 -0.054997082307711609 0.045815330563700955 0 -0.055018727100536541 0.049173949244703766 0 -0.055576279188315675 0.035192829804042446 0 -0.05625791465298248 0.035299347854899368 0 -0.055000145334498096 0.036243944158548029 0 -0.055576279188315675 0.035192829804042446 0 -0.056000172322846653 0.034707459400112411 0 -0.054999517265846877 0.034072010536885612 0 -0.055576279188315675 0.035192829804042446 0 -0.055000145334498096 0.036243944158548029 0 -0.054999517265846877 0.034072010536885612 0 -0.055576279188315675 0.035192829804042446 0 -0.056063291211130198 0.035040325344082073 0 -0.05625791465298248 0.035299347854899368 0 -0.055576279188315675 0.035192829804042446 0 -0.056063291211130198 0.035040325344082073 0 -0.056000172322846653 0.034707459400112411 0 -0.056063291211130198 0.035040325344082073 0 -0.056209947710801518 0.035013098471534325 0 -0.056000172322846653 0.034707459400112411 0 -0.056063291211130198 0.035040325344082073 0 -0.05625791465298248 0.035299347854899368 0 -0.056209947710801518 0.035013098471534325 0 -0.05457773004247974 0.038996330704657772 0 -0.054999262143513604 0.036253555313042779 0 -0.05450288099478711 0.040407517078123865 0 -0.05604291058742758 0.036870915364941491 0 -0.054998166930246985 0.036246851095567731 0 -0.054999262143513604 0.036253555313042779 0 -0.054998016123406733 0.039432285404109785 0 -0.05450288099478711 0.040407517078123865 0 -0.054998829329750032 0.042621567117287561 0 -0.054998016123406733 0.039432285404109785 0 -0.054757341500553884 0.041363022910004876 0 -0.054998016123406733 0.039432285404109785 0 -0.054757341500553884 0.041363022910004876 0 -0.05450288099478711 0.040407517078123865 0 -0.054757341500553884 0.041363022910004876 0 -0.05450288099478711 0.040407517078123865 0 -0.053877023161551442 0.041655355710571558 0 -0.05450288099478711 0.040407517078123865 0 -0.052406067419987962 0.042026710573173615 0 -0.05410580319659522 0.040480773699063582 0 -0.05450288099478711 0.040407517078123865 0 -0.053877023161551442 0.041655355710571558 0 -0.052406067419987962 0.042026710573173615 0 -0.05242223817659291 0.041579789802596447 0 -0.052330368301546706 0.042048238746286479 0 -0.052406067419987962 0.042026710573173615 0 -0.050586862857991327 0.042907063700251005 0 -0.048337236863565183 0.042534955496777833 0 -0.052330368301546706 0.042048238746286479 0 -0.051637580115910325 0.039298061634208549 0 -0.050586862857991327 0.042907063700251005 0 -0.049968391880817746 0.043707144009326772 0 -0.048578223300892683 0.042604720942983516 0 -0.05604291058742758 0.036870915364941491 0 -0.051637580115910325 0.039298061634208549 0 -0.05457773004247974 0.038996330704657772 0 -0.05410580319659522 0.040480773699063582 0 -0.054398628189133352 0.03979073969239301 0 -0.05457773004247974 0.038996330704657772 0 -0.05450288099478711 0.040407517078123865 0 -0.05410580319659522 0.040480773699063582 0 -0.05625791465298248 0.035299347854899368 0 -0.056209947710801518 0.035013098471534325 0 -0.056258566263532414 0.03514818252965584 0 -0.045676893961324058 0.03979105015585456 0 -0.045632973593828119 0.039806546003641752 0 -0.045643284756570861 0.039774447663218415 0 -0.051637580115910325 0.039298061634208549 0 -0.050995021346209889 0.036840199869708538 0 -0.056209947710801518 0.035013098471534325 0 -0.056258566263532414 0.03514818252965584 0 -0.056207332728701188 0.035035136978910912 0 -0.045676893961324058 0.03979105015585456 0 -0.045632973593828119 0.039806546003641752 0 -0.045582555224654653 0.039916901145919219 0 -0.051637580115910325 0.039298061634208549 0 -0.045881009453667264 0.041575965049765441 0 -0.045632973593828119 0.039806546003641752 0 -0.045582555224654653 0.039916901145919219 0 -0.045555003024721714 0.039804665582293348 0 -0.045582555224654653 0.039916901145919219 0 -0.04561415626949105 0.040349040725838052 0 -0.045555003024721714 0.039804665582293348 0 -0.04779974663786505 0.042750980065244693 0 -0.048578223300892683 0.042604720942983516 0 -0.046667495874442209 0.040979416440285306 0 -0.049968391880817746 0.043707144009326772 0 -0.04779974663786505 0.042750980065244693 0 -0.048578223300892683 0.042604720942983516 0 -0.050586862857991327 0.042907063700251005 0 -0.048578223300892683 0.042604720942983516 0 -0.048337236863565183 0.042534955496777833 0 -0.049592410096448117 0.042573686940058655 0 -0.048337236863565183 0.042534955496777833 0 -0.046513737567468426 0.042740274991874015 0 -0.049592410096448117 0.042573686940058655 0 -0.052406067419987962 0.042026710573173615 0 -0.048337236863565183 0.042534955496777833 0 -0.048337236863565183 0.042534955496777833 0 -0.046513737567468426 0.042740274991874015 0 -0.046667495874442209 0.040979416440285306 0 -0.048578223300892683 0.042604720942983516 0 -0.048337236863565183 0.042534955496777833 0 -0.046667495874442209 0.040979416440285306 0 -0.04683932415684474 0.044289718593324819 0 -0.046513737567468426 0.042740274991874015 0 -0.048482867863703524 0.042827895889008018 0 -0.046513737567468426 0.042740274991874015 0 -0.046667495874442209 0.040979416440285306 0 -0.048482867863703524 0.042827895889008018 0 -0.046667495874442209 0.040979416440285306 0 -0.04491145504687092 0.038531544030528275 0 -0.045065752790073195 0.039621091784081283 0 -0.046706103153157118 0.040934544851657532 0 -0.046451910699068281 0.040601139412145687 0 -0.045065752790073195 0.039621091784081283 0 -0.04561415626949105 0.040349040725838052 0 -0.044759744740790947 0.039500878436043753 0 -0.04779974663786505 0.042750980065244693 0 -0.046667495874442209 0.040979416440285306 0 -0.04561415626949105 0.040349040725838052 0 -0.046667495874442209 0.040979416440285306 0 -0.045065752790073195 0.039621091784081283 0 -0.04561415626949105 0.040349040725838052 0 -0.045881009453667264 0.041575965049765441 0 -0.04621034053303176 0.040454273350521576 0 -0.044759744740790947 0.039500878436043753 0 -0.04517109970102845 0.039661429460289541 0 -0.043895512024623433 0.039040960171799359 0 -0.04561415626949105 0.040349040725838052 0 -0.044759744740790947 0.039500878436043753 0 -0.04517109970102845 0.039661429460289541 0 -0.04517109970102845 0.039661429460289541 0 -0.045054845749913842 0.040050793988019286 0 -0.043895512024623433 0.039040960171799359 0 -0.04517109970102845 0.039661429460289541 0 -0.045453648646652543 0.03974930856645717 0 -0.045259088416876682 0.039856548493341158 0 -0.04561415626949105 0.040349040725838052 0 -0.045453648646652543 0.03974930856645717 0 -0.045555003024721714 0.039804665582293348 0 -0.04561415626949105 0.040349040725838052 0 -0.04517109970102845 0.039661429460289541 0 -0.045453648646652543 0.03974930856645717 0 -0.045453648646652543 0.03974930856645717 0 -0.045368815422348295 0.039888453443525304 0 -0.045259088416876682 0.039856548493341158 0 -0.045453648646652543 0.03974930856645717 0 -0.045368815422348295 0.039888453443525304 0 -0.045511984582568929 0.039812945424907507 0 -0.045368815422348295 0.039888453443525304 0 -0.045054845749913842 0.040050793988019286 0 -0.045259088416876682 0.039856548493341158 0 -0.04517109970102845 0.039661429460289541 0 -0.045054845749913842 0.040050793988019286 0 -0.045259088416876682 0.039856548493341158 0 -0.045368815422348295 0.039888453443525304 0 -0.045054845749913842 0.040050793988019286 0 -0.045418913776464689 0.039860007473318762 0 -0.043856650359549221 0.038736893032362635 0 -0.043741624260584748 0.037995167890178712 0 -0.042648329351132677 0.037474472783024765 0 -0.042606699763331903 0.036770210851462024 0 -0.042176191818887397 0.036349135769492967 0 -0.041502344118189524 0.035597672808593571 0 -0.041621140568111351 0.034506181545944425 0 -0.040660290992955275 0.033762349377446807 0 -0.042606699763331903 0.036770210851462024 0 -0.042176191818887397 0.036349135769492967 0 -0.042000231460445972 0.035557439888299389 0 -0.042125089398330373 0.036201379756006451 0 -0.041226892994277883 0.034680067920294801 0 -0.041621140568111351 0.034506181545944425 0 -0.041423695144148419 0.033962851621554636 0 -0.040660290992955275 0.033762349377446807 0 -0.041423695144148419 0.033962851621554636 0 -0.042055425260514936 0.034035176123798416 0 -0.041504659027537832 0.033300590878949189 0 -0.041621140568111351 0.034506181545944425 0 -0.041423695144148419 0.033962851621554636 0 -0.042055425260514936 0.034035176123798416 0 -0.043741624260584748 0.037995167890178712 0 -0.043790414878283154 0.03793246714467495 0 -0.042176191818887397 0.036349135769492967 0 -0.042000231460445972 0.035557439888299389 0 -0.041762147547103751 0.035345183699674036 0 -0.045418913776464689 0.039860007473318762 0 -0.045388656082052933 0.039760623583575155 0 -0.045519730384063005 0.039505892890680981 0 -0.045388656082052933 0.039760623583575155 0 -0.045357469121519563 0.039585850701719882 0 -0.045519730384063005 0.039505892890680981 0 -0.045368815422348295 0.039888453443525304 0 -0.045418913776464689 0.039860007473318762 0 -0.045400102009762452 0.039843535704081535 0 -0.045368815422348295 0.039888453443525304 0 -0.045400102009762452 0.039843535704081535 0 -0.045511984582568929 0.039812945424907507 0 -0.045418913776464689 0.039860007473318762 0 -0.045388656082052933 0.039760623583575155 0 -0.045400102009762452 0.039843535704081535 0 -0.045388656082052933 0.039760623583575155 0 -0.045400102009762452 0.039843535704081535 0 -0.045511984582568929 0.039812945424907507 0 -0.045590535995582347 0.039151324175642779 0 -0.045013297941263547 0.041529734724863168 0 -0.045511984582568929 0.039812945424907507 0 -0.045789015923767856 0.0403657834832283 0 -0.045860075194065986 0.040019487860903008 0 -0.045388656082052933 0.039760623583575155 0 -0.045511984582568929 0.039812945424907507 0 -0.045188266247467662 0.039655445774492037 0 -0.045388656082052933 0.039760623583575155 0 -0.045188266247467662 0.039655445774492037 0 -0.045357469121519563 0.039585850701719882 0 -0.045789015923767856 0.0403657834832283 0 -0.046208134047498677 0.040438354513658743 0 -0.046047175795133663 0.040222537705911866 0 -0.046208134047498677 0.040438354513658743 0 -0.046047175795133663 0.040222537705911866 0 -0.046310701671811512 0.040162146553301768 0 -0.045789015923767856 0.0403657834832283 0 -0.046047175795133663 0.040222537705911866 0 -0.045860075194065986 0.040019487860903008 0 -0.046047175795133663 0.040222537705911866 0 -0.046112117253626579 0.040025689157273447 0 -0.046310701671811512 0.040162146553301768 0 -0.046047175795133663 0.040222537705911866 0 -0.046112117253626579 0.040025689157273447 0 -0.045860075194065986 0.040019487860903008 0 -0.046112117253626579 0.040025689157273447 0 -0.046050674684866982 0.039798438004320508 0 -0.046333477265519549 0.03991396819683192 0 -0.046112117253626579 0.040025689157273447 0 -0.045860075194065986 0.040019487860903008 0 -0.046050674684866982 0.039798438004320508 0 -0.045860075194065986 0.040019487860903008 0 -0.046050674684866982 0.039798438004320508 0 -0.045803185622491492 0.039709398447125885 0 -0.045511984582568929 0.039812945424907507 0 -0.045860075194065986 0.040019487860903008 0 -0.045803185622491492 0.039709398447125885 0 -0.046050674684866982 0.039798438004320508 0 -0.046040280734655561 0.03960727123433249 0 -0.045803185622491492 0.039709398447125885 0 -0.046040280734655561 0.03960727123433249 0 -0.045851551258730437 0.039529575450760926 0 -0.045803185622491492 0.039709398447125885 0 -0.045851551258730437 0.039529575450760926 0 -0.045669008404062371 0.039671153367864878 0 -0.045699143298276061 0.039711419723902415 0 -0.045851551258730437 0.039529575450760926 0 -0.045699143298276061 0.039711419723902415 0 -0.045672669625542402 0.039587241359318077 0 -0.045851551258730437 0.039529575450760926 0 -0.045669008404062371 0.039671153367864878 0 -0.045803185622491492 0.039709398447125885 0 -0.045511984582568929 0.039812945424907507 0 -0.045669008404062371 0.039671153367864878 0 -0.045803185622491492 0.039709398447125885 0 -0.045453648646652543 0.03974930856645717 0 -0.045511984582568929 0.039812945424907507 0 -0.045669008404062371 0.039671153367864878 0 -0.045453648646652543 0.03974930856645717 0 -0.045669008404062371 0.039671153367864878 0 -0.045555003024721714 0.039804665582293348 0 -0.045632973593828119 0.039806546003641752 0 -0.045555003024721714 0.039804665582293348 0 -0.045699143298276061 0.039711419723902415 0 -0.045669008404062371 0.039671153367864878 0 -0.045555003024721714 0.039804665582293348 0 -0.045699143298276061 0.039711419723902415 0 -0.045632973593828119 0.039806546003641752 0 -0.045699143298276061 0.039711419723902415 0 -0.045643284756570861 0.039774447663218415 0 -0.056207332728701188 0.035035136978910912 0 -0.056184981020864132 0.034955878573053323 0 -0.056126479486707799 0.035054643939277638 0 -0.050995021346209889 0.036840199869708538 0 -0.04926967229994856 0.038695866499241449 0 -0.045699143298276061 0.039711419723902415 0 -0.045643284756570861 0.039774447663218415 0 -0.045672669625542402 0.039587241359318077 0 -0.056209947710801518 0.035013098471534325 0 -0.056207332728701188 0.035035136978910912 0 -0.056184981020864132 0.034955878573053323 0 -0.047019607307813939 0.039216619816348983 0 -0.047529313879339695 0.039580193981504148 0 -0.047834733406742228 0.038973257808892887 0 -0.047387741163918723 0.038501914776331143 0 -0.047019607307813939 0.039216619816348983 0 -0.047834733406742228 0.038973257808892887 0 -0.047387741163918723 0.038501914776331143 0 -0.047019607307813939 0.039216619816348983 0 -0.046326270151318683 0.039011437507727245 0 -0.047019607307813939 0.039216619816348983 0 -0.046519413233178077 0.039431297835352104 0 -0.046326270151318683 0.039011437507727245 0 -0.051829428615989152 0.036721567124953745 0 -0.04926967229994856 0.038695866499241449 0 -0.045885269962084155 0.0396249951248124 0 -0.04926967229994856 0.038695866499241449 0 -0.045851551258730437 0.039529575450760926 0 -0.046287764978423018 0.03917937964421303 0 -0.046269356477797202 0.039365332139465449 0 -0.046519413233178077 0.039431297835352104 0 -0.046326270151318683 0.039011437507727245 0 -0.046269356477797202 0.039365332139465449 0 -0.046040280734655561 0.03960727123433249 0 -0.045851551258730437 0.039529575450760926 0 -0.046269356477797202 0.039365332139465449 0 -0.04926967229994856 0.038695866499241449 0 -0.048550122598830604 0.039177869426518623 0 -0.046519413233178077 0.039431297835352104 0 -0.046269356477797202 0.039365332139465449 0 -0.046317942688215347 0.039663058237831054 0 -0.046040280734655561 0.03960727123433249 0 -0.046269356477797202 0.039365332139465449 0 -0.046317942688215347 0.039663058237831054 0 -0.046050674684866982 0.039798438004320508 0 -0.046040280734655561 0.03960727123433249 0 -0.046317942688215347 0.039663058237831054 0 -0.046050674684866982 0.039798438004320508 0 -0.046317942688215347 0.039663058237831054 0 -0.046333477265519549 0.03991396819683192 0 -0.046317942688215347 0.039663058237831054 0 -0.046658654818775687 0.039746153180495784 0 -0.046333477265519549 0.03991396819683192 0 -0.047019607307813939 0.039216619816348983 0 -0.046519413233178077 0.039431297835352104 0 -0.046658654818775687 0.039746153180495784 0 -0.046519413233178077 0.039431297835352104 0 -0.046317942688215347 0.039663058237831054 0 -0.046658654818775687 0.039746153180495784 0 -0.046658654818775687 0.039746153180495784 0 -0.046621004115087072 0.040027472591141262 0 -0.047068850674570083 0.03992638168630773 0 -0.046658654818775687 0.039746153180495784 0 -0.046621004115087072 0.040027472591141262 0 -0.046333477265519549 0.03991396819683192 0 -0.046621004115087072 0.040027472591141262 0 -0.046333477265519549 0.03991396819683192 0 -0.046310701671811512 0.040162146553301768 0 -0.046112117253626579 0.040025689157273447 0 -0.046333477265519549 0.03991396819683192 0 -0.046310701671811512 0.040162146553301768 0 -0.046621004115087072 0.040027472591141262 0 -0.046310701671811512 0.040162146553301768 0 -0.046685685687166356 0.040349245273315848 0 -0.046621004115087072 0.040027472591141262 0 -0.046685685687166356 0.040349245273315848 0 -0.047068850674570083 0.03992638168630773 0 -0.046208134047498677 0.040438354513658743 0 -0.046310701671811512 0.040162146553301768 0 -0.046685685687166356 0.040349245273315848 0 -0.046685685687166356 0.040349245273315848 0 -0.047424743305000551 0.040377898261546641 0 -0.047068850674570083 0.03992638168630773 0 -0.046685685687166356 0.040349245273315848 0 -0.047424743305000551 0.040377898261546641 0 -0.04647481597900277 0.040676508902326942 0 -0.047019607307813939 0.039216619816348983 0 -0.047068850674570083 0.03992638168630773 0 -0.047529313879339695 0.039580193981504148 0 -0.047424743305000551 0.040377898261546641 0 -0.047068850674570083 0.03992638168630773 0 -0.047529313879339695 0.039580193981504148 0 -0.047019607307813939 0.039216619816348983 0 -0.046658654818775687 0.039746153180495784 0 -0.047068850674570083 0.03992638168630773 0 -0.047424743305000551 0.040377898261546641 0 -0.047529313879339695 0.039580193981504148 0 -0.048087077897442036 0.039453206753986426 0 -0.048087077897442036 0.039453206753986426 0 -0.048626119247929339 0.039688177584817894 0 -0.048530752202146622 0.038932630774670372 0 -0.047424743305000551 0.040377898261546641 0 -0.048087077897442036 0.039453206753986426 0 -0.048626119247929339 0.039688177584817894 0 -0.047529313879339695 0.039580193981504148 0 -0.048087077897442036 0.039453206753986426 0 -0.047834733406742228 0.038973257808892887 0 -0.055804006747763937 0.024442902519111253 0 -0.055320797569527028 0.024358106025896872 0 -0.055043682602234079 0.025015566685202262 0 -0.051214517966353262 0.032616596427608058 0 -0.053450464049712723 0.031656610474836915 0 -0.055804006747763937 0.024442902519111253 0 -0.055320797569527028 0.024358106025896872 0 -0.055390830897051581 0.024032936477780154 0 -0.05500018233491874 0.027876441746035995 0 -0.056247009071893492 0.029954305493353039 0 -0.055860066910886727 0.027248351196852892 0 -0.055320797569527028 0.024358106025896872 0 -0.055043682602234079 0.025015566685202262 0 -0.055066934386827276 0.024003123534096692 0 -0.053450464049712723 0.031656610474836915 0 -0.05562434303335817 0.024740794178850077 0 -0.053450464049712723 0.031656610474836915 0 -0.052663627305956404 0.035938051953793793 0 -0.056206346105148075 0.030012796375885668 0 -0.054999945124351093 0.030841989105768134 0 -0.05649032408862209 0.031736640419024499 0 -0.05500018233491874 0.027876441746035995 0 -0.056247009071893492 0.029954305493353039 0 -0.054999882627145204 0.030841468852265116 0 -0.053450464049712723 0.031656610474836915 0 -0.055001931906544503 0.030840370370391969 0 -0.054999945124351093 0.030841989105768134 0 -0.05649032408862209 0.031736640419024499 0 -0.054999973532213052 0.03406934125784556 0 -0.052663627305956404 0.035938051953793793 0 -0.053849438694177437 0.034639006340939159 0 -0.048530752202146622 0.038932630774670372 0 -0.047834733406742228 0.038973257808892887 0 -0.048452132655786143 0.038103984993336525 0 -0.048087077897442036 0.039453206753986426 0 -0.048530752202146622 0.038932630774670372 0 -0.047834733406742228 0.038973257808892887 0 -0.051829428615989152 0.036721567124953745 0 -0.053849438694177437 0.034639006340939159 0 -0.056209947710801518 0.035013098471534325 0 -0.056184981020864132 0.034955878573053323 0 -0.055986128551820932 0.034709414315848106 0 -0.047387741163918723 0.038501914776331143 0 -0.047834733406742228 0.038973257808892887 0 -0.048452132655786143 0.038103984993336525 0 -0.056209947710801518 0.035013098471534325 0 -0.055986128551820932 0.034709414315848106 0 -0.056000172322846653 0.034707459400112411 0 -0.053849438694177437 0.034639006340939159 0 -0.054280224107939361 0.034763562296120529 0 -0.053849438694177437 0.034639006340939159 0 -0.055002371308281547 0.034068879376464252 0 -0.05649032408862209 0.031736640419024499 0 -0.056753109821983866 0.033498189675569945 0 -0.054999973532213052 0.03406934125784556 0 -0.055955950934378725 0.034420186729351848 0 -0.056000172322846653 0.034707459400112411 0 -0.054999517265846877 0.034072010536885612 0 -0.042772508190001793 0.035161294000475199 0 -0.041968217460022446 0.035383394357319631 0 -0.04324544787095199 0.035411728368372357 0 -0.04222056822432077 0.036476715927961027 0 -0.041219151275002579 0.035775296846559328 0 -0.04151821923920599 0.03773953166400143 0 -0.041058380561886751 0.035651422548316901 0 -0.041039373101156358 0.03629395461108232 0 -0.04151821923920599 0.03773953166400143 0 -0.041039373101156358 0.03629395461108232 0 -0.041761876041751085 0.036702172953777153 0 -0.042772508190001793 0.035161294000475199 0 -0.041968217460022446 0.035383394357319631 0 -0.041058380561886751 0.035651422548316901 0 -0.042079796737971208 0.035254416484812937 0 -0.039794738285248349 0.034763615676432907 0 -0.041968217460022446 0.035383394357319631 0 -0.039794738285248349 0.034763615676432907 0 -0.041968217460022446 0.035383394357319631 0 -0.040247145519802609 0.035179097480645072 0 -0.041968217460022446 0.035383394357319631 0 -0.040247145519802609 0.035179097480645072 0 -0.041058380561886751 0.035651422548316901 0 -0.040247145519802609 0.035179097480645072 0 -0.041058380561886751 0.035651422548316901 0 -0.040382598451811191 0.035685826683115721 0 -0.040247145519802609 0.035179097480645072 0 -0.039540203145349249 0.035278083949550613 0 -0.040382598451811191 0.035685826683115721 0 -0.039672724667761464 0.035553460639647372 0 -0.039540203145349249 0.035278083949550613 0 -0.040382598451811191 0.035685826683115721 0 -0.038805183137619298 0.035456886009051024 0 -0.039672724667761464 0.035553460639647372 0 -0.039540203145349249 0.035278083949550613 0 -0.04028045593417267 0.035620696094504613 0 -0.039672724667761464 0.035553460639647372 0 -0.040382598451811191 0.035685826683115721 0 -0.04028045593417267 0.035620696094504613 0 -0.040382598451811191 0.035685826683115721 0 -0.040863513459667794 0.035912350098210234 0 -0.040382598451811191 0.035685826683115721 0 -0.040863513459667794 0.035912350098210234 0 -0.041039373101156358 0.03629395461108232 0 -0.041058380561886751 0.035651422548316901 0 -0.040382598451811191 0.035685826683115721 0 -0.041039373101156358 0.03629395461108232 0 -0.040863513459667794 0.035912350098210234 0 -0.041039373101156358 0.03629395461108232 0 -0.041761876041751085 0.036702172953777153 0 -0.040863513459667794 0.035912350098210234 0 -0.041419313378319542 0.03607264329764745 0 -0.041761876041751085 0.036702172953777153 0 -0.041419313378319542 0.03607264329764745 0 -0.042096435852021941 0.036411200988969168 0 -0.041761876041751085 0.036702172953777153 0 -0.041757625463222654 0.035876893735832284 0 -0.041419313378319542 0.03607264329764745 0 -0.042096435852021941 0.036411200988969168 0 -0.041757625463222654 0.035876893735832284 0 -0.042096435852021941 0.036411200988969168 0 -0.042973118063025555 0.036062159265424311 0 -0.042096435852021941 0.036411200988969168 0 -0.042973118063025555 0.036062159265424311 0 -0.04293421319437514 0.037353717730080775 0 -0.04293421319437514 0.037353717730080775 0 -0.041761876041751085 0.036702172953777153 0 -0.042995647478842283 0.037979783588602621 0 -0.04293421319437514 0.037353717730080775 0 -0.044264461740175037 0.038428935192658178 0 -0.042995647478842283 0.037979783588602621 0 -0.042096435852021941 0.036411200988969168 0 -0.04293421319437514 0.037353717730080775 0 -0.041761876041751085 0.036702172953777153 0 -0.04491145504687092 0.038531544030528275 0 -0.044555361423737332 0.03847821078027823 0 -0.044264461740175037 0.038428935192658178 0 -0.044543197246828356 0.038508391845886447 0 -0.04491145504687092 0.038531544030528275 0 -0.044555361423737332 0.03847821078027823 0 -0.043395966875977195 0.036392471492782109 0 -0.044456580034876077 0.03876499423548458 0 -0.044635698380950863 0.038444786374288747 0 -0.044555361423737332 0.03847821078027823 0 -0.044264461740175037 0.038428935192658178 0 -0.044543197246828356 0.038508391845886447 0 -0.044635698380950863 0.038444786374288747 0 -0.044555361423737332 0.03847821078027823 0 -0.042973118063025555 0.036062159265424311 0 -0.04293421319437514 0.037353717730080775 0 -0.044264461740175037 0.038428935192658178 0 -0.04491145504687092 0.038531544030528275 0 -0.045065752790073195 0.039621091784081283 0 -0.044264461740175037 0.038428935192658178 0 -0.045065752790073195 0.039621091784081283 0 -0.044759744740790947 0.039500878436043753 0 -0.04440191762261568 0.039077288097695652 0 -0.045065752790073195 0.039621091784081283 0 -0.044264461740175037 0.038428935192658178 0 -0.04440191762261568 0.039077288097695652 0 -0.044264461740175037 0.038428935192658178 0 -0.043737332746338141 0.038693045036846833 0 -0.042995647478842283 0.037979783588602621 0 -0.044264461740175037 0.038428935192658178 0 -0.04440191762261568 0.039077288097695652 0 -0.043737332746338141 0.038693045036846833 0 -0.04440191762261568 0.039077288097695652 0 -0.043737332746338141 0.038693045036846833 0 -0.044043577607940407 0.039011800920544432 0 -0.043737332746338141 0.038693045036846833 0 -0.044043577607940407 0.039011800920544432 0 -0.043831585479131178 0.03858978514622375 0 -0.044759744740790947 0.039500878436043753 0 -0.04440191762261568 0.039077288097695652 0 -0.044043577607940407 0.039011800920544432 0 -0.044043577607940407 0.039011800920544432 0 -0.043895512024623433 0.039040960171799359 0 -0.043831585479131178 0.03858978514622375 0 -0.044759744740790947 0.039500878436043753 0 -0.044043577607940407 0.039011800920544432 0 -0.043895512024623433 0.039040960171799359 0 -0.04151821923920599 0.03773953166400143 0 -0.041761876041751085 0.036702172953777153 0 -0.042995647478842283 0.037979783588602621 0 -0.043737332746338141 0.038693045036846833 0 -0.043319401287619019 0.038874302550044551 0 -0.043831585479131178 0.03858978514622375 0 -0.043737332746338141 0.038693045036846833 0 -0.042995647478842283 0.037979783588602621 0 -0.043319401287619019 0.038874302550044551 0 -0.04151821923920599 0.03773953166400143 0 -0.042995647478842283 0.037979783588602621 0 -0.043319401287619019 0.038874302550044551 0 -0.042772508190001793 0.035161294000475199 0 -0.043725692829911747 0.035539504717797148 0 -0.04324544787095199 0.035411728368372357 0 -0.04222056822432077 0.036476715927961027 0 -0.043443871012436554 0.037146275564490933 0 -0.043725692829911747 0.035539504717797148 0 -0.043783178685293592 0.035620698714320102 0 -0.04324544787095199 0.035411728368372357 0 -0.043725692829911747 0.035539504717797148 0 -0.043783178685293592 0.035620698714320102 0 -0.043859697680221119 0.037195094594331457 0 -0.043443871012436554 0.037146275564490933 0 -0.043705870040329171 0.037139870243503438 0 -0.043783178685293592 0.035620698714320102 0 -0.043859697680221119 0.037195094594331457 0 -0.043865109698103401 0.035721793281153061 0 -0.043856650359549221 0.038736893032362635 0 -0.043870797329121622 0.038955819785404022 0 -0.042648329351132677 0.037474472783024765 0 -0.043895512024623433 0.039040960171799359 0 -0.043536252448335692 0.038227342197884033 0 -0.043895512024623433 0.039040960171799359 0 -0.043536252448335692 0.038227342197884033 0 -0.043831585479131178 0.03858978514622375 0 -0.043319401287619019 0.038874302550044551 0 -0.043831585479131178 0.03858978514622375 0 -0.043859697680221119 0.037195094594331457 0 -0.043536252448335692 0.038227342197884033 0 -0.043831585479131178 0.03858978514622375 0 -0.043859697680221119 0.037195094594331457 0 -0.043470076471757768 0.036144847412465556 0 -0.043859697680221119 0.037195094594331457 0 -0.043865109698103401 0.035721793281153061 0 -0.043536252448335692 0.038227342197884033 0 -0.043470091994744074 0.036996948301974107 0 -0.043859697680221119 0.037195094594331457 0 -0.043470076471757768 0.036144847412465556 0 -0.043470091994744074 0.036996948301974107 0 -0.043859697680221119 0.037195094594331457 0 -0.042648329351132677 0.037474472783024765 0 -0.042606699763331903 0.036770210851462024 0 -0.043536252448335692 0.038227342197884033 0 -0.041502344118189524 0.035597672808593571 0 -0.043536252448335692 0.038227342197884033 0 -0.042935534952934708 0.03648598334455553 0 -0.043536252448335692 0.038227342197884033 0 -0.043470091994744074 0.036996948301974107 0 -0.042935534952934708 0.03648598334455553 0 -0.042125089398330373 0.036201379756006451 0 -0.043407503619437536 0.038120851930124509 0 -0.043470076471757768 0.036144847412465556 0 -0.043470091994744074 0.036996948301974107 0 -0.042935534952934708 0.03648598334455553 0 -0.041502344118189524 0.035597672808593571 0 -0.041621140568111351 0.034506181545944425 0 -0.042620321871937518 0.035225376614619261 0 -0.041502344118189524 0.035597672808593571 0 -0.042935534952934708 0.03648598334455553 0 -0.042620321871937518 0.035225376614619261 0 -0.043470076471757768 0.036144847412465556 0 -0.042935534952934708 0.03648598334455553 0 -0.042620321871937518 0.035225376614619261 0 -0.043470076471757768 0.036144847412465556 0 -0.042620321871937518 0.035225376614619261 0 -0.043446343870598536 0.035066072846244356 0 -0.043470076471757768 0.036144847412465556 0 -0.043446343870598536 0.035066072846244356 0 -0.043865109698103401 0.035721793281153061 0 -0.042620321871937518 0.035225376614619261 0 -0.043446343870598536 0.035066072846244356 0 -0.043094430988668185 0.03400357028534122 0 -0.043094430988668185 0.03400357028534122 0 -0.04396803956680205 0.034376759765750033 0 -0.043841604284616545 0.033051887634014211 0 -0.043446343870598536 0.035066072846244356 0 -0.043094430988668185 0.03400357028534122 0 -0.04396803956680205 0.034376759765750033 0 -0.041621140568111351 0.034506181545944425 0 -0.042620321871937518 0.035225376614619261 0 -0.042055425260514936 0.034035176123798416 0 -0.042620321871937518 0.035225376614619261 0 -0.043094430988668185 0.03400357028534122 0 -0.042055425260514936 0.034035176123798416 0 -0.043783178685293592 0.035620698714320102 0 -0.044010447160439087 0.034963932640988911 0 -0.043885509917234174 0.034733770434282649 0 -0.044010447160439087 0.034963932640988911 0 -0.04423892819464418 0.034105293665350624 0 -0.043885509917234174 0.034733770434282649 0 -0.043446343870598536 0.035066072846244356 0 -0.043865109698103401 0.035721793281153061 0 -0.04396803956680205 0.034376759765750033 0 -0.044010447160439087 0.034963932640988911 0 -0.043865109698103401 0.035721793281153061 0 -0.04396803956680205 0.034376759765750033 0 -0.043783178685293592 0.035620698714320102 0 -0.044010447160439087 0.034963932640988911 0 -0.043865109698103401 0.035721793281153061 0 -0.04396803956680205 0.034376759765750033 0 -0.04423892819464418 0.034105293665350624 0 -0.044375980668703005 0.033336650414071252 0 -0.044010447160439087 0.034963932640988911 0 -0.04396803956680205 0.034376759765750033 0 -0.04423892819464418 0.034105293665350624 0 -0.04423892819464418 0.034105293665350624 0 -0.044215566429029247 0.033880616546098273 0 -0.043885509917234174 0.034733770434282649 0 -0.044215566429029247 0.033880616546098273 0 -0.043713191428480472 0.034594182691071361 0 -0.043885509917234174 0.034733770434282649 0 -0.043713191428480472 0.034594182691071361 0 -0.043885509917234174 0.034733770434282649 0 -0.043284556289098247 0.035160123784136896 0 -0.041968217460022446 0.035383394357319631 0 -0.043284556289098247 0.035160123784136896 0 -0.04324544787095199 0.035411728368372357 0 -0.043783178685293592 0.035620698714320102 0 -0.043284556289098247 0.035160123784136896 0 -0.04324544787095199 0.035411728368372357 0 -0.043783178685293592 0.035620698714320102 0 -0.043885509917234174 0.034733770434282649 0 -0.043284556289098247 0.035160123784136896 0 -0.042079796737971208 0.035254416484812937 0 -0.041968217460022446 0.035383394357319631 0 -0.043009259312083575 0.035008029247814342 0 -0.041968217460022446 0.035383394357319631 0 -0.043284556289098247 0.035160123784136896 0 -0.043009259312083575 0.035008029247814342 0 -0.043713191428480472 0.034594182691071361 0 -0.043284556289098247 0.035160123784136896 0 -0.043009259312083575 0.035008029247814342 0 -0.043782552113499067 0.034623136875376839 0 -0.043009259312083575 0.035008029247814342 0 -0.043807317955481775 0.034302681890053525 0 -0.043713191428480472 0.034594182691071361 0 -0.043009259312083575 0.035008029247814342 0 -0.043807317955481775 0.034302681890053525 0 -0.044215566429029247 0.033880616546098273 0 -0.043713191428480472 0.034594182691071361 0 -0.043807317955481775 0.034302681890053525 0 -0.044215566429029247 0.033880616546098273 0 -0.043807317955481775 0.034302681890053525 0 -0.04441297215411278 0.033390683519229733 0 -0.043807317955481775 0.034302681890053525 0 -0.04441297215411278 0.033390683519229733 0 -0.044671637137032483 0.033637913473197667 0 -0.04441297215411278 0.033390683519229733 0 -0.044712106436184888 0.033039917150210922 0 -0.044671637137032483 0.033637913473197667 0 -0.04441297215411278 0.033390683519229733 0 -0.044714387517005856 0.032804690336242011 0 -0.04478971300929787 0.032674361191659729 0 -0.04441297215411278 0.033390683519229733 0 -0.044714387517005856 0.032804690336242011 0 -0.044712106436184888 0.033039917150210922 0 -0.044714387517005856 0.032804690336242011 0 -0.044712106436184888 0.033039917150210922 0 -0.04476584388214145 0.032681683048905862 0 -0.044712106436184888 0.033039917150210922 0 -0.04476584388214145 0.032681683048905862 0 -0.044950404137913035 0.032936755263099061 0 -0.045960769627036963 0.031199722585963138 0 -0.045337332722721564 0.03082189614173806 0 -0.044714387517005856 0.032804690336242011 0 -0.04476584388214145 0.032681683048905862 0 -0.045142006851229342 0.031889878945736298 0 -0.045844385089259448 0.02977222019808352 0 -0.045915812534998136 0.029885174706332819 0 -0.045965430704328444 0.029945345762796675 0 -0.045915812534998136 0.029885174706332819 0 -0.045791511046220333 0.029937093695848859 0 -0.045690045839101946 0.029839858119439101 0 -0.043206449055875749 0.029676026726333921 0 -0.043349590426297963 0.030025580552680821 0 -0.042108861794932173 0.029120639498839845 0 -0.045844385089259448 0.02977222019808352 0 -0.045915812534998136 0.029885174706332819 0 -0.045690045839101946 0.029839858119439101 0 -0.045337332722721564 0.03082189614173806 0 -0.045471297078445945 0.030195466157144472 0 -0.045965430704328444 0.029945345762796675 0 -0.045532517243338101 0.030079928855427374 0 -0.045806244948209757 0.029701431460902476 0 -0.045142006851229342 0.031889878945736298 0 -0.04517179818292337 0.031623299073076649 0 -0.045532517243338101 0.030079928855427374 0 -0.045915812534998136 0.029885174706332819 0 -0.045965430704328444 0.029945345762796675 0 -0.045943897404707223 0.029807284432982854 0 -0.045142006851229342 0.031889878945736298 0 -0.04517179818292337 0.031623299073076649 0 -0.04478971300929787 0.032674361191659729 0 -0.044714387517005856 0.032804690336242011 0 -0.045142006851229342 0.031889878945736298 0 -0.04478971300929787 0.032674361191659729 0 -0.04517179818292337 0.031623299073076649 0 -0.04478971300929787 0.032674361191659729 0 -0.044827100511780058 0.032307390239406174 0 -0.04478971300929787 0.032674361191659729 0 -0.044535548211599323 0.033263949457433321 0 -0.044827100511780058 0.032307390239406174 0 -0.044215566429029247 0.033880616546098273 0 -0.04441297215411278 0.033390683519229733 0 -0.04478971300929787 0.032674361191659729 0 -0.044215566429029247 0.033880616546098273 0 -0.04478971300929787 0.032674361191659729 0 -0.044535548211599323 0.033263949457433321 0 -0.04423892819464418 0.034105293665350624 0 -0.044215566429029247 0.033880616546098273 0 -0.044535548211599323 0.033263949457433321 0 -0.04423892819464418 0.034105293665350624 0 -0.044535548211599323 0.033263949457433321 0 -0.044375980668703005 0.033336650414071252 0 -0.044535548211599323 0.033263949457433321 0 -0.044375980668703005 0.033336650414071252 0 -0.044827100511780058 0.032307390239406174 0 -0.044375980668703005 0.033336650414071252 0 -0.044568644841264472 0.031972917454256337 0 -0.043841604284616545 0.033051887634014211 0 -0.04396803956680205 0.034376759765750033 0 -0.044375980668703005 0.033336650414071252 0 -0.043841604284616545 0.033051887634014211 0 -0.044375980668703005 0.033336650414071252 0 -0.044568644841264472 0.031972917454256337 0 -0.044827100511780058 0.032307390239406174 0 -0.043094430988668185 0.03400357028534122 0 -0.042055425260514936 0.034035176123798416 0 -0.042433239410430125 0.032773064914794314 0 -0.042055425260514936 0.034035176123798416 0 -0.042433239410430125 0.032773064914794314 0 -0.041504659027537832 0.033300590878949189 0 -0.043094430988668185 0.03400357028534122 0 -0.042433239410430125 0.032773064914794314 0 -0.043841604284616545 0.033051887634014211 0 -0.042950848911999677 0.032661986588924594 0 -0.043791233517115044 0.032986315573389047 0 -0.044568644841264472 0.031972917454256337 0 -0.043841604284616545 0.033051887634014211 0 -0.043986290937071695 0.031642178992168951 0 -0.043342771593050652 0.032448657912627819 0 -0.043841604284616545 0.033051887634014211 0 -0.043986290937071695 0.031642178992168951 0 -0.043342771593050652 0.032448657912627819 0 -0.043986290937071695 0.031642178992168951 0 -0.043097016368185796 0.031309585843771151 0 -0.043342771593050652 0.032448657912627819 0 -0.043097016368185796 0.031309585843771151 0 -0.042084011223909847 0.032130837256819235 0 -0.043986290937071695 0.031642178992168951 0 -0.043097016368185796 0.031309585843771151 0 -0.043950168591819841 0.029708416199686404 0 -0.043986290937071695 0.031642178992168951 0 -0.043950168591819841 0.029708416199686404 0 -0.044857788474354919 0.030655130070327396 0 -0.045051992246532828 0.029103327956417888 0 -0.043950168591819841 0.029708416199686404 0 -0.044798144477595128 0.027991365851719248 0 -0.045051992246532828 0.029103327956417888 0 -0.043950168591819841 0.029708416199686404 0 -0.044857788474354919 0.030655130070327396 0 -0.043950168591819841 0.029708416199686404 0 -0.044798144477595128 0.027991365851719248 0 -0.043815018861196105 0.027866765610020546 0 -0.04517179818292337 0.031623299073076649 0 -0.044827100511780058 0.032307390239406174 0 -0.045164705453613993 0.030911773215115602 0 -0.044568644841264472 0.031972917454256337 0 -0.044827100511780058 0.032307390239406174 0 -0.045164705453613993 0.030911773215115602 0 -0.044568644841264472 0.031972917454256337 0 -0.045164705453613993 0.030911773215115602 0 -0.044857788474354919 0.030655130070327396 0 -0.044568644841264472 0.031972917454256337 0 -0.043986290937071695 0.031642178992168951 0 -0.044857788474354919 0.030655130070327396 0 -0.045051992246532828 0.029103327956417888 0 -0.044857788474354919 0.030655130070327396 0 -0.045512418951141921 0.02939941464542568 0 -0.045164705453613993 0.030911773215115602 0 -0.044857788474354919 0.030655130070327396 0 -0.045512418951141921 0.02939941464542568 0 -0.045164705453613993 0.030911773215115602 0 -0.045532517243338101 0.030079928855427374 0 -0.045512418951141921 0.02939941464542568 0 -0.04517179818292337 0.031623299073076649 0 -0.045164705453613993 0.030911773215115602 0 -0.045532517243338101 0.030079928855427374 0 -0.045532517243338101 0.030079928855427374 0 -0.045616497808020219 0.029330898796591336 0 -0.045806244948209757 0.029701431460902476 0 -0.045532517243338101 0.030079928855427374 0 -0.045512418951141921 0.02939941464542568 0 -0.045616497808020219 0.029330898796591336 0 -0.045051992246532828 0.029103327956417888 0 -0.045512418951141921 0.02939941464542568 0 -0.045851214168703955 0.027661298498712048 0 -0.045512418951141921 0.02939941464542568 0 -0.045616497808020219 0.029330898796591336 0 -0.045851214168703955 0.027661298498712048 0 -0.047153418871034511 0.02778519288938382 0 -0.045787146352022759 0.027757192469017911 0 -0.047451094060262905 0.02559172822329139 0 -0.048822097344682527 0.026394394996591457 0 -0.045851214168703955 0.027661298498712048 0 -0.047451094060262905 0.02559172822329139 0 -0.045851214168703955 0.027661298498712048 0 -0.046275323706428909 0.025115914393352236 0 -0.047451094060262905 0.02559172822329139 0 -0.048072289098652708 0.024277767044218621 0 -0.04780284166218364 0.024502769438040303 0 -0.047369606581506747 0.02551823091892675 0 -0.048674699755517477 0.024844141828959086 0 -0.047451094060262905 0.02559172822329139 0 -0.048822097344682527 0.026394394996591457 0 -0.049027021782621617 0.025468666797584028 0 -0.044798144477595128 0.027991365851719248 0 -0.044718626805631524 0.026342779225467385 0 -0.043815018861196105 0.027866765610020546 0 -0.045051992246532828 0.029103327956417888 0 -0.044798144477595128 0.027991365851719248 0 -0.045851214168703955 0.027661298498712048 0 -0.044798144477595128 0.027991365851719248 0 -0.045851214168703955 0.027661298498712048 0 -0.045404065081172187 0.026413575392727835 0 -0.046275323706428909 0.025115914393352236 0 -0.045404065081172187 0.026413575392727835 0 -0.045583275630672014 0.024828175982059372 0 -0.045851214168703955 0.027661298498712048 0 -0.046275323706428909 0.025115914393352236 0 -0.045404065081172187 0.026413575392727835 0 -0.044718626805631524 0.026342779225467385 0 -0.045583275630672014 0.024828175982059372 0 -0.045322170342605633 0.024015443810951484 0 -0.044798144477595128 0.027991365851719248 0 -0.045404065081172187 0.026413575392727835 0 -0.044718626805631524 0.026342779225467385 0 -0.045404065081172187 0.026413575392727835 0 -0.044718626805631524 0.026342779225467385 0 -0.045583275630672014 0.024828175982059372 0 -0.046275323706428909 0.025115914393352236 0 -0.045583275630672014 0.024828175982059372 0 -0.046300452358570034 0.022478750685285803 0 -0.045583275630672014 0.024828175982059372 0 -0.046300452358570034 0.022478750685285803 0 -0.045322170342605633 0.024015443810951484 0 -0.046275323706428909 0.025115914393352236 0 -0.046560804990435495 0.02348492807291248 0 -0.04620129015433809 0.022825773288427775 0 -0.046275323706428909 0.025115914393352236 0 -0.046560804990435495 0.02348492807291248 0 -0.046951489913161046 0.024269463500449787 0 -0.046393831153660491 0.024859215440671212 0 -0.046237394864879156 0.022725173571944507 0 -0.046560804990435495 0.02348492807291248 0 -0.046437619623149129 0.022700507527319932 0 -0.04620129015433809 0.022825773288427775 0 -0.046560804990435495 0.02348492807291248 0 -0.046718906227244228 0.02298098792852353 0 -0.047048617809594906 0.023380890646899261 0 -0.046560804990435495 0.02348492807291248 0 -0.046718906227244228 0.02298098792852353 0 -0.046437619623149129 0.022700507527319932 0 -0.046718906227244228 0.02298098792852353 0 -0.046437619623149129 0.022700507527319932 0 -0.046857448688422787 0.022408056327989596 0 -0.046437619623149129 0.022700507527319932 0 -0.04620129015433809 0.022825773288427775 0 -0.046778364171191557 0.022564676449671868 0 -0.048021060700227249 0.024158626489065034 0 -0.047513321905050705 0.024147363485274971 0 -0.047593033800650733 0.023457897637362304 0 -0.048021060700227249 0.024158626489065034 0 -0.047593033800650733 0.023457897637362304 0 -0.047883019684412081 0.023424313487194592 0 -0.048021060700227249 0.024158626489065034 0 -0.047883019684412081 0.023424313487194592 0 -0.04803379301946744 0.023190390747852827 0 -0.048021060700227249 0.024158626489065034 0 -0.048072289098652708 0.024277767044218621 0 -0.04780284166218364 0.024502769438040303 0 -0.048021060700227249 0.024158626489065034 0 -0.04780284166218364 0.024502769438040303 0 -0.047513321905050705 0.024147363485274971 0 -0.047451094060262905 0.02559172822329139 0 -0.04780284166218364 0.024502769438040303 0 -0.047513321905050705 0.024147363485274971 0 -0.047451094060262905 0.02559172822329139 0 -0.046951489913161046 0.024269463500449787 0 -0.047513321905050705 0.024147363485274971 0 -0.047451094060262905 0.02559172822329139 0 -0.046275323706428909 0.025115914393352236 0 -0.046951489913161046 0.024269463500449787 0 -0.046560804990435495 0.02348492807291248 0 -0.046951489913161046 0.024269463500449787 0 -0.047048617809594906 0.023380890646899261 0 -0.046951489913161046 0.024269463500449787 0 -0.047513321905050705 0.024147363485274971 0 -0.047048617809594906 0.023380890646899261 0 -0.047513321905050705 0.024147363485274971 0 -0.047048617809594906 0.023380890646899261 0 -0.047593033800650733 0.023457897637362304 0 -0.046718906227244228 0.02298098792852353 0 -0.047048617809594906 0.023380890646899261 0 -0.046857448688422787 0.022408056327989596 0 -0.047048617809594906 0.023380890646899261 0 -0.047340453286168281 0.022791113388489676 0 -0.047593033800650733 0.023457897637362304 0 -0.047048617809594906 0.023380890646899261 0 -0.047340453286168281 0.022791113388489676 0 -0.046857448688422787 0.022408056327989596 0 -0.047340453286168281 0.022791113388489676 0 -0.04780144985318957 0.022925285418417325 0 -0.047541313497109598 0.022337988043420687 0 -0.047340453286168281 0.022791113388489676 0 -0.047593033800650733 0.023457897637362304 0 -0.04780144985318957 0.022925285418417325 0 -0.047883019684412081 0.023424313487194592 0 -0.04780144985318957 0.022925285418417325 0 -0.04803379301946744 0.023190390747852827 0 -0.047593033800650733 0.023457897637362304 0 -0.047883019684412081 0.023424313487194592 0 -0.04780144985318957 0.022925285418417325 0 -0.048021060700227249 0.024158626489065034 0 -0.048310891310636241 0.02300397600641526 0 -0.04803379301946744 0.023190390747852827 0 -0.04780144985318957 0.022925285418417325 0 -0.048075177756493594 0.022623578341440805 0 -0.04803379301946744 0.023190390747852827 0 -0.048075177756493594 0.022623578341440805 0 -0.048310891310636241 0.02300397600641526 0 -0.048418215131606768 0.022404903353356358 0 -0.048075177756493594 0.022623578341440805 0 -0.048310891310636241 0.02300397600641526 0 -0.04803379301946744 0.023190390747852827 0 -0.048674699755517477 0.024844141828959086 0 -0.047700905677462851 0.026735061441925424 0 -0.048021060700227249 0.024158626489065034 0 -0.048072289098652708 0.024277767044218621 0 -0.047579951560091011 0.024364218191349582 0 -0.049027021782621617 0.025468666797584028 0 -0.049705704458212471 0.025456549888205973 0 -0.049599869459686294 0.025816745112359867 0 -0.048072289098652708 0.024277767044218621 0 -0.047579951560091011 0.024364218191349582 0 -0.047491137066034431 0.024287250886599696 0 -0.048021060700227249 0.024158626489065034 0 -0.047391155020064281 0.024907685373093985 0 -0.047579951560091011 0.024364218191349582 0 -0.047869790990448066 0.024190523718923034 0 -0.047987644713810423 0.02388115624081219 0 -0.047391155020064281 0.024907685373093985 0 -0.047579951560091011 0.024364218191349582 0 -0.047140438045691374 0.024368999789789438 0 -0.047579951560091011 0.024364218191349582 0 -0.047503542718768013 0.02411260676936677 0 -0.047140438045691374 0.024368999789789438 0 -0.047278095757018267 0.026052204895164334 0 -0.047700905677462851 0.026735061441925424 0 -0.045259450525191168 0.030377730175317294 0 -0.043529568765400629 0.030984491856617963 0 -0.043209229360694129 0.030045749248942388 0 -0.045259450525191168 0.030377730175317294 0 -0.043209229360694129 0.030045749248942388 0 -0.04324549027846665 0.028749867916988133 0 -0.047503542718768013 0.02411260676936677 0 -0.047140438045691374 0.024368999789789438 0 -0.045722638959333969 0.024797552217800625 0 -0.047700905677462851 0.026735061441925424 0 -0.044784766441307626 0.027843425773232598 0 -0.047987644713810423 0.02388115624081219 0 -0.047022121744301815 0.024554376292435419 0 -0.048310891310636241 0.02300397600641526 0 -0.048928784879460938 0.022396083724820812 0 -0.048418215131606768 0.022404903353356358 0 -0.047140438045691374 0.024368999789789438 0 -0.045722638959333969 0.024797552217800625 0 -0.04465529532712767 0.026662769805813315 0 -0.047140438045691374 0.024368999789789438 0 -0.046896919376980505 0.024844157027138564 0 -0.046224407944791233 0.025226580219759251 0 -0.047391155020064281 0.024907685373093985 0 -0.046763542059994175 0.025080686211876504 0 -0.046425274642940551 0.02556169349537012 0 -0.047709671051458555 0.023772470859274895 0 -0.04403352299534382 0.027625477619341927 0 -0.047391155020064281 0.024907685373093985 0 -0.046896919376980505 0.024844157027138564 0 -0.046763542059994175 0.025080686211876504 0 -0.047391155020064281 0.024907685373093985 0 -0.047140438045691374 0.024368999789789438 0 -0.046896919376980505 0.024844157027138564 0 -0.046896919376980505 0.024844157027138564 0 -0.046763542059994175 0.025080686211876504 0 -0.046224407944791233 0.025226580219759251 0 -0.046763542059994175 0.025080686211876504 0 -0.046224407944791233 0.025226580219759251 0 -0.046425274642940551 0.02556169349537012 0 -0.04403352299534382 0.027625477619341927 0 -0.047022121744301815 0.024554376292435419 0 -0.04403352299534382 0.027625477619341927 0 -0.040263351403712087 0.029867943586145491 0 -0.038281026637612237 0.03256065768197397 0 -0.037829502839530155 0.03249758092683095 0 -0.037867532855732619 0.032889016876303613 0 -0.038281026637612237 0.03256065768197397 0 -0.037958409992512654 0.03211327711974464 0 -0.037829502839530155 0.03249758092683095 0 -0.04403352299534382 0.027625477619341927 0 -0.040756553441366375 0.030025456788154666 0 -0.045722638959333969 0.024797552217800625 0 -0.04465529532712767 0.026662769805813315 0 -0.043817595198669207 0.0254855489772116 0 -0.037231614163537291 0.032426789895871465 0 -0.037867532855732619 0.032889016876303613 0 -0.036705946085841663 0.032696416711903271 0 -0.037829502839530155 0.03249758092683095 0 -0.037231614163537291 0.032426789895871465 0 -0.037867532855732619 0.032889016876303613 0 -0.040756553441366375 0.030025456788154666 0 -0.036265708124139033 0.032698138975734495 0 -0.037958409992512654 0.03211327711974464 0 -0.037829502839530155 0.03249758092683095 0 -0.037231614163537291 0.032426789895871465 0 -0.040756553441366375 0.030025456788154666 0 -0.038758239455669433 0.030646732066310019 0 -0.042155601673808281 0.030444216428257224 0 -0.041876671982601359 0.029555201857237669 0 -0.040426348390134315 0.029536395099343499 0 -0.037711025381761083 0.032249992181642456 0 -0.037231614163537291 0.032426789895871465 0 -0.037229612243841081 0.031666155136831298 0 -0.041821682092017344 0.031552545517296894 0 -0.042155601673808281 0.030444216428257224 0 -0.040426348390134315 0.029536395099343499 0 -0.043529568765400629 0.030984491856617963 0 -0.042155601673808281 0.030444216428257224 0 -0.043209229360694129 0.030045749248942388 0 -0.044784766441307626 0.027843425773232598 0 -0.040756553441366375 0.030025456788154666 0 -0.043529568765400629 0.030984491856617963 0 -0.041821682092017344 0.031552545517296894 0 -0.042155601673808281 0.030444216428257224 0 -0.042155601673808281 0.030444216428257224 0 -0.043209229360694129 0.030045749248942388 0 -0.041876671982601359 0.029555201857237669 0 -0.041876671982601359 0.029555201857237669 0 -0.04324549027846665 0.028749867916988133 0 -0.041168466268683375 0.029051080721704772 0 -0.043209229360694129 0.030045749248942388 0 -0.041876671982601359 0.029555201857237669 0 -0.04324549027846665 0.028749867916988133 0 -0.040001196297704718 0.033531272396739205 0 -0.038839775251686935 0.03370616615515834 0 -0.03869374128021235 0.032577127324319291 0 -0.044205302394794095 0.029974238061429955 0 -0.040194864487566866 0.030378494714514117 0 -0.040194864487566866 0.030378494714514117 0 -0.037935387217603964 0.031095927947748746 0 -0.040398322938753131 0.029298606012109596 0 -0.0409397620043001 0.029229366537939342 0 -0.039486978986969713 0.0282089604595178 0 -0.040398322938753131 0.029298606012109596 0 -0.040426348390134315 0.029536395099343499 0 -0.041186429485953385 0.029104739666459521 0 -0.04067254959624797 0.029851487745060183 0 -0.040194864487566866 0.030378494714514117 0 -0.041876671982601359 0.029555201857237669 0 -0.040426348390134315 0.029536395099343499 0 -0.041186429485953385 0.029104739666459521 0 -0.041071963453718545 0.030124666196625377 0 -0.040194864487566866 0.030378494714514117 0 -0.038839775251686935 0.03370616615515834 0 -0.03869374128021235 0.032577127324319291 0 -0.037621743068742115 0.032875753754202666 0 -0.043206449055875749 0.029676026726333921 0 -0.043349590426297963 0.030025580552680821 0 -0.044308099501637874 0.030252234307753305 0 -0.044593437425239926 0.030977289226957954 0 -0.043349590426297963 0.030025580552680821 0 -0.044308099501637874 0.030252234307753305 0 -0.045915812534998136 0.029885174706332819 0 -0.045791511046220333 0.029937093695848859 0 -0.0459521083360553 0.029843759478020558 0 -0.044205302394794095 0.029974238061429955 0 -0.040545601491271392 0.031488264903816558 0 -0.045915812534998136 0.029885174706332819 0 -0.0459521083360553 0.029843759478020558 0 -0.045943897404707223 0.029807284432982854 0 -0.044899124926189124 0.029850947151911951 0 -0.0448305097465155 0.030088765713896952 0 -0.045965430704328444 0.029945345762796675 0 -0.045943897404707223 0.029807284432982854 0 -0.045806244948209757 0.029701431460902476 0 -0.0459521083360553 0.029843759478020558 0 -0.045943897404707223 0.029807284432982854 0 -0.045947624593266997 0.029649275643422596 0 -0.045943897404707223 0.029807284432982854 0 -0.045806244948209757 0.029701431460902476 0 -0.045947624593266997 0.029649275643422596 0 -0.047153418871034511 0.02778519288938382 0 -0.047799718938068281 0.028262747663926065 0 -0.049705704458212471 0.025456549888205973 0 -0.049599869459686294 0.025816745112359867 0 -0.049779934027161209 0.025949160629994476 0 -0.048822097344682527 0.026394394996591457 0 -0.049599869459686294 0.025816745112359867 0 -0.049974004597597009 0.026019902645276462 0 -0.048822097344682527 0.026394394996591457 0 -0.049027021782621617 0.025468666797584028 0 -0.049599869459686294 0.025816745112359867 0 -0.045616497808020219 0.029330898796591336 0 -0.045806244948209757 0.029701431460902476 0 -0.045947624593266997 0.029649275643422596 0 -0.049096107175233508 0.02694938336744809 0 -0.047799718938068281 0.028262747663926065 0 -0.0448305097465155 0.030088765713896952 0 -0.047799718938068281 0.028262747663926065 0 -0.047700905677462851 0.026735061441925424 0 -0.044205302394794095 0.029974238061429955 0 -0.049705704458212471 0.025456549888205973 0 -0.05007625282875041 0.025929804132001615 0 -0.049779934027161209 0.025949160629994476 0 -0.044593437425239926 0.030977289226957954 0 -0.044308099501637874 0.030252234307753305 0 -0.045418310818082751 0.030849464496258049 0 -0.044205302394794095 0.029974238061429955 0 -0.047799718938068281 0.028262747663926065 0 -0.054998895315704795 0.021942927265056963 0 -0.055529471978728956 0.02104322567662522 0 -0.05537525671544332 0.022799498386031652 0 -0.054998895315704795 0.021942927265056963 0 -0.055529471978728956 0.02104322567662522 0 -0.054999500066812472 0.018978313356327169 0 -0.05561852444717777 0.021304779579772341 0 -0.055529471978728956 0.02104322567662522 0 -0.05551125861001531 0.02007079738880941 0 -0.05561852444717777 0.021304779579772341 0 -0.055529471978728956 0.02104322567662522 0 -0.055505205002060014 0.02231014989215719 0 -0.055529471978728956 0.02104322567662522 0 -0.055505205002060014 0.02231014989215719 0 -0.05537525671544332 0.022799498386031652 0 -0.05561852444717777 0.021304779579772341 0 -0.055505205002060014 0.02231014989215719 0 -0.055621131652110925 0.022614703542986607 0 -0.055505205002060014 0.02231014989215719 0 -0.055621131652110925 0.022614703542986607 0 -0.055346806120765785 0.023488364181767724 0 -0.055505205002060014 0.02231014989215719 0 -0.05537525671544332 0.022799498386031652 0 -0.055346806120765785 0.023488364181767724 0 -0.054998895315704795 0.021942927265056963 0 -0.05537525671544332 0.022799498386031652 0 -0.055286667150820756 0.024262388126068936 0 -0.054998895315704795 0.021942927265056963 0 -0.055286667150820756 0.024262388126068936 0 -0.054999416626688495 0.024907626101746301 0 -0.055286667150820756 0.024262388126068936 0 -0.05520704320324904 0.023974384075714766 0 -0.055066934386827276 0.024003123534096692 0 -0.055286667150820756 0.024262388126068936 0 -0.054999416626688495 0.024907626101746301 0 -0.055860066910886727 0.027248351196852892 0 -0.05537525671544332 0.022799498386031652 0 -0.055286667150820756 0.024262388126068936 0 -0.055346806120765785 0.023488364181767724 0 -0.055286667150820756 0.024262388126068936 0 -0.055346806120765785 0.023488364181767724 0 -0.05520704320324904 0.023974384075714766 0 -0.055346806120765785 0.023488364181767724 0 -0.05520704320324904 0.023974384075714766 0 -0.055277657602671705 0.023870218110060081 0 -0.05500018233491874 0.027876441746035995 0 -0.054999416626688495 0.024907626101746301 0 -0.055860066910886727 0.027248351196852892 0 -0.055288682410359009 0.024719505160824488 0 -0.05562434303335817 0.024740794178850077 0 -0.05520704320324904 0.023974384075714766 0 -0.055066934386827276 0.024003123534096692 0 -0.055277657602671705 0.023870218110060081 0 -0.055066934386827276 0.024003123534096692 0 -0.055390830897051581 0.024032936477780154 0 -0.055277657602671705 0.023870218110060081 0 -0.055390830897051581 0.024032936477780154 0 -0.055551205821922953 0.023529023615275223 0 -0.056073295275180027 0.023727205731523007 0 -0.055320797569527028 0.024358106025896872 0 -0.055066934386827276 0.024003123534096692 0 -0.055390830897051581 0.024032936477780154 0 -0.055390830897051581 0.024032936477780154 0 -0.055277657602671705 0.023870218110060081 0 -0.055551205821922953 0.023529023615275223 0 -0.055346806120765785 0.023488364181767724 0 -0.055277657602671705 0.023870218110060081 0 -0.055551205821922953 0.023529023615275223 0 -0.055621131652110925 0.022614703542986607 0 -0.055346806120765785 0.023488364181767724 0 -0.055551205821922953 0.023529023615275223 0 -0.055621131652110925 0.022614703542986607 0 -0.056210153281606112 0.023112420740498071 0 -0.05585303530446737 0.021709963494453186 0 -0.055551205821922953 0.023529023615275223 0 -0.056210153281606112 0.023112420740498071 0 -0.056073295275180027 0.023727205731523007 0 -0.055621131652110925 0.022614703542986607 0 -0.055551205821922953 0.023529023615275223 0 -0.056210153281606112 0.023112420740498071 0 -0.056210153281606112 0.023112420740498071 0 -0.056073295275180027 0.023727205731523007 0 -0.056422479841667858 0.023563084148227185 0 -0.055804006747763937 0.024442902519111253 0 -0.056073295275180027 0.023727205731523007 0 -0.056638408900298295 0.023694682445597106 0 -0.051214517966353262 0.032616596427608058 0 -0.051939744831473331 0.031969029901279845 0 -0.055804006747763937 0.024442902519111253 0 -0.055390830897051581 0.024032936477780154 0 -0.056073295275180027 0.023727205731523007 0 -0.046208134047498677 0.040438354513658743 0 -0.046685685687166356 0.040349245273315848 0 -0.04647481597900277 0.040676508902326942 0 -0.056422479841667858 0.023563084148227185 0 -0.056638408900298295 0.023694682445597106 0 -0.056657654234117227 0.023552521570200682 0 -0.056073295275180027 0.023727205731523007 0 -0.056422479841667858 0.023563084148227185 0 -0.056638408900298295 0.023694682445597106 0 -0.056657654234117227 0.023552521570200682 0 -0.056920392338639651 0.022992562085320595 0 -0.057649580196423106 0.022916895876743615 0 -0.056210153281606112 0.023112420740498071 0 -0.056422479841667858 0.023563084148227185 0 -0.056657654234117227 0.023552521570200682 0 -0.056210153281606112 0.023112420740498071 0 -0.056657654234117227 0.023552521570200682 0 -0.056920392338639651 0.022992562085320595 0 -0.056210153281606112 0.023112420740498071 0 -0.056920392338639651 0.022992562085320595 0 -0.057096547905582787 0.022378493103064317 0 -0.056920392338639651 0.022992562085320595 0 -0.057096547905582787 0.022378493103064317 0 -0.057649580196423106 0.022916895876743615 0 -0.057086732459504762 0.021779642466144746 0 -0.055586273812315609 0.021608687247784118 0 -0.055655037638925417 0.021064275790207494 0 -0.055689955954169576 0.021049301316923671 0 -0.05585303530446737 0.021709963494453186 0 -0.056210153281606112 0.023112420740498071 0 -0.057096547905582787 0.022378493103064317 0 -0.05585303530446737 0.021709963494453186 0 -0.055655037638925417 0.021064275790207494 0 -0.055689955954169576 0.021049301316923671 0 -0.055620610394972424 0.020699612154969436 0 -0.055689955954169576 0.021049301316923671 0 -0.05585303530446737 0.021709963494453186 0 -0.055525981143184355 0.020535096745200959 0 -0.05561852444717777 0.021304779579772341 0 -0.055621131652110925 0.022614703542986607 0 -0.05585303530446737 0.021709963494453186 0 -0.05561852444717777 0.021304779579772341 0 -0.05585303530446737 0.021709963494453186 0 -0.055525981143184355 0.020535096745200959 0 -0.055525981143184355 0.020535096745200959 0 -0.055060991935645703 0.019496872372646665 0 -0.05551125861001531 0.02007079738880941 0 -0.05561852444717777 0.021304779579772341 0 -0.055525981143184355 0.020535096745200959 0 -0.05551125861001531 0.02007079738880941 0 -0.055525981143184355 0.020535096745200959 0 -0.055289780874869174 0.019854383823545766 0 -0.055060991935645703 0.019496872372646665 0 -0.055525981143184355 0.020535096745200959 0 -0.055620610394972424 0.020699612154969436 0 -0.055289780874869174 0.019854383823545766 0 -0.055689955954169576 0.021049301316923671 0 -0.055525981143184355 0.020535096745200959 0 -0.055620610394972424 0.020699612154969436 0 -0.05611823895308217 0.020597885131918233 0 -0.055289780874869174 0.019854383823545766 0 -0.055840628882070725 0.019198182737736564 0 -0.040762790515897936 0.028999550979560151 0 -0.040831971639025882 0.028468637688073777 0 -0.0413259360782358 0.029664416620993842 0 -0.048008560942535715 0.02462815811430312 0 -0.050809160046999272 0.023047520284741611 0 -0.040762790515897936 0.028999550979560151 0 -0.040831971639025882 0.028468637688073777 0 -0.040373383186426533 0.027451674457560128 0 -0.05611823895308217 0.020597885131918233 0 -0.055620610394972424 0.020699612154969436 0 -0.055289780874869174 0.019854383823545766 0 -0.040831971639025882 0.028468637688073777 0 -0.041653673832827254 0.028222515837521323 0 -0.041357352508309103 0.027627965634547377 0 -0.040831971639025882 0.028468637688073777 0 -0.041969453311225528 0.02888603822763558 0 -0.041819004929394443 0.029433812590925819 0 -0.040831971639025882 0.028468637688073777 0 -0.041653673832827254 0.028222515837521323 0 -0.041969453311225528 0.02888603822763558 0 -0.041653673832827254 0.028222515837521323 0 -0.041969453311225528 0.02888603822763558 0 -0.042497935302958756 0.027886029391171185 0 -0.040831971639025882 0.028468637688073777 0 -0.041819004929394443 0.029433812590925819 0 -0.041686716772094484 0.030259574754107017 0 -0.040762790515897936 0.028999550979560151 0 -0.0413259360782358 0.029664416620993842 0 -0.041246513952061178 0.030002719246251423 0 -0.040831971639025882 0.028468637688073777 0 -0.0413259360782358 0.029664416620993842 0 -0.041872438495915015 0.03020632384296585 0 -0.040741586778549964 0.028283335704270815 0 -0.042156040569170522 0.03087017474130269 0 -0.041819004929394443 0.029433812590925819 0 -0.041686716772094484 0.030259574754107017 0 -0.041953624794826408 0.030058680440296005 0 -0.041872438495915015 0.03020632384296585 0 -0.041612100508240754 0.030086515756600252 0 -0.04170368744035978 0.030320255801303465 0 -0.042156040569170522 0.03087017474130269 0 -0.042161542150409154 0.030693142352781796 0 -0.0413259360782358 0.029664416620993842 0 -0.04142849382379081 0.030073736526851611 0 -0.041246513952061178 0.030002719246251423 0 -0.0413259360782358 0.029664416620993842 0 -0.04142849382379081 0.030073736526851611 0 -0.041612100508240754 0.030086515756600252 0 -0.0413259360782358 0.029664416620993842 0 -0.041872438495915015 0.03020632384296585 0 -0.041612100508240754 0.030086515756600252 0 -0.04142849382379081 0.030073736526851611 0 -0.041404389936655961 0.030250252989407624 0 -0.04170368744035978 0.030320255801303465 0 -0.04142849382379081 0.030073736526851611 0 -0.041612100508240754 0.030086515756600252 0 -0.04170368744035978 0.030320255801303465 0 -0.041246513952061178 0.030002719246251423 0 -0.041106273219983454 0.030435257643233574 0 -0.041225063251100535 0.030274661184959889 0 -0.041404389936655961 0.030250252989407624 0 -0.041246513952061178 0.030002719246251423 0 -0.041225063251100535 0.030274661184959889 0 -0.04142849382379081 0.030073736526851611 0 -0.041404389936655961 0.030250252989407624 0 -0.041246513952061178 0.030002719246251423 0 -0.040762790515897936 0.028999550979560151 0 -0.041246513952061178 0.030002719246251423 0 -0.041106273219983454 0.030435257643233574 0 -0.048008560942535715 0.02462815811430312 0 -0.052284137939234539 0.026262658266440156 0 -0.055655037638925417 0.021064275790207494 0 -0.055870879634424428 0.020929407992502459 0 -0.056111678912599203 0.021302027532379482 0 -0.05611823895308217 0.020597885131918233 0 -0.055870879634424428 0.020929407992502459 0 -0.056111678912599203 0.021302027532379482 0 -0.05611823895308217 0.020597885131918233 0 -0.055620610394972424 0.020699612154969436 0 -0.055870879634424428 0.020929407992502459 0 -0.055655037638925417 0.021064275790207494 0 -0.055620610394972424 0.020699612154969436 0 -0.055870879634424428 0.020929407992502459 0 -0.056657654234117227 0.023552521570200682 0 -0.056330364024278934 0.02381683464603267 0 -0.056326935544857085 0.023753733102397197 0 -0.056638408900298295 0.023694682445597106 0 -0.056657654234117227 0.023552521570200682 0 -0.056326935544857085 0.023753733102397197 0 -0.051939744831473331 0.031969029901279845 0 -0.04968468017669754 0.033061531262610994 0 -0.057086732459504762 0.021779642466144746 0 -0.052284137939234539 0.026262658266440156 0 -0.058874287429074822 0.022419704236674064 0 -0.052284137939234539 0.026262658266440156 0 -0.057096547905582787 0.022378493103064317 0 -0.057649580196423106 0.022916895876743615 0 -0.058423669557294666 0.022758011908905793 0 -0.056657654234117227 0.023552521570200682 0 -0.057649580196423106 0.022916895876743615 0 -0.058423669557294666 0.022758011908905793 0 -0.052284137939234539 0.026262658266440156 0 -0.04968468017669754 0.033061531262610994 0 -0.046203232104960794 0.04063554633311818 0 -0.046059756472381738 0.040574085515923765 0 -0.045976874627966173 0.04086978200014027 0 -0.045789015923767856 0.0403657834832283 0 -0.046059756472381738 0.040574085515923765 0 -0.045976874627966173 0.04086978200014027 0 -0.045789015923767856 0.0403657834832283 0 -0.046208134047498677 0.040438354513658743 0 -0.046059756472381738 0.040574085515923765 0 -0.04647481597900277 0.040676508902326942 0 -0.046203232104960794 0.04063554633311818 0 -0.045976874627966173 0.04086978200014027 0 -0.046208134047498677 0.040438354513658743 0 -0.04647481597900277 0.040676508902326942 0 -0.046203232104960794 0.04063554633311818 0 -0.046208134047498677 0.040438354513658743 0 -0.046203232104960794 0.04063554633311818 0 -0.046059756472381738 0.040574085515923765 0 -0.045188266247467662 0.039655445774492037 0 -0.045323887118134974 0.039394663429499807 0 -0.04518593466851905 0.039110019329019106 0 -0.045013297941263547 0.041529734724863168 0 -0.04968468017669754 0.033061531262610994 0 -0.045188266247467662 0.039655445774492037 0 -0.04518593466851905 0.039110019329019106 0 -0.04498001543226212 0.03886448596537747 0 -0.045188266247467662 0.039655445774492037 0 -0.045357469121519563 0.039585850701719882 0 -0.045323887118134974 0.039394663429499807 0 -0.045323887118134974 0.039394663429499807 0 -0.045334357845261776 0.03916627865682723 0 -0.04518593466851905 0.039110019329019106 0 -0.045334357845261776 0.03916627865682723 0 -0.045230380122376145 0.03893692755812915 0 -0.045374818696285686 0.038869242521461629 0 -0.045334357845261776 0.03916627865682723 0 -0.045230380122376145 0.03893692755812915 0 -0.04518593466851905 0.039110019329019106 0 -0.04518593466851905 0.039110019329019106 0 -0.045125653406292036 0.038915941837272171 0 -0.04498001543226212 0.03886448596537747 0 -0.045230380122376145 0.03893692755812915 0 -0.04518593466851905 0.039110019329019106 0 -0.045125653406292036 0.038915941837272171 0 -0.045125653406292036 0.038915941837272171 0 -0.04498001543226212 0.03886448596537747 0 -0.045094827242778246 0.038772482107465554 0 -0.051111739511041046 0.029891019854632921 0 -0.050928289103626047 0.028566586032382258 0 -0.050332459847432259 0.029688248821948204 0 -0.050928289103626047 0.028566586032382258 0 -0.049597370022811678 0.029495334350438815 0 -0.050332459847432259 0.029688248821948204 0 -0.04968468017669754 0.033061531262610994 0 -0.046481366336868842 0.030953897290590445 0 -0.045230380122376145 0.03893692755812915 0 -0.045125653406292036 0.038915941837272171 0 -0.045094827242778246 0.038772482107465554 0 -0.046481366336868842 0.030953897290590445 0 -0.043600045168984379 0.030767416401512988 0 -0.045929711582411749 0.029070018975716348 0 -0.046852692718155502 0.029314582167498982 0 -0.044058852011413296 0.030386966654827714 0 -0.047492589635596445 0.028797142692756284 0 -0.043600045168984379 0.030767416401512988 0 -0.041404389936655961 0.030250252989407624 0 -0.041251606119077522 0.030479212617747799 0 -0.04170368744035978 0.030320255801303465 0 -0.046481366336868842 0.030953897290590445 0 -0.047492589635596445 0.028797142692756284 0 -0.041404389936655961 0.030250252989407624 0 -0.041225063251100535 0.030274661184959889 0 -0.041251606119077522 0.030479212617747799 0 -0.052284137939234539 0.026262658266440156 0 -0.047492589635596445 0.028797142692756284 0 -0.041106273219983454 0.030435257643233574 0 -0.041225063251100535 0.030274661184959889 0 -0.041251606119077522 0.030479212617747799 0 -0.045230380122376145 0.03893692755812915 0 -0.045094827242778246 0.038772482107465554 0 -0.045374818696285686 0.038869242521461629 0 -0.044113827398178936 0.03198863975249059 0 -0.043293470272818109 0.031782859950084466 0 -0.043754134621114896 0.032240339093877315 0 -0.046481366336868842 0.030953897290590445 0 -0.043094168833481578 0.033926549100087779 0 -0.040811084789834938 0.032198597179923683 0 -0.041257790850128831 0.033031137811465799 0 -0.040489300801243008 0.031700552667609079 0 -0.04045337707481067 0.031431102778717017 0 -0.040625614435612932 0.031739206281063366 0 -0.043094168833481578 0.033926549100087779 0 -0.041257790850128831 0.033031137811465799 0 -0.043578514899615978 0.032362388787287213 0 -0.043293470272818109 0.031782859950084466 0 -0.043754134621114896 0.032240339093877315 0 -0.042156040569170522 0.03087017474130269 0 -0.043600045168984379 0.030767416401512988 0 -0.042156040569170522 0.03087017474130269 0 -0.043094168833481578 0.033926549100087779 0 -0.040241694292939896 0.03117813402522767 0 -0.040489300801243008 0.031700552667609079 0 -0.04045337707481067 0.031431102778717017 0 -0.04045337707481067 0.031431102778717017 0 -0.040613962372218836 0.031729399595183366 0 -0.041834430357604098 0.03056069159235339 0 -0.040613962372218836 0.031729399595183366 0 -0.042084011223909847 0.032130837256819235 0 -0.041834430357604098 0.03056069159235339 0 -0.041362679451751573 0.034351749000923359 0 -0.041442216085414603 0.034375698977299154 0 -0.041762147547103751 0.035345183699674036 0 -0.041257790850128831 0.033031137811465799 0 -0.041340136628979014 0.032179598029404947 0 -0.045323887118134974 0.039394663429499807 0 -0.045334357845261776 0.03916627865682723 0 -0.045519730384063005 0.039505892890680981 0 -0.040660290992955275 0.033762349377446807 0 -0.039793418148361702 0.032128325508431144 0 -0.041077425980301112 0.032460982981000037 0 -0.043094168833481578 0.033926549100087779 0 -0.043790414878283154 0.03793246714467495 0 -0.041226892994277883 0.034680067920294801 0 -0.041257790850128831 0.033031137811465799 0 -0.045334357845261776 0.03916627865682723 0 -0.045374818696285686 0.038869242521461629 0 -0.045519730384063005 0.039505892890680981 0 -0.042000231460445972 0.035557439888299389 0 -0.041442216085414603 0.034375698977299154 0 -0.041762147547103751 0.035345183699674036 0 -0.045357469121519563 0.039585850701719882 0 -0.045323887118134974 0.039394663429499807 0 -0.045519730384063005 0.039505892890680981 0 -0.040660290992955275 0.033762349377446807 0 -0.041504659027537832 0.033300590878949189 0 -0.041077425980301112 0.032460982981000037 0 -0.042433239410430125 0.032773064914794314 0 -0.041504659027537832 0.033300590878949189 0 -0.041077425980301112 0.032460982981000037 0 -0.041423695144148419 0.033962851621554636 0 -0.040660290992955275 0.033762349377446807 0 -0.041504659027537832 0.033300590878949189 0 -0.043097016368185796 0.031309585843771151 0 -0.042084011223909847 0.032130837256819235 0 -0.041834430357604098 0.03056069159235339 0 -0.042950848911999677 0.032661986588924594 0 -0.041340136628979014 0.032179598029404947 0 -0.04395966543962123 0.029675598201209838 0 -0.042278481380570859 0.030141876114568776 0 -0.043097016368185796 0.031309585843771151 0 -0.043950168591819841 0.029708416199686404 0 -0.041834430357604098 0.03056069159235339 0 -0.042156040569170522 0.03087017474130269 0 -0.042278481380570859 0.030141876114568776 0 -0.041721920766698499 0.030243745310101339 0 -0.041953624794826408 0.030058680440296005 0 -0.04313109021405253 0.029636666444200266 0 -0.040241694292939896 0.03117813402522767 0 -0.04045337707481067 0.031431102778717017 0 -0.041834430357604098 0.03056069159235339 0 -0.041953624794826408 0.030058680440296005 0 -0.04313109021405253 0.029636666444200266 0 -0.04241616350175801 0.029391523022023351 0 -0.041969453311225528 0.02888603822763558 0 -0.041819004929394443 0.029433812590925819 0 -0.04241616350175801 0.029391523022023351 0 -0.041819004929394443 0.029433812590925819 0 -0.041953624794826408 0.030058680440296005 0 -0.04241616350175801 0.029391523022023351 0 -0.04313109021405253 0.029636666444200266 0 -0.04241616350175801 0.029391523022023351 0 -0.04303687728011648 0.028911052393783717 0 -0.04303687728011648 0.028911052393783717 0 -0.043815018861196105 0.027866765610020546 0 -0.042497935302958756 0.027886029391171185 0 -0.041969453311225528 0.02888603822763558 0 -0.04303687728011648 0.028911052393783717 0 -0.042497935302958756 0.027886029391171185 0 -0.041969453311225528 0.02888603822763558 0 -0.04241616350175801 0.029391523022023351 0 -0.04303687728011648 0.028911052393783717 0 -0.043950168591819841 0.029708416199686404 0 -0.04313109021405253 0.029636666444200266 0 -0.04303687728011648 0.028911052393783717 0 -0.043950168591819841 0.029708416199686404 0 -0.04303687728011648 0.028911052393783717 0 -0.043815018861196105 0.027866765610020546 0 -0.043815018861196105 0.027866765610020546 0 -0.042497935302958756 0.027886029391171185 0 -0.043536276662853618 0.026199700264024565 0 -0.042497935302958756 0.027886029391171185 0 -0.042202762002580815 0.026608987492486705 0 -0.043536276662853618 0.026199700264024565 0 -0.042202762002580815 0.026608987492486705 0 -0.043536276662853618 0.026199700264024565 0 -0.042423578347678625 0.024406525607963268 0 -0.044718626805631524 0.026342779225467385 0 -0.043815018861196105 0.027866765610020546 0 -0.043536276662853618 0.026199700264024565 0 -0.044718626805631524 0.026342779225467385 0 -0.043536276662853618 0.026199700264024565 0 -0.045322170342605633 0.024015443810951484 0 -0.045322170342605633 0.024015443810951484 0 -0.046580747601203475 0.021459642688262958 0 -0.042423578347678625 0.024406525607963268 0 -0.046300452358570034 0.022478750685285803 0 -0.045322170342605633 0.024015443810951484 0 -0.046580747601203475 0.021459642688262958 0 -0.046300452358570034 0.022478750685285803 0 -0.046580747601203475 0.021459642688262958 0 -0.047465441081953996 0.02172166896187943 0 -0.046580747601203475 0.021459642688262958 0 -0.050361705774323418 0.018912886960048357 0 -0.050776997260674556 0.020738251488741633 0 -0.046462126298078832 0.021572010935300763 0 -0.046411676431060887 0.02173645093782256 0 -0.043536276662853618 0.026199700264024565 0 -0.045322170342605633 0.024015443810951484 0 -0.042423578347678625 0.024406525607963268 0 -0.050361705774323418 0.018912886960048357 0 -0.051744251768742665 0.019693971498539728 0 -0.052950242302416115 0.018686745913943065 0 -0.050361705774323418 0.018912886960048357 0 -0.051744251768742665 0.019693971498539728 0 -0.050776997260674556 0.020738251488741633 0 -0.051744251768742665 0.019693971498539728 0 -0.050776997260674556 0.020738251488741633 0 -0.052580336331071405 0.020161883067392666 0 -0.051744251768742665 0.019693971498539728 0 -0.053093929887961196 0.01943563290137679 0 -0.052950242302416115 0.018686745913943065 0 -0.051744251768742665 0.019693971498539728 0 -0.052580336331071405 0.020161883067392666 0 -0.053093929887961196 0.01943563290137679 0 -0.053093929887961196 0.01943563290137679 0 -0.053690845773534952 0.019119889265896438 0 -0.052950242302416115 0.018686745913943065 0 -0.053093929887961196 0.01943563290137679 0 -0.053690845773534952 0.019119889265896438 0 -0.054190631919148191 0.019220964886025305 0 -0.053690845773534952 0.019119889265896438 0 -0.052950242302416115 0.018686745913943065 0 -0.054298110111370035 0.019161840338421034 0 -0.046411676431060887 0.02173645093782256 0 -0.046948934234293208 0.023068624285317925 0 -0.042202762002580815 0.026608987492486705 0 -0.042423578347678625 0.024406525607963268 0 -0.040875434345851142 0.026638062157613083 0 -0.040875434345851142 0.026638062157613083 0 -0.041357352508309103 0.027627965634547377 0 -0.040373383186426533 0.027451674457560128 0 -0.042202762002580815 0.026608987492486705 0 -0.040875434345851142 0.026638062157613083 0 -0.041357352508309103 0.027627965634547377 0 -0.042497935302958756 0.027886029391171185 0 -0.042202762002580815 0.026608987492486705 0 -0.041357352508309103 0.027627965634547377 0 -0.041653673832827254 0.028222515837521323 0 -0.042497935302958756 0.027886029391171185 0 -0.041357352508309103 0.027627965634547377 0 -0.040831971639025882 0.028468637688073777 0 -0.041357352508309103 0.027627965634547377 0 -0.040373383186426533 0.027451674457560128 0 -0.052950242302416115 0.018686745913943065 0 -0.054091419436099984 0.019081509593339169 0 -0.054298110111370035 0.019161840338421034 0 -0.055289780874869174 0.019854383823545766 0 -0.054091419436099984 0.019081509593339169 0 -0.054298110111370035 0.019161840338421034 0 -0.055824494169225906 0.018585238553533296 0 -0.050809160046999272 0.023047520284741611 0 -0.046948934234293208 0.023068624285317925 0 -0.050809160046999272 0.023047520284741611 0 -0.055289780874869174 0.019854383823545766 0 -0.054298110111370035 0.019161840338421034 0 -0.055060991935645703 0.019496872372646665 0 -0.054298110111370035 0.019161840338421034 0 -0.055060991935645703 0.019496872372646665 0 -0.054190631919148191 0.019220964886025305 0 -0.055060991935645703 0.019496872372646665 0 -0.05551125861001531 0.02007079738880941 0 -0.055192865648220617 0.019100780397521756 0 -0.055192865648220617 0.019100780397521756 0 -0.053931029409670386 0.019610615903809067 0 -0.055966234192936497 0.018543754658889262 0 -0.055060991935645703 0.019496872372646665 0 -0.055192865648220617 0.019100780397521756 0 -0.054190631919148191 0.019220964886025305 0 -0.055192865648220617 0.019100780397521756 0 -0.054190631919148191 0.019220964886025305 0 -0.053931029409670386 0.019610615903809067 0 -0.053690845773534952 0.019119889265896438 0 -0.054298110111370035 0.019161840338421034 0 -0.054190631919148191 0.019220964886025305 0 -0.052580336331071405 0.020161883067392666 0 -0.053093929887961196 0.01943563290137679 0 -0.053931029409670386 0.019610615903809067 0 -0.053093929887961196 0.01943563290137679 0 -0.054190631919148191 0.019220964886025305 0 -0.053931029409670386 0.019610615903809067 0 -0.052580336331071405 0.020161883067392666 0 -0.053931029409670386 0.019610615903809067 0 -0.05275338470716813 0.020402488197899842 0 -0.053931029409670386 0.019610615903809067 0 -0.054255290955245443 0.020066149876226007 0 -0.05275338470716813 0.020402488197899842 0 -0.053931029409670386 0.019610615903809067 0 -0.054255290955245443 0.020066149876226007 0 -0.055966234192936497 0.018543754658889262 0 -0.055866359110794267 0.017247265857767657 0 -0.0559512439657254 0.018412992719416495 0 -0.05748725365588029 0.014769957804612426 0 -0.05499886727637622 0.016012987279363136 0 -0.055966234192936497 0.018543754658889262 0 -0.05748725365588029 0.014769957804612426 0 -0.05499886727637622 0.016012987279363136 0 -0.055000098797781401 0.013045729236248041 0 -0.05499886727637622 0.016012987279363136 0 -0.055966234192936497 0.018543754658889262 0 -0.054999500066812472 0.018978313356327169 0 -0.055966234192936497 0.018543754658889262 0 -0.055653647799672384 0.019500330479122294 0 -0.054999500066812472 0.018978313356327169 0 -0.055192865648220617 0.019100780397521756 0 -0.055966234192936497 0.018543754658889262 0 -0.055653647799672384 0.019500330479122294 0 -0.05551125861001531 0.02007079738880941 0 -0.055192865648220617 0.019100780397521756 0 -0.055653647799672384 0.019500330479122294 0 -0.055529471978728956 0.02104322567662522 0 -0.05551125861001531 0.02007079738880941 0 -0.055653647799672384 0.019500330479122294 0 -0.055529471978728956 0.02104322567662522 0 -0.055653647799672384 0.019500330479122294 0 -0.054999500066812472 0.018978313356327169 0 -0.05499997962180897 0.0071145612448123077 0 -0.056292772520109093 0.0083033864110459588 0 -0.055720559389350194 0.0091266605837727385 0 -0.05499997962180897 0.0071145612448123077 0 -0.056292772520109093 0.0083033864110459588 0 -0.056355412706433405 0.0076647338005640595 0 -0.056292772520109093 0.0083033864110459588 0 -0.05696621307117334 0.0085156567127770214 0 -0.056355412706433405 0.0076647338005640595 0 -0.056977617140545202 0.0096962168095546478 0 -0.05812839961546807 0.011641236531962884 0 -0.05850455937613603 0.0089036214138195693 0 -0.056292772520109093 0.0083033864110459588 0 -0.056509524062034563 0.0091253880764997873 0 -0.05696621307117334 0.0085156567127770214 0 -0.057258980056431673 0.009119832837197344 0 -0.055515416071889513 0.012566609607234857 0 -0.056977617140545202 0.0096962168095546478 0 -0.055410547677164336 0.010375928812220098 0 -0.056744798878734758 0.010936857296796408 0 -0.056509524062034563 0.0091253880764997873 0 -0.055720559389350194 0.0091266605837727385 0 -0.055410547677164336 0.010375928812220098 0 -0.05499997962180897 0.0071145612448123077 0 -0.055720559389350194 0.0091266605837727385 0 -0.054999680880298128 0.010079398544941323 0 -0.057258980056431673 0.009119832837197344 0 -0.055290314033884395 0.010361685571495992 0 -0.056292772520109093 0.0083033864110459588 0 -0.056509524062034563 0.0091253880764997873 0 -0.055720559389350194 0.0091266605837727385 0 -0.055720559389350194 0.0091266605837727385 0 -0.054999680880298128 0.010079398544941323 0 -0.055410547677164336 0.010375928812220098 0 -0.054999680880298128 0.010079398544941323 0 -0.055410547677164336 0.010375928812220098 0 -0.055000098797781401 0.013045729236248041 0 -0.055410547677164336 0.010375928812220098 0 -0.05645011481819022 0.012059925479220402 0 -0.055000098797781401 0.013045729236248041 0 -0.055410547677164336 0.010375928812220098 0 -0.05645011481819022 0.012059925479220402 0 -0.056744798878734758 0.010936857296796408 0 -0.05748725365588029 0.014769957804612426 0 -0.05645011481819022 0.012059925479220402 0 -0.055000098797781401 0.013045729236248041 0 -0.05748725365588029 0.014769957804612426 0 -0.05645011481819022 0.012059925479220402 0 -0.05812839961546807 0.011641236531962884 0 -0.055866359110794267 0.017247265857767657 0 -0.055244407018819788 0.016176678127621778 0 -0.056977617140545202 0.0096962168095546478 0 -0.05812839961546807 0.011641236531962884 0 -0.056744798878734758 0.010936857296796408 0 -0.05645011481819022 0.012059925479220402 0 -0.05812839961546807 0.011641236531962884 0 -0.056744798878734758 0.010936857296796408 0 -0.052504751726581658 0.020213208505474357 0 -0.052083007235230912 0.019893159879755078 0 -0.05275338470716813 0.020402488197899842 0 -0.054255290955245443 0.020066149876226007 0 -0.052504751726581658 0.020213208505474357 0 -0.05275338470716813 0.020402488197899842 0 -0.052083007235230912 0.019893159879755078 0 -0.05275338470716813 0.020402488197899842 0 -0.052049219185724707 0.020046526250628534 0 -0.05275338470716813 0.020402488197899842 0 -0.052049219185724707 0.020046526250628534 0 -0.052140327148276315 0.020725983245826026 0 -0.052049219185724707 0.020046526250628534 0 -0.051689191083992198 0.019210772643297343 0 -0.051944402697652027 0.019036228704049901 0 -0.052083007235230912 0.019893159879755078 0 -0.052049219185724707 0.020046526250628534 0 -0.051689191083992198 0.019210772643297343 0 -0.052504751726581658 0.020213208505474357 0 -0.052083007235230912 0.019893159879755078 0 -0.051369556122688224 0.019132944858750649 0 -0.055244407018819788 0.016176678127621778 0 -0.055515416071889513 0.012566609607234857 0 -0.052083007235230912 0.019893159879755078 0 -0.051689191083992198 0.019210772643297343 0 -0.051369556122688224 0.019132944858750649 0 -0.055515416071889513 0.012566609607234857 0 -0.056969096051668257 0.0087030031641507771 0 -0.056211142159450132 0.012001732178789512 0 -0.056414046371443094 0.011493494324791432 0 -0.056777447647469476 0.011766076381554316 0 -0.051689191083992198 0.019210772643297343 0 -0.051369556122688224 0.019132944858750649 0 -0.051356550646222091 0.018018496039935411 0 -0.055515416071889513 0.012566609607234857 0 -0.05349535102660654 0.015220970022379546 0 -0.051356550646222091 0.018018496039935411 0 -0.052340553303119403 0.017779654822019084 0 -0.051944402697652027 0.019036228704049901 0 -0.051689191083992198 0.019210772643297343 0 -0.051356550646222091 0.018018496039935411 0 -0.051944402697652027 0.019036228704049901 0 -0.051356550646222091 0.018018496039935411 0 -0.052340553303119403 0.017779654822019084 0 -0.053125304241157856 0.015395969691649592 0 -0.052340553303119403 0.017779654822019084 0 -0.052857062922573264 0.017350687384674168 0 -0.052375792090420613 0.01873138309106432 0 -0.052340553303119403 0.017779654822019084 0 -0.052375792090420613 0.01873138309106432 0 -0.051944402697652027 0.019036228704049901 0 -0.052340553303119403 0.017779654822019084 0 -0.052857062922573264 0.017350687384674168 0 -0.053125304241157856 0.015395969691649592 0 -0.052857062922573264 0.017350687384674168 0 -0.053143033307141443 0.016735317487713772 0 -0.053125304241157856 0.015395969691649592 0 -0.052857062922573264 0.017350687384674168 0 -0.053143033307141443 0.016735317487713772 0 -0.05294010018733631 0.017799862182817969 0 -0.053143033307141443 0.016735317487713772 0 -0.05294010018733631 0.017799862182817969 0 -0.053253488243258582 0.016985514460506963 0 -0.052857062922573264 0.017350687384674168 0 -0.05294010018733631 0.017799862182817969 0 -0.052375792090420613 0.01873138309106432 0 -0.052323025769004321 0.019318351735521197 0 -0.051399233194764485 0.021376968054951869 0 -0.053868447370845632 0.018002252522393576 0 -0.05294010018733631 0.017799862182817969 0 -0.052323025769004321 0.019318351735521197 0 -0.052375792090420613 0.01873138309106432 0 -0.05294010018733631 0.017799862182817969 0 -0.052323025769004321 0.019318351735521197 0 -0.053868447370845632 0.018002252522393576 0 -0.052323025769004321 0.019318351735521197 0 -0.052375792090420613 0.01873138309106432 0 -0.051938063349752185 0.020147569945748713 0 -0.052375792090420613 0.01873138309106432 0 -0.051944402697652027 0.019036228704049901 0 -0.051938063349752185 0.020147569945748713 0 -0.052049219185724707 0.020046526250628534 0 -0.051944402697652027 0.019036228704049901 0 -0.051938063349752185 0.020147569945748713 0 -0.052049219185724707 0.020046526250628534 0 -0.051938063349752185 0.020147569945748713 0 -0.052140327148276315 0.020725983245826026 0 -0.051938063349752185 0.020147569945748713 0 -0.052140327148276315 0.020725983245826026 0 -0.051399233194764485 0.021376968054951869 0 -0.050776997260674556 0.020738251488741633 0 -0.052580336331071405 0.020161883067392666 0 -0.052140327148276315 0.020725983245826026 0 -0.052580336331071405 0.020161883067392666 0 -0.05275338470716813 0.020402488197899842 0 -0.052140327148276315 0.020725983245826026 0 -0.050776997260674556 0.020738251488741633 0 -0.052140327148276315 0.020725983245826026 0 -0.051399233194764485 0.021376968054951869 0 -0.050776997260674556 0.020738251488741633 0 -0.051399233194764485 0.021376968054951869 0 -0.04936739720895246 0.021366680252750181 0 -0.052323025769004321 0.019318351735521197 0 -0.051938063349752185 0.020147569945748713 0 -0.051399233194764485 0.021376968054951869 0 -0.04741266621178198 0.022012453447947854 0 -0.049152234334219357 0.022658050255624802 0 -0.051399233194764485 0.021376968054951869 0 -0.04936739720895246 0.021366680252750181 0 -0.049335263477691793 0.022591900983025551 0 -0.04936739720895246 0.021366680252750181 0 -0.047465441081953996 0.02172166896187943 0 -0.049335263477691793 0.022591900983025551 0 -0.047268416862219317 0.02225851142410995 0 -0.047946756701234862 0.022863456880365552 0 -0.049335263477691793 0.022591900983025551 0 -0.046580747601203475 0.021459642688262958 0 -0.050776997260674556 0.020738251488741633 0 -0.04936739720895246 0.021366680252750181 0 -0.046580747601203475 0.021459642688262958 0 -0.04936739720895246 0.021366680252750181 0 -0.047465441081953996 0.02172166896187943 0 -0.047268416862219317 0.02225851142410995 0 -0.046778364171191557 0.022564676449671868 0 -0.04708239390376364 0.022573967597727354 0 -0.046237394864879156 0.022725173571944507 0 -0.04741266621178198 0.022012453447947854 0 -0.047268416862219317 0.02225851142410995 0 -0.047421096749052309 0.022740285388548859 0 -0.047946756701234862 0.022863456880365552 0 -0.047268416862219317 0.02225851142410995 0 -0.047421096749052309 0.022740285388548859 0 -0.04708239390376364 0.022573967597727354 0 -0.047946756701234862 0.022863456880365552 0 -0.04817861701042235 0.023447717669491448 0 -0.047482165083520135 0.023022907573987783 0 -0.047421096749052309 0.022740285388548859 0 -0.047946756701234862 0.022863456880365552 0 -0.047482165083520135 0.023022907573987783 0 -0.05139027549408106 0.021216109629184392 0 -0.050970992054292667 0.020657094101794837 0 -0.051399233194764485 0.021376968054951869 0 -0.049335263477691793 0.022591900983025551 0 -0.04817861701042235 0.023447717669491448 0 -0.047946756701234862 0.022863456880365552 0 -0.049335263477691793 0.022591900983025551 0 -0.04817861701042235 0.023447717669491448 0 -0.050970992054292667 0.020657094101794837 0 -0.04986379304795921 0.019549563630271903 0 -0.053868447370845632 0.018002252522393576 0 -0.053253488243258582 0.016985514460506963 0 -0.052537262025892546 0.01644045728705314 0 -0.05294010018733631 0.017799862182817969 0 -0.053868447370845632 0.018002252522393576 0 -0.053253488243258582 0.016985514460506963 0 -0.04817861701042235 0.023447717669491448 0 -0.047482165083520135 0.023022907573987783 0 -0.047149310630240408 0.022505953259728425 0 -0.047482165083520135 0.023022907573987783 0 -0.047149310630240408 0.022505953259728425 0 -0.047416726939564592 0.022219915718709474 0 -0.052537262025892546 0.01644045728705314 0 -0.052985237234718749 0.016615166853785036 0 -0.052001351485640189 0.017359767467282843 0 -0.053253488243258582 0.016985514460506963 0 -0.052537262025892546 0.01644045728705314 0 -0.052985237234718749 0.016615166853785036 0 -0.053143033307141443 0.016735317487713772 0 -0.053253488243258582 0.016985514460506963 0 -0.052985237234718749 0.016615166853785036 0 -0.052872562165635739 0.017207943516995686 0 -0.052001351485640189 0.017359767467282843 0 -0.052725076517571232 0.018175410515830114 0 -0.052985237234718749 0.016615166853785036 0 -0.052872562165635739 0.017207943516995686 0 -0.053139652518490683 0.016393612547842266 0 -0.052985237234718749 0.016615166853785036 0 -0.052872562165635739 0.017207943516995686 0 -0.052001351485640189 0.017359767467282843 0 -0.052537262025892546 0.01644045728705314 0 -0.052001351485640189 0.017359767467282843 0 -0.050386113950888489 0.017406596354224806 0 -0.04986379304795921 0.019549563630271903 0 -0.048853178513219596 0.019327197101406554 0 -0.052001351485640189 0.017359767467282843 0 -0.051116326208919538 0.018144232238316873 0 -0.050386113950888489 0.017406596354224806 0 -0.052001351485640189 0.017359767467282843 0 -0.051116326208919538 0.018144232238316873 0 -0.051742291783774971 0.018678330563696284 0 -0.051116326208919538 0.018144232238316873 0 -0.051742291783774971 0.018678330563696284 0 -0.050336422079859416 0.019127508242545884 0 -0.051742291783774971 0.018678330563696284 0 -0.05119785244626001 0.019898122443038815 0 -0.050336422079859416 0.019127508242545884 0 -0.051742291783774971 0.018678330563696284 0 -0.05119785244626001 0.019898122443038815 0 -0.052287635013538745 0.019257246725724743 0 -0.052319832311562335 0.020573313333667957 0 -0.05119785244626001 0.019898122443038815 0 -0.052287635013538745 0.019257246725724743 0 -0.050593974038684313 0.021356615715996702 0 -0.05119785244626001 0.019898122443038815 0 -0.049660740580816161 0.020438492025916959 0 -0.058042337390056938 0.002020904120990887 0 -0.058220398210544977 0.0020334093052416895 0 -0.059149444185068768 0.0015862064037283597 0 -0.054674801911550587 0.012277258241060575 0 -0.057408617978408807 0.0088098022042195842 0 -0.054674801911550587 0.012277258241060575 0 -0.053331645674653351 0.018756359913620128 0 -0.052319832311562335 0.020573313333667957 0 -0.052287635013538745 0.019257246725724743 0 -0.0532923070998799 0.018927858560846066 0 -0.052001351485640189 0.017359767467282843 0 -0.051742291783774971 0.018678330563696284 0 -0.052725076517571232 0.018175410515830114 0 -0.052287635013538745 0.019257246725724743 0 -0.052725076517571232 0.018175410515830114 0 -0.0532923070998799 0.018927858560846066 0 -0.051742291783774971 0.018678330563696284 0 -0.052287635013538745 0.019257246725724743 0 -0.052725076517571232 0.018175410515830114 0 -0.054788218505755451 0.016785350987677236 0 -0.054665735501262816 0.016663972873601572 0 -0.054841701639575482 0.016347340257037258 0 -0.052725076517571232 0.018175410515830114 0 -0.0532923070998799 0.018927858560846066 0 -0.053781678484294902 0.017564299579044578 0 -0.052872562165635739 0.017207943516995686 0 -0.052725076517571232 0.018175410515830114 0 -0.053781678484294902 0.017564299579044578 0 -0.053331645674653351 0.018756359913620128 0 -0.054462591074151058 0.016757127891608287 0 -0.05453397599189326 0.016729592794461987 0 -0.054788218505755451 0.016785350987677236 0 -0.054665735501262816 0.016663972873601572 0 -0.058724644630831858 0.0022163542021614311 0 -0.059149444185068768 0.0015862064037283597 0 -0.059543201810841585 0.0016006019400255254 0 -0.057408617978408807 0.0088098022042195842 0 -0.057415068476609717 0.0091145526785703264 0 -0.059149444185068768 0.0015862064037283597 0 -0.059543201810841585 0.0016006019400255254 0 -0.059607558494015764 0.001378068290399311 0 -0.054841701639575482 0.016347340257037258 0 -0.055571221528812234 0.016289338220015766 0 -0.055417093074965229 0.016769643647592449 0 -0.054788218505755451 0.016785350987677236 0 -0.054841701639575482 0.016347340257037258 0 -0.055417093074965229 0.016769643647592449 0 -0.054841701639575482 0.016347340257037258 0 -0.054855533360412635 0.015789002132691802 0 -0.055571221528812234 0.016289338220015766 0 -0.054462591074151058 0.016757127891608287 0 -0.054798303882853006 0.016004232204306749 0 -0.053781678484294902 0.017564299579044578 0 -0.054855533360412635 0.015789002132691802 0 -0.053658431738375978 0.016206588711465453 0 -0.052872562165635739 0.017207943516995686 0 -0.053781678484294902 0.017564299579044578 0 -0.053139652518490683 0.016393612547842266 0 -0.053781678484294902 0.017564299579044578 0 -0.053658431738375978 0.016206588711465453 0 -0.053139652518490683 0.016393612547842266 0 -0.053658431738375978 0.016206588711465453 0 -0.053139652518490683 0.016393612547842266 0 -0.053125304241157856 0.015395969691649592 0 -0.053143033307141443 0.016735317487713772 0 -0.053139652518490683 0.016393612547842266 0 -0.053125304241157856 0.015395969691649592 0 -0.053143033307141443 0.016735317487713772 0 -0.052985237234718749 0.016615166853785036 0 -0.053139652518490683 0.016393612547842266 0 -0.05349535102660654 0.015220970022379546 0 -0.053587571168257124 0.015058095111503848 0 -0.054855533360412635 0.015789002132691802 0 -0.053125304241157856 0.015395969691649592 0 -0.055244560561454943 0.013891555926809988 0 -0.054855533360412635 0.015789002132691802 0 -0.053658431738375978 0.016206588711465453 0 -0.053125304241157856 0.015395969691649592 0 -0.056414046371443094 0.011493494324791432 0 -0.053125304241157856 0.015395969691649592 0 -0.055244560561454943 0.013891555926809988 0 -0.055244560561454943 0.013891555926809988 0 -0.056777447647469476 0.011766076381554316 0 -0.05608792750022585 0.015745968006640618 0 -0.054855533360412635 0.015789002132691802 0 -0.055244560561454943 0.013891555926809988 0 -0.05608792750022585 0.015745968006640618 0 -0.056414046371443094 0.011493494324791432 0 -0.055244560561454943 0.013891555926809988 0 -0.056777447647469476 0.011766076381554316 0 -0.057404708615863401 0.011866985814906332 0 -0.058240892120896032 0.010664881993331181 0 -0.056777447647469476 0.011766076381554316 0 -0.05608792750022585 0.015745968006640618 0 -0.062441497267242775 0.016291489910108436 0 -0.056777447647469476 0.011766076381554316 0 -0.056640261281252581 0.0096585792594072999 0 -0.056715224310226228 0.0069722680693592633 0 -0.05696621307117334 0.0085156567127770214 0 -0.056640261281252581 0.0096585792594072999 0 -0.056700887884550563 0.0082584840641045428 0 -0.056211142159450132 0.012001732178789512 0 -0.056777447647469476 0.011766076381554316 0 -0.056640261281252581 0.0096585792594072999 0 -0.056640261281252581 0.0096585792594072999 0 -0.056715224310226228 0.0069722680693592633 0 -0.056700887884550563 0.0082584840641045428 0 -0.056266869814311823 0.016046819584769348 0 -0.05608792750022585 0.015745968006640618 0 -0.056775068175427795 0.015786678868895267 0 -0.056968235598011063 0.016830382957196282 0 -0.058240892120896032 0.010664881993331181 0 -0.056266869814311823 0.016046819584769348 0 -0.056466356867097382 0.016490377650450742 0 -0.056775068175427795 0.015786678868895267 0 -0.056266869814311823 0.016046819584769348 0 -0.05608792750022585 0.015745968006640618 0 -0.055571221528812234 0.016289338220015766 0 -0.054855533360412635 0.015789002132691802 0 -0.05608792750022585 0.015745968006640618 0 -0.055571221528812234 0.016289338220015766 0 -0.057415068476609717 0.0091145526785703264 0 -0.057564131294397886 0.0094584377180704487 0 -0.055571221528812234 0.016289338220015766 0 -0.055417093074965229 0.016769643647592449 0 -0.056466356867097382 0.016490377650450742 0 -0.059607558494015764 0.001378068290399311 0 -0.059300802033516675 0.0012491488539028708 0 -0.058678670640831342 0.0019383360504801241 0 -0.060264871274257351 0.0008330029739872987 0 -0.059367370701575835 0.0012242146276324037 0 -0.060034525692983447 -0.0002316054311446487 0 -0.061249325000468736 -4.0432963112058687e-05 0 -0.059300802033516675 0.0012491488539028708 0 -0.059543201810841585 0.0016006019400255254 0 -0.059607558494015764 0.001378068290399311 0 -0.059300802033516675 0.0012491488539028708 0 -0.060034525692983447 -0.0002316054311446487 0 -0.059021547431642681 -0.00012409131128674627 0 -0.059300802033516675 0.0012491488539028708 0 -0.059021547431642681 -0.00012409131128674627 0 -0.057474901849375724 -0.00024995484722492367 0 -0.05837626470133632 0.0008785414166159422 0 -0.059021547431642681 -0.00012409131128674627 0 -0.059300802033516675 0.0012491488539028708 0 -0.05837626470133632 0.0008785414166159422 0 -0.059300802033516675 0.0012491488539028708 0 -0.05837626470133632 0.0008785414166159422 0 -0.058678670640831342 0.0019383360504801241 0 -0.056266869814311823 0.016046819584769348 0 -0.055571221528812234 0.016289338220015766 0 -0.056466356867097382 0.016490377650450742 0 -0.05837626470133632 0.0008785414166159422 0 -0.058678670640831342 0.0019383360504801241 0 -0.05720156100120341 0.0014608635701234393 0 -0.056466356867097382 0.016490377650450742 0 -0.05726254777375353 0.016097576455108939 0 -0.056775068175427795 0.015786678868895267 0 -0.057564131294397886 0.0094584377180704487 0 -0.056360152615111396 0.0071239666662955168 0 -0.058678670640831342 0.0019383360504801241 0 -0.05720156100120341 0.0014608635701234393 0 -0.056448714502149853 0.0029903990610003566 0 -0.057474901849375724 -0.00024995484722492367 0 -0.05837626470133632 0.0008785414166159422 0 -0.05720156100120341 0.0014608635701234393 0 -0.057474901849375724 -0.00024995484722492367 0 -0.05720156100120341 0.0014608635701234393 0 -0.056062978783280683 0.00054278764236082575 0 -0.05720156100120341 0.0014608635701234393 0 -0.056062978783280683 0.00054278764236082575 0 -0.05499993348310115 0.0020627514073232765 0 -0.054999812916025015 -0.00094218036617141451 0 -0.056062978783280683 0.00054278764236082575 0 -0.05499993348310115 0.0020627514073232765 0 -0.055000000381676899 0.0020635092298062789 0 -0.056623863307271968 0.0033311490123961339 0 -0.054999994405491241 0.0038729222702367275 0 -0.05720156100120341 0.0014608635701234393 0 -0.05499993348310115 0.0020627514073232765 0 -0.056448714502149853 0.0029903990610003566 0 -0.054998805245989976 0.0020621864497125278 0 -0.056360152615111396 0.0071239666662955168 0 -0.056740521903049693 0.0033513117684936997 0 -0.055000070033526555 0.0038727301747427229 0 -0.054999936078340382 0.0041479279236404567 0 -0.054998062784038959 0.0041450989968323552 0 -0.058240892120896032 0.010664881993331181 0 -0.056360152615111396 0.0071239666662955168 0 -0.055001713129049862 0.0038727684218511772 0 -0.054999591172226268 0.0041510779320728056 0 -0.056715224310226228 0.0069722680693592633 0 -0.056355412706433405 0.0076647338005640595 0 -0.056740521903049693 0.0033513117684936997 0 -0.054999936078340382 0.0041479279236404567 0 -0.058349449027181755 0.0046634181939573076 0 -0.056360152615111396 0.0071239666662955168 0 -0.058240892120896032 0.010664881993331181 0 -0.056715224310226228 0.0069722680693592633 0 -0.056355412706433405 0.0076647338005640595 0 -0.056700887884550563 0.0082584840641045428 0 -0.05696621307117334 0.0085156567127770214 0 -0.056355412706433405 0.0076647338005640595 0 -0.056700887884550563 0.0082584840641045428 0 -0.05499997962180897 0.0071145612448123077 0 -0.054999591172226268 0.0041510779320728056 0 -0.056355412706433405 0.0076647338005640595 0 -0.047312026031265469 0.020744443267780448 0 -0.047289194878134676 0.021099294092258719 0 -0.047066942526651577 0.020919370271748013 0 -0.047289194878134676 0.021099294092258719 0 -0.047066942526651577 0.020919370271748013 0 -0.046992631186803774 0.021034497340502362 0 -0.047066942526651577 0.020919370271748013 0 -0.046992631186803774 0.021034497340502362 0 -0.046670103219598587 0.020652158290435069 0 -0.047066942526651577 0.020919370271748013 0 -0.046835827146797085 0.020904769104286004 0 -0.046670103219598587 0.020652158290435069 0 -0.047312026031265469 0.020744443267780448 0 -0.046835827146797085 0.020904769104286004 0 -0.046495908901309377 0.020648693466038398 0 -0.047312026031265469 0.020744443267780448 0 -0.047066942526651577 0.020919370271748013 0 -0.046835827146797085 0.020904769104286004 0 -0.046835827146797085 0.020904769104286004 0 -0.046495908901309377 0.020648693466038398 0 -0.046064384727664241 0.021420621821311978 0 -0.046064384727664241 0.021420621821311978 0 -0.042924637446558007 0.022834934713253367 0 -0.044052076102377102 0.020619220219733326 0 -0.046495908901309377 0.020648693466038398 0 -0.046064384727664241 0.021420621821311978 0 -0.044052076102377102 0.020619220219733326 0 -0.046836179216586539 0.020024745376072101 0 -0.043243123847089733 0.020604151444762457 0 -0.046495908901309377 0.020648693466038398 0 -0.045751337546569903 0.019212494727421613 0 -0.044052076102377102 0.020619220219733326 0 -0.047043226808891128 0.020613210755322915 0 -0.046836179216586539 0.020024745376072101 0 -0.047312026031265469 0.020744443267780448 0 -0.046495908901309377 0.020648693466038398 0 -0.045751337546569903 0.019212494727421613 0 -0.047312026031265469 0.020744443267780448 0 -0.047342150291248088 0.020885944781120287 0 -0.047383411823934053 0.020914796454082705 0 -0.047342150291248088 0.020885944781120287 0 -0.047383411823934053 0.020914796454082705 0 -0.047275288246206297 0.020812233751981307 0 -0.048607510889480655 0.021280031047359177 0 -0.045751643243844023 0.022853897025439652 0 -0.047312026031265469 0.020744443267780448 0 -0.047309740954734454 0.020927220514962524 0 -0.047342150291248088 0.020885944781120287 0 -0.042414663958844627 0.022388657124432117 0 -0.042262724777633702 0.022359227943400534 0 -0.041993686320873858 0.022606555205886215 0 -0.047309740954734454 0.020927220514962524 0 -0.047342150291248088 0.020885944781120287 0 -0.047275288246206297 0.020812233751981307 0 -0.047309740954734454 0.020927220514962524 0 -0.047275288246206297 0.020812233751981307 0 -0.04700229398827397 0.020925843791691264 0 -0.040263351403712087 0.029867943586145491 0 -0.036760605184684644 0.033032969800680309 0 -0.038278093701205357 0.033372766301328322 0 -0.038955871718794749 0.032773489088450049 0 -0.037520491988631888 0.032633223993017518 0 -0.045751643243844023 0.022853897025439652 0 -0.039721898482345808 0.025054909801088258 0 -0.042820977905568429 0.026070491775499454 0 -0.042185552305691446 0.025969997996107233 0 -0.043257172826798612 0.025070714647045082 0 -0.039721898482345808 0.025054909801088258 0 -0.040263351403712087 0.029867943586145491 0 -0.049610612846472175 0.021820037246521651 0 -0.049045330255423791 0.02194007066551646 0 -0.04905788157798438 0.022223817495965532 0 -0.048948649371578209 0.021634777395313921 0 -0.049610612846472175 0.021820037246521651 0 -0.049045330255423791 0.02194007066551646 0 -0.048948649371578209 0.021634777395313921 0 -0.049045330255423791 0.02194007066551646 0 -0.048651357038400213 0.021925977761174241 0 -0.049045330255423791 0.02194007066551646 0 -0.048897469178590933 0.022214517297955701 0 -0.048651357038400213 0.021925977761174241 0 -0.045751643243844023 0.022853897025439652 0 -0.046444908518974169 0.024846482218992903 0 -0.042820977905568429 0.026070491775499454 0 -0.043257172826798612 0.025070714647045082 0 -0.044112830791898656 0.025215239946823776 0 -0.044299049628186475 0.025935130941810543 0 -0.04255623026950564 0.027447171350044122 0 -0.044765169124303845 0.027808188904799719 0 -0.040263351403712087 0.029867943586145491 0 -0.046444908518974169 0.024846482218992903 0 -0.048897469178590933 0.022214517297955701 0 -0.04894590370915497 0.022310629165691515 0 -0.048651357038400213 0.021925977761174241 0 -0.044299049628186475 0.025935130941810543 0 -0.044765169124303845 0.027808188904799719 0 -0.045327965591598192 0.027420766941692914 0 -0.049045330255423791 0.02194007066551646 0 -0.04905788157798438 0.022223817495965532 0 -0.048897469178590933 0.022214517297955701 0 -0.046444908518974169 0.024846482218992903 0 -0.047022121744301815 0.024554376292435419 0 -0.046444908518974169 0.024846482218992903 0 -0.047342987073610475 0.024596286675609765 0 -0.049036039548438409 0.022247069457902592 0 -0.048897469178590933 0.022214517297955701 0 -0.04894590370915497 0.022310629165691515 0 -0.048928784879460938 0.022396083724820812 0 -0.048418215131606768 0.022404903353356358 0 -0.048651357038400213 0.021925977761174241 0 -0.048075177756493594 0.022623578341440805 0 -0.048418215131606768 0.022404903353356358 0 -0.048104039483077322 0.022009793484167449 0 -0.048418215131606768 0.022404903353356358 0 -0.048104039483077322 0.022009793484167449 0 -0.048651357038400213 0.021925977761174241 0 -0.048104039483077322 0.022009793484167449 0 -0.048651357038400213 0.021925977761174241 0 -0.04767103301343309 0.021299372858889436 0 -0.047022121744301815 0.024554376292435419 0 -0.048007520567035986 0.022318483311614217 0 -0.048948649371578209 0.021634777395313921 0 -0.048651357038400213 0.021925977761174241 0 -0.04767103301343309 0.021299372858889436 0 -0.047312026031265469 0.020744443267780448 0 -0.047383411823934053 0.020914796454082705 0 -0.04767103301343309 0.021299372858889436 0 -0.048607510889480655 0.021280031047359177 0 -0.047518028573594641 0.021252244050414926 0 -0.047312026031265469 0.020744443267780448 0 -0.047289194878134676 0.021099294092258719 0 -0.04767103301343309 0.021299372858889436 0 -0.04767103301343309 0.021299372858889436 0 -0.047813882888950748 0.022181136507081384 0 -0.047377921404053849 0.02166347493788676 0 -0.047289194878134676 0.021099294092258719 0 -0.04767103301343309 0.021299372858889436 0 -0.047377921404053849 0.02166347493788676 0 -0.048104039483077322 0.022009793484167449 0 -0.04767103301343309 0.021299372858889436 0 -0.047813882888950748 0.022181136507081384 0 -0.048075177756493594 0.022623578341440805 0 -0.048104039483077322 0.022009793484167449 0 -0.047813882888950748 0.022181136507081384 0 -0.04780144985318957 0.022925285418417325 0 -0.048075177756493594 0.022623578341440805 0 -0.047813882888950748 0.022181136507081384 0 -0.04780144985318957 0.022925285418417325 0 -0.047813882888950748 0.022181136507081384 0 -0.047541313497109598 0.022337988043420687 0 -0.047813882888950748 0.022181136507081384 0 -0.047541313497109598 0.022337988043420687 0 -0.047377921404053849 0.02166347493788676 0 -0.047541313497109598 0.022337988043420687 0 -0.047232620170176792 0.022170326523286692 0 -0.047377921404053849 0.02166347493788676 0 -0.047340453286168281 0.022791113388489676 0 -0.047541313497109598 0.022337988043420687 0 -0.047232620170176792 0.022170326523286692 0 -0.047340453286168281 0.022791113388489676 0 -0.046857448688422787 0.022408056327989596 0 -0.047232620170176792 0.022170326523286692 0 -0.046857448688422787 0.022408056327989596 0 -0.047232620170176792 0.022170326523286692 0 -0.047013026317657899 0.021698399935113844 0 -0.047232620170176792 0.022170326523286692 0 -0.047013026317657899 0.021698399935113844 0 -0.047377921404053849 0.02166347493788676 0 -0.047289194878134676 0.021099294092258719 0 -0.047377921404053849 0.02166347493788676 0 -0.047150418284135402 0.021273734262381338 0 -0.047013026317657899 0.021698399935113844 0 -0.047377921404053849 0.02166347493788676 0 -0.047150418284135402 0.021273734262381338 0 -0.046437619623149129 0.022700507527319932 0 -0.046778364171191557 0.022564676449671868 0 -0.047051407980939257 0.022678830888883377 0 -0.04620129015433809 0.022825773288427775 0 -0.047268416862219317 0.02225851142410995 0 -0.046778364171191557 0.022564676449671868 0 -0.046437619623149129 0.022700507527319932 0 -0.046857448688422787 0.022408056327989596 0 -0.046615032420626486 0.021535356966424581 0 -0.046495425291860827 0.022643654936615673 0 -0.046839779440863594 0.022120738847640858 0 -0.046857448688422787 0.022408056327989596 0 -0.047013026317657899 0.021698399935113844 0 -0.046615032420626486 0.021535356966424581 0 -0.047013026317657899 0.021698399935113844 0 -0.046615032420626486 0.021535356966424581 0 -0.047102529549861737 0.021187233782545136 0 -0.046778364171191557 0.022564676449671868 0 -0.047051407980939257 0.022678830888883377 0 -0.04708239390376364 0.022573967597727354 0 -0.047421096749052309 0.022740285388548859 0 -0.047051407980939257 0.022678830888883377 0 -0.04708239390376364 0.022573967597727354 0 -0.047482165083520135 0.023022907573987783 0 -0.047051407980939257 0.022678830888883377 0 -0.047615643065615817 0.022833374519745341 0 -0.047421096749052309 0.022740285388548859 0 -0.047482165083520135 0.023022907573987783 0 -0.047051407980939257 0.022678830888883377 0 -0.046839779440863594 0.022120738847640858 0 -0.047393237373684588 0.021954927496451664 0 -0.046615032420626486 0.021535356966424581 0 -0.047200106181852476 0.021107494925073852 0 -0.047102529549861737 0.021187233782545136 0 -0.047200106181852476 0.021107494925073852 0 -0.047102529549861737 0.021187233782545136 0 -0.04738412822245671 0.021118572970783504 0 -0.047482165083520135 0.023022907573987783 0 -0.047615643065615817 0.022833374519745341 0 -0.047416726939564592 0.022219915718709474 0 -0.047289194878134676 0.021099294092258719 0 -0.047150418284135402 0.021273734262381338 0 -0.046992631186803774 0.021034497340502362 0 -0.047150418284135402 0.021273734262381338 0 -0.047102529549861737 0.021187233782545136 0 -0.046992631186803774 0.021034497340502362 0 -0.047013026317657899 0.021698399935113844 0 -0.047150418284135402 0.021273734262381338 0 -0.047102529549861737 0.021187233782545136 0 -0.047102529549861737 0.021187233782545136 0 -0.046992631186803774 0.021034497340502362 0 -0.04738412822245671 0.021118572970783504 0 -0.046992631186803774 0.021034497340502362 0 -0.046078787565354905 0.02042890943502252 0 -0.046670103219598587 0.020652158290435069 0 -0.046931762869647869 0.020971299198504843 0 -0.046790830667732194 0.020749499251311546 0 -0.046078787565354905 0.02042890943502252 0 -0.046314072082892288 0.020179791975086615 0 -0.046670103219598587 0.020652158290435069 0 -0.047433552395718538 0.021138542756614857 0 -0.04738412822245671 0.021118572970783504 0 -0.047693773257209769 0.021055959478530652 0 -0.046992631186803774 0.021034497340502362 0 -0.047433552395718538 0.021138542756614857 0 -0.04738412822245671 0.021118572970783504 0 -0.046078787565354905 0.02042890943502252 0 -0.046086614690376712 0.019897967625880628 0 -0.045792313629112978 0.01983415188425101 0 -0.047433552395718538 0.021138542756614857 0 -0.047693773257209769 0.021055959478530652 0 -0.047997435569859012 0.020713401027419087 0 -0.046790830667732194 0.020749499251311546 0 -0.046858206793045233 0.020145540141750823 0 -0.046314072082892288 0.020179791975086615 0 -0.046086614690376712 0.019897967625880628 0 -0.046172105594409298 0.019627303391839913 0 -0.046078787565354905 0.02042890943502252 0 -0.046314072082892288 0.020179791975086615 0 -0.046086614690376712 0.019897967625880628 0 -0.047615643065615817 0.022833374519745341 0 -0.047416726939564592 0.022219915718709474 0 -0.047707162243071304 0.021250476205492967 0 -0.047149310630240408 0.022505953259728425 0 -0.047416726939564592 0.022219915718709474 0 -0.047252417674100655 0.021075444661292853 0 -0.047393237373684588 0.021954927496451664 0 -0.047665512594297257 0.021311053408139331 0 -0.047200106181852476 0.021107494925073852 0 -0.04738412822245671 0.021118572970783504 0 -0.047707162243071304 0.021250476205492967 0 -0.04738412822245671 0.021118572970783504 0 -0.047693773257209769 0.021055959478530652 0 -0.047707162243071304 0.021250476205492967 0 -0.047693773257209769 0.021055959478530652 0 -0.047879144987539993 0.020814132643282912 0 -0.047997435569859012 0.020713401027419087 0 -0.047693773257209769 0.021055959478530652 0 -0.047707162243071304 0.021250476205492967 0 -0.047879144987539993 0.020814132643282912 0 -0.047707162243071304 0.021250476205492967 0 -0.047759057508734916 0.020809103464923637 0 -0.047879144987539993 0.020814132643282912 0 -0.047416726939564592 0.022219915718709474 0 -0.047707162243071304 0.021250476205492967 0 -0.047252417674100655 0.021075444661292853 0 -0.047707162243071304 0.021250476205492967 0 -0.047252417674100655 0.021075444661292853 0 -0.047759057508734916 0.020809103464923637 0 -0.050386113950888489 0.017406596354224806 0 -0.050336422079859416 0.019127508242545884 0 -0.048236281314919784 0.020086926583749963 0 -0.051116326208919538 0.018144232238316873 0 -0.050386113950888489 0.017406596354224806 0 -0.050336422079859416 0.019127508242545884 0 -0.047252417674100655 0.021075444661292853 0 -0.047759057508734916 0.020809103464923637 0 -0.048236281314919784 0.020086926583749963 0 -0.048853178513219596 0.019327197101406554 0 -0.048241480447050407 0.020058497096755116 0 -0.047879144987539993 0.020814132643282912 0 -0.048236281314919784 0.020086926583749963 0 -0.047997435569859012 0.020713401027419087 0 -0.047759057508734916 0.020809103464923637 0 -0.047879144987539993 0.020814132643282912 0 -0.048236281314919784 0.020086926583749963 0 -0.048025782026858116 0.020372851145167663 0 -0.048236281314919784 0.020086926583749963 0 -0.047997435569859012 0.020713401027419087 0 -0.048025782026858116 0.020372851145167663 0 -0.048667055704751612 0.020631094291433068 0 -0.048236281314919784 0.020086926583749963 0 -0.050336422079859416 0.019127508242545884 0 -0.048236281314919784 0.020086926583749963 0 -0.049660740580816161 0.020438492025916959 0 -0.048667055704751612 0.020631094291433068 0 -0.048236281314919784 0.020086926583749963 0 -0.049660740580816161 0.020438492025916959 0 -0.05119785244626001 0.019898122443038815 0 -0.050336422079859416 0.019127508242545884 0 -0.049660740580816161 0.020438492025916959 0 -0.046086614690376712 0.019897967625880628 0 -0.04603964558273238 0.019608263093641078 0 -0.045830510786441202 0.019475135531190436 0 -0.046086614690376712 0.019897967625880628 0 -0.04603964558273238 0.019608263093641078 0 -0.046172105594409298 0.019627303391839913 0 -0.04606287733516462 0.019878434826985598 0 -0.045840777735467089 0.019514745132710141 0 -0.046086614690376712 0.019897967625880628 0 -0.045792313629112978 0.01983415188425101 0 -0.045751049964624688 0.019542328788536994 0 -0.045672294873710578 0.019444042209841517 0 -0.045792313629112978 0.01983415188425101 0 -0.045751049964624688 0.019542328788536994 0 -0.045870558198881813 0.019324512166957665 0 -0.045825329303737207 0.019411315176284544 0 -0.045830510786441202 0.019475135531190436 0 -0.04603964558273238 0.019608263093641078 0 -0.045830510786441202 0.019475135531190436 0 -0.045967953699143603 0.019478494798547907 0 -0.046793049532864908 0.020460363603630304 0 -0.046858206793045233 0.020145540141750823 0 -0.046793049532864908 0.020460363603630304 0 -0.045840777735467089 0.019514745132710141 0 -0.045954741036523028 0.019371035207014751 0 -0.045830510786441202 0.019475135531190436 0 -0.045967953699143603 0.019478494798547907 0 -0.045954741036523028 0.019371035207014751 0 -0.045967953699143603 0.019478494798547907 0 -0.046048805514125518 0.019465485947971813 0 -0.04603964558273238 0.019608263093641078 0 -0.046048805514125518 0.019465485947971813 0 -0.046172105594409298 0.019627303391839913 0 -0.04603964558273238 0.019608263093641078 0 -0.045967953699143603 0.019478494798547907 0 -0.046048805514125518 0.019465485947971813 0 -0.046048805514125518 0.019465485947971813 0 -0.046071421156926771 0.019396161406623886 0 -0.046172105594409298 0.019627303391839913 0 -0.046071421156926771 0.019396161406623886 0 -0.045983740358019012 0.019363449723332923 0 -0.046172105594409298 0.019627303391839913 0 -0.045763361975581826 0.019404145442390653 0 -0.045983740358019012 0.019363449723332923 0 -0.045483178903310127 0.019187844791075132 0 -0.045983740358019012 0.019363449723332923 0 -0.045916331981804621 0.019262923765516627 0 -0.045483178903310127 0.019187844791075132 0 -0.045763361975581826 0.019404145442390653 0 -0.046071421156926771 0.019396161406623886 0 -0.045983740358019012 0.019363449723332923 0 -0.045916331981804621 0.019262923765516627 0 -0.046442486205731867 0.020164891762502073 0 -0.045815217131101343 0.019119086512143953 0 -0.045916331981804621 0.019262923765516627 0 -0.046172105594409298 0.019627303391839913 0 -0.046442486205731867 0.020164891762502073 0 -0.045983740358019012 0.019363449723332923 0 -0.045916331981804621 0.019262923765516627 0 -0.046172105594409298 0.019627303391839913 0 -0.046314072082892288 0.020179791975086615 0 -0.046442486205731867 0.020164891762502073 0 -0.046670103219598587 0.020652158290435069 0 -0.046314072082892288 0.020179791975086615 0 -0.046172105594409298 0.019627303391839913 0 -0.046442486205731867 0.020164891762502073 0 -0.046442486205731867 0.020164891762502073 0 -0.046526111079565842 0.020822405831625972 0 -0.046449583595660329 0.020867484783773871 0 -0.046351879257332307 0.020138736683379208 0 -0.04593456060270739 0.02003349986844356 0 -0.046835827146797085 0.020904769104286004 0 -0.046442486205731867 0.020164891762502073 0 -0.046526111079565842 0.020822405831625972 0 -0.046835827146797085 0.020904769104286004 0 -0.046442486205731867 0.020164891762502073 0 -0.046670103219598587 0.020652158290435069 0 -0.046064384727664241 0.021420621821311978 0 -0.04429055347598608 0.024371969202912951 0 -0.042924637446558007 0.022834934713253367 0 -0.046064384727664241 0.021420621821311978 0 -0.046282144376850326 0.020986086003398012 0 -0.046386686823419107 0.020977623039867811 0 -0.046049500513312892 0.021445709800663119 0 -0.045337354494603507 0.022923611641611386 0 -0.046064384727664241 0.021420621821311978 0 -0.046526111079565842 0.020822405831625972 0 -0.046282144376850326 0.020986086003398012 0 -0.046835827146797085 0.020904769104286004 0 -0.046064384727664241 0.021420621821311978 0 -0.046526111079565842 0.020822405831625972 0 -0.046526111079565842 0.020822405831625972 0 -0.046282144376850326 0.020986086003398012 0 -0.046449583595660329 0.020867484783773871 0 -0.046282144376850326 0.020986086003398012 0 -0.046449583595660329 0.020867484783773871 0 -0.046310527010819898 0.020926311583676499 0 -0.046282144376850326 0.020986086003398012 0 -0.046310527010819898 0.020926311583676499 0 -0.046386686823419107 0.020977623039867811 0 -0.045815217131101343 0.019119086512143953 0 -0.044874165992135243 0.018551756232579285 0 -0.045371193625389834 0.018967455598620564 0 -0.046449583595660329 0.020867484783773871 0 -0.046310527010819898 0.020926311583676499 0 -0.04622139790513656 0.021061197949534018 0 -0.04593456060270739 0.02003349986844356 0 -0.04609256919395209 0.019854325611521055 0 -0.044874165992135243 0.018551756232579285 0 -0.045371193625389834 0.018967455598620564 0 -0.044812887997618553 0.018812139025256813 0 -0.044874165992135243 0.018551756232579285 0 -0.044812887997618553 0.018812139025256813 0 -0.044401782352145584 0.018676511466613865 0 -0.045916331981804621 0.019262923765516627 0 -0.045815217131101343 0.019119086512143953 0 -0.045371193625389834 0.018967455598620564 0 -0.045916331981804621 0.019262923765516627 0 -0.045371193625389834 0.018967455598620564 0 -0.045483178903310127 0.019187844791075132 0 -0.045371193625389834 0.018967455598620564 0 -0.045483178903310127 0.019187844791075132 0 -0.045001164184889086 0.01905009290865264 0 -0.045193706666282099 0.019339047008024704 0 -0.045483178903310127 0.019187844791075132 0 -0.045001164184889086 0.01905009290865264 0 -0.044812887997618553 0.018812139025256813 0 -0.045001164184889086 0.01905009290865264 0 -0.044435555990323228 0.01892138063771975 0 -0.045371193625389834 0.018967455598620564 0 -0.044812887997618553 0.018812139025256813 0 -0.045001164184889086 0.01905009290865264 0 -0.044674606826426433 0.019193262281558217 0 -0.045001164184889086 0.01905009290865264 0 -0.044435555990323228 0.01892138063771975 0 -0.044812887997618553 0.018812139025256813 0 -0.044435555990323228 0.01892138063771975 0 -0.044401782352145584 0.018676511466613865 0 -0.044435555990323228 0.01892138063771975 0 -0.044401782352145584 0.018676511466613865 0 -0.044082070675136302 0.018743463309367974 0 -0.044401782352145584 0.018676511466613865 0 -0.044082070675136302 0.018743463309367974 0 -0.043835041996439075 0.018456076304430472 0 -0.044435555990323228 0.01892138063771975 0 -0.044082070675136302 0.018743463309367974 0 -0.043959301955899137 0.018903413684177302 0 -0.044082070675136302 0.018743463309367974 0 -0.043959301955899137 0.018903413684177302 0 -0.043762579432538626 0.018750366061991458 0 -0.040857422709485232 0.020410393885908394 0 -0.03725826806770393 0.020823979540095811 0 -0.037246337743936944 0.021573949970558129 0 -0.041485093387024732 0.018357052762152291 0 -0.035144263701050005 0.018372949376971176 0 -0.034410335845519058 0.015910236149598113 0 -0.035548765863511189 0.014487025038996359 0 -0.034065441634114672 0.014923241240195392 0 -0.043762579432538626 0.018750366061991458 0 -0.043308182873583685 0.018839670432298242 0 -0.043835041996439075 0.018456076304430472 0 -0.043075501917712408 0.018929771342003469 0 -0.043308182873583685 0.018839670432298242 0 -0.043835041996439075 0.018456076304430472 0 -0.043615435303887111 0.018902317436626247 0 -0.043762579432538626 0.018750366061991458 0 -0.043308182873583685 0.018839670432298242 0 -0.03803649685085695 0.017026246178172999 0 -0.041485093387024732 0.018357052762152291 0 -0.043615435303887111 0.018902317436626247 0 -0.043959301955899137 0.018903413684177302 0 -0.043762579432538626 0.018750366061991458 0 -0.044082070675136302 0.018743463309367974 0 -0.043762579432538626 0.018750366061991458 0 -0.043835041996439075 0.018456076304430472 0 -0.040812918011805283 0.026266198187279335 0 -0.042397739663077784 0.026830711386729805 0 -0.04189636533844187 0.024786421563099716 0 -0.043341405682664223 0.021923219254261831 0 -0.038213362174959714 0.024942103459168655 0 -0.040812918011805283 0.026266198187279335 0 -0.042397739663077784 0.026830711386729805 0 -0.039120314391021829 0.02780846717309695 0 -0.040812918011805283 0.026266198187279335 0 -0.039120314391021829 0.02780846717309695 0 -0.039881583289548141 0.025553760777400101 0 -0.040857422709485232 0.020410393885908394 0 -0.041787129334205662 0.019103294588570359 0 -0.03725826806770393 0.020823979540095811 0 -0.046310527010819898 0.020926311583676499 0 -0.04622139790513656 0.021061197949534018 0 -0.045766708440390852 0.021032206974083346 0 -0.044874165992135243 0.018551756232579285 0 -0.044401782352145584 0.018676511466613865 0 -0.043835041996439075 0.018456076304430472 0 -0.047353002867379389 0.020525159099574145 0 -0.043341405682664223 0.021923219254261831 0 -0.04622139790513656 0.021061197949534018 0 -0.045619667611740765 0.021203411434806894 0 -0.045766708440390852 0.021032206974083346 0 -0.04609256919395209 0.019854325611521055 0 -0.041485093387024732 0.018357052762152291 0 -0.041485093387024732 0.018357052762152291 0 -0.043341405682664223 0.021923219254261831 0 -0.032321751476644407 0.021331815831799616 0 -0.038213362174959714 0.024942103459168655 0 -0.032795389831571924 0.022515236841535644 0 -0.033688106684568744 0.022719444437365625 0 -0.03725826806770393 0.020823979540095811 0 -0.032728401847784812 0.015393610466012635 0 -0.03286266168367584 0.015420539141568615 0 -0.034065441634114672 0.014923241240195392 0 -0.036131219829413981 0.028570548187225882 0 -0.039120314391021829 0.02780846717309695 0 -0.036711112131492564 0.026930634380788049 0 -0.031921736485053323 0.015724582330033536 0 -0.032393946165591887 0.015440186326397877 0 -0.032657296485392721 0.015508428648137871 0 -0.032321751476644407 0.021331815831799616 0 -0.032923265361118781 0.018192329769959964 0 -0.032923265361118781 0.018192329769959964 0 -0.032847807436669811 0.018069207170256639 0 -0.033019048815413593 0.015857106164849442 0 -0.03286266168367584 0.015420539141568615 0 -0.03338203467984209 0.015514518081697919 0 -0.033019048815413593 0.015857106164849442 0 -0.032739171351854515 0.015399977937375036 0 -0.03286266168367584 0.015420539141568615 0 -0.03286266168367584 0.015420539141568615 0 -0.03338203467984209 0.015514518081697919 0 -0.034065441634114672 0.014923241240195392 0 -0.032923265361118781 0.018192329769959964 0 -0.035144263701050005 0.018372949376971176 0 -0.033688106684568744 0.022719444437365625 0 -0.03725826806770393 0.020823979540095811 0 -0.037246337743936944 0.021573949970558129 0 -0.0335925224482835 0.015840074550349938 0 -0.03338203467984209 0.015514518081697919 0 -0.034065441634114672 0.014923241240195392 0 -0.034410335845519058 0.015910236149598113 0 -0.0335925224482835 0.015840074550349938 0 -0.034065441634114672 0.014923241240195392 0 -0.039120314391021829 0.02780846717309695 0 -0.037689608203392906 0.025543350934466205 0 -0.039881583289548141 0.025553760777400101 0 -0.036711112131492564 0.026930634380788049 0 -0.037689608203392906 0.025543350934466205 0 -0.03557775586762129 0.025750895135777618 0 -0.039120314391021829 0.02780846717309695 0 -0.036711112131492564 0.026930634380788049 0 -0.037689608203392906 0.025543350934466205 0 -0.037689608203392906 0.025543350934466205 0 -0.035940933879206646 0.024218865090960991 0 -0.03557775586762129 0.025750895135777618 0 -0.037689608203392906 0.025543350934466205 0 -0.037626921295346567 0.024043346682213793 0 -0.035940933879206646 0.024218865090960991 0 -0.037689608203392906 0.025543350934466205 0 -0.038873931577732571 0.024515182706611703 0 -0.039881583289548141 0.025553760777400101 0 -0.037689608203392906 0.025543350934466205 0 -0.038873931577732571 0.024515182706611703 0 -0.037626921295346567 0.024043346682213793 0 -0.038873931577732571 0.024515182706611703 0 -0.039881583289548141 0.025553760777400101 0 -0.040374196702890226 0.024098650636676853 0 -0.038869379428352821 0.023294469590710177 0 -0.039237250187572723 0.02196255961041637 0 -0.036389327794563803 0.022422288074695453 0 -0.038873931577732571 0.024515182706611703 0 -0.038869379428352821 0.023294469590710177 0 -0.040374196702890226 0.024098650636676853 0 -0.038869379428352821 0.023294469590710177 0 -0.040374196702890226 0.024098650636676853 0 -0.040435840396286858 0.022624668648218358 0 -0.038869379428352821 0.023294469590710177 0 -0.040435840396286858 0.022624668648218358 0 -0.039237250187572723 0.02196255961041637 0 -0.038873931577732571 0.024515182706611703 0 -0.038869379428352821 0.023294469590710177 0 -0.037626921295346567 0.024043346682213793 0 -0.037626921295346567 0.024043346682213793 0 -0.036389327794563803 0.022422288074695453 0 -0.035940933879206646 0.024218865090960991 0 -0.038869379428352821 0.023294469590710177 0 -0.037626921295346567 0.024043346682213793 0 -0.036389327794563803 0.022422288074695453 0 -0.045337354494603507 0.022923611641611386 0 -0.043341405682664223 0.021923219254261831 0 -0.046310527010819898 0.020926311583676499 0 -0.046386686823419107 0.020977623039867811 0 -0.046356030447230523 0.02092747007380202 0 -0.04429055347598608 0.024371969202912951 0 -0.04189636533844187 0.024786421563099716 0 -0.042924637446558007 0.022834934713253367 0 -0.04429055347598608 0.024371969202912951 0 -0.042397739663077784 0.026830711386729805 0 -0.04189636533844187 0.024786421563099716 0 -0.040812918011805283 0.026266198187279335 0 -0.039881583289548141 0.025553760777400101 0 -0.04189636533844187 0.024786421563099716 0 -0.039881583289548141 0.025553760777400101 0 -0.040374196702890226 0.024098650636676853 0 -0.04189636533844187 0.024786421563099716 0 -0.040374196702890226 0.024098650636676853 0 -0.04189636533844187 0.024786421563099716 0 -0.041471930995194028 0.023207039751956614 0 -0.04189636533844187 0.024786421563099716 0 -0.041471930995194028 0.023207039751956614 0 -0.042924637446558007 0.022834934713253367 0 -0.040374196702890226 0.024098650636676853 0 -0.041471930995194028 0.023207039751956614 0 -0.040435840396286858 0.022624668648218358 0 -0.041471930995194028 0.023207039751956614 0 -0.042924637446558007 0.022834934713253367 0 -0.041751154571230374 0.021740052255518932 0 -0.041471930995194028 0.023207039751956614 0 -0.040435840396286858 0.022624668648218358 0 -0.041751154571230374 0.021740052255518932 0 -0.042924637446558007 0.022834934713253367 0 -0.044052076102377102 0.020619220219733326 0 -0.041751154571230374 0.021740052255518932 0 -0.044052076102377102 0.020619220219733326 0 -0.041885175440298017 0.020261661797615852 0 -0.041751154571230374 0.021740052255518932 0 -0.045751337546569903 0.019212494727421613 0 -0.044052076102377102 0.020619220219733326 0 -0.043019398410918723 0.018294412371624328 0 -0.044052076102377102 0.020619220219733326 0 -0.041885175440298017 0.020261661797615852 0 -0.043019398410918723 0.018294412371624328 0 -0.039231501826248655 0.021595510093411378 0 -0.041023259506515863 0.020436231145399268 0 -0.040693359810209724 0.020393514947240472 0 -0.038718832129789466 0.020954017901319916 0 -0.039471275776517933 0.021201833993484152 0 -0.038718832129789466 0.020954017901319916 0 -0.043243123847089733 0.020604151444762457 0 -0.041885175440298017 0.020261661797615852 0 -0.040000767840674321 0.019760110176976167 0 -0.043019398410918723 0.018294412371624328 0 -0.037221487545131174 0.021696279533241707 0 -0.037126534481127849 0.021522587997776031 0 -0.037477369509473633 0.021434375462400276 0 -0.040500482872719443 0.021015277995491775 0 -0.041885175440298017 0.020261661797615852 0 -0.040000767840674321 0.019760110176976167 0 -0.040500482872719443 0.021015277995491775 0 -0.041885175440298017 0.020261661797615852 0 -0.041751154571230374 0.021740052255518932 0 -0.040435840396286858 0.022624668648218358 0 -0.040500482872719443 0.021015277995491775 0 -0.041751154571230374 0.021740052255518932 0 -0.039237250187572723 0.02196255961041637 0 -0.036389327794563803 0.022422288074695453 0 -0.040000767840674321 0.019760110176976167 0 -0.040500482872719443 0.021015277995491775 0 -0.039237250187572723 0.02196255961041637 0 -0.040000767840674321 0.019760110176976167 0 -0.040435840396286858 0.022624668648218358 0 -0.040500482872719443 0.021015277995491775 0 -0.039237250187572723 0.02196255961041637 0 -0.036444303015194301 0.02227452227311448 0 -0.038718832129789466 0.020954017901319916 0 -0.036389327794563803 0.022422288074695453 0 -0.036445670494441341 0.021713751054345774 0 -0.037221487545131174 0.021696279533241707 0 -0.036389327794563803 0.022422288074695453 0 -0.036445670494441341 0.021713751054345774 0 -0.034846385496731483 0.022120369212506912 0 -0.036692738697872193 0.021495213411183718 0 -0.035556813753997635 0.021545711797585881 0 -0.036888647143848312 0.021529731562119115 0 -0.036368754370899425 0.021434662782261794 0 -0.036932775139468327 0.021530819078282169 0 -0.036806184166689231 0.021526327570744939 0 -0.035955494631533101 0.021123329219821185 0 -0.036445670494441341 0.021713751054345774 0 -0.036806184166689231 0.021526327570744939 0 -0.035457847925544836 0.021186051168677056 0 -0.036806184166689231 0.021526327570744939 0 -0.035955494631533101 0.021123329219821185 0 -0.035812755830223399 0.021836691447202947 0 -0.036445670494441341 0.021713751054345774 0 -0.036932775139468327 0.021530819078282169 0 -0.036806184166689231 0.021526327570744939 0 -0.036445670494441341 0.021713751054345774 0 -0.037221487545131174 0.021696279533241707 0 -0.036932775139468327 0.021530819078282169 0 -0.037221487545131174 0.021696279533241707 0 -0.036932775139468327 0.021530819078282169 0 -0.037126534481127849 0.021522587997776031 0 -0.036932775139468327 0.021530819078282169 0 -0.037126534481127849 0.021522587997776031 0 -0.036912269674932753 0.021574251291471117 0 -0.037066872030345185 0.021579470909284023 0 -0.036808868258164429 0.021518471541825263 0 -0.037126534481127849 0.021522587997776031 0 -0.036912269674932753 0.021574251291471117 0 -0.037183252941526648 0.021419271652556977 0 -0.036960561675780747 0.021587003345966846 0 -0.036912269674932753 0.021574251291471117 0 -0.037056363396058903 0.021711415624063538 0 -0.036960561675780747 0.021587003345966846 0 -0.037117178542115915 0.021540159686287478 0 -0.037056363396058903 0.021711415624063538 0 -0.036912269674932753 0.021574251291471117 0 -0.036857350748316794 0.021599993773975684 0 -0.036802688956148112 0.021659687956650808 0 -0.036932775139468327 0.021530819078282169 0 -0.036912269674932753 0.021574251291471117 0 -0.036802688956148112 0.021659687956650808 0 -0.036960561675780747 0.021587003345966846 0 -0.036912269674932753 0.021574251291471117 0 -0.036857350748316794 0.021599993773975684 0 -0.036857350748316794 0.021599993773975684 0 -0.036871828032069252 0.021536068242719583 0 -0.036742582016911635 0.021600606606642658 0 -0.036960561675780747 0.021587003345966846 0 -0.036857350748316794 0.021599993773975684 0 -0.036871828032069252 0.021536068242719583 0 -0.035501942719677278 0.033214901370994296 0 -0.036847698731111121 0.033248189047957698 0 -0.036160320000148363 0.032579909752044674 0 -0.036960561675780747 0.021587003345966846 0 -0.036871828032069252 0.021536068242719583 0 -0.037117178542115915 0.021540159686287478 0 -0.036197970217611349 0.02735848667309454 0 -0.03661734250884266 0.027699820814060493 0 -0.036847698731111121 0.033248189047957698 0 -0.037520491988631888 0.032633223993017518 0 -0.036160320000148363 0.032579909752044674 0 -0.038278093701205357 0.033372766301328322 0 -0.036847698731111121 0.033248189047957698 0 -0.037520491988631888 0.032633223993017518 0 -0.039721898482345808 0.025054909801088258 0 -0.03661734250884266 0.027699820814060493 0 -0.037529038034007769 0.021623044725627132 0 -0.037117178542115915 0.021540159686287478 0 -0.037269039300356722 0.021780540201761973 0 -0.045751643243844023 0.022853897025439652 0 -0.043243123847089733 0.020604151444762457 0 -0.039721898482345808 0.025054909801088258 0 -0.039471275776517933 0.021201833993484152 0 -0.042262724777633702 0.022359227943400534 0 -0.041993686320873858 0.022606555205886215 0 -0.041915497369591118 0.022593484362493081 0 -0.043243123847089733 0.020604151444762457 0 -0.039471275776517933 0.021201833993484152 0 -0.039471275776517933 0.021201833993484152 0 -0.036808868258164429 0.021518471541825263 0 -0.037126534481127849 0.021522587997776031 0 -0.037477369509473633 0.021434375462400276 0 -0.037183252941526648 0.021419271652556977 0 -0.037117178542115915 0.021540159686287478 0 -0.037269039300356722 0.021780540201761973 0 -0.037056363396058903 0.021711415624063538 0 -0.034364740197584578 0.020794779312722424 0 -0.034569330493546629 0.021162552457954991 0 -0.03393727568790135 0.021161548819142447 0 -0.034364740197584578 0.020794779312722424 0 -0.034569330493546629 0.021162552457954991 0 -0.034945518113854837 0.020660759858279282 0 -0.034569330493546629 0.021162552457954991 0 -0.03393727568790135 0.021161548819142447 0 -0.034285530338424561 0.021697857604674353 0 -0.029106760322789582 0.027615255536926345 0 -0.030183640615436144 0.026604846276524603 0 -0.030554821211226438 0.027611853367710198 0 -0.029106760322789582 0.027615255536926345 0 -0.029518411786858462 0.028524490881347463 0 -0.030554821211226438 0.027611853367710198 0 -0.029106760322789582 0.027615255536926345 0 -0.029518411786858462 0.028524490881347463 0 -0.028991446201113692 0.029355709843153974 0 -0.029518411786858462 0.028524490881347463 0 -0.029794845260822898 0.029292986038936857 0 -0.030741102548197039 0.029146916158415984 0 -0.031372984440831531 0.024450283709360685 0 -0.03320256284248975 0.024574179018662389 0 -0.029518411786858462 0.028524490881347463 0 -0.029794845260822898 0.029292986038936857 0 -0.028991446201113692 0.029355709843153974 0 -0.034364740197584578 0.020794779312722424 0 -0.034010507980718946 0.020200173516535587 0 -0.034945518113854837 0.020660759858279282 0 -0.034364740197584578 0.020794779312722424 0 -0.03393727568790135 0.021161548819142447 0 -0.034010507980718946 0.020200173516535587 0 -0.03320256284248975 0.024574179018662389 0 -0.035910668372921214 0.020755990459596401 0 -0.036603102512378534 0.021536962498949902 0 -0.036520623557622256 0.021675116057166936 0 -0.036742582016911635 0.021600606606642658 0 -0.036148520958944011 0.021598421615028014 0 -0.036603102512378534 0.021536962498949902 0 -0.036520623557622256 0.021675116057166936 0 -0.036871828032069252 0.021536068242719583 0 -0.036603102512378534 0.021536962498949902 0 -0.036742582016911635 0.021600606606642658 0 -0.036197970217611349 0.02735848667309454 0 -0.035598656866154835 0.027246917083632406 0 -0.036520623557622256 0.021675116057166936 0 -0.036742582016911635 0.021600606606642658 0 -0.036802688956148112 0.021659687956650808 0 -0.035910668372921214 0.020755990459596401 0 -0.036368754370899425 0.021434662782261794 0 -0.036857350748316794 0.021599993773975684 0 -0.036742582016911635 0.021600606606642658 0 -0.036802688956148112 0.021659687956650808 0 -0.034569330493546629 0.021162552457954991 0 -0.034945518113854837 0.020660759858279282 0 -0.035183336964595788 0.021342544939732845 0 -0.034945518113854837 0.020660759858279282 0 -0.035955494631533101 0.021123329219821185 0 -0.035183336964595788 0.021342544939732845 0 -0.034569330493546629 0.021162552457954991 0 -0.035183336964595788 0.021342544939732845 0 -0.034823197938437488 0.022041939045894462 0 -0.034366812244558738 0.021478872613419839 0 -0.035556813753997635 0.021545711797585881 0 -0.035183336964595788 0.021342544939732845 0 -0.034823197938437488 0.022041939045894462 0 -0.035812755830223399 0.021836691447202947 0 -0.035955494631533101 0.021123329219821185 0 -0.035183336964595788 0.021342544939732845 0 -0.035812755830223399 0.021836691447202947 0 -0.033430620180941076 0.021232031905314488 0 -0.035457847925544836 0.021186051168677056 0 -0.034846385496731483 0.022120369212506912 0 -0.036445670494441341 0.021713751054345774 0 -0.035457847925544836 0.021186051168677056 0 -0.034846385496731483 0.022120369212506912 0 -0.033430620180941076 0.021232031905314488 0 -0.034846385496731483 0.022120369212506912 0 -0.032702616770751182 0.022987552103652907 0 -0.034846385496731483 0.022120369212506912 0 -0.032702616770751182 0.022987552103652907 0 -0.034304418053633497 0.023533497688049927 0 -0.032702616770751182 0.022987552103652907 0 -0.031078259550506641 0.021552356528696533 0 -0.030975981564583227 0.024331526953460199 0 -0.033430620180941076 0.021232031905314488 0 -0.032702616770751182 0.022987552103652907 0 -0.031078259550506641 0.021552356528696533 0 -0.034366812244558738 0.021478872613419839 0 -0.0313895676936072 0.023941280100010398 0 -0.034823197938437488 0.022041939045894462 0 -0.034285530338424561 0.021697857604674353 0 -0.033842648649574432 0.022211482812509169 0 -0.03393727568790135 0.021161548819142447 0 -0.034285530338424561 0.021697857604674353 0 -0.033842648649574432 0.022211482812509169 0 -0.034569330493546629 0.021162552457954991 0 -0.034823197938437488 0.022041939045894462 0 -0.034285530338424561 0.021697857604674353 0 -0.030183640615436144 0.026604846276524603 0 -0.029212694507844396 0.025756629721718299 0 -0.030670190744211491 0.025556339295449114 0 -0.031372984440831531 0.024450283709360685 0 -0.0313895676936072 0.023941280100010398 0 -0.029106760322789582 0.027615255536926345 0 -0.030183640615436144 0.026604846276524603 0 -0.029212694507844396 0.025756629721718299 0 -0.030395529757229301 0.025450380263706832 0 -0.030975981564583227 0.024331526953460199 0 -0.030670190744211491 0.025556339295449114 0 -0.0313895676936072 0.023941280100010398 0 -0.029998350817362716 0.025583918554555874 0 -0.0313895676936072 0.023941280100010398 0 -0.030806892654603246 0.024141412646879357 0 -0.030975981564583227 0.024331526953460199 0 -0.030942198213634382 0.024920509672377453 0 -0.030670190744211491 0.025556339295449114 0 -0.030975981564583227 0.024331526953460199 0 -0.030942198213634382 0.024920509672377453 0 -0.030881915302631239 0.024705282537862718 0 -0.032702616770751182 0.022987552103652907 0 -0.030975981564583227 0.024331526953460199 0 -0.032374673847085374 0.024759268027909339 0 -0.032374673847085374 0.024759268027909339 0 -0.031283339920410602 0.025119032388759184 0 -0.032111620593752291 0.025669818269681354 0 -0.030975981564583227 0.024331526953460199 0 -0.032374673847085374 0.024759268027909339 0 -0.031283339920410602 0.025119032388759184 0 -0.032374673847085374 0.024759268027909339 0 -0.032958306063314319 0.02565857525310478 0 -0.032111620593752291 0.025669818269681354 0 -0.030975981564583227 0.024331526953460199 0 -0.031283339920410602 0.025119032388759184 0 -0.030881915302631239 0.024705282537862718 0 -0.031283339920410602 0.025119032388759184 0 -0.030881915302631239 0.024705282537862718 0 -0.0309601254269707 0.02490132448607105 0 -0.036389327794563803 0.022422288074695453 0 -0.034304418053633497 0.023533497688049927 0 -0.035940933879206646 0.024218865090960991 0 -0.036389327794563803 0.022422288074695453 0 -0.034846385496731483 0.022120369212506912 0 -0.034304418053633497 0.023533497688049927 0 -0.032702616770751182 0.022987552103652907 0 -0.032374673847085374 0.024759268027909339 0 -0.034304418053633497 0.023533497688049927 0 -0.032374673847085374 0.024759268027909339 0 -0.034151923311710186 0.025050988090133331 0 -0.032958306063314319 0.02565857525310478 0 -0.032374673847085374 0.024759268027909339 0 -0.034304418053633497 0.023533497688049927 0 -0.034151923311710186 0.025050988090133331 0 -0.034304418053633497 0.023533497688049927 0 -0.034151923311710186 0.025050988090133331 0 -0.035940933879206646 0.024218865090960991 0 -0.034151923311710186 0.025050988090133331 0 -0.035940933879206646 0.024218865090960991 0 -0.03557775586762129 0.025750895135777618 0 -0.036711112131492564 0.026930634380788049 0 -0.035181173361855791 0.027019493205286706 0 -0.03557775586762129 0.025750895135777618 0 -0.034151923311710186 0.025050988090133331 0 -0.03557775586762129 0.025750895135777618 0 -0.033981247266837857 0.026384948868258977 0 -0.035181173361855791 0.027019493205286706 0 -0.03557775586762129 0.025750895135777618 0 -0.033981247266837857 0.026384948868258977 0 -0.035181173361855791 0.027019493205286706 0 -0.033981247266837857 0.026384948868258977 0 -0.033672143970364263 0.027643556136799852 0 -0.034151923311710186 0.025050988090133331 0 -0.033981247266837857 0.026384948868258977 0 -0.032958306063314319 0.02565857525310478 0 -0.033981247266837857 0.026384948868258977 0 -0.032958306063314319 0.02565857525310478 0 -0.032820693297857952 0.026369224036377547 0 -0.033981247266837857 0.026384948868258977 0 -0.032820693297857952 0.026369224036377547 0 -0.033672143970364263 0.027643556136799852 0 -0.026302041433761848 0.020152301774031874 0 -0.026328440330517171 0.020363435650056536 0 -0.026661151896667984 0.020179240567669107 0 -0.026302041433761848 0.020152301774031874 0 -0.026430889514442186 0.020315683878029126 0 -0.026328440330517171 0.020363435650056536 0 -0.036131219829413981 0.028570548187225882 0 -0.035181173361855791 0.027019493205286706 0 -0.033672143970364263 0.027643556136799852 0 -0.028309360641591803 0.017717324624669791 0 -0.032321751476644407 0.021331815831799616 0 -0.032321751476644407 0.021331815831799616 0 -0.029923617332445154 0.024274826653141769 0 -0.032332383991927865 0.015960746752519246 0 -0.032923265361118781 0.018192329769959964 0 -0.036131219829413981 0.028570548187225882 0 -0.036711112131492564 0.026930634380788049 0 -0.035181173361855791 0.027019493205286706 0 -0.031283339920410602 0.025119032388759184 0 -0.031748636575072507 0.026428067631894713 0 -0.030831790143371725 0.025154228044758881 0 -0.029423614820956182 0.023706595301129906 0 -0.030007273705706047 0.023810825175718489 0 -0.031283339920410602 0.025119032388759184 0 -0.030831790143371725 0.025154228044758881 0 -0.0309601254269707 0.02490132448607105 0 -0.031283339920410602 0.025119032388759184 0 -0.032111620593752291 0.025669818269681354 0 -0.031748636575072507 0.026428067631894713 0 -0.032958306063314319 0.02565857525310478 0 -0.032820693297857952 0.026369224036377547 0 -0.032111620593752291 0.025669818269681354 0 -0.032820693297857952 0.026369224036377547 0 -0.032111620593752291 0.025669818269681354 0 -0.031748636575072507 0.026428067631894713 0 -0.032820693297857952 0.026369224036377547 0 -0.033672143970364263 0.027643556136799852 0 -0.031748636575072507 0.026428067631894713 0 -0.029923617332445154 0.024274826653141769 0 -0.029423614820956182 0.023706595301129906 0 -0.026328440330517171 0.020363435650056536 0 -0.026819808928518474 0.020929435768048506 0 -0.026661151896667984 0.020179240567669107 0 -0.027282687651691836 0.019966463104884952 0 -0.026661151896667984 0.020179240567669107 0 -0.027069882538699356 0.020464991330269865 0 -0.026819808928518474 0.020929435768048506 0 -0.026661151896667984 0.020179240567669107 0 -0.027069882538699356 0.020464991330269865 0 -0.027282687651691836 0.019966463104884952 0 -0.027069882538699356 0.020464991330269865 0 -0.027755662656231243 0.020872736519558809 0 -0.026819808928518474 0.020929435768048506 0 -0.027755662656231243 0.020872736519558809 0 -0.028870335170675495 0.022468506978201006 0 -0.026819808928518474 0.020929435768048506 0 -0.027069882538699356 0.020464991330269865 0 -0.027755662656231243 0.020872736519558809 0 -0.027983016318355047 0.019927795443949074 0 -0.027282687651691836 0.019966463104884952 0 -0.027755662656231243 0.020872736519558809 0 -0.02869171622953513 0.019855237769457832 0 -0.027983016318355047 0.019927795443949074 0 -0.027755662656231243 0.020872736519558809 0 -0.027755662656231243 0.020872736519558809 0 -0.028870335170675495 0.022468506978201006 0 -0.030823348433011578 0.022491134098052656 0 -0.026871928130627873 0.020845133007511105 0 -0.032024665934068712 0.021743771560033067 0 -0.02869171622953513 0.019855237769457832 0 -0.027755662656231243 0.020872736519558809 0 -0.029309664620393534 0.020477935815583926 0 -0.030007273705706047 0.023810825175718489 0 -0.031164500891371481 0.023899718670745012 0 -0.030831790143371725 0.025154228044758881 0 -0.031157178110295204 0.023833870733971932 0 -0.030929849586042911 0.024628007296379463 0 -0.030831790143371725 0.025154228044758881 0 -0.0309601254269707 0.02490132448607105 0 -0.030929849586042911 0.024628007296379463 0 -0.028870335170675495 0.022468506978201006 0 -0.031157178110295204 0.023833870733971932 0 -0.030823348433011578 0.022491134098052656 0 -0.031157178110295204 0.023833870733971932 0 -0.030823348433011578 0.022491134098052656 0 -0.032267779779570495 0.023919151533106933 0 -0.02869171622953513 0.019855237769457832 0 -0.029309664620393534 0.020477935815583926 0 -0.029412761742185673 0.019782919530678136 0 -0.029309664620393534 0.020477935815583926 0 -0.029412761742185673 0.019782919530678136 0 -0.030245312450952116 0.019710947673170824 0 -0.029309664620393534 0.020477935815583926 0 -0.030245312450952116 0.019710947673170824 0 -0.031094587933709072 0.02053935671937776 0 -0.032024665934068712 0.021743771560033067 0 -0.023593566353337248 0.020139884312824964 0 -0.031515744749362196 0.01871699606286905 0 -0.030245312450952116 0.019710947673170824 0 -0.031094587933709072 0.02053935671937776 0 -0.0217577361000993 0.01009714232313468 0 -0.023593566353337248 0.020139884312824964 0 -0.032868663912745247 0.02305002996707289 0 -0.032267779779570495 0.023919151533106933 0 -0.032324980271455112 0.024802652830026833 0 -0.023593566353337248 0.020139884312824964 0 -0.028617930137787802 0.029912961034982775 0 -0.022890733631556373 0.033126314963283957 0 -0.023617804316787769 0.031542575137692958 0 -0.021910712381697509 0.03213972836505561 0 -0.030823348433011578 0.022491134098052656 0 -0.032868663912745247 0.02305002996707289 0 -0.032267779779570495 0.023919151533106933 0 -0.031157178110295204 0.023833870733971932 0 -0.032267779779570495 0.023919151533106933 0 -0.031684407808818579 0.024476234722138338 0 -0.032267779779570495 0.023919151533106933 0 -0.03204415208842297 0.024501040342857053 0 -0.032324980271455112 0.024802652830026833 0 -0.032267779779570495 0.023919151533106933 0 -0.031684407808818579 0.024476234722138338 0 -0.03204415208842297 0.024501040342857053 0 -0.03204415208842297 0.024501040342857053 0 -0.032324980271455112 0.024802652830026833 0 -0.031912197485941547 0.024744446785802184 0 -0.031684407808818579 0.024476234722138338 0 -0.031912197485941547 0.024744446785802184 0 -0.031577965001433124 0.024781565803971166 0 -0.031684407808818579 0.024476234722138338 0 -0.03204415208842297 0.024501040342857053 0 -0.031912197485941547 0.024744446785802184 0 -0.022890733631556373 0.033126314963283957 0 -0.02385090775715705 0.031581207682936346 0 -0.023617804316787769 0.031542575137692958 0 -0.023645978393873859 0.031314356108000395 0 -0.022625817806245771 0.032688817624284397 0 -0.02385090775715705 0.031581207682936346 0 -0.023879302990549689 0.031678072981747553 0 -0.024247955590812109 0.031858733750035846 0 -0.02385090775715705 0.031581207682936346 0 -0.024621971204884015 0.031968189035298217 0 -0.024247955590812109 0.031858733750035846 0 -0.023617804316787769 0.031542575137692958 0 -0.023879302990549689 0.031678072981747553 0 -0.023889914877877106 0.031562316049212981 0 -0.02385090775715705 0.031581207682936346 0 -0.023617804316787769 0.031542575137692958 0 -0.023879302990549689 0.031678072981747553 0 -0.023879302990549689 0.031678072981747553 0 -0.024073932710936514 0.031786233241803831 0 -0.024247955590812109 0.031858733750035846 0 -0.032324980271455112 0.024802652830026833 0 -0.031881123161945787 0.025071896740454902 0 -0.032311036447611394 0.025836443821487545 0 -0.028617930137787802 0.029912961034982775 0 -0.028444264374615637 0.028490683258310234 0 -0.031912197485941547 0.024744446785802184 0 -0.031881123161945787 0.025071896740454902 0 -0.031577965001433124 0.024781565803971166 0 -0.032324980271455112 0.024802652830026833 0 -0.031912197485941547 0.024744446785802184 0 -0.031881123161945787 0.025071896740454902 0 -0.031881123161945787 0.025071896740454902 0 -0.031240465238293377 0.024901948435634074 0 -0.031373606373361833 0.025413100325535752 0 -0.031881123161945787 0.025071896740454902 0 -0.031240465238293377 0.024901948435634074 0 -0.031577965001433124 0.024781565803971166 0 -0.031240465238293377 0.024901948435634074 0 -0.030942198213634382 0.024920509672377453 0 -0.031373606373361833 0.025413100325535752 0 -0.031240465238293377 0.024901948435634074 0 -0.030942198213634382 0.024920509672377453 0 -0.030881915302631239 0.024705282537862718 0 -0.031240465238293377 0.024901948435634074 0 -0.030881915302631239 0.024705282537862718 0 -0.030929849586042911 0.024628007296379463 0 -0.030881915302631239 0.024705282537862718 0 -0.0309601254269707 0.02490132448607105 0 -0.030929849586042911 0.024628007296379463 0 -0.031240465238293377 0.024901948435634074 0 -0.030929849586042911 0.024628007296379463 0 -0.031260582853567892 0.024638199695851602 0 -0.031157178110295204 0.023833870733971932 0 -0.030929849586042911 0.024628007296379463 0 -0.031260582853567892 0.024638199695851602 0 -0.031157178110295204 0.023833870733971932 0 -0.031684407808818579 0.024476234722138338 0 -0.031260582853567892 0.024638199695851602 0 -0.031684407808818579 0.024476234722138338 0 -0.031577965001433124 0.024781565803971166 0 -0.031260582853567892 0.024638199695851602 0 -0.031240465238293377 0.024901948435634074 0 -0.031577965001433124 0.024781565803971166 0 -0.031260582853567892 0.024638199695851602 0 -0.016008498593078142 0.0067429053474095833 0 -0.016025362749512578 0.0069975266923486996 0 -0.01428219266410655 0.0069188404110626022 0 -0.021548431350389044 0.016397254218007948 0 -0.017882375323597658 0.01616347960739891 0 -0.017690959370438332 0.026152955491392654 0 -0.023939207695596959 0.029140085243227878 0 -0.024881938811225409 0.028006878247981957 0 -0.024832963179111951 0.030771370908562946 0 -0.017489770695261222 0.012920656081153392 0 -0.020254558337832646 0.017852290274765724 0 -0.016008498593078142 0.0067429053474095833 0 -0.016000995681873183 0.0069748618297362152 0 -0.016378468077796245 0.0065086264285348265 0 -0.016762380824749845 0.0070161946029384204 0 -0.016000995681873183 0.0069748618297362152 0 -0.016378468077796245 0.0065086264285348265 0 -0.01998465613914463 0.015046697946011281 0 -0.020254558337832646 0.017852290274765724 0 -0.016008498593078142 0.0067429053474095833 0 -0.016378468077796245 0.0065086264285348265 0 -0.016121541630732858 0.0063278574388571582 0 -0.016008498593078142 0.0067429053474095833 0 -0.015807526241783117 0.0060609666488548875 0 -0.016121541630732858 0.0063278574388571582 0 -0.015807526241783117 0.0060609666488548875 0 -0.016121541630732858 0.0063278574388571582 0 -0.016289512473181143 0.0059954006174888011 0 -0.016378468077796245 0.0065086264285348265 0 -0.016121541630732858 0.0063278574388571582 0 -0.016289512473181143 0.0059954006174888011 0 -0.01596244141906367 0.0050856015142396963 0 -0.015807526241783117 0.0060609666488548875 0 -0.016289512473181143 0.0059954006174888011 0 -0.01596244141906367 0.0050856015142396963 0 -0.015807526241783117 0.0060609666488548875 0 -0.015104151858336671 0.0059064248771724549 0 -0.016008498593078142 0.0067429053474095833 0 -0.015807526241783117 0.0060609666488548875 0 -0.015104151858336671 0.0059064248771724549 0 -0.015104151858336671 0.0059064248771724549 0 -0.013974614188374257 0.0054782933750719496 0 -0.01428219266410655 0.0069188404110626022 0 -0.016008498593078142 0.0067429053474095833 0 -0.015104151858336671 0.0059064248771724549 0 -0.01428219266410655 0.0069188404110626022 0 -0.016021856805366552 0.0058762526423964193 0 -0.019913110762952293 0.021022174070076463 0 -0.024048070903005356 0.031235923810293619 0 -0.023998414634417167 0.031400754375788612 0 -0.024067463840210964 0.031438933164752762 0 -0.023939207695596959 0.029140085243227878 0 -0.024881938811225409 0.028006878247981957 0 -0.022699509509747855 0.027857946161062835 0 -0.023939207695596959 0.029140085243227878 0 -0.022699509509747855 0.027857946161062835 0 -0.023245275165582325 0.029816023604959649 0 -0.019913110762952293 0.021022174070076463 0 -0.02395313042486346 0.032217303547770304 0 -0.020254558337832646 0.017852290274765724 0 -0.019913110762952293 0.021022174070076463 0 -0.019913110762952293 0.021022174070076463 0 -0.017863306866084935 0.022177820311535864 0 -0.023935120381082316 0.031241777024301944 0 -0.023898591582348045 0.031376972839429765 0 -0.023998414634417167 0.031400754375788612 0 -0.024048070903005356 0.031235923810293619 0 -0.023935120381082316 0.031241777024301944 0 -0.023998414634417167 0.031400754375788612 0 -0.019306146366493419 0.012577795453134836 0 -0.020191188490038398 0.01815265463247228 0 -0.014357291423210228 0.017780865445206011 0 -0.016021856805366552 0.0058762526423964193 0 -0.017863306866084935 0.022177820311535864 0 -0.013598203845383921 0.0051307850309495039 0 -0.015074719820930995 0.0055304081468305283 0 -0.014309387333636887 0.0066274125146354411 0 -0.013598203845383921 0.0051307850309495039 0 -0.012467604363783925 0.006560210218227891 0 -0.014309387333636887 0.0066274125146354411 0 -0.023593566353337248 0.020139884312824964 0 -0.017863306866084935 0.022177820311535864 0 -0.022890733631556373 0.033126314963283957 0 -0.020431580568950638 0.033044990982905087 0 -0.021910712381697509 0.03213972836505561 0 -0.017863306866084935 0.022177820311535864 0 -0.022625817806245771 0.032688817624284397 0 -0.023898591582348045 0.031376972839429765 0 -0.02398746062642635 0.031539971540133868 0 -0.023998414634417167 0.031400754375788612 0 -0.02398746062642635 0.031539971540133868 0 -0.023889914877877106 0.031562316049212981 0 -0.02398779530275922 0.031660043188210585 0 -0.023898591582348045 0.031376972839429765 0 -0.02398746062642635 0.031539971540133868 0 -0.023889914877877106 0.031562316049212981 0 -0.023617804316787769 0.031542575137692958 0 -0.023898591582348045 0.031376972839429765 0 -0.023889914877877106 0.031562316049212981 0 -0.023879302990549689 0.031678072981747553 0 -0.02398779530275922 0.031660043188210585 0 -0.024073932710936514 0.031786233241803831 0 -0.023879302990549689 0.031678072981747553 0 -0.023889914877877106 0.031562316049212981 0 -0.02398779530275922 0.031660043188210585 0 -0.024073932710936514 0.031786233241803831 0 -0.024036273544231573 0.031679863212173365 0 -0.024092417415981483 0.031800013722849498 0 -0.02398779530275922 0.031660043188210585 0 -0.024073932710936514 0.031786233241803831 0 -0.024036273544231573 0.031679863212173365 0 -0.02398746062642635 0.031539971540133868 0 -0.02398779530275922 0.031660043188210585 0 -0.024036273544231573 0.031679863212173365 0 -0.024036273544231573 0.031679863212173365 0 -0.024042465161471013 0.03170649612711187 0 -0.024040909887924705 0.031534315823165009 0 -0.02398746062642635 0.031539971540133868 0 -0.024036273544231573 0.031679863212173365 0 -0.024040909887924705 0.031534315823165009 0 -0.024036273544231573 0.031679863212173365 0 -0.024042465161471013 0.03170649612711187 0 -0.024092417415981483 0.031800013722849498 0 -0.024042465161471013 0.03170649612711187 0 -0.024008494709733326 0.031599524032761235 0 -0.024033793934837074 0.031780023646770794 0 -0.024042465161471013 0.03170649612711187 0 -0.024040909887924705 0.031534315823165009 0 -0.024008494709733326 0.031599524032761235 0 -0.02398746062642635 0.031539971540133868 0 -0.024040909887924705 0.031534315823165009 0 -0.023998414634417167 0.031400754375788612 0 -0.024040909887924705 0.031534315823165009 0 -0.023998414634417167 0.031400754375788612 0 -0.024067463840210964 0.031438933164752762 0 -0.023245275165582325 0.029816023604959649 0 -0.023978892109118018 0.031383565242378911 0 -0.024832963179111951 0.030771370908562946 0 -0.024040909887924705 0.031534315823165009 0 -0.024067463840210964 0.031438933164752762 0 -0.023978892109118018 0.031383565242378911 0 -0.02395313042486346 0.032217303547770304 0 -0.023807353354328323 0.030708810588982689 0 -0.024040909887924705 0.031534315823165009 0 -0.024008494709733326 0.031599524032761235 0 -0.023978892109118018 0.031383565242378911 0 -0.024008494709733326 0.031599524032761235 0 -0.023978892109118018 0.031383565242378911 0 -0.024033207703804991 0.031796294704752461 0 -0.018156254052518771 0.024218719452080949 0 -0.016877657497463377 0.02239739510352921 0 -0.017150197476965025 0.026297485707762355 0 -0.019479049007346226 0.027763702230943373 0 -0.021348276204526773 0.030685762585730535 0 -0.023978892109118018 0.031383565242378911 0 -0.024832963179111951 0.030771370908562946 0 -0.024152983438545581 0.031901148803244822 0 -0.018241294664348675 0.029131478569489572 0 -0.018160455233976209 0.029297225486463428 0 -0.018158756658933965 0.029284912223287871 0 -0.019479049007346226 0.027763702230943373 0 -0.017433067828286138 0.027283682664529334 0 -0.020254558337832646 0.017852290274765724 0 -0.019479049007346226 0.027763702230943373 0 -0.023939207695596959 0.029140085243227878 0 -0.023245275165582325 0.029816023604959649 0 -0.024832963179111951 0.030771370908562946 0 -0.017489770695261222 0.012920656081153392 0 -0.019479049007346226 0.027763702230943373 0 -0.018146697732627313 0.029148425567583278 0 -0.018160455233976209 0.029297225486463428 0 -0.018175830311148385 0.029230029181152261 0 -0.018105711337878739 0.027995902768344124 0 -0.017150197476965025 0.026297485707762355 0 -0.017997000831476203 0.029029776134160672 0 -0.018146697732627313 0.029148425567583278 0 -0.018160455233976209 0.029297225486463428 0 -0.017997000831476203 0.029029776134160672 0 -0.017433067828286138 0.027283682664529334 0 -0.017995165603059027 0.029123376987969348 0 -0.018391440474519852 0.027493790776445256 0 -0.018105711337878739 0.027995902768344124 0 -0.017150197476965025 0.026297485707762355 0 -0.018121330958669631 0.026819583291652221 0 -0.018391440474519852 0.027493790776445256 0 -0.017150197476965025 0.026297485707762355 0 -0.018187474433015917 0.025602828650585586 0 -0.018121330958669631 0.026819583291652221 0 -0.017150197476965025 0.026297485707762355 0 -0.018156254052518771 0.024218719452080949 0 -0.018187474433015917 0.025602828650585586 0 -0.017150197476965025 0.026297485707762355 0 -0.018160455233976209 0.029297225486463428 0 -0.018158756658933965 0.029284912223287871 0 -0.018175830311148385 0.029230029181152261 0 -0.023978892109118018 0.031383565242378911 0 -0.024152983438545581 0.031901148803244822 0 -0.024033207703804991 0.031796294704752461 0 -0.024152983438545581 0.031901148803244822 0 -0.024033207703804991 0.031796294704752461 0 -0.024032731055714993 0.031890525589793967 0 -0.024008494709733326 0.031599524032761235 0 -0.024033207703804991 0.031796294704752461 0 -0.024033793934837074 0.031780023646770794 0 -0.024033207703804991 0.031796294704752461 0 -0.024042662018672341 0.031856725086494911 0 -0.024033793934837074 0.031780023646770794 0 -0.024033207703804991 0.031796294704752461 0 -0.024032731055714993 0.031890525589793967 0 -0.024042662018672341 0.031856725086494911 0 -0.021348276204526773 0.030685762585730535 0 -0.02150580833252386 0.031818833431227565 0 -0.024032731055714993 0.031890525589793967 0 -0.024027348428207751 0.031858582346361727 0 -0.024042662018672341 0.031856725086494911 0 -0.018158756658933965 0.029284912223287871 0 -0.018175830311148385 0.029230029181152261 0 -0.018237595165251537 0.029193988343315831 0 -0.024152983438545581 0.031901148803244822 0 -0.024032731055714993 0.031890525589793967 0 -0.023918716863440666 0.031884664404387524 0 -0.018146697732627313 0.029148425567583278 0 -0.018175830311148385 0.029230029181152261 0 -0.018237595165251537 0.029193988343315831 0 -0.023567421477607001 0.031639723112656365 0 -0.02150580833252386 0.031818833431227565 0 -0.024032731055714993 0.031890525589793967 0 -0.023949761374296916 0.031831416071184143 0 -0.024027348428207751 0.031858582346361727 0 -0.023949761374296916 0.031831416071184143 0 -0.024027348428207751 0.031858582346361727 0 -0.023956503730305733 0.031749858860638684 0 -0.024027348428207751 0.031858582346361727 0 -0.024166541487829728 0.031863973982110223 0 -0.02410226541864913 0.031873088041252773 0 -0.024027348428207751 0.031858582346361727 0 -0.024166541487829728 0.031863973982110223 0 -0.024106427441832345 0.031778303625876379 0 -0.024166541487829728 0.031863973982110223 0 -0.02410226541864913 0.031873088041252773 0 -0.024229875843539455 0.031905573016748186 0 -0.024027348428207751 0.031858582346361727 0 -0.02410226541864913 0.031873088041252773 0 -0.024042662018672341 0.031856725086494911 0 -0.02410226541864913 0.031873088041252773 0 -0.024042662018672341 0.031856725086494911 0 -0.024076000298613915 0.031834589413731858 0 -0.024042662018672341 0.031856725086494911 0 -0.024033793934837074 0.031780023646770794 0 -0.024076000298613915 0.031834589413731858 0 -0.024042465161471013 0.03170649612711187 0 -0.024033793934837074 0.031780023646770794 0 -0.024076000298613915 0.031834589413731858 0 -0.024042465161471013 0.03170649612711187 0 -0.024076000298613915 0.031834589413731858 0 -0.024092417415981483 0.031800013722849498 0 -0.02410226541864913 0.031873088041252773 0 -0.024076000298613915 0.031834589413731858 0 -0.024229875843539455 0.031905573016748186 0 -0.024073932710936514 0.031786233241803831 0 -0.024229875843539455 0.031905573016748186 0 -0.024092417415981483 0.031800013722849498 0 -0.024073932710936514 0.031786233241803831 0 -0.024229875843539455 0.031905573016748186 0 -0.024247955590812109 0.031858733750035846 0 -0.024076000298613915 0.031834589413731858 0 -0.024229875843539455 0.031905573016748186 0 -0.024092417415981483 0.031800013722849498 0 -0.024166541487829728 0.031863973982110223 0 -0.024229875843539455 0.031905573016748186 0 -0.024420623147122792 0.031872253351773398 0 -0.024229875843539455 0.031905573016748186 0 -0.024420623147122792 0.031872253351773398 0 -0.024695262642333189 0.03195618846566442 0 -0.024420623147122792 0.031872253351773398 0 -0.024380130439239381 0.031704490086745536 0 -0.025016756608294721 0.031711181314678608 0 -0.024166541487829728 0.031863973982110223 0 -0.024420623147122792 0.031872253351773398 0 -0.024106427441832345 0.031778303625876379 0 -0.024420623147122792 0.031872253351773398 0 -0.024380130439239381 0.031704490086745536 0 -0.024106427441832345 0.031778303625876379 0 -0.024380130439239381 0.031704490086745536 0 -0.0244629194168242 0.031466539546941216 0 -0.024044092022781953 0.031601788843208044 0 -0.024380130439239381 0.031704490086745536 0 -0.0244629194168242 0.031466539546941216 0 -0.025016756608294721 0.031711181314678608 0 -0.0244629194168242 0.031466539546941216 0 -0.025016756608294721 0.031711181314678608 0 -0.025089632334673852 0.031150794378148255 0 -0.0244629194168242 0.031466539546941216 0 -0.025089632334673852 0.031150794378148255 0 -0.02414096151770135 0.030960122885407015 0 -0.0244629194168242 0.031466539546941216 0 -0.023891291565553991 0.031279377347519066 0 -0.02414096151770135 0.030960122885407015 0 -0.0244629194168242 0.031466539546941216 0 -0.023891291565553991 0.031279377347519066 0 -0.024044092022781953 0.031601788843208044 0 -0.020468750964051388 0.033303043235345747 0 -0.020627535854292965 0.033600256141695171 0 -0.021388937137635573 0.031763869169729696 0 -0.023891291565553991 0.031279377347519066 0 -0.023790382792761244 0.031547276456720993 0 -0.023466437348846552 0.030780022754442495 0 -0.023899086830758753 0.031499076543204579 0 -0.023891291565553991 0.031279377347519066 0 -0.024044092022781953 0.031601788843208044 0 -0.022167359556650015 0.032787710382617588 0 -0.022466903334964934 0.03106230862107949 0 -0.023899086830758753 0.031499076543204579 0 -0.023897610829447399 0.031573477749014416 0 -0.024044092022781953 0.031601788843208044 0 -0.023899086830758753 0.031499076543204579 0 -0.023891291565553991 0.031279377347519066 0 -0.023790382792761244 0.031547276456720993 0 -0.023899086830758753 0.031499076543204579 0 -0.023897610829447399 0.031573477749014416 0 -0.023790382792761244 0.031547276456720993 0 -0.023790382792761244 0.031547276456720993 0 -0.023937506603150433 0.031656450209808826 0 -0.023956503730305733 0.031749858860638684 0 -0.023897610829447399 0.031573477749014416 0 -0.023790382792761244 0.031547276456720993 0 -0.023937506603150433 0.031656450209808826 0 -0.023937506603150433 0.031656450209808826 0 -0.024044092022781953 0.031601788843208044 0 -0.024106427441832345 0.031778303625876379 0 -0.024380130439239381 0.031704490086745536 0 -0.024044092022781953 0.031601788843208044 0 -0.024106427441832345 0.031778303625876379 0 -0.023897610829447399 0.031573477749014416 0 -0.023937506603150433 0.031656450209808826 0 -0.024044092022781953 0.031601788843208044 0 -0.024027348428207751 0.031858582346361727 0 -0.024106427441832345 0.031778303625876379 0 -0.023956503730305733 0.031749858860638684 0 -0.023937506603150433 0.031656450209808826 0 -0.024106427441832345 0.031778303625876379 0 -0.023956503730305733 0.031749858860638684 0 -0.02150580833252386 0.031818833431227565 0 -0.022167359556650015 0.032787710382617588 0 -0.018237595165251537 0.029193988343315831 0 -0.018522769058193198 0.029205243147674871 0 -0.018211657618431236 0.029147833689035615 0 -0.02150580833252386 0.031818833431227565 0 -0.019306870882769105 0.031334699467089264 0 -0.023949761374296916 0.031831416071184143 0 -0.023790382792761244 0.031547276456720993 0 -0.023956503730305733 0.031749858860638684 0 -0.020208492382898315 0.034907082601229454 0 -0.020468750964051388 0.033303043235345747 0 -0.020627535854292965 0.033600256141695171 0 -0.018146697732627313 0.029148425567583278 0 -0.018237595165251537 0.029193988343315831 0 -0.018211657618431236 0.029147833689035615 0 -0.018271993165753789 0.029138201369568906 0 -0.018023634886383571 0.029144461085010821 0 -0.018580075501967826 0.028872564105168839 0 -0.018522769058193198 0.029205243147674871 0 -0.018271993165753789 0.029138201369568906 0 -0.018580075501967826 0.028872564105168839 0 -0.018522769058193198 0.029205243147674871 0 -0.018211657618431236 0.029147833689035615 0 -0.018271993165753789 0.029138201369568906 0 -0.012752442673202391 0.026556472081366057 0 -0.016397268330554576 0.03020215051077877 0 -0.018211657618431236 0.029147833689035615 0 -0.018271993165753789 0.029138201369568906 0 -0.018073459675603372 0.029104630916566874 0 -0.018496141576709091 0.028948831251265236 0 -0.018023634886383571 0.029144461085010821 0 -0.018073459675603372 0.029104630916566874 0 -0.018271993165753789 0.029138201369568906 0 -0.018023634886383571 0.029144461085010821 0 -0.018073459675603372 0.029104630916566874 0 -0.018496141576709091 0.028948831251265236 0 -0.018073459675603372 0.029104630916566874 0 -0.017997000831476203 0.029029776134160672 0 -0.018211657618431236 0.029147833689035615 0 -0.018073459675603372 0.029104630916566874 0 -0.017997000831476203 0.029029776134160672 0 -0.018146697732627313 0.029148425567583278 0 -0.018211657618431236 0.029147833689035615 0 -0.017997000831476203 0.029029776134160672 0 -0.018496141576709091 0.028948831251265236 0 -0.018105711337878739 0.027995902768344124 0 -0.017997000831476203 0.029029776134160672 0 -0.031264030812360386 0.026401828324828399 0 -0.032311036447611394 0.025836443821487545 0 -0.03222239892196805 0.027776506689148026 0 -0.030183640615436144 0.026604846276524603 0 -0.031264030812360386 0.026401828324828399 0 -0.030554821211226438 0.027611853367710198 0 -0.030183640615436144 0.026604846276524603 0 -0.031264030812360386 0.026401828324828399 0 -0.030670190744211491 0.025556339295449114 0 -0.031264030812360386 0.026401828324828399 0 -0.030670190744211491 0.025556339295449114 0 -0.031373606373361833 0.025413100325535752 0 -0.030942198213634382 0.024920509672377453 0 -0.030670190744211491 0.025556339295449114 0 -0.031373606373361833 0.025413100325535752 0 -0.031264030812360386 0.026401828324828399 0 -0.031373606373361833 0.025413100325535752 0 -0.032311036447611394 0.025836443821487545 0 -0.031881123161945787 0.025071896740454902 0 -0.031373606373361833 0.025413100325535752 0 -0.032311036447611394 0.025836443821487545 0 -0.024621971204884015 0.031968189035298217 0 -0.024247955590812109 0.031858733750035846 0 -0.024695262642333189 0.03195618846566442 0 -0.024229875843539455 0.031905573016748186 0 -0.024247955590812109 0.031858733750035846 0 -0.024695262642333189 0.03195618846566442 0 -0.028444264374615637 0.028490683258310234 0 -0.029081050909995174 0.029836645407100234 0 -0.024621971204884015 0.031968189035298217 0 -0.024695262642333189 0.03195618846566442 0 -0.025946341771945776 0.031842243018395132 0 -0.024420623147122792 0.031872253351773398 0 -0.024695262642333189 0.03195618846566442 0 -0.025016756608294721 0.031711181314678608 0 -0.024695262642333189 0.03195618846566442 0 -0.025946341771945776 0.031842243018395132 0 -0.025016756608294721 0.031711181314678608 0 -0.025016756608294721 0.031711181314678608 0 -0.025089632334673852 0.031150794378148255 0 -0.026156278359275708 0.03120431407507232 0 -0.025946341771945776 0.031842243018395132 0 -0.025016756608294721 0.031711181314678608 0 -0.026156278359275708 0.03120431407507232 0 -0.025946341771945776 0.031842243018395132 0 -0.026156278359275708 0.03120431407507232 0 -0.027724386669627378 0.030742446523801585 0 -0.03222239892196805 0.027776506689148026 0 -0.030741102548197039 0.029146916158415984 0 -0.031389426956586711 0.029870631093506815 0 -0.029081050909995174 0.029836645407100234 0 -0.029565129634660087 0.030153961410521062 0 -0.03222239892196805 0.027776506689148026 0 -0.030554821211226438 0.027611853367710198 0 -0.030741102548197039 0.029146916158415984 0 -0.031264030812360386 0.026401828324828399 0 -0.03222239892196805 0.027776506689148026 0 -0.030554821211226438 0.027611853367710198 0 -0.029518411786858462 0.028524490881347463 0 -0.030554821211226438 0.027611853367710198 0 -0.030741102548197039 0.029146916158415984 0 -0.029794845260822898 0.029292986038936857 0 -0.030741102548197039 0.029146916158415984 0 -0.030485458923916183 0.029890504730202227 0 -0.030741102548197039 0.029146916158415984 0 -0.030485458923916183 0.029890504730202227 0 -0.030711046649491373 0.030112298658452368 0 -0.030485458923916183 0.029890504730202227 0 -0.030711046649491373 0.030112298658452368 0 -0.030724387274593454 0.030262155676462593 0 -0.030711046649491373 0.030112298658452368 0 -0.030724387274593454 0.030262155676462593 0 -0.029813003226079753 0.0300697948711535 0 -0.030711046649491373 0.030112298658452368 0 -0.031389426956586711 0.029870631093506815 0 -0.029813003226079753 0.0300697948711535 0 -0.027724386669627378 0.030742446523801585 0 -0.028381709206833482 0.029772292045107663 0 -0.029813003226079753 0.0300697948711535 0 -0.029565129634660087 0.030153961410521062 0 -0.029816653744376035 0.029941251263572503 0 -0.030741102548197039 0.029146916158415984 0 -0.030711046649491373 0.030112298658452368 0 -0.031389426956586711 0.029870631093506815 0 -0.026156278359275708 0.03120431407507232 0 -0.027724386669627378 0.030742446523801585 0 -0.026995531785427952 0.030397645307140429 0 -0.026156278359275708 0.03120431407507232 0 -0.026995531785427952 0.030397645307140429 0 -0.025891924254828877 0.030524074304184225 0 -0.025089632334673852 0.031150794378148255 0 -0.026156278359275708 0.03120431407507232 0 -0.025891924254828877 0.030524074304184225 0 -0.025089632334673852 0.031150794378148255 0 -0.025891924254828877 0.030524074304184225 0 -0.024539469804765221 0.030360367738127746 0 -0.026995531785427952 0.030397645307140429 0 -0.025891924254828877 0.030524074304184225 0 -0.026549462476881072 0.029673207842882958 0 -0.025891924254828877 0.030524074304184225 0 -0.024539469804765221 0.030360367738127746 0 -0.025069032997199724 0.029386858507630096 0 -0.026549462476881072 0.029673207842882958 0 -0.028381709206833482 0.029772292045107663 0 -0.024661624379967197 0.026197862943218117 0 -0.026549462476881072 0.029673207842882958 0 -0.025069032997199724 0.029386858507630096 0 -0.024661624379967197 0.026197862943218117 0 -0.025891924254828877 0.030524074304184225 0 -0.026549462476881072 0.029673207842882958 0 -0.025069032997199724 0.029386858507630096 0 -0.027724386669627378 0.030742446523801585 0 -0.026995531785427952 0.030397645307140429 0 -0.028381709206833482 0.029772292045107663 0 -0.026995531785427952 0.030397645307140429 0 -0.026549462476881072 0.029673207842882958 0 -0.028381709206833482 0.029772292045107663 0 -0.028381709206833482 0.029772292045107663 0 -0.028996708427795299 0.029925312290262872 0 -0.029813003226079753 0.0300697948711535 0 -0.028381709206833482 0.029772292045107663 0 -0.028996708427795299 0.029925312290262872 0 -0.028393963888639167 0.030184369544167342 0 -0.028381709206833482 0.029772292045107663 0 -0.028393963888639167 0.030184369544167342 0 -0.027730436960113153 0.030843501100214717 0 -0.02816092758389116 0.029603005564781942 0 -0.026064872977251363 0.028541684696760748 0 -0.028393963888639167 0.030184369544167342 0 -0.02780515526781685 0.029993224263158733 0 -0.028785152199840593 0.029750999185779101 0 -0.028393963888639167 0.030184369544167342 0 -0.02780515526781685 0.029993224263158733 0 -0.027730436960113153 0.030843501100214717 0 -0.028996708427795299 0.029925312290262872 0 -0.028785152199840593 0.029750999185779101 0 -0.029757702871819589 0.029677848314065353 0 -0.028996708427795299 0.029925312290262872 0 -0.028393963888639167 0.030184369544167342 0 -0.028785152199840593 0.029750999185779101 0 -0.029757702871819589 0.029677848314065353 0 -0.030740401427591987 0.029739957705036551 0 -0.029813003226079753 0.0300697948711535 0 -0.029757702871819589 0.029677848314065353 0 -0.030740401427591987 0.029739957705036551 0 -0.030572009475397816 0.029138903363826865 0 -0.030740401427591987 0.029739957705036551 0 -0.029813003226079753 0.0300697948711535 0 -0.031055625115796074 0.030225627792634505 0 -0.030724387274593454 0.030262155676462593 0 -0.029813003226079753 0.0300697948711535 0 -0.031055625115796074 0.030225627792634505 0 -0.028996708427795299 0.029925312290262872 0 -0.029757702871819589 0.029677848314065353 0 -0.029813003226079753 0.0300697948711535 0 -0.014161437256103112 0.025590287748088629 0 -0.016634450827084771 0.027871616693879032 0 -0.016269995955381839 0.024734438439562266 0 -0.014161437256103112 0.025590287748088629 0 -0.013806580595023351 0.028174293637440551 0 -0.016634450827084771 0.027871616693879032 0 -0.016397268330554576 0.03020215051077877 0 -0.01752088789994298 0.027900446219825216 0 -0.014293472029943351 0.030223889906666915 0 -0.013806580595023351 0.028174293637440551 0 -0.016634450827084771 0.027871616693879032 0 -0.018023634886383571 0.029144461085010821 0 -0.018580075501967826 0.028872564105168839 0 -0.018236016470432562 0.028350584713803705 0 -0.018580075501967826 0.028872564105168839 0 -0.018839947812970007 0.028534626325520979 0 -0.018236016470432562 0.028350584713803705 0 -0.018580075501967826 0.028872564105168839 0 -0.018839947812970007 0.028534626325520979 0 -0.019442792774575689 0.028580170465262848 0 -0.018839947812970007 0.028534626325520979 0 -0.018995304814673018 0.028213421731647464 0 -0.018236016470432562 0.028350584713803705 0 -0.018236016470432562 0.028350584713803705 0 -0.0193949823521514 0.027465962314621506 0 -0.019365228999368073 0.025575958016163136 0 -0.018995304814673018 0.028213421731647464 0 -0.018236016470432562 0.028350584713803705 0 -0.0193949823521514 0.027465962314621506 0 -0.01752088789994298 0.027900446219825216 0 -0.019238287437126092 0.025686789829087703 0 -0.020238896842000392 0.029484166342215082 0 -0.021153129695831743 0.026559492918656006 0 -0.020894042454120788 0.030821488162889349 0 -0.022848742982242091 0.028813600167406063 0 -0.021248284746205617 0.026408350176318349 0 -0.0193949823521514 0.027465962314621506 0 -0.019442792774575689 0.028580170465262848 0 -0.021248284746205617 0.026408350176318349 0 -0.018995304814673018 0.028213421731647464 0 -0.0193949823521514 0.027465962314621506 0 -0.019442792774575689 0.028580170465262848 0 -0.023466437348846552 0.030780022754442495 0 -0.023761820804235546 0.030315923399692822 0 -0.022848742982242091 0.028813600167406063 0 -0.018839947812970007 0.028534626325520979 0 -0.018995304814673018 0.028213421731647464 0 -0.019442792774575689 0.028580170465262848 0 -0.018522769058193198 0.029205243147674871 0 -0.018580075501967826 0.028872564105168839 0 -0.019442792774575689 0.028580170465262848 0 -0.020894042454120788 0.030821488162889349 0 -0.021388937137635573 0.031763869169729696 0 -0.022848742982242091 0.028813600167406063 0 -0.020468750964051388 0.033303043235345747 0 -0.020894042454120788 0.030821488162889349 0 -0.021388937137635573 0.031763869169729696 0 -0.019306870882769105 0.031334699467089264 0 -0.020238896842000392 0.029484166342215082 0 -0.022466903334964934 0.03106230862107949 0 -0.022926972373550687 0.029007443067519571 0 -0.023891291565553991 0.031279377347519066 0 -0.023466437348846552 0.030780022754442495 0 -0.02414096151770135 0.030960122885407015 0 -0.023761820804235546 0.030315923399692822 0 -0.024539469804765221 0.030360367738127746 0 -0.022848742982242091 0.028813600167406063 0 -0.023466437348846552 0.030780022754442495 0 -0.023761820804235546 0.030315923399692822 0 -0.02414096151770135 0.030960122885407015 0 -0.023761820804235546 0.030315923399692822 0 -0.02414096151770135 0.030960122885407015 0 -0.024539469804765221 0.030360367738127746 0 -0.025089632334673852 0.031150794378148255 0 -0.02414096151770135 0.030960122885407015 0 -0.024539469804765221 0.030360367738127746 0 -0.025069032997199724 0.029386858507630096 0 -0.022848742982242091 0.028813600167406063 0 -0.024661624379967197 0.026197862943218117 0 -0.024539469804765221 0.030360367738127746 0 -0.025069032997199724 0.029386858507630096 0 -0.022848742982242091 0.028813600167406063 0 -0.022848742982242091 0.028813600167406063 0 -0.024661624379967197 0.026197862943218117 0 -0.021248284746205617 0.026408350176318349 0 -0.02780515526781685 0.029993224263158733 0 -0.027730436960113153 0.030843501100214717 0 -0.026701929980785785 0.030471337342612825 0 -0.02780515526781685 0.029993224263158733 0 -0.026845855032669647 0.029858915161129269 0 -0.026701929980785785 0.030471337342612825 0 -0.026701929980785785 0.030471337342612825 0 -0.025906945207040361 0.030301153837692545 0 -0.025154989952092987 0.03117823581207629 0 -0.027730436960113153 0.030843501100214717 0 -0.026701929980785785 0.030471337342612825 0 -0.025154989952092987 0.03117823581207629 0 -0.026845855032669647 0.029858915161129269 0 -0.025906945207040361 0.030301153837692545 0 -0.025837864866804051 0.029766001364535867 0 -0.026845855032669647 0.029858915161129269 0 -0.026701929980785785 0.030471337342612825 0 -0.025906945207040361 0.030301153837692545 0 -0.025906945207040361 0.030301153837692545 0 -0.025154989952092987 0.03117823581207629 0 -0.025045389298348614 0.029933678669535786 0 -0.025906945207040361 0.030301153837692545 0 -0.025045389298348614 0.029933678669535786 0 -0.025837864866804051 0.029766001364535867 0 -0.026064872977251363 0.028541684696760748 0 -0.021820634851819884 0.027228321313504892 0 -0.021248284746205617 0.026408350176318349 0 -0.019365228999368073 0.025575958016163136 0 -0.018755729762475821 0.023371681850968429 0 -0.024661624379967197 0.026197862943218117 0 -0.021248284746205617 0.026408350176318349 0 -0.018755729762475821 0.023371681850968429 0 -0.0193949823521514 0.027465962314621506 0 -0.021248284746205617 0.026408350176318349 0 -0.019365228999368073 0.025575958016163136 0 -0.016634450827084771 0.027871616693879032 0 -0.019365228999368073 0.025575958016163136 0 -0.017866084754667458 0.024629879177775607 0 -0.016634450827084771 0.027871616693879032 0 -0.016269995955381839 0.024734438439562266 0 -0.017866084754667458 0.024629879177775607 0 -0.019365228999368073 0.025575958016163136 0 -0.017866084754667458 0.024629879177775607 0 -0.018755729762475821 0.023371681850968429 0 -0.016269995955381839 0.024734438439562266 0 -0.017866084754667458 0.024629879177775607 0 -0.018755729762475821 0.023371681850968429 0 -0.016269995955381839 0.024734438439562266 0 -0.018755729762475821 0.023371681850968429 0 -0.014275557463483175 0.022114478329001382 0 -0.025154989952092987 0.03117823581207629 0 -0.023878114557953561 0.03010252100199803 0 -0.02188860688968541 0.030649728905217662 0 -0.021820634851819884 0.027228321313504892 0 -0.018524650996561306 0.026608531257238881 0 -0.025154989952092987 0.03117823581207629 0 -0.023878114557953561 0.03010252100199803 0 -0.025045389298348614 0.029933678669535786 0 -0.016269995955381839 0.024734438439562266 0 -0.014275557463483175 0.022114478329001382 0 -0.014258636265081618 0.023952203559942112 0 -0.014161437256103112 0.025590287748088629 0 -0.016269995955381839 0.024734438439562266 0 -0.014258636265081618 0.023952203559942112 0 -0.021282081868406542 0.027292555438130271 0 -0.022726676032061098 0.027807137040348141 0 -0.022200294137011078 0.027059142475675819 0 -0.021282081868406542 0.027292555438130271 0 -0.022726676032061098 0.027807137040348141 0 -0.021464359051091682 0.028126588091243108 0 -0.022726676032061098 0.027807137040348141 0 -0.022579044426164648 0.028603550617175084 0 -0.023418457159150887 0.028519955803180449 0 -0.022726676032061098 0.027807137040348141 0 -0.021464359051091682 0.028126588091243108 0 -0.022579044426164648 0.028603550617175084 0 -0.023878114557953561 0.03010252100199803 0 -0.02188860688968541 0.030649728905217662 0 -0.023031328354481503 0.02931299850674034 0 -0.021464359051091682 0.028126588091243108 0 -0.021864010593853799 0.029013408815698503 0 -0.022579044426164648 0.028603550617175084 0 -0.02188860688968541 0.030649728905217662 0 -0.021864010593853799 0.029013408815698503 0 -0.023031328354481503 0.02931299850674034 0 -0.021864010593853799 0.029013408815698503 0 -0.023031328354481503 0.02931299850674034 0 -0.022579044426164648 0.028603550617175084 0 -0.023031328354481503 0.02931299850674034 0 -0.022579044426164648 0.028603550617175084 0 -0.023418457159150887 0.028519955803180449 0 -0.023031328354481503 0.02931299850674034 0 -0.024215976048273646 0.029056666113991221 0 -0.023418457159150887 0.028519955803180449 0 -0.023878114557953561 0.03010252100199803 0 -0.023031328354481503 0.02931299850674034 0 -0.024215976048273646 0.029056666113991221 0 -0.023878114557953561 0.03010252100199803 0 -0.025045389298348614 0.029933678669535786 0 -0.024215976048273646 0.029056666113991221 0 -0.025045389298348614 0.029933678669535786 0 -0.024215976048273646 0.029056666113991221 0 -0.025300670374633179 0.028986997499532208 0 -0.024215976048273646 0.029056666113991221 0 -0.024143137026441188 0.027994213750868073 0 -0.025300670374633179 0.028986997499532208 0 -0.024143137026441188 0.027994213750868073 0 -0.025325166991794136 0.028071303432338719 0 -0.025300670374633179 0.028986997499532208 0 -0.024215976048273646 0.029056666113991221 0 -0.023418457159150887 0.028519955803180449 0 -0.024143137026441188 0.027994213750868073 0 -0.022726676032061098 0.027807137040348141 0 -0.023418457159150887 0.028519955803180449 0 -0.024143137026441188 0.027994213750868073 0 -0.022726676032061098 0.027807137040348141 0 -0.024143137026441188 0.027994213750868073 0 -0.023132081777928422 0.027099982558715662 0 -0.024143137026441188 0.027994213750868073 0 -0.025325166991794136 0.028071303432338719 0 -0.024967454258405956 0.027317369146250367 0 -0.025325166991794136 0.028071303432338719 0 -0.026181070412354672 0.028580418094172323 0 -0.02643289969763955 0.027580304592535288 0 -0.025325166991794136 0.028071303432338719 0 -0.026181070412354672 0.028580418094172323 0 -0.025300670374633179 0.028986997499532208 0 -0.025045389298348614 0.029933678669535786 0 -0.025300670374633179 0.028986997499532208 0 -0.025837864866804051 0.029766001364535867 0 -0.026845855032669647 0.029858915161129269 0 -0.025837864866804051 0.029766001364535867 0 -0.026270777429706797 0.029252461901070319 0 -0.026181070412354672 0.028580418094172323 0 -0.025300670374633179 0.028986997499532208 0 -0.026270777429706797 0.029252461901070319 0 -0.025300670374633179 0.028986997499532208 0 -0.025837864866804051 0.029766001364535867 0 -0.026270777429706797 0.029252461901070319 0 -0.026181070412354672 0.028580418094172323 0 -0.026270777429706797 0.029252461901070319 0 -0.02714721363493838 0.029194984138933296 0 -0.02780515526781685 0.029993224263158733 0 -0.026845855032669647 0.029858915161129269 0 -0.02714721363493838 0.029194984138933296 0 -0.026845855032669647 0.029858915161129269 0 -0.026270777429706797 0.029252461901070319 0 -0.02714721363493838 0.029194984138933296 0 -0.026181070412354672 0.028580418094172323 0 -0.02714721363493838 0.029194984138933296 0 -0.027630429446176313 0.028390413018793859 0 -0.026181070412354672 0.028580418094172323 0 -0.027630429446176313 0.028390413018793859 0 -0.02643289969763955 0.027580304592535288 0 -0.027630429446176313 0.028390413018793859 0 -0.02643289969763955 0.027580304592535288 0 -0.028368032038800495 0.027517510505293268 0 -0.02643289969763955 0.027580304592535288 0 -0.02690211754792592 0.026757773072155575 0 -0.028368032038800495 0.027517510505293268 0 -0.027921176584973697 0.026012396234703423 0 -0.02690211754792592 0.026757773072155575 0 -0.028368032038800495 0.027517510505293268 0 -0.027921176584973697 0.026012396234703423 0 -0.026856600646941509 0.025845714173754884 0 -0.02690211754792592 0.026757773072155575 0 -0.026856600646941509 0.025845714173754884 0 -0.025779725563174753 0.025534930537665482 0 -0.02690211754792592 0.026757773072155575 0 -0.025779725563174753 0.025534930537665482 0 -0.02690211754792592 0.026757773072155575 0 -0.025610435278957826 0.026680497625199483 0 -0.025779725563174753 0.025534930537665482 0 -0.025610435278957826 0.026680497625199483 0 -0.024587845866739583 0.026082971729076834 0 -0.025779725563174753 0.025534930537665482 0 -0.024587845866739583 0.026082971729076834 0 -0.024671769883128299 0.025492322750125865 0 -0.025610435278957826 0.026680497625199483 0 -0.024624268209587852 0.026706650756814089 0 -0.024587845866739583 0.026082971729076834 0 -0.025610435278957826 0.026680497625199483 0 -0.024967454258405956 0.027317369146250367 0 -0.024624268209587852 0.026706650756814089 0 -0.02643289969763955 0.027580304592535288 0 -0.025610435278957826 0.026680497625199483 0 -0.024967454258405956 0.027317369146250367 0 -0.02643289969763955 0.027580304592535288 0 -0.02690211754792592 0.026757773072155575 0 -0.025610435278957826 0.026680497625199483 0 -0.025325166991794136 0.028071303432338719 0 -0.02643289969763955 0.027580304592535288 0 -0.024967454258405956 0.027317369146250367 0 -0.024143137026441188 0.027994213750868073 0 -0.024967454258405956 0.027317369146250367 0 -0.024065361604377302 0.0270991886468527 0 -0.024967454258405956 0.027317369146250367 0 -0.024065361604377302 0.0270991886468527 0 -0.024624268209587852 0.026706650756814089 0 -0.024065361604377302 0.0270991886468527 0 -0.023764203180394461 0.026537763834490403 0 -0.023132081777928422 0.027099982558715662 0 -0.024143137026441188 0.027994213750868073 0 -0.024065361604377302 0.0270991886468527 0 -0.023132081777928422 0.027099982558715662 0 -0.023764203180394461 0.026537763834490403 0 -0.023542546505972602 0.025956879046435205 0 -0.022762013800286172 0.026450327276870897 0 -0.023764203180394461 0.026537763834490403 0 -0.024624268209587852 0.026706650756814089 0 -0.024587845866739583 0.026082971729076834 0 -0.024065361604377302 0.0270991886468527 0 -0.023764203180394461 0.026537763834490403 0 -0.024624268209587852 0.026706650756814089 0 -0.024587845866739583 0.026082971729076834 0 -0.024671769883128299 0.025492322750125865 0 -0.023936917108651885 0.02547885436931208 0 -0.024470964484529172 0.024926937167276213 0 -0.024671769883128299 0.025492322750125865 0 -0.023936917108651885 0.02547885436931208 0 -0.023936917108651885 0.02547885436931208 0 -0.023542546505972602 0.025956879046435205 0 -0.022979419822773902 0.02534892335794145 0 -0.023605733217808709 0.025017567153936653 0 -0.023936917108651885 0.02547885436931208 0 -0.022979419822773902 0.02534892335794145 0 -0.023764203180394461 0.026537763834490403 0 -0.024587845866739583 0.026082971729076834 0 -0.023542546505972602 0.025956879046435205 0 -0.024587845866739583 0.026082971729076834 0 -0.023936917108651885 0.02547885436931208 0 -0.023542546505972602 0.025956879046435205 0 -0.023542546505972602 0.025956879046435205 0 -0.022744572963464056 0.025824696095438096 0 -0.022762013800286172 0.026450327276870897 0 -0.023542546505972602 0.025956879046435205 0 -0.022744572963464056 0.025824696095438096 0 -0.022979419822773902 0.02534892335794145 0 -0.022744572963464056 0.025824696095438096 0 -0.022979419822773902 0.02534892335794145 0 -0.022267308379888877 0.025411549182194463 0 -0.022211040987349617 0.024866287398508949 0 -0.022979419822773902 0.02534892335794145 0 -0.022267308379888877 0.025411549182194463 0 -0.021569473582350594 0.025121205412575374 0 -0.022267308379888877 0.025411549182194463 0 -0.021728378990981945 0.025812919820405598 0 -0.021569473582350594 0.025121205412575374 0 -0.022211040987349617 0.024866287398508949 0 -0.022267308379888877 0.025411549182194463 0 -0.022744572963464056 0.025824696095438096 0 -0.021728378990981945 0.025812919820405598 0 -0.022762013800286172 0.026450327276870897 0 -0.022744572963464056 0.025824696095438096 0 -0.022267308379888877 0.025411549182194463 0 -0.021728378990981945 0.025812919820405598 0 -0.021297831451614752 0.02651554812754249 0 -0.022762013800286172 0.026450327276870897 0 -0.022200294137011078 0.027059142475675819 0 -0.021297831451614752 0.02651554812754249 0 -0.021728378990981945 0.025812919820405598 0 -0.022762013800286172 0.026450327276870897 0 -0.023764203180394461 0.026537763834490403 0 -0.022762013800286172 0.026450327276870897 0 -0.023132081777928422 0.027099982558715662 0 -0.022762013800286172 0.026450327276870897 0 -0.023132081777928422 0.027099982558715662 0 -0.022200294137011078 0.027059142475675819 0 -0.022726676032061098 0.027807137040348141 0 -0.023132081777928422 0.027099982558715662 0 -0.022200294137011078 0.027059142475675819 0 -0.021297831451614752 0.02651554812754249 0 -0.021282081868406542 0.027292555438130271 0 -0.022200294137011078 0.027059142475675819 0 -0.029730316395569792 0.028941590784118013 0 -0.030302865310770852 0.027991591819471754 0 -0.031082546100566818 0.028504378494808913 0 -0.030572009475397816 0.029138903363826865 0 -0.029730316395569792 0.028941590784118013 0 -0.031082546100566818 0.028504378494808913 0 -0.030572009475397816 0.029138903363826865 0 -0.031082546100566818 0.028504378494808913 0 -0.031529344588243385 0.028890601218469814 0 -0.030740401427591987 0.029739957705036551 0 -0.030572009475397816 0.029138903363826865 0 -0.031529344588243385 0.028890601218469814 0 -0.029757702871819589 0.029677848314065353 0 -0.030572009475397816 0.029138903363826865 0 -0.029730316395569792 0.028941590784118013 0 -0.028785152199840593 0.029750999185779101 0 -0.028448388091852128 0.029128889594725843 0 -0.029730316395569792 0.028941590784118013 0 -0.028785152199840593 0.029750999185779101 0 -0.029757702871819589 0.029677848314065353 0 -0.029730316395569792 0.028941590784118013 0 -0.02780515526781685 0.029993224263158733 0 -0.028785152199840593 0.029750999185779101 0 -0.028448388091852128 0.029128889594725843 0 -0.02780515526781685 0.029993224263158733 0 -0.02714721363493838 0.029194984138933296 0 -0.028448388091852128 0.029128889594725843 0 -0.027630429446176313 0.028390413018793859 0 -0.028448388091852128 0.029128889594725843 0 -0.028917424230059142 0.028419003322434386 0 -0.02714721363493838 0.029194984138933296 0 -0.027630429446176313 0.028390413018793859 0 -0.028448388091852128 0.029128889594725843 0 -0.028917424230059142 0.028419003322434386 0 -0.029730316395569792 0.028941590784118013 0 -0.030302865310770852 0.027991591819471754 0 -0.028448388091852128 0.029128889594725843 0 -0.028917424230059142 0.028419003322434386 0 -0.029730316395569792 0.028941590784118013 0 -0.028917424230059142 0.028419003322434386 0 -0.028368032038800495 0.027517510505293268 0 -0.030302865310770852 0.027991591819471754 0 -0.027630429446176313 0.028390413018793859 0 -0.028917424230059142 0.028419003322434386 0 -0.028368032038800495 0.027517510505293268 0 -0.027921176584973697 0.026012396234703423 0 -0.028368032038800495 0.027517510505293268 0 -0.029872751738583669 0.02707801172600564 0 -0.028368032038800495 0.027517510505293268 0 -0.029872751738583669 0.02707801172600564 0 -0.030302865310770852 0.027991591819471754 0 -0.031050648874997418 0.027869513848243613 0 -0.030302865310770852 0.027991591819471754 0 -0.031626916549252579 0.028284740588695373 0 -0.031050648874997418 0.027869513848243613 0 -0.029872751738583669 0.02707801172600564 0 -0.030302865310770852 0.027991591819471754 0 -0.030302865310770852 0.027991591819471754 0 -0.031082546100566818 0.028504378494808913 0 -0.031626916549252579 0.028284740588695373 0 -0.031082546100566818 0.028504378494808913 0 -0.031626916549252579 0.028284740588695373 0 -0.031999520697392078 0.028342954178355785 0 -0.032565581923303312 0.028706593834193897 0 -0.032147015450957786 0.028450223844902919 0 -0.031999520697392078 0.028342954178355785 0 -0.032565581923303312 0.028706593834193897 0 -0.031626916549252579 0.028284740588695373 0 -0.031999520697392078 0.028342954178355785 0 -0.033922022952235939 0.030122049875615019 0 -0.034381581312998608 0.030148381423511322 0 -0.031999520697392078 0.028342954178355785 0 -0.032292597485180194 0.028675703102144519 0 -0.032501807460976584 0.028333241738711636 0 -0.032147015450957786 0.028450223844902919 0 -0.031999520697392078 0.028342954178355785 0 -0.032501807460976584 0.028333241738711636 0 -0.031082546100566818 0.028504378494808913 0 -0.031999520697392078 0.028342954178355785 0 -0.031529344588243385 0.028890601218469814 0 -0.031999520697392078 0.028342954178355785 0 -0.031529344588243385 0.028890601218469814 0 -0.032292597485180194 0.028675703102144519 0 -0.031529344588243385 0.028890601218469814 0 -0.032292597485180194 0.028675703102144519 0 -0.032304773292595554 0.029425146323405413 0 -0.032292597485180194 0.028675703102144519 0 -0.032304773292595554 0.029425146323405413 0 -0.033517571862911405 0.028901903275901749 0 -0.030740401427591987 0.029739957705036551 0 -0.031529344588243385 0.028890601218469814 0 -0.032304773292595554 0.029425146323405413 0 -0.036057482431354156 0.031306155281691735 0 -0.036036173382418948 0.03157024630535063 0 -0.035515568852534332 0.030911007956931448 0 -0.036057482431354156 0.031306155281691735 0 -0.035515568852534332 0.030911007956931448 0 -0.034864925051505832 0.03062423631048318 0 -0.034766170632142233 0.030197953463488511 0 -0.03491306383154158 0.030656245942818457 0 -0.032304773292595554 0.029425146323405413 0 -0.033517571862911405 0.028901903275901749 0 -0.034864925051505832 0.03062423631048318 0 -0.036057482431354156 0.031306155281691735 0 -0.036276956236731994 0.031812102377442628 0 -0.036267644405651334 0.031915256301900619 0 -0.032292597485180194 0.028675703102144519 0 -0.033517571862911405 0.028901903275901749 0 -0.032501807460976584 0.028333241738711636 0 -0.034766170632142233 0.030197953463488511 0 -0.034381581312998608 0.030148381423511322 0 -0.036057482431354156 0.031306155281691735 0 -0.036276956236731994 0.031812102377442628 0 -0.036036173382418948 0.03157024630535063 0 -0.036276956236731994 0.031812102377442628 0 -0.036460997760326595 0.031861610556674212 0 -0.0366809795634465 0.031875400537126924 0 -0.036276956236731994 0.031812102377442628 0 -0.036267644405651334 0.031915256301900619 0 -0.036460997760326595 0.031861610556674212 0 -0.035651175122215245 0.032003429056573232 0 -0.036267644405651334 0.031915256301900619 0 -0.036460997760326595 0.031861610556674212 0 -0.035909682398406702 0.031167993589874307 0 -0.035651175122215245 0.032003429056573232 0 -0.036460997760326595 0.031861610556674212 0 -0.037116706800693199 0.031692767140697659 0 -0.036460997760326595 0.031861610556674212 0 -0.0366809795634465 0.031875400537126924 0 -0.037116706800693199 0.031692767140697659 0 -0.0373979448941281 0.031843232114038278 0 -0.0366809795634465 0.031875400537126924 0 -0.0373979448941281 0.031843232114038278 0 -0.037283263123501137 0.032032460185388321 0 -0.0366809795634465 0.031875400537126924 0 -0.0373979448941281 0.031843232114038278 0 -0.037283263123501137 0.032032460185388321 0 -0.03748836335761932 0.031997526570176571 0 -0.036744676600618822 0.031878502083793524 0 -0.036716045782023386 0.032087761337656152 0 -0.0366809795634465 0.031875400537126924 0 -0.036350660420815625 0.031599288154322454 0 -0.036419647405235928 0.031572131250255438 0 -0.037283263123501137 0.032032460185388321 0 -0.0366809795634465 0.031875400537126924 0 -0.037337301627374982 0.03245076235170604 0 -0.037283263123501137 0.032032460185388321 0 -0.03748836335761932 0.031997526570176571 0 -0.037431568731560276 0.032222793964058992 0 -0.037283263123501137 0.032032460185388321 0 -0.037431568731560276 0.032222793964058992 0 -0.037337301627374982 0.03245076235170604 0 -0.036276956236731994 0.031812102377442628 0 -0.0366809795634465 0.031875400537126924 0 -0.036036173382418948 0.03157024630535063 0 -0.0366809795634465 0.031875400537126924 0 -0.036036173382418948 0.03157024630535063 0 -0.036350660420815625 0.031599288154322454 0 -0.0373979448941281 0.031843232114038278 0 -0.037644057293264817 0.031876082870198913 0 -0.03748836335761932 0.031997526570176571 0 -0.037431568731560276 0.032222793964058992 0 -0.038111732832752154 0.032432599189125208 0 -0.037337301627374982 0.03245076235170604 0 -0.037644057293264817 0.031876082870198913 0 -0.03748836335761932 0.031997526570176571 0 -0.037721815923395206 0.032274657583935287 0 -0.036204035316512888 0.031851295370246592 0 -0.042046526466509047 0.032003962717603682 0 -0.03748836335761932 0.031997526570176571 0 -0.037431568731560276 0.032222793964058992 0 -0.037721815923395206 0.032274657583935287 0 -0.044712106436184888 0.033039917150210922 0 -0.044671637137032483 0.033637913473197667 0 -0.044950404137913035 0.032936755263099061 0 -0.041041412931456758 0.032890421074389865 0 -0.042046526466509047 0.032003962717603682 0 -0.045690045839101946 0.029839858119439101 0 -0.045482303937323214 0.029649025082570075 0 -0.045471362547600307 0.029848630963190993 0 -0.042046526466509047 0.032003962717603682 0 -0.039048305465591113 0.031351927841805585 0 -0.045960769627036963 0.031199722585963138 0 -0.042046526466509047 0.032003962717603682 0 -0.045844385089259448 0.02977222019808352 0 -0.045690045839101946 0.029839858119439101 0 -0.045482303937323214 0.029649025082570075 0 -0.039048305465591113 0.031351927841805585 0 -0.036716045782023386 0.032087761337656152 0 -0.036892722333280822 0.031675917251795201 0 -0.037151296516800686 0.031675390238912977 0 -0.036419647405235928 0.031572131250255438 0 -0.038111732832752154 0.032432599189125208 0 -0.038070529170823791 0.033022277253961001 0 -0.037337301627374982 0.03245076235170604 0 -0.037355293435089108 0.031133308436749382 0 -0.039048305465591113 0.031351927841805585 0 -0.036892722333280822 0.031675917251795201 0 -0.036722704383490054 0.031843677648406135 0 -0.036523772245699027 0.031686878890640251 0 -0.036892722333280822 0.031675917251795201 0 -0.036419647405235928 0.031572131250255438 0 -0.036523772245699027 0.031686878890640251 0 -0.036722704383490054 0.031843677648406135 0 -0.036796050451355165 0.032260404554006243 0 -0.036963611137907068 0.032013768011972955 0 -0.036796050451355165 0.032260404554006243 0 -0.036963611137907068 0.032013768011972955 0 -0.037215934541115443 0.032362207892004669 0 -0.036963611137907068 0.032013768011972955 0 -0.03713954953519364 0.031925232083462096 0 -0.037215934541115443 0.032362207892004669 0 -0.036892722333280822 0.031675917251795201 0 -0.036722704383490054 0.031843677648406135 0 -0.037024118854494567 0.031781692886292248 0 -0.036722704383490054 0.031843677648406135 0 -0.036963611137907068 0.032013768011972955 0 -0.037024118854494567 0.031781692886292248 0 -0.03713954953519364 0.031925232083462096 0 -0.037024118854494567 0.031781692886292248 0 -0.037172567291809004 0.031799062126817643 0 -0.036963611137907068 0.032013768011972955 0 -0.03713954953519364 0.031925232083462096 0 -0.037024118854494567 0.031781692886292248 0 -0.037024118854494567 0.031781692886292248 0 -0.037172567291809004 0.031799062126817643 0 -0.037264444498944144 0.031704499197484193 0 -0.03713954953519364 0.031925232083462096 0 -0.037172567291809004 0.031799062126817643 0 -0.037264444498944144 0.031704499197484193 0 -0.036892722333280822 0.031675917251795201 0 -0.037024118854494567 0.031781692886292248 0 -0.037264444498944144 0.031704499197484193 0 -0.045791511046220333 0.029937093695848859 0 -0.045690045839101946 0.029839858119439101 0 -0.045522622756591254 0.029881707464463305 0 -0.044899124926189124 0.029850947151911951 0 -0.041133686327723622 0.030677172892326892 0 -0.040545601491271392 0.031488264903816558 0 -0.041133686327723622 0.030677172892326892 0 -0.045690045839101946 0.029839858119439101 0 -0.045471362547600307 0.029848630963190993 0 -0.045522622756591254 0.029881707464463305 0 -0.039048305465591113 0.031351927841805585 0 -0.041133686327723622 0.030677172892326892 0 -0.03713954953519364 0.031925232083462096 0 -0.037264444498944144 0.031704499197484193 0 -0.037455007168644236 0.031782454702200848 0 -0.03713954953519364 0.031925232083462096 0 -0.037455007168644236 0.031782454702200848 0 -0.037215934541115443 0.032362207892004669 0 -0.036036173382418948 0.03157024630535063 0 -0.036350660420815625 0.031599288154322454 0 -0.036340129982053625 0.03183636783853154 0 -0.036045151664157914 0.031541145581441998 0 -0.036026534939836978 0.031424425689955869 0 -0.036350660420815625 0.031599288154322454 0 -0.036419647405235928 0.031572131250255438 0 -0.036523772245699027 0.031686878890640251 0 -0.036350660420815625 0.031599288154322454 0 -0.036523772245699027 0.031686878890640251 0 -0.036340129982053625 0.03183636783853154 0 -0.036098197260900362 0.03089623699941178 0 -0.035613909040710871 0.030950759320024473 0 -0.035915509684440218 0.031062200091402845 0 -0.036722704383490054 0.031843677648406135 0 -0.036796050451355165 0.032260404554006243 0 -0.036340129982053625 0.03183636783853154 0 -0.036411417675526588 0.031630294915096509 0 -0.036026534939836978 0.031424425689955869 0 -0.036722704383490054 0.031843677648406135 0 -0.036523772245699027 0.031686878890640251 0 -0.036340129982053625 0.03183636783853154 0 -0.036036173382418948 0.03157024630535063 0 -0.035613909040710871 0.030950759320024473 0 -0.035515568852534332 0.030911007956931448 0 -0.035613909040710871 0.030950759320024473 0 -0.035515568852534332 0.030911007956931448 0 -0.035643514719178745 0.031034559757900516 0 -0.035515568852534332 0.030911007956931448 0 -0.035325818871469739 0.031063975270123955 0 -0.035643514719178745 0.031034559757900516 0 -0.035325818871469739 0.031063975270123955 0 -0.035643514719178745 0.031034559757900516 0 -0.035644466944256922 0.031393685433595601 0 -0.035613909040710871 0.030950759320024473 0 -0.035643514719178745 0.031034559757900516 0 -0.035915509684440218 0.031062200091402845 0 -0.035915509684440218 0.031062200091402845 0 -0.035874652251343925 0.031255052673659724 0 -0.036224619703750072 0.031247395894013045 0 -0.035643514719178745 0.031034559757900516 0 -0.035915509684440218 0.031062200091402845 0 -0.035874652251343925 0.031255052673659724 0 -0.035643514719178745 0.031034559757900516 0 -0.035644466944256922 0.031393685433595601 0 -0.035874652251343925 0.031255052673659724 0 -0.035644466944256922 0.031393685433595601 0 -0.03600324106519906 0.031585551064947086 0 -0.035671589947521676 0.031952301963317262 0 -0.035644466944256922 0.031393685433595601 0 -0.035874652251343925 0.031255052673659724 0 -0.03600324106519906 0.031585551064947086 0 -0.035874652251343925 0.031255052673659724 0 -0.03600324106519906 0.031585551064947086 0 -0.036224619703750072 0.031247395894013045 0 -0.035644466944256922 0.031393685433595601 0 -0.035222077014486035 0.031608875492199186 0 -0.035671589947521676 0.031952301963317262 0 -0.035325818871469739 0.031063975270123955 0 -0.035644466944256922 0.031393685433595601 0 -0.035222077014486035 0.031608875492199186 0 -0.037455007168644236 0.031782454702200848 0 -0.037621743068742115 0.032875753754202666 0 -0.037215934541115443 0.032362207892004669 0 -0.03869374128021235 0.032577127324319291 0 -0.037455007168644236 0.031782454702200848 0 -0.037621743068742115 0.032875753754202666 0 -0.037935387217603964 0.031095927947748746 0 -0.03768898767750558 0.032488744710279453 0 -0.036411417675526588 0.031630294915096509 0 -0.037935387217603964 0.031095927947748746 0 -0.036098197260900362 0.03089623699941178 0 -0.036713881487833888 0.031110540189893038 0 -0.036224619703750072 0.031247395894013045 0 -0.036098197260900362 0.03089623699941178 0 -0.035915509684440218 0.031062200091402845 0 -0.036224619703750072 0.031247395894013045 0 -0.036796050451355165 0.032260404554006243 0 -0.037535014546510446 0.032834693633706384 0 -0.037215934541115443 0.032362207892004669 0 -0.03600324106519906 0.031585551064947086 0 -0.036224619703750072 0.031247395894013045 0 -0.036454754099951095 0.031712540131638177 0 -0.036224619703750072 0.031247395894013045 0 -0.036454754099951095 0.031712540131638177 0 -0.036653966855278462 0.031433272748420477 0 -0.037229612243841081 0.031666155136831298 0 -0.036454754099951095 0.031712540131638177 0 -0.036653966855278462 0.031433272748420477 0 -0.040398322938753131 0.029298606012109596 0 -0.040426348390134315 0.029536395099343499 0 -0.039486978986969713 0.0282089604595178 0 -0.038758239455669433 0.030646732066310019 0 -0.037935387217603964 0.031095927947748746 0 -0.037229612243841081 0.031666155136831298 0 -0.036713881487833888 0.031110540189893038 0 -0.036653966855278462 0.031433272748420477 0 -0.036713881487833888 0.031110540189893038 0 -0.036224619703750072 0.031247395894013045 0 -0.036653966855278462 0.031433272748420477 0 -0.037231614163537291 0.032426789895871465 0 -0.037229612243841081 0.031666155136831298 0 -0.036865549862878093 0.032033308290117947 0 -0.037229612243841081 0.031666155136831298 0 -0.036454754099951095 0.031712540131638177 0 -0.036865549862878093 0.032033308290117947 0 -0.036865549862878093 0.032033308290117947 0 -0.036351401839121611 0.032151471759976395 0 -0.036779572336662673 0.032323611950520227 0 -0.036454754099951095 0.031712540131638177 0 -0.036865549862878093 0.032033308290117947 0 -0.036351401839121611 0.032151471759976395 0 -0.036454754099951095 0.031712540131638177 0 -0.036351401839121611 0.032151471759976395 0 -0.036026421753626921 0.031976490265198693 0 -0.03600324106519906 0.031585551064947086 0 -0.036454754099951095 0.031712540131638177 0 -0.036026421753626921 0.031976490265198693 0 -0.036351401839121611 0.032151471759976395 0 -0.036705946085841663 0.032696416711903271 0 -0.035859638970764877 0.032572639324375256 0 -0.036760605184684644 0.033032969800680309 0 -0.03607649337738919 0.032542447289853997 0 -0.036351401839121611 0.032151471759976395 0 -0.036779572336662673 0.032323611950520227 0 -0.036705946085841663 0.032696416711903271 0 -0.037231614163537291 0.032426789895871465 0 -0.036779572336662673 0.032323611950520227 0 -0.036705946085841663 0.032696416711903271 0 -0.037231614163537291 0.032426789895871465 0 -0.036865549862878093 0.032033308290117947 0 -0.036779572336662673 0.032323611950520227 0 -0.035234682372149655 0.032153403962878413 0 -0.035671589947521676 0.031952301963317262 0 -0.035859638970764877 0.032572639324375256 0 -0.035222077014486035 0.031608875492199186 0 -0.035234682372149655 0.032153403962878413 0 -0.035671589947521676 0.031952301963317262 0 -0.035671589947521676 0.031952301963317262 0 -0.036026421753626921 0.031976490265198693 0 -0.035859638970764877 0.032572639324375256 0 -0.036351401839121611 0.032151471759976395 0 -0.036026421753626921 0.031976490265198693 0 -0.035859638970764877 0.032572639324375256 0 -0.03600324106519906 0.031585551064947086 0 -0.035671589947521676 0.031952301963317262 0 -0.036026421753626921 0.031976490265198693 0 -0.035234682372149655 0.032153403962878413 0 -0.035859638970764877 0.032572639324375256 0 -0.034834144970023913 0.032562912886993721 0 -0.03607649337738919 0.032542447289853997 0 -0.034867761191912608 0.032549762525472786 0 -0.035501942719677278 0.033214901370994296 0 -0.036160320000148363 0.032579909752044674 0 -0.034834144970023913 0.032562912886993721 0 -0.035501942719677278 0.033214901370994296 0 -0.034103412662551465 0.03325951457025917 0 -0.034834144970023913 0.032562912886993721 0 -0.034103412662551465 0.03325951457025917 0 -0.034834144970023913 0.032562912886993721 0 -0.034186260517946751 0.032605676252877129 0 -0.035222077014486035 0.031608875492199186 0 -0.035234682372149655 0.032153403962878413 0 -0.034420884619458837 0.032003185714008425 0 -0.035234682372149655 0.032153403962878413 0 -0.034834144970023913 0.032562912886993721 0 -0.034420884619458837 0.032003185714008425 0 -0.034834144970023913 0.032562912886993721 0 -0.034420884619458837 0.032003185714008425 0 -0.034186260517946751 0.032605676252877129 0 -0.034420884619458837 0.032003185714008425 0 -0.033332061800857661 0.031814609052390544 0 -0.033429682168325155 0.032548691194857655 0 -0.034420884619458837 0.032003185714008425 0 -0.033429682168325155 0.032548691194857655 0 -0.034186260517946751 0.032605676252877129 0 -0.034103412662551465 0.03325951457025917 0 -0.033429682168325155 0.032548691194857655 0 -0.034186260517946751 0.032605676252877129 0 -0.034103412662551465 0.03325951457025917 0 -0.033429682168325155 0.032548691194857655 0 -0.032515868771078482 0.033154189388266052 0 -0.033040762610310151 0.028605654704572939 0 -0.031588116520897797 0.031724706591693616 0 -0.033429682168325155 0.032548691194857655 0 -0.032515868771078482 0.033154189388266052 0 -0.032418336752694045 0.031983545118654519 0 -0.036148520958944011 0.021598421615028014 0 -0.036603102512378534 0.021536962498949902 0 -0.036148117539094547 0.021555110787557608 0 -0.035598656866154835 0.027246917083632406 0 -0.033040762610310151 0.028605654704572939 0 -0.03320256284248975 0.024574179018662389 0 -0.033040762610310151 0.028605654704572939 0 -0.029794845260822898 0.029292986038936857 0 -0.030485458923916183 0.029890504730202227 0 -0.028971352949694405 0.029610688513596335 0 -0.02935306768715305 0.029884639735276702 0 -0.033040762610310151 0.028605654704572939 0 -0.030485458923916183 0.029890504730202227 0 -0.030731939451533366 0.030150740811760678 0 -0.030710115234408291 0.030135041953069153 0 -0.030731939451533366 0.030150740811760678 0 -0.030710115234408291 0.030135041953069153 0 -0.030998194987565217 0.03026702293061025 0 -0.030485458923916183 0.029890504730202227 0 -0.030724387274593454 0.030262155676462593 0 -0.030710115234408291 0.030135041953069153 0 -0.029794845260822898 0.029292986038936857 0 -0.028991446201113692 0.029355709843153974 0 -0.028971352949694405 0.029610688513596335 0 -0.030724387274593454 0.030262155676462593 0 -0.030998194987565217 0.03026702293061025 0 -0.031055625115796074 0.030225627792634505 0 -0.030724387274593454 0.030262155676462593 0 -0.030710115234408291 0.030135041953069153 0 -0.030998194987565217 0.03026702293061025 0 -0.033332061800857661 0.031814609052390544 0 -0.033429682168325155 0.032548691194857655 0 -0.032418336752694045 0.031983545118654519 0 -0.033332061800857661 0.031814609052390544 0 -0.031961166214315398 0.030356159373645393 0 -0.033592392266154798 0.031068129120193015 0 -0.031588116520897797 0.031724706591693616 0 -0.031947433309157121 0.030048437038653949 0 -0.033332061800857661 0.031814609052390544 0 -0.032418336752694045 0.031983545118654519 0 -0.031961166214315398 0.030356159373645393 0 -0.030998194987565217 0.03026702293061025 0 -0.031055625115796074 0.030225627792634505 0 -0.031961166214315398 0.030356159373645393 0 -0.030740401427591987 0.029739957705036551 0 -0.032304773292595554 0.029425146323405413 0 -0.031961166214315398 0.030356159373645393 0 -0.030740401427591987 0.029739957705036551 0 -0.031055625115796074 0.030225627792634505 0 -0.031961166214315398 0.030356159373645393 0 -0.032304773292595554 0.029425146323405413 0 -0.031961166214315398 0.030356159373645393 0 -0.033592392266154798 0.031068129120193015 0 -0.032304773292595554 0.029425146323405413 0 -0.034864925051505832 0.03062423631048318 0 -0.033592392266154798 0.031068129120193015 0 -0.035515568852534332 0.030911007956931448 0 -0.035325818871469739 0.031063975270123955 0 -0.034864925051505832 0.03062423631048318 0 -0.035325818871469739 0.031063975270123955 0 -0.034864925051505832 0.03062423631048318 0 -0.034794790298500695 0.031273038023119114 0 -0.035222077014486035 0.031608875492199186 0 -0.034420884619458837 0.032003185714008425 0 -0.034794790298500695 0.031273038023119114 0 -0.035325818871469739 0.031063975270123955 0 -0.035222077014486035 0.031608875492199186 0 -0.034794790298500695 0.031273038023119114 0 -0.034420884619458837 0.032003185714008425 0 -0.034794790298500695 0.031273038023119114 0 -0.033592392266154798 0.031068129120193015 0 -0.034864925051505832 0.03062423631048318 0 -0.034794790298500695 0.031273038023119114 0 -0.033592392266154798 0.031068129120193015 0 -0.034420884619458837 0.032003185714008425 0 -0.033332061800857661 0.031814609052390544 0 -0.033592392266154798 0.031068129120193015 0 
</DataArray>
</PointData>
<CellData Scalars="region_id,cross_section_updated," Vectors="" Tensors="stress,">
<DataArray type="Float64" Name="region_id" format="ascii">
5 5 6 5 5 5 5 5 5 5 5 5 5 5 5 5 5 5 5 5 5 5 5 5 5 5 5 5 5 5 5 5 5 5 5 5 5 5 5 5 6 5 5 6 5 6 6 5 5 5 5 6 5 6 6 5 5 5 6 5 5 5 6 5 5 5 5 5 5 5 5 5 5 6 5 5 5 5 5 5 5 6 6 5 5 6 5 5 6 6 5 5 6 5 5 5 5 5 5 5 5 5 5 5 5 5 6 5 5 5 5 5 5 5 6 5 5 5 6 5 5 5 5 6 5 5 5 5 5 5 5 5 6 5 5 6 5 5 5 5 5 5 5 5 5 5 5 6 5 5 6 5 5 5 5 5 5 5 5 5 5 5 5 5 5 5 6 5 5 5 5 5 5 5 5 6 5 5 5 6 5 5 5 5 5 5 5 5 5 6 5 5 5 5 5 5 6 5 5 5 5 5 5 5 6 6 5 5 5 5 5 6 6 6 6 5 5 5 6 5 5 5 6 5 5 5 5 6 5 5 5 6 5 6 5 5 5 5 5 5 5 6 5 5 5 5 5 5 6 5 5 5 5 6 5 5 6 5 5 6 5 5 5 5 5 6 5 5 5 5 5 6 5 5 5 6 5 5 5 5 6 5 5 5 5 5 5 5 5 5 5 5 5 5 5 6 5 5 6 5 6 6 5 6 5 5 5 5 5 5 6 5 5 5 5 5 5 6 5 6 5 5 5 6 5 5 6 6 5 5 5 6 5 6 5 6 5 5 5 5 6 5 5 5 6 6 5 6 5 5 5 6 5 5 6 5 5 5 5 5 5 5 5 5 5 5 5 5 5 5 5 5 6 5 5 5 5 5 5 5 6 5 5 5 5 5 5 5 5 5 5 5 5 5 5 5 5 5 5 5 5 5 5 5 5 5 5 5 5 5 5 5 5 5 5 5 5 5 5 5 5 5 5 6 6 5 6 5 5 5 5 5 5 5 5 5 5 5 5 6 5 5 5 5 5 5 5 6 5 5 5 5 6 5 5 5 5 5 5 5 5 5 6 5 5 5 5 5 5 5 6 5 5 5 5 5 5 6 5 5 5 5 5 5 6 5 6 5 5 5 5 5 5 6 5 5 5 5 6 5 5 6 5 5 5 5 5 5 5 6 5 5 5 5 6 5 6 6 5 5 5 6 6 6 5 5 6 5 6 5 6 6 5 5 5 6 5 5 6 5 5 5 5 5 5 5 5 5 5 5 5 5 6 5 6 5 5 6 5 6 5 6 5 5 5 5 6 5 5 5 5 5 5 5 5 5 5 5 5 5 6 5 5 5 6 5 6 5 5 5 5 5 5 5 5 5 5 5 6 5 5 5 5 5 5 5 5 5 5 5 5 5 5 5 5 5 5 5 5 5 5 5 5 5 5 5 5 5 5 5 5 5 5 5 5 5 5 5 5 5 6 5 5 5 5 5 5 6 6 5 5 5 5 5 6 5 5 5 5 5 5 5 5 5 5 5 6 5 5 6 5 5 5 5 5 5 5 5 5 5 5 5 5 5 5 5 5 5 5 5 5 5 5 5 5 5 5 5 5 5 5 5 5 5 5 5 5 5 5 5 5 5 5 6 5 6 5 5 6 6 5 5 5 5 5 5 5 5 5 5 5 5 5 5 5 5 6 5 5 5 5 6 5 5 5 5 5 5 5 5 5 5 5 5 6 5 6 6 6 5 5 5 5 6 6 6 5 5 5 5 6 5 5 6 5 5 5 5 5 5 5 5 5 5 5 5 5 5 5 5 5 5 5 5 6 5 5 5 5 5 5 6 5 5 5 5 6 5 5 5 5 5 5 5 5 5 5 5 5 5 5 5 5 5 5 5 5 6 5 5 5 5 5 5 5 5 6 5 5 5 6 5 5 6 6 5 5 5 5 5 6 5 5 5 6 6 6 5 5 5 5 5 6 5 5 5 5 5 5 5 5 5 5 5 5 5 5 6 5 5 5 5 5 5 5 5 5 5 5 5 5 5 5 5 5 5 6 5 5 5 5 5 5 5 5 5 5 5 5 5 5 5 6 5 5 5 5 5 6 5 5 5 6 5 5 5 5 6 5 6 5 5 5 5 6 5 5 5 5 5 5 5 5 5 5 5 5 5 5 5 5 5 5 6 5 5 5 5 6 6 5 5 5 6 5 5 5 6 5 5 5 5 5 5 5 5 6 5 6 5 5 5 5 6 5 5 5 5 5 5 5 6 5 5 5 5 5 5 5 5 5 5 5 5 5 5 5 6 5 5 6 5 5 5 6 5 5 5 5 5 5 6 6 5 5 6 5 5 5 5 5 6 6 5 5 5 5 5 5 5 5 6 5 5 5 5 5 5 6 5 5 5 5 5 6 5 5 5 5 5 5 6 5 6 5 5 6 5 5 5 5 5 5 5 5 5 5 5 6 6 5 5 6 5 5 6 5 5 6 5 6 5 5 5 5 5 6 5 5 5 5 5 5 5 5 5 5 5 5 5 5 5 5 5 6 5 5 6 5 5 6 5 5 5 5 5 6 5 5 5 5 5 6 5 5 5 6 5 5 6 5 5 5 5 6 5 5 5 5 5 5 5 6 6 5 5 5 5 6 5 5 5 5 5 5 5 5 5 5 5 5 5 5 5 5 5 5 6 5 5 5 5 5 5 5 6 5 5 5 5 6 5 5 5 5 5 5 5 5 5 6 5 5 6 5 5 5 5 5 6 6 6 6 5 6 6 5 5 5 6 5 5 5 6 5 6 5 5 6 5 5 5 6 5 5 5 5 6 5 6 5 6 5 5 6 5 6 5 5 5 5 5 5 5 5 5 5 5 5 5 5 6 5 5 5 6 5 5 5 5 5 5 5 5 5 5 5 5 5 6 5 5 5 5 5 5 5 5 5 5 5 6 5 5 5 6 5 5 5 5 5 5 5 5 5 5 5 5 5 5 5 5 5 5 5 5 5 5 5 5 5 5 5 5 6 5 5 5 5 5 6 5 5 5 6 5 5 5 5 5 5 5 5 5 5 5 5 5 5 5 5 5 5 5 5 5 5 6 5 5 5 5 6 6 5 5 5 5 5 5 5 5 5 6 5 5 5 5 5 5 5 5 5 6 5 5 5 5 5 6 5 5 6 5 6 5 5 6 6 5 6 5 5 5 6 5 5 6 5 5 5 6 5 6 5 5 5 5 5 5 5 5 5 5 6 5 5 5 5 5 5 5 5 5 5 5 5 5 5 5 5 5 5 5 5 5 5 6 5 5 5 5 5 6 5 5 5 5 5 6 5 5 5 5 5 5 5 5 5 5 5 5 5 5 5 5 5 5 5 5 5 5 5 6 5 5 6 5 5 5 5 5 5 5 5 5 5 5 5 5 6 5 5 5 5 5 5 5 6 6 6 5 6 5 5 5 5 5 5 6 5 6 6 5 5 5 5 5 5 5 5 5 5 5 5 5 5 5 5 5 5 5 5 6 6 5 5 5 6 6 5 5 5 5 5 5 5 5 5 5 5 5 5 5 5 6 5 6 5 5 5 6 5 5 6 5 5 5 5 5 5 6 5 6 5 5 5 5 5 5 5 5 5 5 6 5 5 5 5 5 5 5 5 5 6 6 5 5 5 5 5 5 5 6 6 5 5 5 6 5 6 5 5 5 5 5 6 5 6 5 5 6 5 5 5 5 5 5 5 6 5 5 6 5 5 5 5 5 5 5 5 6 5 5 5 5 5 5 6 5 5 5 5 5 6 5 5 5 5 5 6 5 5 5 5 6 5 5 5 5 6 6 6 5 5 6 5 6 5 5 5 5 5 5 5 5 5 6 5 5 5 6 5 5 5 6 6 5 5 5 6 5 5 5 5 5 5 5 5 5 5 5 5 5 5 5 5 6 5 5 5 5 5 5 5 5 5 5 5 5 5 5 5 5 5 5 5 5 5 5 5 6 5 5 5 6 5 5 5 5 5 5 5 5 5 5 5 5 6 5 5 6 5 5 5 5 5 5 5 5 5 5 5 5 5 5 5 5 5 5 5 5 5 5 5 5 5 5 5 5 5 5 5 5 5 5 5 5 5 5 6 5 5 5 5 5 5 5 5 6 5 5 5 5 5 5 5 5 5 5 5 5 5 5 5 5 5 5 5 5 5 6 5 5 5 6 5 5 5 6 6 5 5 5 5 5 5 5 5 5 5 5 5 5 5 5 5 5 5 5 5 6 5 5 5 5 5 5 5 5 6 5 5 5 6 5 5 5 5 6 5 6 5 5 6 5 5 5 6 5 6 5 6 5 5 5 5 5 5 5 5 5 5 5 6 5 5 6 5 5 5 5 5 5 5 6 5 5 5 5 5 5 5 5 5 5 5 5 5 5 5 5 5 5 5 5 5 5 5 5 5 5 5 5 5 5 6 5 5 5 6 5 5 5 5 5 5 5 6 5 5 5 5 6 5 5 5 5 6 5 6 5 5 5 5 5 5 6 6 5 5 5 5 5 5 6 5 5 5 5 5 5 5 5 5 5 5 6 5 5 5 5 6 5 5 5 6 5 5 5 5 5 5 5 5 5 5 5 5 5 5 5 5 5 5 5 5 5 5 5 5 5 5 5 5 5 5 5 5 5 5 5 6 5 5 5 5 5 5 5 5 5 5 5 5 5 5 5 5 5 5 5 5 5 6 5 5 5 5 5 5 5 5 5 5 5 5 5 5 6 5 5 5 5 5 5 5 5 5 5 5 5 5 5 5 5 6 5 5 6 5 5 5 5 5 5 5 5 5 5 6 5 6 6 6 5 5 6 6 5 5 6 5 5 5 6 5 5 5 5 5 5 5 5 6 5 5 5 5 5 6 5 5 5 5 6 5 6 5 5 6 6 6 5 5 5 5 5 5 5 5 5 5 5 5 5 5 5 5 5 5 5 6 5 5 5 6 5 5 6 5 5 6 5 5 6 5 5 5 6 5 5 5 6 5 5 5 5 5 5 5 5 5 6 5 5 5 5 5 5 5 5 5 5 5 5 5 5 5 5 5 5 5 5 5 5 6 5 5 5 5 5 5 5 5 5 5 5 5 5 5 5 5 5 5 5 5 5 5 5 6 5 6 6 5 6 5 5 5 5 6 5 5 5 5 5 5 5 6 6 5 5 5 5 5 5 5 5 5 6 5 5 5 6 5 5 5 6 5 5 5 5 5 5 5 5 5 5 5 5 5 5 5 5 5 5 5 5 5 5 5 5 5 5 5 5 5 5 5 5 5 5 5 5 5 5 5 5 5 5 6 5 5 5 5 5 6 5 5 5 5 5 5 5 5 5 5 5 5 5 5 5 5 6 6 5 6 5 5 5 5 6 5 6 5 5 5 5 5 5 5 5 5 5 6 5 5 5 5 6 5 5 5 5 5 5 5 5 6 5 5 5 6 5 5 5 5 5 5 5 5 6 5 5 6 5 5 5 5 5 5 5 5 5 5 5 5 5 5 5 6 5 6 5 5 5 5 6 5 5 5 5 5 6 5 6 5 5 5 5 5 5 5 5 5 5 5 5 5 5 5 5 5 5 5 5 5 5 5 5 5 5 5 5 5 5 6 5 5 5 5 5 5 6 5 5 6 6 5 5 5 5 5 5 6 5 6 5 5 5 6 5 5 5 5 5 5 5 6 5 5 6 5 5 5 5 5 5 6 5 5 5 5 5 5 5 5 5 5 6 5 5 6 5 5 6 5 5 5 5 5 5 5 5 5 5 5 6 5 5 5 5 5 5 5 5 5 5 5 5 5 5 5 6 5 5 6 5 5 6 5 6 5 5 5 5 5 5 5 5 5 6 6 5 5 5 5 5 5 5 5 6 5 5 5 5 5 5 6 6 5 5 6 5 5 5 5 5 6 5 5 6 5 6 5 5 6 5 5 5 6 5 5 5 6 5 5 5 5 5 6 5 5 5 6 5 5 5 6 5 5 6 6 5 5 6 5 5 5 5 5 5 5 5 5 6 5 5 5 5 5 5 5 5 5 5 5 5 5 5 5 5 5 5 5 5 5 6 5 5 6 5 5 5 5 5 5 6 5 5 5 5 5 5 5 5 5 5 6 5 5 5 6 5 5 5 5 6 6 5 5 5 6 5 5 5 5 5 5 5 6 5 5 5 5 5 5 6 5 5 5 6 5 5 5 5 5 5 5 5 5 5 5 5 5 6 6 5 5 5 6 5 5 5 5 6 5 5 5 5 5 5 5 5 5 5 5 5 5 5 6 5 5 5 5 5 5 6 5 5 6 5 5 5 5 6 5 5 5 5 6 5 5 5 5 6 6 5 5 5 5 5 5 5 5 6 5 6 5 5 6 5 5 5 6 6 6 6 5 5 5 5 5 5 6 5 5 6 5 5 5 5 5 5 6 5 5 5 6 5 6 5 5 5 6 5 6 5 5 6 6 5 5 5 5 5 6 5 5 5 5 6 5 5 5 5 6 5 5 5 6 5 6 6 5 5 5 5 5 5 5 6 5 5 5 5 6 6 5 6 5 6 6 6 5 5 5 5 6 5 5 6 5 6 5 5 6 5 5 5 5 5 5 5 6 5 5 6 5 5 5 5 5 5 5 5 5 6 5 5 5 5 5 6 5 6 5 6 5 5 6 5 5 5 6 5 5 5 6 5 5 5 6 5 5 5 5 5 6 5 5 5 5 5 6 5 5 6 6 5 5 6 5 5 5 6 5 5 5 5 5 5 6 6 5 6 5 5 6 5 5 5 6 5 5 5 5 5 5 5 5 5 5 5 5 5 5 5 5 5 5 6 5 5 5 6 5 5 5 5 5 6 5 5 5 5 5 5 5 5 5 5 5 5 5 6 5 5 5 5 5 5 5 5 5 5 5 5 5 5 5 5 5 5 5 5 6 5 5 5 5 5 5 6 5 5 5 5 5 5 5 5 5 5 5 5 5 5 6 5 5 5 5 5 6 5 5 5 5 5 5 5 5 5 5 5 5 5 5 5 5 5 6 5 5 5 6 5 5 5 5 5 5 5 5 5 5 5 5 5 5 5 5 5 5 5 5 5 5 5 5 5 5 5 5 6 5 5 6 5 6 6 5 5 5 6 5 5 5 5 5 5 5 5 5 5 5 5 5 5 5 5 6 5 6 5 5 5 5 5 5 6 5 5 5 5 5 5 5 5 5 5 6 5 5 6 5 6 6 5 5 5 6 5 5 5 5 5 5 5 6 5 5 5 5 5 6 5 6 5 6 5 6 5 5 5 5 5 5 5 6 5 5 5 5 5 5 6 5 5 6 5 5 5 6 5 5 5 5 5 5 6 5 5 5 5 5 5 5 6 5 5 6 6 5 5 6 6 5 5 6 5 5 5 5 5 5 5 5 5 6 6 5 6 5 5 6 5 6 5 5 5 5 5 5 5 5 5 5 5 5 5 5 5 6 5 5 5 5 5 5 5 5 5 6 6 5 6 5 6 6 5 5 5 5 6 5 6 5 5 6 5 5 5 5 6 6 6 6 5 5 6 6 5 5 6 5 6 6 5 5 6 5 6 5 5 5 6 5 5 6 6 5 5 5 5 5 5 5 5 5 5 5 5 6 5 5 5 5 6 5 5 6 5 5 6 5 6 5 5 6 6 5 5 6 5 5 6 5 5 5 6 5 5 5 5 5 5 5 5 5 6 5 5 5 5 5 6 5 6 5 5 6 5 5 5 6 5 5 5 5 6 5 6 6 5 5 5 5 5 5 5 5 5 5 5 5 5 6 5 5 5 5 5 5 5 5 5 5 5 6 5 5 5 5 6 6 5 5 6 5 5 6 5 5 6 5 5 5 6 5 6 5 6 6 5 5 5 5 6 5 6 5 5 5 5 5 5 5 6 5 5 5 5 6 6 5 5 6 5 6 6 5 5 5 5 5 5 5 5 5 5 5 5 5 6 5 5 6 5 5 5 5 5 5 5 5 5 5 5 5 5 5 5 5 5 5 5 6 5 6 5 5 5 6 5 6 5 6 5 5 5 5 5 5 5 5 5 5 5 5 5 5 6 5 5 5 6 5 5 6 5 5 6 5 5 5 5 5 5 5 5 5 5 5 5 5 6 5 5 6 5 5 5 5 5 5 5 6 5 5 5 5 6 5 5 6 5 6 5 5 5 5 5 6 5 5 5 5 6 5 5 5 6 5 5 6 5 5 5 5 6 5 5 5 5 5 5 5 6 5 5 5 5 5 5 5 5 5 5 5 5 5 6 5 5 5 5 5 5 5 5 5 5 5 5 5 5 5 5 5 6 5 5 5 5 6 5 5 5 5 5 5 5 5 6 5 5 5 5 5 5 5 5 5 5 5 5 5 5 5 5 5 5 5 5 5 5 5 5 5 5 5 5 5 5 5 5 5 5 5 5 6 5 5 5 5 5 5 5 5 5 5 5 5 5 5 5 5 5 6 5 5 5 5 6 5 6 5 5 5 5 5 5 5 5 5 5 6 5 6 5 5 5 5 5 6 5 5 5 6 5 6 5 6 5 5 5 5 5 5 5 5 5 5 5 5 5 5 5 5 5 6 5 5 5 5 5 5 5 6 6 5 5 5 6 6 5 6 5 5 5 5 6 5 5 5 6 6 5 5 5 5 5 5 5 5 5 5 5 6 5 5 6 5 5 6 5 5 5 5 5 5 6 5 5 5 5 5 5 5 5 5 5 5 5 5 5 5 5 5 5 5 5 6 5 5 6 5 5 5 6 6 5 5 5 6 5 5 5 6 5 5 5 5 6 5 5 5 5 5 5 5 5 5 5 5 5 5 5 5 5 6 5 6 5 5 5 5 5 5 5 5 5 6 5 5 6 5 5 5 5 6 5 5 5 5 5 6 5 5 5 5 5 5 5 5 5 5 5 5 5 5 6 5 5 5 5 5 6 5 5 5 6 5 5 6 5 5 6 5 5 5 5 5 5 5 5 5 6 5 5 5 5 6 6 5 5 5 6 5 6 5 5 5 5 5 5 5 5 5 5 5 5 5 5 5 5 5 6 5 6 5 5 6 5 5 5 6 5 5 6 5 5 5 5 5 5 5 6 5 5 5 5 5 5 5 5 5 5 5 5 6 5 5 5 5 5 6 5 5 6 5 5 5 6 5 5 6 5 5 6 5 6 5 6 5 5 5 5 6 6 5 5 5 5 5 5 5 5 5 5 6 5 5 5 6 5 6 5 5 5 6 5 5 5 6 5 5 6 6 5 5 5 5 5 5 5 5 5 5 5 6 5 5 5 6 6 5 5 6 5 5 5 5 5 6 6 5 5 5 5 5 5 5 5 6 5 5 6 5 5 5 6 5 5 5 5 5 5 5 5 5 6 5 5 5 6 5 5 5 5 6 5 5 5 5 5 5 5 6 5 5 5 5 5 6 5 5 5 5 5 5 5 5 5 5 5 5 5 5 5 5 5 6 5 5 5 5 5 5 6 5 5 5 5 5 5 5 5 5 5 5 5 5 5 5 5 5 5 5 5 5 5 5 6 5 6 5 5 5 5 5 5 5 5 5 6 5 5 5 6 5 5 5 5 5 5 5 5 5 5 5 5 5 5 5 5 5 5 5 5 5 5 5 5 5 5 5 5 5 6 5 5 5 5 5 5 5 5 5 6 5 5 5 5 5 5 5 5 5 5 5 5 5 5 5 5 5 5 5 5 5 5 5 5 6 6 5 5 5 5 5 5 5 5 5 5 6 5 5 5 5 5 6 5 5 5 6 5 5 6 5 5 5 5 5 6 5 5 5 5 5 5 6 5 5 6 5 5 6 5 6 5 5 6 6 5 5 6 6 5 6 5 5 5 5 5 5 6 5 5 5 5 5 6 5 6 5 5 6 6 5 5 5 5 5 5 5 5 5 5 5 5 5 6 5 6 5 5 5 5 5 5 5 5 5 5 5 5 5 5 5 5 5 5 5 5 6 6 5 5 5 5 5 5 5 5 5 5 6 5 5 5 5 5 5 5 5 5 6 5 5 5 6 5 5 6 5 6 5 5 5 6 5 5 6 5 5 5 5 5 5 5 5 5 5 5 5 5 5 5 5 5 5 5 5 5 6 5 5 5 5 5 5 5 5 5 5 5 5 5 5 5 5 6 5 5 5 5 5 5 5 5 6 5 5 5 5 5 5 5 5 5 6 5 5 5 5 5 5 6 5 6 5 5 5 5 5 5 5 5 5 5 5 6 5 6 5 5 6 6 5 5 5 5 5 6 5 5 5 5 5 5 5 5 6 5 5 6 5 5 5 5 5 6 5 5 5 5 5 5 5 5 5 6 5 5 6 6 5 5 5 5 6 5 5 5 5 5 5 5 5 5 5 5 5 5 6 5 5 5 5 6 5 5 6 5 5 5 5 6 5 5 5 5 5 6 5 5 5 5 6 5 5 6 5 5 5 5 5 6 6 5 5 5 5 6 6 5 5 6 5 5 5 5 5 5 5 5 5 6 5 5 5 5 5 5 5 5 5 5 5 5 5 5 5 5 5 5 6 5 5 5 5 5 5 6 5 5 5 6 5 5 5 5 5 5 5 6 5 5 6 5 5 5 5 5 5 5 5 5 5 5 5 5 5 5 6 5 5 6 5 5 5 6 5 5 6 6 5 5 5 5 5 5 6 5 5 5 5 5 5 5 5 5 5 5 5 5 5 6 5 5 5 5 5 5 6 5 5 5 5 6 5 5 5 5 5 5 5 5 5 5 5 5 5 5 5 5 5 5 5 5 5 5 5 5 5 5 5 5 5 5 5 5 6 5 5 5 5 6 5 5 6 5 6 5 5 6 5 5 5 5 5 6 5 5 5 5 5 5 5 5 5 5 5 5 5 6 5 5 5 5 5 6 5 6 5 5 5 5 5 5 5 5 5 5 5 5 6 6 5 6 5 5 5 5 6 5 5 5 6 5 5 5 5 6 5 5 5 5 5 6 5 6 5 5 5 5 5 5 5 5 5 5 5 5 5 5 5 5 5 5 5 5 6 5 5 5 5 5 5 5 5 5 6 5 5 5 5 5 5 5 5 5 5 5 5 6 5 5 5 5 5 6 6 5 5 5 5 5 6 5 6 5 5 5 5 5 5 5 5 6 5 5 6 5 5 5 6 5 5 5 5 5 5 5 5 5 5 5 5 5 5 5 5 5 5 5 5 5 5 6 5 5 5 5 6 5 5 5 5 6 5 5 5 5 5 5 5 5 5 5 5 6 5 5 5 5 5 5 5 5 5 5 5 5 5 5 5 5 5 5 5 5 5 5 5 5 5 5 5 6 5 5 6 5 5 5 5 5 5 5 5 5 5 5 5 5 5 5 5 6 5 6 5 5 5 5 5 6 5 5 5 6 5 5 5 6 5 5 5 5 6 6 5 5 5 6 5 6 6 5 5 5 5 5 5 6 5 5 5 5 6 5 5 6 5 5 5 5 6 5 5 6 5 5 6 5 5 5 5 5 5 6 5 5 6 6 5 6 5 5 5 5 5 5 6 6 6 5 6 6 5 5 5 5 5 5 5 5 5 5 5 5 5 5 5 5 5 5 5 5 5 5 5 5 5 5 5 5 5 5 5 5 5 5 5 6 5 5 5 6 5 5 5 5 5 5 5 5 5 5 5 5 5 5 5 6 5 5 5 5 5 5 5 5 5 5 5 6 5 5 6 5 6 5 5 5 5 5 6 5 5 5 5 6 5 5 5 6 5 5 5 5 5 5 5 5 5 5 5 5 5 5 5 5 5 5 5 5 5 5 5 5 5 5 5 5 5 5 6 5 5 5 5 5 5 5 5 5 5 5 5 5 5 5 5 5 5 5 5 5 5 5 5 5 5 5 6 5 5 5 5 6 5 5 6 5 5 5 5 5 5 5 5 5 5 6 5 5 5 5 5 5 6 5 6 5 6 5 5 5 5 5 5 5 5 5 5 5 5 5 5 5 5 5 5 5 5 6 5 6 5 5 5 5 5 5 5 5 6 5 5 5 5 6 5 6 5 5 5 5 6 5 5 5 5 5 5 5 5 5 5 5 5 5 5 5 6 5 5 5 5 5 5 6 5 5 5 5 5 5 5 5 5 5 5 5 5 5 5 5 5 5 5 5 5 5 5 5 5 5 5 5 5 5 5 6 6 5 5 5 5 5 5 5 5 5 5 5 5 6 5 6 5 5 5 5 5 5 5 6 5 5 5 5 5 5 5 5 5 5 5 5 5 5 5 5 5 5 5 6 5 5 5 5 5 5 5 5 5 5 5 5 5 5 5 5 5 5 5 5 5 5 5 5 5 5 5 5 5 5 5 5 5 5 5 5 5 5 5 5 5 5 5 5 5 5 5 5 5 5 5 5 5 5 5 5 5 5 5 5 5 5 5 5 5 5 5 5 5 5 5 5 5 5 5 5 5 5 5 5 5 5 5 5 5 5 5 5 5 5 5 5 5 5 5 5 5 5 5 5 5 5 5 5 5 5 5 5 5 5 5 6 5 5 6 5 5 5 5 5 5 5 5 5 5 5 5 5 5 5 5 5 5 5 5 5 5 5 5 5 5 5 5 5 5 5 5 5 5 5 5 5 5 5 5 5 5 6 6 5 5 5 5 5 5 5 5 6 5 5 5 5 5 5 5 5 5 5 5 5 5 6 5 5 5 5 6 5 5 5 5 5 5 5 5 5 5 5 5 5 5 5 5 5 5 5 5 5 5 6 6 5 5 5 5 5 5 5 5 5 5 5 6 5 5 5 5 5 5 5 5 5 5 5 5 5 6 5 5 5 5 5 5 5 5 5 5 5 5 5 5 5 5 5 5 6 5 6 5 5 5 5 5 5 5 5 5 5 5 5 5 5 5 5 5 5 6 5 5 5 5 6 5 5 5 5 5 5 5 5 5 5 6 5 5 5 5 5 5 6 5 5 5 5 5 5 6 5 6 5 5 6 5 5 5 5 6 5 5 5 5 5 5 5 5 5 5 5 5 5 5 5 6 6 5 5 5 6 5 6 6 5 5 5 6 5 5 5 5 5 5 5 5 6 5 5 5 5 5 5 6 5 5 5 5 5 5 5 5 5 5 5 5 5 5 5 5 5 5 5 5 5 6 6 5 5 5 6 5 6 5 5 5 6 5 6 6 5 6 5 5 5 6 5 5 5 5 5 5 5 5 6 5 5 5 5 5 5 5 6 6 5 5 6 6 5 5 5 5 5 5 5 5 5 5 5 5 5 5 5 5 5 5 5 5 5 5 5 5 5 5 5 5 5 5 5 5 5 5 5 5 5 5 5 5 5 5 5 5 5 5 5 5 5 5 5 5 5 5 5 5 5 5 5 5 5 6 6 5 5 5 6 5 5 5 5 5 5 5 5 5 5 5 5 5 5 5 5 5 5 5 5 5 5 5 5 5 5 5 5 5 5 5 6 5 5 5 5 5 5 5 5 6 5 5 5 5 6 5 5 5 6 5 5 5 6 5 5 5 5 5 5 5 5 5 5 5 6 5 5 6 5 5 5 6 6 6 5 5 6 5 5 6 5 5 6 5 5 5 5 5 5 5 6 5 5 5 5 6 5 6 5 5 5 6 5 5 5 6 5 6 5 5 5 5 5 5 5 5 5 5 5 6 5 5 5 5 5 5 5 5 5 5 5 5 5 5 5 5 5 5 5 5 5 5 5 5 5 5 5 5 5 5 5 5 5 5 5 5 5 5 5 5 5 5 5 5 5 5 5 5 5 5 6 5 5 5 5 5 5 5 5 5 5 5 5 5 5 5 5 6 5 5 5 5 5 5 5 5 5 5 5 6 5 5 5 5 5 6 5 5 5 5 5 5 6 5 5 5 5 6 5 5 5 5 5 5 5 5 5 5 5 5 5 5 5 5 5 5 5 5 5 5 5 5 5 5 5 5 5 5 5 5 5 5 5 5 5 5 5 5 5 5 5 5 5 5 5 5 5 5 5 5 5 6 5 5 5 5 5 5 5 5 5 5 5 5 5 5 6 5 5 5 6 5 5 5 5 6 6 5 5 5 6 6 6 5 5 5 6 5 5 5 5 5 5 5 6 5 5 6 5 5 6 5 5 5 5 5 5 5 5 5 5 5 5 5 5 5 5 5 5 5 5 5 5 5 5 6 5 5 6 5 5 5 6 5 6 5 5 5 5 5 5 5 5 5 5 5 5 5 5 5 6 5 5 5 5 6 5 6 5 5 5 5 5 5 5 5 5 5 5 5 5 6 5 5 6 5 5 5 5 6 5 5 5 5 5 5 5 5 6 5 5 5 5 5 6 5 5 5 5 5 5 5 5 5 5 5 5 5 5 5 5 5 5 5 5 5 6 5 5 5 5 5 5 6 5 5 5 5 5 5 5 5 5 5 5 5 5 5 5 6 5 5 5 6 5 5 5 5 5 5 5 6 5 6 5 5 5 5 5 5 5 5 5 5 6 5 5 5 5 5 5 5 5 5 5 5 5 5 5 5 5 5 5 5 5 5 6 6 5 5 5 5 5 5 5 5 5 5 5 5 5 5 5 5 5 5 5 5 5 5 5 5 5 5 5 5 5 6 5 5 5 5 5 5 5 5 5 5 5 5 5 5 5 5 5 5 5 5 5 5 5 5 6 5 5 5 5 5 6 5 5 5 6 5 5 5 5 5 5 5 5 5 5 5 6 6 5 5 5 5 5 5 6 5 5 5 5 5 6 5 5 5 5 5 5 5 5 5 5 5 5 6 5 5 5 5 6 5 6 5 5 5 5 5 6 5 5 5 5 5 5 6 5 5 5 5 6 5 6 5 5 5 5 5 6 5 6 6 5 5 6 5 5 5 5 5 5 5 5 5 5 5 5 5 5 6 5 6 5 5 5 6 5 5 5 6 5 5 5 5 5 5 5 5 6 5 6 5 5 5 5 6 5 5 5 5 5 5 5 5 6 5 5 5 5 6 5 5 5 5 5 6 5 5 5 5 5 5 6 5 5 5 5 5 6 5 5 6 5 5 5 5 5 5 5 5 5 5 5 5 5 5 5 5 6 5 5 5 5 5 6 6 5 6 5 6 5 5 5 5 5 5 5 5 6 5 5 5 6 5 5 5 5 5 5 6 5 5 5 5 6 5 5 5 5 5 5 6 5 5 5 5 5 5 5 5 5 6 5 5 5 5 6 5 5 6 5 5 5 5 5 6 5 5 5 5 5 5 5 5 5 5 5 5 5 5 5 5 5 5 5 5 5 5 5 5 5 5 5 5 5 5 5 5 5 5 5 5 5 5 5 5 5 5 5 5 5 5 5 6 5 6 5 5 5 5 5 5 5 5 5 6 5 5 5 5 5 5 5 6 5 5 5 5 6 5 5 5 5 6 5 5 5 6 5 5 5 5 5 5 5 5 5 5 5 5 5 5 6 5 5 5 5 5 5 5 5 5 5 5 5 6 5 5 5 5 5 5 5 5 6 5 5 5 5 5 6 5 6 5 5 5 6 5 5 6 5 5 5 5 5 5 6 5 6 5 6 5 6 5 5 5 5 6 5 5 5 5 5 5 5 5 5 5 5 5 5 5 6 5 5 5 5 5 5 5 5 5 5 5 5 6 5 5 5 6 5 5 5 5 5 5 5 5 5 5 5 5 5 5 5 5 6 5 5 5 5 5 5 6 5 5 6 5 6 6 6 5 5 5 5 5 5 5 5 5 5 5 5 5 5 5 5 5 5 5 6 5 5 5 5 5 5 6 6 6 5 5 5 5 5 5 5 5 5 5 6 5 5 5 5 5 5 6 5 5 5 5 6 5 5 5 6 5 5 5 5 6 5 5 6 5 6 5 5 5 5 5 5 5 5 5 5 5 5 5 5 6 6 5 5 5 5 5 5 5 5 5 5 5 5 5 5 5 5 5 5 5 5 5 5 5 5 5 5 6 5 6 5 5 5 5 5 5 5 5 5 5 5 5 6 5 5 5 5 5 5 6 5 5 5 5 5 5 6 5 5 5 5 6 5 5 5 5 5 5 5 6 5 6 5 5 5 5 5 6 5 6 5 5 5 5 6 5 5 6 5 6 6 5 6 6 5 6 5 6 5 5 5 6 5 5 5 6 6 5 5 5 6 5 6 5 5 6 5 6 5 5 5 5 6 5 5 5 5 6 6 5 5 5 6 6 5 5 5 5 6 5 5 5 5 5 6 5 5 5 5 5 5 5 6 5 5 5 6 6 6 6 5 5 5 5 6 5 5 5 5 5 5 5 5 5 5 5 5 5 5 5 5 5 5 5 5 5 5 5 5 6 5 5 6 5 5 5 5 5 5 5 6 5 6 5 5 5 6 5 5 5 5 5 5 5 5 5 5 5 5 6 5 5 6 5 6 5 5 5 5 5 6 6 5 5 5 6 5 5 5 6 6 5 6 5 5 5 5 5 6 5 5 5 5 6 5 5 5 5 6 5 5 5 5 5 5 5 5 5 5 5 5 5 5 5 5 5 5 5 5 5 6 5 5 5 5 6 5 5 6 5 5 5 5 5 5 5 6 5 5 5 5 5 6 5 5 5 5 6 6 5 5 5 5 5 5 6 5 5 6 5 5 5 6 5 5 5 5 5 5 6 5 5 5 5 5 6 5 5 5 5 5 6 5 6 5 5 5 5 5 6 5 5 5 5 5 5 5 5 6 5 5 5 5 5 5 5 5 5 5 5 5 5 5 5 5 5 5 5 5 6 5 5 5 6 6 5 6 5 5 5 5 5 5 5 5 5 5 5 5 6 5 5 5 5 6 5 5 5 5 6 5 5 5 5 5 5 5 5 5 5 5 5 5 5 5 5 5 5 5 5 5 6 5 6 5 5 5 5 5 5 5 6 5 5 5 5 5 5 5 5 5 5 5 5 5 5 5 5 5 5 6 5 5 5 5 5 5 5 5 6 5 5 5 5 6 5 5 5 5 5 5 5 5 5 5 5 5 5 5 5 5 5 6 5 5 6 5 6 5 5 5 5 5 5 5 5 6 5 5 6 5 6 5 5 5 5 5 5 5 5 5 5 5 5 5 5 6 5 5 5 5 5 5 5 5 5 5 5 5 6 5 5 5 5 5 5 6 6 5 5 5 5 5 6 5 6 5 6 5 6 6 5 5 5 5 5 6 5 5 5 5 6 5 5 6 5 5 5 5 5 5 5 5 5 5 5 5 6 5 6 5 5 5 5 5 5 5 6 5 6 5 5 5 6 5 5 5 5 5 5 5 5 5 5 5 5 6 5 5 5 5 6 5 5 5 5 5 6 5 6 5 5 5 6 5 5 5 6 5 6 5 5 5 5 6 5 5 6 6 5 5 5 5 5 5 6 5 5 5 5 6 5 5 6 5 5 5 6 5 5 5 6 5 6 5 5 6 6 5 5 5 5 5 6 5 5 5 5 6 5 5 5 6 5 5 5 5 6 5 5 6 5 5 5 5 5 6 5 5 5 5 5 5 5 5 5 5 5 5 5 5 5 6 5 6 5 5 5 6 5 5 6 5 6 5 5 5 5 5 5 5 5 5 6 5 5 5 5 5 5 5 5 5 5 5 5 5 5 5 5 5 5 5 5 5 5 6 5 5 5 5 5 5 5 6 5 6 5 5 6 5 6 5 6 6 5 5 5 6 5 5 5 5 5 5 5 5 5 5 6 5 5 5 5 5 5 6 5 5 5 5 5 5 5 5 5 5 6 5 5 6 5 6 6 5 5 5 5 5 5 6 5 6 5 5 5 5 6 5 5 5 5 6 6 5 5 5 5 5 5 6 5 5 5 6 5 5 5 5 5 5 5 5 5 5 5 5 5 5 5 5 6 6 5 6 5 5 5 5 5 5 6 6 5 5 5 5 5 6 5 5 5 5 5 5 5 5 5 6 5 5 5 5 5 5 5 5 5 5 5 5 5 5 5 5 5 6 5 5 5 5 5 5 5 5 5 5 5 6 6 5 5 5 5 5 6 5 5 5 6 5 6 5 5 5 5 5 5 5 5 6 5 5 5 5 6 6 5 5 5 5 5 6 5 5 5 6 5 5 5 5 6 5 6 5 5 5 6 6 5 6 6 5 6 5 5 5 6 5 6 5 5 5 5 5 5 5 5 6 5 5 5 5 5 5 5 5 5 5 5 6 5 5 5 5 5 5 6 5 5 5 5 5 5 6 5 5 5 5 5 5 6 5 6 5 5 6 5 5 5 5 5 5 5 5 5 6 5 5 6 5 5 6 5 6 5 5 5 5 5 6 5 5 6 5 5 5 5 5 5 5 6 5 5 5 6 5 5 5 5 5 5 5 5 5 5 5 5 5 5 5 5 5 5 5 6 5 5 6 5 5 5 6 5 5 5 5 5 5 5 6 5 5 5 5 5 5 5 5 5 5 5 5 6 5 5 5 5 5 5 5 5 5 5 6 5 5 5 5 6 5 5 5 5 6 5 5 5 6 6 5 5 6 5 5 5 5 5 5 5 5 6 5 5 6 5 5 5 5 5 5 5 6 5 5 5 6 5 5 5 5 5 5 5 5 5 5 5 5 5 5 5 5 5 5 5 6 5 5 5 5 5 5 5 5 5 5 5 5 5 5 5 5 5 5 6 5 5 5 5 5 5 5 5 6 5 6 5 5 5 5 5 5 5 5 5 6 5 5 5 5 5 5 5 5 6 5 5 5 5 5 5 5 5 5 5 6 5 5 6 5 5 6 5 5 5 5 5 6 5 5 5 5 5 5 6 6 5 5 6 6 5 6 5 6 5 5 6 5 6 5 5 5 5 6 5 5 5 6 5 5 6 5 5 5 5 6 5 5 5 5 5 5 5 5 5 6 5 5 5 5 5 5 5 5 5 5 5 6 5 5 5 5 6 5 5 5 6 5 5 5 5 5 5 5 6 5 5 6 5 5 5 5 6 5 6 5 5 5 5 5 5 5 5 5 5 5 5 5 5 5 5 5 5 5 5 5 5 5 5 5 5 5 5 5 5 5 5 5 5 5 5 6 6 5 5 6 5 5 5 5 5 5 5 5 5 5 5 5 5 6 5 5 5 5 5 5 5 6 5 5 5 5 6 6 5 5 5 5 5 6 6 5 5 6 5 5 5 5 5 5 5 6 5 5 6 5 5 5 6 5 5 5 6 5 6 5 6 6 5 5 6 5 5 5 5 5 5 5 6 5 5 5 5 5 6 6 6 5 5 6 5 5 5 5 6 5 5 5 5 5 5 5 6 5 5 5 5 5 5 5 5 5 5 5 5 5 5 5 6 5 5 6 5 5 5 5 5 6 5 5 5 5 5 5 5 5 5 5 5 5 6 5 5 5 5 5 6 5 5 5 5 5 5 6 5 5 5 6 6 6 6 5 5 5 5 5 5 5 6 6 6 5 6 5 6 5 5 5 5 5 5 5 5 5 5 5 5 5 5 5 5 5 6 5 5 5 5 5 5 5 5 6 5 5 5 5 6 5 5 5 5 5 6 5 5 6 5 6 5 5 5 5 6 5 5 5 5 5 5 5 5 5 6 5 5 5 5 5 5 5 5 5 5 5 5 5 5 5 6 5 5 5 5 6 5 5 5 6 5 6 5 6 5 5 5 5 5 5 5 5 5 6 5 5 5 5 5 5 5 5 6 6 6 5 5 6 5 5 5 6 5 5 5 6 5 5 5 6 5 5 5 5 5 5 5 6 5 5 6 5 5 5 6 5 6 5 5 5 5 6 5 5 5 5 5 6 5 5 5 5 6 5 5 5 6 6 5 5 5 5 5 5 5 5 5 5 5 5 5 5 5 5 5 5 6 5 5 5 6 5 6 5 5 6 5 5 5 6 5 5 5 5 5 5 5 5 6 5 5 5 5 5 5 6 5 5 6 6 5 6 5 5 5 5 5 5 5 5 5 5 5 5 5 5 5 5 6 5 5 5 5 5 5 5 6 5 5 5 6 5 5 5 6 5 5 6 5 5 5 5 5 5 5 5 5 5 5 5 5 5 5 5 5 5 5 5 5 6 5 5 5 5 5 5 5 5 5 5 5 5 5 5 5 5 5 5 5 5 5 5 5 5 5 5 5 5 5 5 5 5 6 6 5 5 5 5 5 5 5 5 5 5 5 5 5 5 6 5 5 5 5 5 5 5 5 6 5 5 5 5 5 5 5 5 6 5 5 5 6 5 5 5 5 5 5 5 5 5 5 5 5 5 5 5 5 5 5 5 5 5 5 5 6 5 5 5 6 5 5 5 5 5 5 5 5 5 5 5 5 5 5 5 5 5 5 5 5 5 5 5 5 6 5 5 5 5 5 5 5 5 5 5 6 5 5 5 6 5 5 5 5 6 5 5 5 5 5 5 5 5 6 5 5 5 6 5 5 5 5 6 5 5 6 5 6 5 6 5 5 5 5 5 5 6 5 5 5 5 6 5 5 5 6 5 5 5 5 5 6 5 5 5 5 5 5 5 5 5 5 5 5 5 5 5 6 5 5 5 6 5 5 6 5 5 6 5 5 5 5 5 5 5 5 5 6 5 5 5 5 5 5 5 5 5 6 5 5 5 5 5 5 5 6 5 5 5 6 5 5 5 5 5 5 5 5 5 5 5 5 5 5 5 5 5 5 5 5 6 5 5 5 5 5 5 5 5 5 5 6 5 5 5 5 5 5 5 5 6 5 5 5 5 5 6 5 5 5 5 5 5 5 5 5 5 6 5 5 6 5 5 6 5 5 5 5 5 6 5 5 5 5 6 5 5 6 5 5 5 5 5 5 6 5 5 5 5 5 5 6 5 5 5 6 5 6 5 5 5 5 5 5 5 5 5 5 5 5 6 5 5 6 5 5 5 5 5 5 5 5 6 5 5 5 5 5 5 5 5 5 5 5 5 6 5 6 5 5 5 5 5 5 5 5 5 6 5 5 5 5 5 5 5 5 5 5 5 5 5 5 6 5 5 5 5 5 5 5 5 6 5 6 5 5 5 5 6 5 5 5 6 5 5 5 5 5 5 6 5 5 6 5 5 5 5 6 5 6 5 5 5 5 5 5 5 5 5 5 5 5 5 5 5 5 5 5 5 5 5 5 5 5 5 5 5 5 5 5 5 5 5 5 5 5 5 5 6 5 5 5 5 5 6 5 5 5 5 5 6 5 5 6 5 5 5 5 5 5 5 5 5 5 6 5 5 6 5 5 5 5 5 5 5 5 5 5 5 5 5 5 6 5 5 5 5 5 5 5 5 5 5 5 6 5 6 6 5 5 5 5 5 5 5 6 5 5 5 6 6 5 6 5 5 5 5 6 5 5 5 5 5 5 5 5 6 5 5 5 5 5 5 5 5 5 5 6 5 5 5 5 5 5 5 5 5 5 5 5 6 5 5 5 5 5 5 6 6 5 5 5 5 5 5 5 5 5 5 5 5 5 5 5 6 6 5 5 5 5 5 5 5 5 5 6 5 5 5 5 5 5 6 5 6 5 6 5 5 5 5 6 5 5 6 5 5 5 5 5 5 5 5 5 5 5 5 6 5 5 5 6 5 5 5 5 5 5 5 5 5 5 5 6 5 5 5 6 5 5 5 6 5 5 5 5 5 5 5 6 5 5 5 5 5 5 5 5 5 5 5 5 5 5 5 5 5 5 5 5 5 5 5 5 6 5 5 5 5 5 5 6 6 5 5 5 6 5 5 5 5 5 5 5 5 5 5 5 5 5 5 5 5 5 5 5 5 5 5 5 5 6 5 5 5 6 6 5 5 6 5 6 5 5 6 5 5 5 6 6 5 5 5 6 5 5 5 5 5 5 5 5 5 5 5 5 5 5 5 5 5 5 5 5 5 5 5 5 5 6 5 5 5 5 5 5 5 5 5 5 5 5 5 5 5 5 5 5 6 5 5 6 5 6 5 5 5 5 5 5 5 5 5 5 6 5 5 5 5 5 5 5 5 5 5 5 5 5 5 5 5 5 5 5 5 5 5 5 5 5 5 5 5 5 5 5 5 5 5 5 5 5 6 5 5 5 5 5 6 5 5 5 5 5 5 5 5 5 5 5 5 5 5 5 5 5 5 6 5 5 5 5 5 5 5 5 5 5 5 5 5 5 5 5 5 5 5 5 5 6 5 5 5 6 5 5 5 5 5 5 5 5 5 5 5 5 5 6 5 5 5 5 5 5 5 5 5 5 5 5 5 5 5 5 5 5 5 5 5 5 5 5 5 5 5 6 5 5 5 5 6 5 5 6 5 5 5 6 6 5 5 5 5 6 5 5 5 5 6 6 5 5 6 5 5 5 6 5 6 5 5 5 5 6 5 5 5 5 5 6 6 5 5 6 5 6 5 5 5 5 6 5 6 5 5 5 6 5 5 5 5 6 6 6 5 5 6 5 5 5 5 5 5 5 5 5 5 5 5 5 5 5 5 6 5 5 5 5 5 5 5 5 5 5 5 5 6 5 5 5 5 5 5 5 5 5 6 5 5 5 5 5 5 5 5 5 5 5 5 5 6 5 5 5 5 5 5 5 5 5 6 5 5 6 5 5 5 5 5 5 5 5 5 6 5 5 5 5 5 5 6 6 6 5 5 6 5 5 5 5 5 5 5 6 5 5 5 5 5 5 5 5 5 5 6 5 6 5 6 5 6 5 6 5 5 5 6 6 5 6 5 6 6 5 5 5 5 6 5 5 6 6 5 5 5 5 5 5 5 6 6 5 6 5 5 5 5 5 5 5 5 5 5 5 5 5 5 5 5 5 5 5 5 6 5 5 5 5 5 5 5 5 5 6 5 5 5 5 5 5 5 5 6 6 5 5 5 5 5 5 5 5 5 5 5 5 6 5 5 5 5 5 5 5 5 5 5 5 5 5 6 5 5 5 6 5 5 5 5 5 5 5 6 5 5 5 5 5 5 5 5 5 6 5 6 5 5 6 5 5 5 5 5 5 5 5 5 5 5 5 5 5 5 5 5 5 5 5 5 5 5 6 5 5 5 5 5 5 6 5 5 5 5 6 5 5 6 5 5 5 5 5 5 5 5 5 5 5 6 5 5 5 5 5 5 5 5 6 6 5 5 5 5 5 5 5 6 5 5 6 5 5 5 5 6 5 5 5 5 5 5 6 5 5 5 5 5 5 6 5 5 5 5 5 5 6 5 5 5 6 5 5 6 5 5 5 5 5 5 5 5 5 6 5 5 5 5 5 5 5 6 5 6 6 5 5 6 5 5 5 5 5 5 5 5 5 5 5 5 6 5 6 5 5 5 6 5 5 5 5 6 5 6 5 6 5 5 5 5 6 5 5 6 5 5 5 6 6 5 5 5 5 5 6 5 5 6 5 5 5 5 5 5 5 5 5 5 5 5 5 5 5 5 5 5 6 5 5 5 5 5 5 6 5 5 5 5 5 5 5 5 6 5 5 5 5 5 6 5 5 5 5 6 5 5 5 5 5 5 5 5 5 5 6 5 5 5 5 5 5 5 5 5 6 5 5 5 5 6 6 5 5 5 5 5 5 5 5 5 5 5 5 5 5 5 6 5 5 5 5 6 5 5 5 5 5 5 5 6 5 5 5 5 5 5 5 5 5 5 5 5 5 5 5 6 5 5 5 5 6 5 5 5 6 5 5 5 5 5 6 5 6 6 6 5 5 5 5 6 6 5 5 5 6 5 5 5 5 5 5 5 5 5 5 5 5 5 5 5 5 5 5 6 5 5 5 5 5 5 5 5 5 5 5 5 5 5 5 6 6 5 5 5 5 5 5 5 5 6 5 5 6 6 5 5 5 5 5 5 5 6 5 5 5 5 5 5 5 5 5 5 6 5 5 6 5 6 6 5 6 6 5 5 5 5 5 5 5 5 5 6 5 5 5 6 5 5 5 6 5 6 5 5 5 5 6 5 5 5 5 5 5 5 5 6 5 5 5 5 6 5 5 6 6 5 5 5 5 5 5 5 5 5 5 5 5 5 5 5 5 5 5 5 5 5 5 5 5 5 6 6 6 5 5 6 5 5 5 5 5 6 5 5 5 5 5 5 5 5 5 6 5 6 5 5 5 5 5 5 5 6 5 6 5 6 5 5 5 5 5 5 5 5 5 6 5 5 5 5 5 5 6 5 5 5 5 5 5 5 5 5 5 5 5 5 5 5 5 6 5 5 6 5 5 5 5 5 5 5 5 5 6 5 5 5 6 6 6 5 5 5 6 5 5 6 5 6 5 5 5 5 5 5 5 5 5 5 5 5 5 5 5 5 5 5 6 5 5 5 6 5 5 6 6 5 6 5 5 5 6 5 5 5 5 5 5 5 5 5 5 6 5 5 5 5 6 5 5 5 5 5 5 5 5 5 5 5 5 5 5 5 5 5 5 5 5 5 5 5 5 5 5 5 5 6 5 5 5 5 5 5 5 5 5 5 6 5 6 5 5 5 5 5 5 6 5 5 5 5 5 5 5 5 5 5 5 5 5 5 5 5 6 5 5 5 5 5 5 5 6 5 5 5 5 5 5 5 5 5 6 5 5 5 5 5 5 5 5 5 5 5 5 5 5 5 6 5 5 5 5 5 5 5 5 5 5 5 6 5 5 5 5 5 5 5 6 6 5 5 5 5 5 5 5 5 6 6 5 5 5 5 5 5 5 5 5 5 5 5 5 5 5 5 6 5 5 5 5 5 5 5 5 5 6 5 5 5 5 5 5 5 5 5 5 5 5 5 5 5 5 5 5 5 5 5 5 5 5 5 5 5 5 5 5 5 5 5 5 5 5 5 5 5 5 5 5 5 5 5 5 5 5 5 5 5 5 5 5 5 5 5 5 5 5 5 5 5 5 5 5 5 5 5 5 5 5 5 5 5 5 5 5 5 5 5 5 5 5 5 5 5 5 5 5 5 5 5 5 5 5 6 5 5 5 5 5 5 5 5 5 6 5 5 5 6 5 5 5 5 5 5 5 5 5 6 5 5 5 5 5 5 5 5 5 6 5 5 6 5 6 6 5 6 5 5 6 5 5 5 5 5 5 5 5 5 5 5 5 5 6 6 5 6 5 5 5 6 5 5 5 5 6 5 5 5 5 5 5 5 5 5 5 5 5 5 5 5 5 6 6 5 5 5 5 5 5 5 6 5 5 5 5 5 5 5 5 5 6 5 5 5 5 5 5 5 5 5 6 5 5 5 5 5 5 5 5 5 5 6 5 5 6 6 5 6 5 5 5 5 5 5 5 5 6 5 5 5 5 5 5 5 5 5 5 5 5 5 
</DataArray>
<DataArray type="Float64" Name="stress" NumberOfComponents="9" format="ascii">
-12.184713626223992 5467.392517146528 0 5467.392517146528 -12.272399501991458 0 0 0 0 -1539.3938913153834 4428.7075066538964 0 4428.7075066538964 -555.96014891191589 0 0 0 0 -3.4296806118572931 5.5421299522610639 0 5.5421299522610639 -3.4208397928005638 0 0 0 0 -1883.4452380818111 3880.6673735642325 0 3880.6673735642325 -1287.6082507473184 0 0 0 0 -2102.7699568798998 3763.3831204350281 0 3763.3831204350281 -1337.286276600571 0 0 0 0 -2.6032940380391665 4546.2992561543506 0 4546.2992561543506 -1935.3374234562652 0 0 0 0 -907.56661498494213 3790.9242284238499 0 3790.9242284238499 -2565.2265225069714 0 0 0 0 -0.079797090191277675 3890.7649602287784 0 3890.7649602287784 -3011.771940570623 0 0 0 0 -1634.9895018925163 3457.2273233007145 0 3457.2273233007145 -2624.9054854736751 0 0 0 0 -1034.1840451376629 4110.7876451650882 0 4110.7876451650882 -1977.3490519135376 0 0 0 0 -825.37372365315969 3440.2068542422276 0 3440.2068542422276 -3182.5712097365176 0 0 0 0 -828.52422916943033 3389.4199471706597 0 3389.4199471706597 -3296.0667393215554 0 0 0 0 -4478.4706113013672 3443.411763837561 0 3443.411763837561 -2627.3907634772768 0 0 0 0 -3021.9906412706478 3521.5608332136326 0 3521.5608332136326 -2359.6703728223511 0 0 0 0 -3126.8505684426564 3283.1982710010307 0 3283.1982710010307 -2827.946493253985 0 0 0 0 -1899.1059146698244 3586.9420640949902 0 3586.9420640949902 -2605.8827927095408 0 0 0 0 -2065.4262636101339 3260.4948920214083 0 3260.4948920214083 -2954.1014165727393 0 0 0 0 -2502.429804227635 3713.2742940778044 0 3713.2742940778044 -1681.3761397147609 0 0 0 0 -3180.0409824047238 3551.1653161436334 0 3551.1653161436334 -2203.4714346604014 0 0 0 0 -2950.5264340008434 3154.1102798313368 0 3154.1102798313368 -2331.6184088388845 0 0 0 0 -3504.0899786757182 3281.0580472147576 0 3281.0580472147576 -1194.292686664412 0 0 0 0 -2158.6714968424058 3618.4528907477215 0 3618.4528907477215 -1703.9535949582241 0 0 0 0 -2764.7194733651122 4113.3428681650694 0 4113.3428681650694 -8.6762865550117567 0 0 0 0 -3490.8086660565314 3387.6628549622546 0 3387.6628549622546 -715.94374091314967 0 0 0 0 -4220.5641194890341 3134.081190996716 0 3134.081190996716 1.4562081607776771 0 0 0 0 -4085.9684383318381 3023.2184657280959 0 3023.2184657280959 -1010.0718735323753 0 0 0 0 -3410.6951505884062 3449.0714022184911 0 3449.0714022184911 -2669.4573462910193 0 0 0 0 -4196.3321673814062 2940.8508183667291 0 2940.8508183667291 -1053.9844597261399 0 0 0 0 -3845.1363191411074 3366.2850193617051 0 3366.2850193617051 -2190.6131161784724 0 0 0 0 -4034.5645910293388 3037.4874968055374 0 3037.4874968055374 -1294.7424786082993 0 0 0 0 -3087.5264692981 2075.5804309607192 0 2075.5804309607192 -1080.2063494250178 0 0 0 0 -3114.7578794397341 2122.8606282514702 0 2122.8606282514702 -996.27017208465259 0 0 0 0 -3053.4324561274552 2116.0801064989646 0 2116.0801064989646 -1109.7204044016835 0 0 0 0 -3946.5068989474166 2629.1425458193517 0 2629.1425458193517 -1.0031685781432316 0 0 0 0 -2900.8913750583306 1855.9041444767499 0 1855.9041444767499 -1722.6251814556599 0 0 0 0 -2650.4555464174045 2339.3934956139274 0 2339.3934956139274 -1189.6727791441954 0 0 0 0 -2893.0402305408497 2014.8961223523802 0 2014.8961223523802 -1606.1827611868503 0 0 0 0 -1126.5870908267971 218.70405417047732 0 218.70405417047732 -128.97444596041169 0 0 0 0 -3095.8505700485548 2046.9072320507839 0 2046.9072320507839 -1075.1695170217645 0 0 0 0 -3156.2526970056933 1866.3097836136294 0 1866.3097836136294 -1397.696232276503 0 0 0 0 -8.6250674392661608 5.9908911465918209 0 5.9908911465918209 -2.5530447431249854 0 0 0 0 -3135.3039560746911 1973.592628507975 0 1973.592628507975 -1066.4152631548641 0 0 0 0 -1177.2200035014539 516.62224301295646 0 516.62224301295646 37.344751773664029 0 0 0 0 -0.63198132401225848 4.2314857317095829 0 4.2314857317095829 5.0065355675813521 0 0 0 0 -252.5261389757361 668.53228495473741 0 668.53228495473741 -609.63296114333934 0 0 0 0 16.073588268742128 16.898890696768319 0 16.898890696768319 -8.0242178315920683 0 0 0 0 -18.554336947845115 -5.5387713423900777 0 -5.5387713423900777 -5.6028678198439934 0 0 0 0 -116.55283515897463 -4.4251576936949277 0 -4.4251576936949277 -72.489638322964311 0 0 0 0 -1429.2025869796926 2922.2371510641897 0 2922.2371510641897 -1880.0112380461378 0 0 0 0 -826.39662369707366 -14.337358783755917 0 -14.337358783755917 148.58776489176671 0 0 0 0 -795.01286197773879 476.48671701696003 0 476.48671701696003 -111.67418935039314 0 0 0 0 3.4652953368006649 30.39333541008881 0 30.39333541008881 -48.213787209157999 0 0 0 0 -2003.3605771637522 1526.9187255150609 0 1526.9187255150609 -335.23455288482364 0 0 0 0 -1.6663040042305965 -7.5427626845718407 0 -7.5427626845718407 19.269297290027787 0 0 0 0 -80.131840154307952 129.70837619666693 0 129.70837619666693 49.232291111511358 0 0 0 0 -56.912849460029975 127.93462922494655 0 127.93462922494655 -20.086464918684214 0 0 0 0 -56.417323032132117 97.020613714921637 0 97.020613714921637 -51.766319167232723 0 0 0 0 -737.20275830411993 364.67807838506997 0 364.67807838506997 -160.74964912113501 0 0 0 0 -19.439951311071013 53.275177993182069 0 53.275177993182069 67.320167566878467 0 0 0 0 -4872.8306957871537 3170.2466217571491 0 3170.2466217571491 -2143.090087608638 0 0 0 0 -3945.0307749370986 3474.3659425934893 0 3474.3659425934893 -3307.2968257347529 0 0 0 0 -4015.8144859480672 3254.5853460334038 0 3254.5853460334038 -2269.8924585745845 0 0 0 0 4.5210335858099029 8.5776916843389017 0 8.5776916843389017 -5.4054223061808671 0 0 0 0 -1950.9874539597004 115.13734574926457 0 115.13734574926457 -504.92450013532653 0 0 0 0 -4814.3111987408192 4378.4138144997123 0 4378.4138144997123 -2458.0226457020126 0 0 0 0 -522.58331869420363 1504.8027571018029 0 1504.8027571018029 -1341.6265137771261 0 0 0 0 -1029.8377944708336 1657.4285375425243 0 1657.4285375425243 -1254.9694719412073 0 0 0 0 -1419.9698345553479 1447.4099159774487 0 1447.4099159774487 -1028.5238228506641 0 0 0 0 -1021.6220866346266 1356.7008013485756 0 1356.7008013485756 -1031.0590954278887 0 0 0 0 -1878.0728943079594 1757.1904852041916 0 1757.1904852041916 -1008.3405071276356 0 0 0 0 -1851.7412019047188 1091.6385490768589 0 1091.6385490768589 -1078.7796930241529 0 0 0 0 -325.27389877376845 1277.6819645862415 0 1277.6819645862415 -1348.9230766963447 0 0 0 0 -928.25572409681627 1144.4209488630586 0 1144.4209488630586 -847.0811575257685 0 0 0 0 28.299933846731733 21.496668436030461 0 21.496668436030461 -16.6237651358378 0 0 0 0 -4493.4352873114694 4195.9125488594727 0 4195.9125488594727 -2941.6853790205496 0 0 0 0 -539.46615922014462 614.81557820628223 0 614.81557820628223 -885.90446601499571 0 0 0 0 -926.66002763435245 1600.1838526130305 0 1600.1838526130305 -1938.7324406973203 0 0 0 0 -1399.8673513238609 853.1748124644655 0 853.1748124644655 -577.32483419759956 0 0 0 0 -1297.0058915929112 1358.0473314717092 0 1358.0473314717092 -982.53606645061518 0 0 0 0 -367.38409427879378 20.688131002272712 0 20.688131002272712 255.22426148346858 0 0 0 0 -1329.6041159346642 1366.9483880764747 0 1366.9483880764747 -868.50739067671748 0 0 0 0 -44.425630009723761 0.66574612460448179 0 0.66574612460448179 27.415072020995979 0 0 0 0 -7.5351278697309851 62.214817646056929 0 62.214817646056929 116.65245980048428 0 0 0 0 -1404.5183255278098 820.42329354101821 0 820.42329354101821 -194.61898176882096 0 0 0 0 268.11439552449156 85.789161326916656 0 85.789161326916656 -255.47001909402024 0 0 0 0 -1.7176152895780774 6.368354038106304 0 6.368354038106304 34.087665207582774 0 0 0 0 -1678.0334662879468 2012.6429589462932 0 2012.6429589462932 -1613.743654418693 0 0 0 0 -82.833105234210961 -372.17456077749739 0 -372.17456077749739 490.46713885403005 0 0 0 0 -20.315691082266881 2.2656235626624834 0 2.2656235626624834 12.507967534570696 0 0 0 0 -82.271280293378993 100.64825628630879 0 100.64825628630879 5.1449264098230501 0 0 0 0 -104.25086809476488 141.65637257445997 0 141.65637257445997 41.524190628930228 0 0 0 0 -963.28006454213755 575.8258626829338 0 575.8258626829338 -178.58999546189807 0 0 0 0 -13.853633019854101 45.129338973538268 0 45.129338973538268 19.154712358974081 0 0 0 0 -127.60204569317284 179.52493161044913 0 179.52493161044913 52.456192903453484 0 0 0 0 -966.86300376369036 496.58340439997846 0 496.58340439997846 -381.9524775223399 0 0 0 0 -150.77051011429285 110.5479561723696 0 110.5479561723696 26.526474067297386 0 0 0 0 -138.81026875967473 -131.74113750498282 0 -131.74113750498282 306.23977667104919 0 0 0 0 -126.58867618828663 10.462654556962661 0 10.462654556962661 247.60141111689154 0 0 0 0 -71.234153272002004 159.92936723518505 0 159.92936723518505 38.707038713342627 0 0 0 0 -121.217283964128 182.34244965485414 0 182.34244965485414 194.44272265917971 0 0 0 0 -132.43787847575732 391.80002854826671 0 391.80002854826671 85.183402621143614 0 0 0 0 -345.71171727431647 244.26083323205603 0 244.26083323205603 197.72558936671703 0 0 0 0 -313.90305216803972 162.71785370015277 0 162.71785370015277 403.93888921059261 0 0 0 0 -355.05916464177426 94.175127365466324 0 94.175127365466324 291.94015008607676 0 0 0 0 -318.31698110709476 -76.545484401904105 0 -76.545484401904105 405.22020707372576 0 0 0 0 -1496.0110670999857 760.90943462567338 0 760.90943462567338 251.58591234906635 0 0 0 0 -4.0953390076167295 -2.6887139711773216 0 -2.6887139711773216 2.4256636844610853 0 0 0 0 -1194.7548977285333 272.01120559545234 0 272.01120559545234 391.10597164640785 0 0 0 0 -24.474959307350218 325.81271373704658 0 325.81271373704658 84.919197511777668 0 0 0 0 -312.09296596594504 741.75924028305235 0 741.75924028305235 73.348793668817962 0 0 0 0 0.72509028986678459 24.270451746684557 0 24.270451746684557 -273.73283027712023 0 0 0 0 -594.56409042139421 -154.59387749132657 0 -154.59387749132657 600.88270730897784 0 0 0 0 -238.71233736036811 33.002167528422433 0 33.002167528422433 586.6255048418825 0 0 0 0 -717.53115496737882 353.60566350540466 0 353.60566350540466 372.16196489748836 0 0 0 0 3.4124954553923885 32.378157331226703 0 32.378157331226703 124.08877645140984 0 0 0 0 -1368.1919980336097 1056.4200248833658 0 1056.4200248833658 -317.14412887004437 0 0 0 0 523.15180937299738 -541.63093734282302 0 -541.63093734282302 632.78260361449065 0 0 0 0 585.49500543265822 -966.60045384549903 0 -966.60045384549903 872.76279928891745 0 0 0 0 -0.032387222981469677 3.5193216236552303 0 3.5193216236552303 8.7693483920687072 0 0 0 0 -1448.9034390937013 520.35643797577359 0 520.35643797577359 -959.24016096832929 0 0 0 0 6.2585566215275321 -473.99943527580763 0 -473.99943527580763 952.86898744519567 0 0 0 0 134.01202234631637 -859.52201420535857 0 -859.52201420535857 1133.8268765865214 0 0 0 0 -449.10571910520957 577.10012070763332 0 577.10012070763332 123.49679812497197 0 0 0 0 -2.0732192378107754 23.753938792495205 0 23.753938792495205 99.90904033432696 0 0 0 0 -1485.7902665699148 610.08742565344983 0 610.08742565344983 1714.9387909032812 0 0 0 0 -696.15491417347221 385.85681321997254 0 385.85681321997254 519.44953055941733 0 0 0 0 -127.76895331018022 14.642528107506223 0 14.642528107506223 321.84754834583146 0 0 0 0 15.133393146941671 -999.22119112516521 0 -999.22119112516521 1391.8507218924351 0 0 0 0 -122.34811929766147 -317.17348179524015 0 -317.17348179524015 929.44100961432559 0 0 0 0 -49.620756452844944 244.82202968781348 0 244.82202968781348 560.39222576725297 0 0 0 0 748.40588331656181 -508.33112070489733 0 -508.33112070489733 470.57462605365436 0 0 0 0 -2012.8894656210032 2828.6504542145849 0 2828.6504542145849 -3110.9088758567232 0 0 0 0 -3.1051511904639142 1.4121535635877649 0 1.4121535635877649 -0.22919422896228525 0 0 0 0 717.17563798444462 26.642117928262451 0 26.642117928262451 152.06879575821222 0 0 0 0 -3247.0447256686748 2184.0620924034083 0 2184.0620924034083 -1324.5699316901155 0 0 0 0 69.269713997469012 43.864258340440415 0 43.864258340440415 -18.249143363752864 0 0 0 0 -1738.5491400889041 2459.132049192116 0 2459.132049192116 -2464.4012367746909 0 0 0 0 -1229.5118257455761 2434.8032938176329 0 2434.8032938176329 -2706.1820888715447 0 0 0 0 -1527.8656117228675 2145.0708061689365 0 2145.0708061689365 -1687.2205311386497 0 0 0 0 -1750.2160521046026 2434.8625559106003 0 2434.8625559106003 -2008.7285428168834 0 0 0 0 -887.00648707147047 737.72544105870475 0 737.72544105870475 -491.97561486980703 0 0 0 0 -989.44438636838458 -36.39398470177548 0 -36.39398470177548 1862.8158672977443 0 0 0 0 -1120.9049326823151 666.61161943217303 0 666.61161943217303 630.55330826387217 0 0 0 0 -615.80605264296173 105.28784535382874 0 105.28784535382874 -207.77377196479938 0 0 0 0 -429.55954664811725 288.64182862831512 0 288.64182862831512 -992.01671660754437 0 0 0 0 6.2986179580038879 943.56210708100843 0 943.56210708100843 -2284.8369320767306 0 0 0 0 -925.2079752111531 599.98656730313269 0 599.98656730313269 -269.93655459099682 0 0 0 0 63.869992219750031 65.961220927268016 0 65.961220927268016 4.5599616128415619 0 0 0 0 -23.160384570568567 1235.4820185275312 0 1235.4820185275312 -4886.0490204333328 0 0 0 0 91.149728301912546 140.5160660075926 0 140.5160660075926 39.323670893034432 0 0 0 0 -3.6608594475003997 13.623365231625556 0 13.623365231625556 -6.1485148432453229 0 0 0 0 0.21318482780770864 2753.0928007403127 0 2753.0928007403127 -3317.071505036809 0 0 0 0 -895.33841211805702 2756.9699738323252 0 2756.9699738323252 -3110.8006943433138 0 0 0 0 -882.60679527727189 1996.0863943586883 0 1996.0863943586883 -2194.9358092544135 0 0 0 0 -483.04417656973237 2388.5168624736689 0 2388.5168624736689 -3473.3573339364521 0 0 0 0 -1050.2752182941331 2922.1167917262792 0 2922.1167917262792 -3034.7401682845957 0 0 0 0 -719.53728727309499 3098.0960946585546 0 3098.0960946585546 -3368.8854891134383 0 0 0 0 -570.58306407595228 3065.0346133652565 0 3065.0346133652565 -3369.3865983288706 0 0 0 0 -0.64604468942952431 3388.0574834291269 0 3388.0574834291269 -3468.9640640857397 0 0 0 0 -875.61558626843907 3288.4720455983625 0 3288.4720455983625 -3246.6375582706532 0 0 0 0 -1726.9774684678123 3311.1216788236488 0 3311.1216788236488 -3124.7350995647284 0 0 0 0 -2842.5410028295009 3441.1165498131159 0 3441.1165498131159 -2833.0819074047904 0 0 0 0 -2574.7690571299172 3265.6234589997039 0 3265.6234589997039 -2970.5816103065299 0 0 0 0 -1739.8516948823035 3187.0643872321552 0 3187.0643872321552 -3113.0584769224515 0 0 0 0 -3023.6732789730304 3076.642803445473 0 3076.642803445473 -3016.435536923469 0 0 0 0 -3515.3870839466981 3657.6033013683627 0 3657.6033013683627 -2904.7300767813049 0 0 0 0 50.098857408183164 32.884554783773922 0 32.884554783773922 -22.910666517434493 0 0 0 0 -3256.3666127632168 2803.1783423864108 0 2803.1783423864108 -2440.6541959731258 0 0 0 0 -1227.4934376954116 919.37615201340304 0 919.37615201340304 -1238.8699223349686 0 0 0 0 -2454.4744169573241 1290.850551602809 0 1290.850551602809 -578.90661138822907 0 0 0 0 -1736.332904960087 2388.7791038405849 0 2388.7791038405849 -2546.0824945826898 0 0 0 0 -1735.6791791675496 2624.194214077841 0 2624.194214077841 -2682.6774442336646 0 0 0 0 -1593.8963773255236 2972.751331784224 0 2972.751331784224 -3008.4765257451218 0 0 0 0 -1615.6619459846697 3032.0028851631942 0 3032.0028851631942 -3054.5421940915112 0 0 0 0 -2617.2870567681384 2548.7843025573529 0 2548.7843025573529 -2570.7989536393361 0 0 0 0 29.759434886883497 3.0912119792378689 0 3.0912119792378689 2.9517719332750971 0 0 0 0 -140.41383637946274 1278.6551270362907 0 1278.6551270362907 -2544.871581473577 0 0 0 0 -143.68150022382179 450.60204898179654 0 450.60204898179654 -412.13510122901062 0 0 0 0 -327.52809818218157 323.33031906788528 0 323.33031906788528 -344.55149155494291 0 0 0 0 79.557098394081947 37.837815966942372 0 37.837815966942372 -1.8732405359410791 0 0 0 0 1078.88316677689 502.66541857471384 0 502.66541857471384 48.388576102181105 0 0 0 0 689.77960057451128 1055.270103077044 0 1055.270103077044 1617.2807006756484 0 0 0 0 355.93544614801067 2513.2508747053216 0 2513.2508747053216 654.74044697510544 0 0 0 0 -1261.6488919602489 1325.8618235746108 0 1325.8618235746108 4881.3302101538575 0 0 0 0 427.12925698656181 2476.0076087992384 0 2476.0076087992384 -78.509102409385378 0 0 0 0 130.36060603751685 3129.8663939050275 0 3129.8663939050275 -205.27585112358793 0 0 0 0 -390.84583788121381 1721.8076993294162 0 1721.8076993294162 86.382257142424351 0 0 0 0 621.69793083672994 2862.895324838144 0 2862.895324838144 -1.2024572953232564 0 0 0 0 -139.73160849348642 343.23192444960296 0 343.23192444960296 -223.58006746109459 0 0 0 0 9.0816914827684059 12.964180996225593 0 12.964180996225593 17.929199969457727 0 0 0 0 6140.304303572233 -108.7309419719204 0 -108.7309419719204 -953.61407419215539 0 0 0 0 4609.3124403022666 2493.1356162162556 0 2493.1356162162556 -1165.73034842372 0 0 0 0 2599.005503892753 2260.1108235912398 0 2260.1108235912398 -114.90739023119386 0 0 0 0 2379.3786236546584 546.8189492806423 0 546.8189492806423 91.009519665065454 0 0 0 0 -714.33504737802286 329.79145518245059 0 329.79145518245059 -129.92792389534588 0 0 0 0 -593.15216543716087 518.41885732993251 0 518.41885732993251 -132.42305668697441 0 0 0 0 5.0600449572744424 0.65120448212567794 0 0.65120448212567794 -2.4929407618488995 0 0 0 0 -1157.0159211227656 561.78351008143727 0 561.78351008143727 69.119956125854515 0 0 0 0 -835.80866095214151 273.23208186622651 0 273.23208186622651 -0.17380267778935377 0 0 0 0 -731.54464158063638 543.34321812445705 0 543.34321812445705 -100.81228744897817 0 0 0 0 -514.87868381148292 317.99833032889728 0 317.99833032889728 -8.6575311254127882 0 0 0 0 -202.93582872010302 589.24722155385825 0 589.24722155385825 -56.85259941656841 0 0 0 0 -266.57835939909273 364.16627524142677 0 364.16627524142677 -205.42371213351726 0 0 0 0 -245.90021735457412 374.17878347937949 0 374.17878347937949 -203.65699987567496 0 0 0 0 0.68282719848400575 13.421839841203507 0 13.421839841203507 26.095506021001142 0 0 0 0 20.34555882253521 28.742816753958266 0 28.742816753958266 14.161638584870389 0 0 0 0 -65.377251599100418 135.2814593197254 0 135.2814593197254 29.027284781284834 0 0 0 0 1110.9965566564497 774.20146663565538 0 774.20146663565538 260.1022793034208 0 0 0 0 -125.74628236202989 6.4101686029753182 0 6.4101686029753182 -8.6501350010512397 0 0 0 0 -67.957944218756893 103.02416892038127 0 103.02416892038127 11.316052473033778 0 0 0 0 189.95614499674411 327.97151069651591 0 327.97151069651591 451.68130251922412 0 0 0 0 2.3467702177800334 50.084961694055039 0 50.084961694055039 54.104970338125611 0 0 0 0 25.692229729773715 37.80456101736948 0 37.80456101736948 -13.189955349486013 0 0 0 0 -120.19455571554312 86.261109654986342 0 86.261109654986342 73.303114205266411 0 0 0 0 -18.678452246737095 92.50202447202571 0 92.50202447202571 11.622282332221829 0 0 0 0 -35.197364856016065 92.339184153388487 0 92.339184153388487 4.5368060669134138 0 0 0 0 -183.81389050588768 371.93033552583074 0 371.93033552583074 -313.41570796677115 0 0 0 0 -201.77617563470267 164.93203589704353 0 164.93203589704353 -65.797117557143793 0 0 0 0 3.0822511695345156 17.208351301785683 0 17.208351301785683 -15.274073420459501 0 0 0 0 -227.6333717143425 331.34825936719426 0 331.34825936719426 -249.99468919058563 0 0 0 0 -2235.8773637703853 691.46709946956253 0 691.46709946956253 1541.038629326802 0 0 0 0 -1163.8570407782681 178.31974913750309 0 178.31974913750309 1366.3390255248378 0 0 0 0 -35.548435740679849 63.496837478951861 0 63.496837478951861 -37.692408657670683 0 0 0 0 -108.99307356974896 357.25937934286048 0 357.25937934286048 315.62495032759034 0 0 0 0 -420.86299356378731 -26.786732718275744 0 -26.786732718275744 35.931741130509181 0 0 0 0 -219.02354318946891 221.96956638179836 0 221.96956638179836 129.92014352402475 0 0 0 0 -641.40929612508626 1065.6003167796007 0 1065.6003167796007 1030.0237644025037 0 0 0 0 -9.1596172683939017 57.818378181913204 0 57.818378181913204 67.684762520901927 0 0 0 0 -397.56747597224603 -37.92689099101699 0 -37.92689099101699 -119.05974415928358 0 0 0 0 20.537303444682038 381.79911257620552 0 381.79911257620552 -233.7702092283871 0 0 0 0 -549.59832223826379 419.02099725288281 0 419.02099725288281 -306.68525431724265 0 0 0 0 0.84725414444515934 2.6667066147180662 0 2.6667066147180662 -1.898032807355321 0 0 0 0 -822.27156132236996 -4.6045935431320686 0 -4.6045935431320686 44.913664239807986 0 0 0 0 5.5375113001030627 1.9593497040651471 0 1.9593497040651471 -4.326697174303149 0 0 0 0 -249.1130365444842 376.20607875677524 0 376.20607875677524 -134.46989527523692 0 0 0 0 -76.471171162178507 336.95103389034921 0 336.95103389034921 -250.25065416368307 0 0 0 0 -131.91188659436011 429.77371010718343 0 429.77371010718343 -112.65511983634497 0 0 0 0 30.067255960202601 213.91552970299017 0 213.91552970299017 -62.532328939327272 0 0 0 0 -17.42031374220096 531.48956083747908 0 531.48956083747908 0.085272415468352847 0 0 0 0 893.88603584503289 327.14852681961929 0 327.14852681961929 -219.87772409050376 0 0 0 0 -1370.3361507806694 587.86042716176598 0 587.86042716176598 235.07520799223857 0 0 0 0 -1.5970532258285175 -1.0443404207975391 0 -1.0443404207975391 1.1673626507899826 0 0 0 0 -521.14729605005414 756.05828809806553 0 756.05828809806553 0.8189185315859504 0 0 0 0 -445.302411524739 29.461380559179815 0 29.461380559179815 -153.53797064482933 0 0 0 0 -524.53634580806829 498.09197097241122 0 498.09197097241122 -138.72589481272735 0 0 0 0 -204.95833679250791 -36.428495413892961 0 -36.428495413892961 -270.34105776826618 0 0 0 0 114.89745888170728 261.31561413989402 0 261.31561413989402 -170.54467038688745 0 0 0 0 -1002.538148139065 734.26627974789881 0 734.26627974789881 -6.9025812833636175 0 0 0 0 -0.20085122886021622 1.080690156313608 0 1.080690156313608 4.178416667958686 0 0 0 0 394.57602631326881 571.02873033745709 0 571.02873033745709 -366.56745026572025 0 0 0 0 711.14644278456399 -409.45555120617246 0 -409.45555120617246 26.530556006153347 0 0 0 0 -977.79018437294872 779.64737140531361 0 779.64737140531361 -483.30062805785565 0 0 0 0 -2457.0560385283607 1288.0923903952498 0 1288.0923903952498 -2.253618503063187 0 0 0 0 -5.4451327339948534 1.7402476605826678 0 1.7402476605826678 1.8794597637768788 0 0 0 0 -404.88583964292775 537.4937093569315 0 537.4937093569315 -663.05729416260147 0 0 0 0 -745.93568488465098 593.09705612697144 0 593.09705612697144 -380.28065036560292 0 0 0 0 0.87121723941891105 11.732775047788209 0 11.732775047788209 4.6659372462774513 0 0 0 0 388.07892561070912 -69.39671832381282 0 -69.39671832381282 -121.14098555914825 0 0 0 0 160.27785256723291 308.39430814604566 0 308.39430814604566 -5.6710045280378836 0 0 0 0 -28.383237821796172 59.025087414788175 0 59.025087414788175 -47.528680961692316 0 0 0 0 -246.88009452499682 495.61751359686605 0 495.61751359686605 -349.40075899740987 0 0 0 0 92.648354576915153 130.32740610869951 0 130.32740610869951 -7.2681537788012065 0 0 0 0 -310.55490439700952 355.52745597025205 0 355.52745597025205 236.13329737331514 0 0 0 0 -48.809978206758387 166.86570551240584 0 166.86570551240584 73.346020803204738 0 0 0 0 -19.818362737089046 169.7017978932854 0 169.7017978932854 34.02005934054614 0 0 0 0 -37.681311032901704 65.708039964471311 0 65.708039964471311 -32.906936279275442 0 0 0 0 -64.59250175600755 154.69586857708055 0 154.69586857708055 38.176722573145526 0 0 0 0 -85.652485874423292 106.90707863568969 0 106.90707863568969 15.632011679881543 0 0 0 0 -83.941783321235562 126.30828495715105 0 126.30828495715105 1.3903875071700895 0 0 0 0 -80.411044090345968 151.07582614003331 0 151.07582614003331 40.630055222223746 0 0 0 0 -31.732201591512421 114.68483935316908 0 114.68483935316908 -55.864336295620888 0 0 0 0 -75.490125014484192 107.17554512942158 0 107.17554512942158 1.1656013669359311 0 0 0 0 -12.093975835843594 144.49251487238325 0 144.49251487238325 -22.115311201312579 0 0 0 0 -38.221180521912174 171.16195739028262 0 171.16195739028262 31.882688050245633 0 0 0 0 -1085.7960014804994 762.27884061540681 0 762.27884061540681 -16.283373579441104 0 0 0 0 -1.4087797459603735 49.136850276484097 0 49.136850276484097 36.56052926641047 0 0 0 0 -71.344604656624142 166.91213886300829 0 166.91213886300829 57.99059789916555 0 0 0 0 119.84805914520985 166.46572221881797 0 166.46572221881797 57.891826333713198 0 0 0 0 468.86919747361389 224.02104385982966 0 224.02104385982966 -66.609756571473554 0 0 0 0 99.530120567884296 402.40131729238055 0 402.40131729238055 -15.295600966070197 0 0 0 0 7.2912554733856467 16.487227418141458 0 16.487227418141458 33.76088229445395 0 0 0 0 -2061.5777390651056 922.34449712548303 0 922.34449712548303 126.77452657646791 0 0 0 0 -1318.4187777811021 284.12594329401327 0 284.12594329401327 -58.203135438227037 0 0 0 0 -702.20168464981543 909.23407772730934 0 909.23407772730934 -57.188354133162647 0 0 0 0 -1027.4565113980352 783.60460904516367 0 783.60460904516367 -311.47599393812561 0 0 0 0 -649.57967709761579 375.06514136656187 0 375.06514136656187 -57.931576907995463 0 0 0 0 1298.3600155098684 89.477811185010069 0 89.477811185010069 -230.3080500363285 0 0 0 0 -256.04624771903036 927.65943828261879 0 927.65943828261879 263.64680668414803 0 0 0 0 214.40603619045578 396.16894872663397 0 396.16894872663397 -148.28616538441565 0 0 0 0 186.06320710982254 347.85281816201314 0 347.85281816201314 -230.55203164980048 0 0 0 0 11.101108332963122 394.06556200235991 0 394.06556200235991 63.557124420316541 0 0 0 0 -66.049750380057958 718.46803929518501 0 718.46803929518501 -224.04859008969743 0 0 0 0 -673.62697038309125 722.00740824917739 0 722.00740824917739 -451.41884763739654 0 0 0 0 -594.83248998678755 447.23711603926495 0 447.23711603926495 -5.3063069612107938 0 0 0 0 -755.20536558734602 769.15027498630661 0 769.15027498630661 15.099471334253849 0 0 0 0 -22.394830596365182 65.192485699879128 0 65.192485699879128 -57.759704130782524 0 0 0 0 -1962.9863966897829 589.37092913576635 0 589.37092913576635 -1017.0995185807697 0 0 0 0 -716.54618764791303 362.79829845091172 0 362.79829845091172 -330.18448878964409 0 0 0 0 -74.43069475260927 84.30006191881175 0 84.30006191881175 77.656716996208502 0 0 0 0 -10.768966264324263 101.92884245296591 0 101.92884245296591 35.426901027094573 0 0 0 0 -10.340582643349933 91.046725061512987 0 91.046725061512987 -64.310680976192032 0 0 0 0 -96.533351671020284 180.66950647131506 0 180.66950647131506 23.754949597009499 0 0 0 0 -2422.323459553998 -1079.5143041262054 0 -1079.5143041262054 -515.9626428259653 0 0 0 0 -11.353557611064389 7.8901544603936316 0 7.8901544603936316 -21.014391905779426 0 0 0 0 1268.2513961584191 403.95179295026173 0 403.95179295026173 -2466.5527361184068 0 0 0 0 -3221.0623789872625 1328.7071172356955 0 1328.7071172356955 725.58128842627048 0 0 0 0 -481.36928582965629 1947.4918233625649 0 1947.4918233625649 -1729.8308883098653 0 0 0 0 2310.472447485663 412.24602235757629 0 412.24602235757629 -887.3104229166056 0 0 0 0 2319.3673781757989 2364.8040085008024 0 2364.8040085008024 -668.37125863760593 0 0 0 0 311.44820597683429 1465.9571398562766 0 1465.9571398562766 867.44480306733749 0 0 0 0 -118.2913524244295 53.694143513213774 0 53.694143513213774 53.95372921091996 0 0 0 0 832.96260527643608 -183.47079378933995 0 -183.47079378933995 338.9462554828533 0 0 0 0 19.515879403756117 659.43677260926052 0 659.43677260926052 -527.2374834138609 0 0 0 0 -643.64452886616345 -768.15783376486797 0 -768.15783376486797 -450.13254789198982 0 0 0 0 -72.447091491136234 202.82921876474575 0 202.82921876474575 22.121001005103608 0 0 0 0 -122.31346943629615 168.34032329737965 0 168.34032329737965 17.890075276649441 0 0 0 0 -124.03816778461623 200.85694093629718 0 200.85694093629718 -49.998611155700928 0 0 0 0 -38.456276975813864 81.616323323779255 0 81.616323323779255 -1.7636413683816272 0 0 0 0 889.95090448594419 615.36574448058673 0 615.36574448058673 -285.51332412692136 0 0 0 0 35.334789626029803 140.36183014832864 0 140.36183014832864 -31.055759144588194 0 0 0 0 -62.829577124304706 268.48241821591728 0 268.48241821591728 -156.88914130651392 0 0 0 0 -167.90518727883318 201.46327824756736 0 201.46327824756736 50.32709757255725 0 0 0 0 -23.031008448329885 132.44277444698855 0 132.44277444698855 -38.438175339819281 0 0 0 0 -64.275588103571295 69.255412177501768 0 69.255412177501768 -2.5840270180340781 0 0 0 0 -278.88403329397261 346.59207606947166 0 346.59207606947166 2.7291128782999294 0 0 0 0 539.62573784182314 -175.74482071695093 0 -175.74482071695093 -608.84847781317058 0 0 0 0 -13.779654059733474 132.15695242170816 0 132.15695242170816 -29.213435712475473 0 0 0 0 64.748784797166024 14.726003486385416 0 14.726003486385416 -57.330830628511507 0 0 0 0 -6.9252099753066432 191.30101731455215 0 191.30101731455215 -47.679193228032091 0 0 0 0 40.120348245058267 57.706232530357738 0 57.706232530357738 -38.065452093593194 0 0 0 0 724.67108625292894 152.45976371916913 0 152.45976371916913 -127.77528251009062 0 0 0 0 18.978731455182327 24.1454400980478 0 24.1454400980478 -38.156751991768857 0 0 0 0 -668.25582137535093 1499.9466388143483 0 1499.9466388143483 -1615.1700227690235 0 0 0 0 -18.610126703722017 30.694259652132928 0 30.694259652132928 17.282565088184413 0 0 0 0 -18.728599166523054 57.934164465374124 0 57.934164465374124 -35.676828492680215 0 0 0 0 6.82900723542393 14.120554960929809 0 14.120554960929809 -24.502279880162973 0 0 0 0 1139.4852168179641 3.1694753984047566 0 3.1694753984047566 -258.68170934845693 0 0 0 0 -951.87868591879669 1181.7264739148377 0 1181.7264739148377 -1731.977565228477 0 0 0 0 -646.10398649791023 1063.919859241636 0 1063.919859241636 -2200.8852472916042 0 0 0 0 -688.26122856905567 254.97420121252071 0 254.97420121252071 -1911.9242336764182 0 0 0 0 -45.946401234265579 59.314899144697328 0 59.314899144697328 -36.039640881730605 0 0 0 0 -1064.8448865750397 913.3883356471124 0 913.3883356471124 -1408.9134194192447 0 0 0 0 -52.342953611267149 -79.185936486159335 0 -79.185936486159335 -910.44777260150295 0 0 0 0 -27.926817283994751 115.67144981396268 0 115.67144981396268 -27.372298879432492 0 0 0 0 -42.348087019822742 75.610388384444661 0 75.610388384444661 -9.1168163845368895 0 0 0 0 -18.503173786357593 65.855388435597661 0 65.855388435597661 -43.33837939268102 0 0 0 0 -2367.8010864644748 869.87873154639237 0 869.87873154639237 -611.34299278512844 0 0 0 0 -31.821268600469807 -15.804818167005067 0 -15.804818167005067 -11.776058857338541 0 0 0 0 -2365.449561915404 1292.4434141042657 0 1292.4434141042657 -742.65032249171054 0 0 0 0 -2447.1942289219878 463.1033007701044 0 463.1033007701044 -2136.3730175994715 0 0 0 0 -2539.1128047449747 1570.0661756270565 0 1570.0661756270565 -812.11049402800563 0 0 0 0 -21.203663795482214 2.7612552422741743 0 2.7612552422741743 5.9351410986149062 0 0 0 0 -554.9455773585405 -1158.1527521205701 0 -1158.1527521205701 -1033.0014594550594 0 0 0 0 -594.52911968089757 2979.7320878064056 0 2979.7320878064056 -1631.5233481183895 0 0 0 0 -20.512562816476247 20.290055672318466 0 20.290055672318466 -21.431424061579179 0 0 0 0 -4205.7104723194498 -54.094401708935038 0 -54.094401708935038 867.68937384206947 0 0 0 0 -327.59746578874183 43.094687497636187 0 43.094687497636187 -5969.9629517920548 0 0 0 0 -320.0220852701168 261.87853844062192 0 261.87853844062192 -2385.1336220602097 0 0 0 0 -693.05436797324364 371.72624095117317 0 371.72624095117317 -2046.4922699134331 0 0 0 0 -665.24715179878694 1930.3120670613716 0 1930.3120670613716 -2990.3783379545348 0 0 0 0 -5423.2313958826126 2745.5282814220554 0 2745.5282814220554 -1395.6257437326567 0 0 0 0 -1024.4454520012805 1705.1499756803314 0 1705.1499756803314 -6907.2639427574613 0 0 0 0 -2774.7104560194421 1084.9211453103489 0 1084.9211453103489 -356.5182251920196 0 0 0 0 -3095.1680801363618 1894.1414760621665 0 1894.1414760621665 -854.20843725983286 0 0 0 0 -1520.9897169669566 1425.4430762810807 0 1425.4430762810807 -716.75864427289343 0 0 0 0 -2258.4890865930502 1258.5914613538407 0 1258.5914613538407 -816.93827947949467 0 0 0 0 -2377.7243166470726 1266.5413294098398 0 1266.5413294098398 -493.35005010993336 0 0 0 0 -2545.2023209511244 830.91025563577205 0 830.91025563577205 -553.31298733019503 0 0 0 0 -2322.6073871412664 1090.3689627596614 0 1090.3689627596614 -908.24994701246032 0 0 0 0 -1779.7019874588586 1488.6645804425207 0 1488.6645804425207 -731.11126019402582 0 0 0 0 -4390.5650109667622 3033.6873415280133 0 3033.6873415280133 -633.70257456075342 0 0 0 0 -1890.3553969168861 1755.6660137103026 0 1755.6660137103026 -1196.3007738897795 0 0 0 0 -3.8002932339277891 -5.4615380219922258 0 -5.4615380219922258 -11.573812340711982 0 0 0 0 -156.95204309778273 -165.50499084737021 0 -165.50499084737021 674.80636520733242 0 0 0 0 -383.74318528802542 198.57755336050468 0 198.57755336050468 185.00131623120251 0 0 0 0 -179.44269879222657 12.577037171262873 0 12.577037171262873 268.10757344658487 0 0 0 0 -1383.1085657921067 857.00534634377982 0 857.00534634377982 136.49275030490389 0 0 0 0 -1448.8243211218314 1373.4938753259376 0 1373.4938753259376 -302.60973149890197 0 0 0 0 2215.6920768226664 560.51556781732324 0 560.51556781732324 199.73765265537077 0 0 0 0 1669.9873326114757 1437.4042838227579 0 1437.4042838227579 748.79503982028109 0 0 0 0 9.323385952992453 14.121711437406503 0 14.121711437406503 20.641710790698141 0 0 0 0 242.68984196917154 -498.15049967182858 0 -498.15049967182858 1676.3210483770381 0 0 0 0 163.18712444984703 -122.01085493636492 0 -122.01085493636492 -68.964156266389182 0 0 0 0 -48.945055269519798 539.41896154590358 0 539.41896154590358 1301.5724283856543 0 0 0 0 -490.45478930403806 626.18341197392147 0 626.18341197392147 1298.1984646838973 0 0 0 0 7.7223742173664505 1256.6412176680642 0 1256.6412176680642 -228.34277047490468 0 0 0 0 -537.95303363371113 354.44239352988461 0 354.44239352988461 2572.7476386820199 0 0 0 0 -293.80001801579783 687.62336787822278 0 687.62336787822278 1303.4877342117106 0 0 0 0 -269.48012809180364 1587.5066223589383 0 1587.5066223589383 1901.5411086223685 0 0 0 0 2420.1561196097246 -533.37830665070214 0 -533.37830665070214 87.416345184203237 0 0 0 0 -64.234552013644134 149.81694828675973 0 149.81694828675973 -99.222746129809821 0 0 0 0 -1570.3273408034438 -599.8485483739787 0 -599.8485483739787 -400.88752443841804 0 0 0 0 -949.74026362298173 404.69900848260295 0 404.69900848260295 -1608.5575108595658 0 0 0 0 -3283.3643911188665 -1408.5634726173485 0 -1408.5634726173485 -2993.9178824749251 0 0 0 0 -4308.4326361962576 3670.6728878478134 0 3670.6728878478134 -3856.8812414339045 0 0 0 0 -1002.8423737660196 1318.5373444245342 0 1318.5373444245342 -2189.4454472717043 0 0 0 0 -1418.2372604943994 2310.4470873788632 0 2310.4470873788632 -1677.9047691744636 0 0 0 0 -1032.9559784769808 1641.3958637967589 0 1641.3958637967589 -73.453339715619222 0 0 0 0 -719.02203065980575 2123.1134757998589 0 2123.1134757998589 -1535.8979793034523 0 0 0 0 -705.16915257489018 2366.0606850304539 0 2366.0606850304539 -1067.5189995451947 0 0 0 0 -315.42470372850948 2353.8280491795376 0 2353.8280491795376 -1668.4913757855393 0 0 0 0 -358.1581310442416 1902.7341306445669 0 1902.7341306445669 -1527.5039049212792 0 0 0 0 -400.85294348942625 1818.6120989606115 0 1818.6120989606115 -518.3280510014738 0 0 0 0 -557.01608250373101 2006.9789991131656 0 2006.9789991131656 -1558.0376407114381 0 0 0 0 -687.14307937164267 1310.6887027163666 0 1310.6887027163666 -1928.5261333555682 0 0 0 0 -505.47561816293455 2196.1675669611723 0 2196.1675669611723 -3267.0213640363945 0 0 0 0 -235.39658466535911 518.9756005444433 0 518.9756005444433 -3271.4847195204347 0 0 0 0 -1398.7524425101874 2367.8103046682008 0 2367.8103046682008 -433.57267081926693 0 0 0 0 -526.15657164793811 1722.4702994033869 0 1722.4702994033869 -1772.2413131936337 0 0 0 0 -519.48795613445691 1674.0095419714489 0 1674.0095419714489 -1997.4480657939657 0 0 0 0 579.70134530426003 2450.0079287637927 0 2450.0079287637927 -1264.8931508736277 0 0 0 0 -580.7146130543988 2427.6758278182097 0 2427.6758278182097 -1151.6313981991552 0 0 0 0 -252.23213469027542 2356.0208748383884 0 2356.0208748383884 -1467.9535016197042 0 0 0 0 -585.08673253230518 2396.5589712337314 0 2396.5589712337314 -1371.6147378449969 0 0 0 0 -248.92367392321466 2267.6256874317623 0 2267.6256874317623 -1413.0808474559162 0 0 0 0 -872.33474459285208 2048.6020826810927 0 2048.6020826810927 -1532.9551771334372 0 0 0 0 -134.580274641703 1564.2015107030529 0 1564.2015107030529 -3733.0937125914788 0 0 0 0 135.46490170563629 843.85576829782804 0 843.85576829782804 -1846.4200754224203 0 0 0 0 -612.47519604155968 2511.728305911678 0 2511.728305911678 -1487.3902274577122 0 0 0 0 -295.39144913876953 805.52294058814005 0 805.52294058814005 744.46370063129871 0 0 0 0 7.5563309597637272 1422.1701926123133 0 1422.1701926123133 -814.56260191556794 0 0 0 0 -175.7238123958814 7.3367825137538603 0 7.3367825137538603 -5.8387750886831782 0 0 0 0 -84.930776816912839 4.7927835848277027 0 4.7927835848277027 366.45993270319013 0 0 0 0 -61.666446901988991 42.768182290430872 0 42.768182290430872 -15.219753788255559 0 0 0 0 -15.842785338946577 3.168746535469154 0 3.168746535469154 6.2097430190080445 0 0 0 0 -1832.3007262417814 -673.22867408144521 0 -673.22867408144521 -124.1072834851293 0 0 0 0 -21.912932168073723 15.668066452955244 0 15.668066452955244 -11.950664042699486 0 0 0 0 -2402.2142093261064 393.89206857757381 0 393.89206857757381 499.16900233912747 0 0 0 0 -580.55577195261139 1379.6067872298372 0 1379.6067872298372 -2407.4500807278182 0 0 0 0 -485.0441519695014 765.26150713287643 0 765.26150713287643 -2618.0960252161021 0 0 0 0 -1775.9892300063075 107.79528411282809 0 107.79528411282809 -1509.0207058498927 0 0 0 0 -1505.1292330530123 2774.9285544471495 0 2774.9285544471495 -2276.4135819270305 0 0 0 0 -2831.9721547662266 1245.0785137329076 0 1245.0785137329076 -1162.7716266106727 0 0 0 0 -500.07156083898735 1170.3931511915871 0 1170.3931511915871 -1168.4725686311285 0 0 0 0 -771.64471950021107 1304.3682472990768 0 1304.3682472990768 -1083.87867373279 0 0 0 0 1178.0382718602195 991.60708074155264 0 991.60708074155264 -1119.0199288258736 0 0 0 0 -612.8854709873558 488.08073654258624 0 488.08073654258624 332.73309980526392 0 0 0 0 1565.2360535886255 1225.8206072374433 0 1225.8206072374433 51.656688683608081 0 0 0 0 2634.3664401721035 -716.20413733164605 0 -716.20413733164605 87.120437066885643 0 0 0 0 -3.8589710887758883 7.7515645118442649 0 7.7515645118442649 5.1119883933140216 0 0 0 0 -529.65320127005543 651.36254878757609 0 651.36254878757609 -669.06638585176552 0 0 0 0 -1503.0766682231624 314.29754141735611 0 314.29754141735611 -687.93824837683133 0 0 0 0 -1124.4189998552902 509.22368609208206 0 509.22368609208206 -1326.7283800980804 0 0 0 0 -1019.4764264902333 824.3537808820256 0 824.3537808820256 -539.75120522540965 0 0 0 0 -2292.8790324386282 898.44871092060202 0 898.44871092060202 -378.52990829846385 0 0 0 0 -1551.6225331975438 251.23976397002843 0 251.23976397002843 2.2446709377290972 0 0 0 0 1381.0877069660564 34.07259576177421 0 34.07259576177421 -223.90733904432273 0 0 0 0 0.50743443784787701 5.8875051103005376 0 5.8875051103005376 12.106416948933543 0 0 0 0 234.62333597999532 1404.3683143306644 0 1404.3683143306644 -2625.1910223575615 0 0 0 0 -94.065124781467603 1501.927471539806 0 1501.927471539806 -1330.047391954351 0 0 0 0 44.744731239246903 527.24691830701704 0 527.24691830701704 -2855.2947547983786 0 0 0 0 -349.04796952220931 827.87169066228307 0 827.87169066228307 -1202.1532771658167 0 0 0 0 -73.714730035416551 46.464146945305771 0 46.464146945305771 -10.925333906145234 0 0 0 0 -675.26356857841529 1395.2851204866547 0 1395.2851204866547 2169.6917979459904 0 0 0 0 405.84468175418442 41.059392312732598 0 41.059392312732598 273.8697610568488 0 0 0 0 -1138.4479018195307 -218.65325209935145 0 -218.65325209935145 -1007.2320367503708 0 0 0 0 -639.88407990642008 1160.1521490155646 0 1160.1521490155646 -1724.4342280311394 0 0 0 0 63.230017182591837 215.80430772344334 0 215.80430772344334 -611.29292835610249 0 0 0 0 117.6122988552379 102.82656309308368 0 102.82656309308368 -2119.3644265966286 0 0 0 0 -569.51720463714082 1642.6739266952136 0 1642.6739266952136 -1192.7859963854862 0 0 0 0 -438.21331187299802 1081.7353861926895 0 1081.7353861926895 26.589401070050371 0 0 0 0 -96.523894728117739 582.54468234827073 0 582.54468234827073 -1104.3994029673704 0 0 0 0 28.617785267786815 14.751036996778794 0 14.751036996778794 7.3435437213053945 0 0 0 0 -68.643835156512068 727.50965563676527 0 727.50965563676527 -641.9471255223616 0 0 0 0 78.478011362603866 -20.313177436204569 0 -20.313177436204569 -2.3519205463526305 0 0 0 0 138.62348497999483 25.505774194436526 0 25.505774194436526 -147.83910624060081 0 0 0 0 -446.98794253024971 449.63302943320741 0 449.63302943320741 -20.590064249270654 0 0 0 0 -494.66807006202725 996.9959710363928 0 996.9959710363928 683.27365400300187 0 0 0 0 -626.17250793243875 571.07086436585814 0 571.07086436585814 20.083047922045807 0 0 0 0 -177.65404877412948 634.71252826984346 0 634.71252826984346 94.039749013537403 0 0 0 0 -86.845233754240212 50.180641333486477 0 50.180641333486477 -12.815424679280184 0 0 0 0 -1538.1025112924835 552.8266644409523 0 552.8266644409523 388.83652115263249 0 0 0 0 -471.43231362938241 -272.81889269379462 0 -272.81889269379462 -153.1955260977993 0 0 0 0 -302.29566244228045 76.405355747421709 0 76.405355747421709 89.786614978598664 0 0 0 0 -70.584110961193801 82.355757910037937 0 82.355757910037937 22.503990404788055 0 0 0 0 -178.03105475212215 105.42262329618825 0 105.42262329618825 93.169050610333215 0 0 0 0 195.24550895200082 306.7008649587915 0 306.7008649587915 -353.73188452106842 0 0 0 0 -82.636578051976926 64.334071667691134 0 64.334071667691134 -10.128755593019001 0 0 0 0 -20.528292914386839 223.11830615439249 0 223.11830615439249 -384.49472164572944 0 0 0 0 -76.407130556413904 60.367142787756165 0 60.367142787756165 61.710696782974992 0 0 0 0 -157.26670788254705 171.1370869901948 0 171.1370869901948 -59.874203033152298 0 0 0 0 -641.76588982355315 307.86816601386818 0 307.86816601386818 -34.859887511396664 0 0 0 0 -153.17214528267505 576.53008180501638 0 576.53008180501638 112.76142738590715 0 0 0 0 22.786274096986745 -1030.8974763881997 0 -1030.8974763881997 -711.04517923225649 0 0 0 0 7.9425591832712144 5.5759874348411245 0 5.5759874348411245 3.6273768989697146 0 0 0 0 -503.27944076219137 367.86338902647549 0 367.86338902647549 208.15815942712652 0 0 0 0 51.578655250384088 42.903920622460873 0 42.903920622460873 15.994440426833876 0 0 0 0 -125.14309269751539 303.82754791046318 0 303.82754791046318 52.437632004966872 0 0 0 0 -166.57965669557598 173.75269038005536 0 173.75269038005536 -54.582033533828508 0 0 0 0 -137.23177976581064 119.19226245126265 0 119.19226245126265 -13.365167146388558 0 0 0 0 -128.28005194960861 128.2312476203515 0 128.2312476203515 -57.399748648545938 0 0 0 0 -152.92451436174451 177.72118863004289 0 177.72118863004289 -65.100824334935169 0 0 0 0 -214.00107098693297 885.08203307545136 0 885.08203307545136 1319.9030053050374 0 0 0 0 16.418318273840498 49.008496053837632 0 49.008496053837632 -2.0089730123262655 0 0 0 0 -133.91085539510823 172.59310516189726 0 172.59310516189726 -82.224825246063119 0 0 0 0 -132.00912626591162 160.89858491729683 0 160.89858491729683 -66.558927659527399 0 0 0 0 -130.32084604742704 162.48519464600395 0 162.48519464600395 -64.357334750355221 0 0 0 0 104.14172930868881 74.725445124935504 0 74.725445124935504 -89.028508088726085 0 0 0 0 -40.797950188036182 123.71675862263423 0 123.71675862263423 -44.110723611908327 0 0 0 0 -135.29182553268765 159.94174251915319 0 159.94174251915319 -36.32976024641539 0 0 0 0 287.3439390131316 103.46533198293037 0 103.46533198293037 -29.226455990166869 0 0 0 0 -38.265875702578747 121.14918577702363 0 121.14918577702363 -37.756342469413994 0 0 0 0 -43.909814527331037 117.5758294272091 0 117.5758294272091 -62.810909146322956 0 0 0 0 331.2718927429114 123.42958481878122 0 123.42958481878122 44.207484295926406 0 0 0 0 329.15198412668542 105.81385698409576 0 105.81385698409576 -46.068588632522733 0 0 0 0 150.22757601698686 144.4500635013901 0 144.4500635013901 10.693887711153366 0 0 0 0 403.06294291038648 197.2431708906006 0 197.2431708906006 -187.08006972679141 0 0 0 0 270.19198471354321 88.673777592266561 0 88.673777592266561 -261.4226877185647 0 0 0 0 -4.5118421227962244 491.04334581084549 0 491.04334581084549 236.49242218943255 0 0 0 0 11.422907906293887 22.778486512172861 0 22.778486512172861 -8.0406805040061755 0 0 0 0 211.43694630777827 539.40698932201849 0 539.40698932201849 -76.528916460782057 0 0 0 0 -103.37503758713137 307.53852217944223 0 307.53852217944223 417.64777185195999 0 0 0 0 -164.67768222654558 68.481901110862964 0 68.481901110862964 -43.750507158692926 0 0 0 0 133.74941963469246 -99.647419007478675 0 -99.647419007478675 40.621136431785999 0 0 0 0 -128.93506435871706 125.33414137966892 0 125.33414137966892 32.307700085152192 0 0 0 0 -16.640558878192678 95.905085329606663 0 95.905085329606663 -12.807542874768842 0 0 0 0 -33.072723899445975 212.15769960252774 0 212.15769960252774 -20.866298888013098 0 0 0 0 78.33649971864088 94.13253367727647 0 94.13253367727647 -36.469265936831903 0 0 0 0 27.580502877922299 71.309049012555988 0 71.309049012555988 -66.104509576049168 0 0 0 0 22.148973396673682 125.65736927703256 0 125.65736927703256 98.168069748049675 0 0 0 0 -17.590510358961183 61.940850241064254 0 61.940850241064254 -0.76043613752699457 0 0 0 0 -12.735979358329701 55.992552596422883 0 55.992552596422883 14.597632631674401 0 0 0 0 22.483719128684157 65.433140142673977 0 65.433140142673977 -7.5179136511647471 0 0 0 0 6.2911606039082812 51.709301533214742 0 51.709301533214742 -9.0906002616388264 0 0 0 0 203.76529478447628 124.19764470380323 0 124.19764470380323 -509.34017832347308 0 0 0 0 1003.0937708777346 23.561263814946869 0 23.561263814946869 -23.934868701675441 0 0 0 0 39.740340450972752 2.7060301895706402 0 2.7060301895706402 2.6776341108124768 0 0 0 0 -105.70536637651821 38.79609218342739 0 38.79609218342739 33.272097234177636 0 0 0 0 -17.045363379172358 34.499533819048736 0 34.499533819048736 30.111864427457476 0 0 0 0 -106.31214533399907 38.151135441985389 0 38.151135441985389 32.639773460592551 0 0 0 0 -11.351426542836833 9.2150103686800549 0 9.2150103686800549 26.481251645436316 0 0 0 0 -27.670037942541853 4.31566666055258 0 4.31566666055258 14.207622229117305 0 0 0 0 -51.689193899896054 29.778708354851915 0 29.778708354851915 -8.2929830767388921 0 0 0 0 -170.59487760139746 347.67635577786859 0 347.67635577786859 -508.82174321453203 0 0 0 0 -47.291441103967372 -10.788960863261309 0 -10.788960863261309 -21.314884691621046 0 0 0 0 13.975214303013047 27.391008565039613 0 27.391008565039613 17.644018677400311 0 0 0 0 -99.094568313506898 63.621293938056624 0 63.621293938056624 -14.901476798557269 0 0 0 0 -33.279979384315084 31.179873546989256 0 31.179873546989256 -145.13460436293099 0 0 0 0 1.9680986224490482 6.3407557767208687 0 6.3407557767208687 20.481120450860885 0 0 0 0 -160.3947638841928 52.268464338572812 0 52.268464338572812 49.811609464813955 0 0 0 0 -313.86148448695894 216.59934751223773 0 216.59934751223773 -79.574070021037187 0 0 0 0 -0.19313566133496352 226.81385685712303 0 226.81385685712303 -180.38717140893277 0 0 0 0 -207.28946855899994 348.36713010902895 0 348.36713010902895 -238.77859615460329 0 0 0 0 -220.15381452950533 211.28194424096728 0 211.28194424096728 -104.58389196761709 0 0 0 0 -481.82557646860369 297.82215391335922 0 297.82215391335922 -127.70705721710692 0 0 0 0 -501.54297936393414 323.7685556866636 0 323.7685556866636 -227.6180490423867 0 0 0 0 -185.6436955107929 455.67568059090991 0 455.67568059090991 -299.86249796792981 0 0 0 0 0.013274536890094168 404.84363985064556 0 404.84363985064556 -232.75550061964896 0 0 0 0 -74.744567145215115 322.04262674872734 0 322.04262674872734 -256.98319632937637 0 0 0 0 0.31388606576511252 235.13821992174857 0 235.13821992174857 47.526255861041136 0 0 0 0 273.45604367475607 233.45259088576131 0 233.45259088576131 -136.13450513170392 0 0 0 0 326.77061503360164 30.861529030067686 0 30.861529030067686 7.4754124028258957 0 0 0 0 -14.322368086904646 9.4744453910979018 0 9.4744453910979018 -5.0245838012197055 0 0 0 0 -638.8476532753848 573.76186158886412 0 573.76186158886412 -325.43790682510735 0 0 0 0 -22.56327753071362 8.8531208428052537 0 8.8531208428052537 -7.097478977931587 0 0 0 0 -800.94604801935202 516.87399401040602 0 516.87399401040602 -334.73202894363567 0 0 0 0 -821.6445433931076 585.03361836377007 0 585.03361836377007 -549.13268887173035 0 0 0 0 -103.82439369072654 47.831101992273261 0 47.831101992273261 20.113199545303218 0 0 0 0 -551.48764593678061 387.87821088267083 0 387.87821088267083 -224.32782412449887 0 0 0 0 -20.492118013478546 7.7343578036200711 0 7.7343578036200711 67.263618281696552 0 0 0 0 -160.03650581842521 114.389025964334 0 114.389025964334 -37.02111999423505 0 0 0 0 -68.18997843608895 38.067922895617897 0 38.067922895617897 14.740029414176206 0 0 0 0 -55.943650910034194 5.2846524366359517 0 5.2846524366359517 -225.81305205229728 0 0 0 0 -235.55140076712996 349.68593807659636 0 349.68593807659636 -338.5016569589643 0 0 0 0 291.23825329238025 734.93483712391026 0 734.93483712391026 -74.725322050158866 0 0 0 0 107.59468745181221 -31.829005592888279 0 -31.829005592888279 -333.6015098116859 0 0 0 0 -7.6724103575871254 -8.1875414212850615 0 -8.1875414212850615 -2.05420418110225 0 0 0 0 -1084.7583048143424 126.02258649679789 0 126.02258649679789 135.35632611907204 0 0 0 0 -1272.438625735027 274.95063653411489 0 274.95063653411489 236.30774841005041 0 0 0 0 -160.50064422387368 -54.85465020470474 0 -54.85465020470474 45.107114074351557 0 0 0 0 -1440.4753284020117 1079.6272827026405 0 1079.6272827026405 -116.7822794550957 0 0 0 0 196.64494948302308 931.71694399363696 0 931.71694399363696 -123.20879356445221 0 0 0 0 -1137.1952488103998 313.36968126234569 0 313.36968126234569 -202.34195582153188 0 0 0 0 -1126.2315357688058 465.41217881148623 0 465.41217881148623 254.50021558012668 0 0 0 0 -1101.1424586685534 226.5536869902935 0 226.5536869902935 -379.75608431441651 0 0 0 0 -1140.1283023785363 593.60106282540801 0 593.60106282540801 -651.81703860421112 0 0 0 0 -2398.0958994710963 580.94797839277453 0 580.94797839277453 -244.5136240478023 0 0 0 0 -1365.1990009264046 1345.0400277889785 0 1345.0400277889785 -2254.1491074390069 0 0 0 0 -2818.6615885598876 368.98271304098307 0 368.98271304098307 -1718.6207473567993 0 0 0 0 -3287.8092048930994 2746.0152779838318 0 2746.0152779838318 -2599.5753996980256 0 0 0 0 -13.599053023987807 -11.957413205182831 0 -11.957413205182831 -10.399052043895495 0 0 0 0 -27.018717080674833 -38.603536127870029 0 -38.603536127870029 44.619661934513715 0 0 0 0 -205.0809590597637 -374.71934155973577 0 -374.71934155973577 -456.10446404035611 0 0 0 0 -1225.8849674721569 757.94356611621333 0 757.94356611621333 -1753.8110358217964 0 0 0 0 -3.3711069798887365 -0.23020552074667933 0 -0.23020552074667933 -4.6835559808658047 0 0 0 0 -1385.4137127049617 414.51231073754025 0 414.51231073754025 91.507778412229527 0 0 0 0 -3.9080352255170681 1.3915769773112174 0 1.3915769773112174 1.2967559101743973 0 0 0 0 -63.139033473285963 280.45453055728285 0 280.45453055728285 -1515.8882224813715 0 0 0 0 -970.36184605411836 1236.434199732852 0 1236.434199732852 -1129.4601618483284 0 0 0 0 -308.00676333645242 1065.6190767776789 0 1065.6190767776789 -1159.9324952585084 0 0 0 0 -1318.5079097919806 987.33979625282518 0 987.33979625282518 -1217.773818904534 0 0 0 0 -1276.677500086771 1066.8240016913696 0 1066.8240016913696 -2698.5102030700509 0 0 0 0 -1191.6451134230883 1546.836221980564 0 1546.836221980564 -1263.3142800662599 0 0 0 0 -1489.7226008950092 1169.214579101601 0 1169.214579101601 -221.15303742275478 0 0 0 0 -1827.6406415115925 1625.5389007480408 0 1625.5389007480408 -236.7291222808999 0 0 0 0 -1087.1420178685148 1235.0352888478828 0 1235.0352888478828 -594.86759832785174 0 0 0 0 -1031.8059852467413 1234.0573048920451 0 1234.0573048920451 -596.7018415795028 0 0 0 0 -160.143989712029 1753.1859563271209 0 1753.1859563271209 -5840.066420718962 0 0 0 0 -31.024291922857515 18.966567751999051 0 18.966567751999051 -6.2557862739228867 0 0 0 0 -1970.7424628247682 387.96568676437892 0 387.96568676437892 3343.6876236946737 0 0 0 0 -1939.424712240143 2063.4587174486005 0 2063.4587174486005 -1644.8012335083768 0 0 0 0 -1786.3805278367072 438.72432044977177 0 438.72432044977177 826.6733441048018 0 0 0 0 -2524.7630831424467 1700.4197140769666 0 1700.4197140769666 265.41241544265358 0 0 0 0 -976.49160407087766 662.07703364954432 0 662.07703364954432 39.381045617141353 0 0 0 0 -892.53672386966355 268.36972661822438 0 268.36972661822438 -442.79125960118836 0 0 0 0 -1235.3045887963726 778.45889414186058 0 778.45889414186058 -712.7024370967556 0 0 0 0 -829.47894303183421 899.18761191480735 0 899.18761191480735 -712.76890675535105 0 0 0 0 -705.38860371698684 1035.6940430316481 0 1035.6940430316481 -1062.4771700910351 0 0 0 0 -1446.1660356124921 1040.9085314925032 0 1040.9085314925032 -404.27647201962827 0 0 0 0 -1242.5452903365949 1010.8102374160371 0 1010.8102374160371 -400.55882723215836 0 0 0 0 -1135.2022661720403 873.38020417277585 0 873.38020417277585 -547.9810362248536 0 0 0 0 -1841.2088946397271 950.12986266469625 0 950.12986266469625 -223.49249434632657 0 0 0 0 -1417.5116690620489 857.741280133072 0 857.741280133072 -206.22158137047882 0 0 0 0 -1415.4975201947673 733.27425034567568 0 733.27425034567568 -571.47009147769131 0 0 0 0 -1419.2188544961537 878.57988894745176 0 878.57988894745176 -457.97477890143637 0 0 0 0 -1236.8667569158697 773.72227420483705 0 773.72227420483705 -466.0541477248189 0 0 0 0 -1399.5926213933562 927.64169347486313 0 927.64169347486313 -583.94059145405481 0 0 0 0 -1243.1149517553567 864.99647599893797 0 864.99647599893797 -476.402427013134 0 0 0 0 -1252.0600687502883 836.6608066748704 0 836.6608066748704 -551.49844551182468 0 0 0 0 -1013.7009791391611 785.2540592837322 0 785.2540592837322 -700.2757776081562 0 0 0 0 -1006.242667318118 803.67080151576374 0 803.67080151576374 -690.11572381915175 0 0 0 0 -865.41112336900551 767.11708760655893 0 767.11708760655893 -813.79407929025183 0 0 0 0 -876.18306604999816 843.29918595006166 0 843.29918595006166 -678.6843197472117 0 0 0 0 -852.5683977327426 842.16057770565385 0 842.16057770565385 -713.02400439919438 0 0 0 0 -838.94052290177206 815.86942784344137 0 815.86942784344137 -735.12928481170093 0 0 0 0 -900.88256152973918 816.20127547453376 0 816.20127547453376 -608.73525938476087 0 0 0 0 -831.43510007410077 802.17062550704577 0 802.17062550704577 -691.350416373607 0 0 0 0 -867.61708418373019 795.68933045610174 0 795.68933045610174 -564.33707431913354 0 0 0 0 -825.03794236306567 805.52648797607981 0 805.52648797607981 -577.69415819419373 0 0 0 0 -762.28596149744408 705.62011075695409 0 705.62011075695409 -557.93296869026381 0 0 0 0 -884.48903262341628 776.94481019422528 0 776.94481019422528 -591.42280112352455 0 0 0 0 -1030.4438846075791 954.72241634995589 0 954.72241634995589 -564.55887296206492 0 0 0 0 -856.13948508407339 801.97163790286868 0 801.97163790286868 -651.94158087178221 0 0 0 0 -810.88754698590492 881.62315510790722 0 881.62315510790722 -526.79518269447726 0 0 0 0 -796.46222277803463 882.59889926834148 0 882.59889926834148 -586.19063893348357 0 0 0 0 -305.47124304277531 304.93340818909201 0 304.93340818909201 -313.40474478263059 0 0 0 0 -846.21245043879026 574.67756520459807 0 574.67756520459807 -208.69858019734966 0 0 0 0 -581.56248362752376 654.37265682724683 0 654.37265682724683 -520.02214144282334 0 0 0 0 -500.51757780234038 474.86685639488132 0 474.86685639488132 -227.43517477407295 0 0 0 0 -103.37762789828412 87.598247334233747 0 87.598247334233747 -48.87394362649502 0 0 0 0 -5.5890942081863386 5.9187773612133583 0 5.9187773612133583 19.513287825503085 0 0 0 0 -332.32263441490795 478.75035799067609 0 478.75035799067609 -355.38926174996595 0 0 0 0 -326.00885085723712 603.40774789405987 0 603.40774789405987 -602.8568231025165 0 0 0 0 -144.90545013305382 218.61410990688455 0 218.61410990688455 -128.86715745986294 0 0 0 0 -0.053347708555520512 144.3164206477777 0 144.3164206477777 -90.893603133688885 0 0 0 0 -160.52477007100242 133.61874084182637 0 133.61874084182637 -44.58590786656714 0 0 0 0 -130.77294513769448 133.87029924830858 0 133.87029924830858 -49.716826059411687 0 0 0 0 15.241601099018709 27.783954625973649 0 27.783954625973649 3.8865879277911404 0 0 0 0 5.4897174632820338 7.7079474827297645 0 7.7079474827297645 -4.4938680899338692 0 0 0 0 -106.80834177014185 109.52018834909541 0 109.52018834909541 -26.269401512734476 0 0 0 0 -63.129101248196093 87.08522792171425 0 87.08522792171425 -34.140053110788358 0 0 0 0 -0.085055828487384133 59.863530459817412 0 59.863530459817412 -31.144997500770842 0 0 0 0 -162.04465857410105 394.58855022733042 0 394.58855022733042 -407.5094884156133 0 0 0 0 -871.21099634830898 658.09085493499151 0 658.09085493499151 -391.67478544892219 0 0 0 0 10.904734335223282 22.753385897965074 0 22.753385897965074 15.60171535118792 0 0 0 0 -847.00449255021522 638.76358627692389 0 638.76358627692389 -414.97420613386203 0 0 0 0 -976.7236245922395 618.41190641395224 0 618.41190641395224 -351.12099677971855 0 0 0 0 -759.93074464093661 406.30171338851505 0 406.30171338851505 -193.8698618854105 0 0 0 0 -838.17125299711188 664.47791225279798 0 664.47791225279798 -462.09498962634825 0 0 0 0 -1316.8667466616898 930.3686939048639 0 930.3686939048639 -535.16911669210094 0 0 0 0 -975.85104496876011 876.70367072834051 0 876.70367072834051 -695.75321457722748 0 0 0 0 -863.52794406402973 824.487023218986 0 824.487023218986 -669.91373513711733 0 0 0 0 -857.19685302732796 799.53401230512782 0 799.53401230512782 -669.52482062779018 0 0 0 0 -1009.8134550806717 794.91747497362667 0 794.91747497362667 -431.37475300461665 0 0 0 0 -977.19236940794508 869.34489919656335 0 869.34489919656335 -699.03394335183839 0 0 0 0 -42.929735946003348 52.93181702021684 0 52.93181702021684 -22.820575780671788 0 0 0 0 11.706678120843947 16.166746623180586 0 16.166746623180586 8.5193068857977323 0 0 0 0 -0.021810385092976503 29.062990560607432 0 29.062990560607432 -12.187089234437735 0 0 0 0 -1932.538761417818 1177.2865934279471 0 1177.2865934279471 46.010351749944675 0 0 0 0 4.4480380918367644 8.0810071265625538 0 8.0810071265625538 1.4026036519430818 0 0 0 0 -1079.2504661343701 823.69975248684204 0 823.69975248684204 -671.03907224972863 0 0 0 0 -997.60833618429024 917.5736484795998 0 917.5736484795998 -626.50005007027357 0 0 0 0 -811.76868567347992 891.52105289233441 0 891.52105289233441 -701.88770437836502 0 0 0 0 -755.59871765162097 1151.4605869376392 0 1151.4605869376392 -512.8080619539578 0 0 0 0 -498.14292444623425 1541.0528208000906 0 1541.0528208000906 -613.62134265447821 0 0 0 0 -1070.6550442952575 1366.4877157421615 0 1366.4877157421615 -658.56725694121269 0 0 0 0 -854.38024759205291 1999.1151418883528 0 1999.1151418883528 417.43433392373481 0 0 0 0 -4.4989188055915292 2405.0900971680021 0 2405.0900971680021 -622.6207103846391 0 0 0 0 -880.15759985834848 697.7980516240882 0 697.7980516240882 -1004.5410627119272 0 0 0 0 -805.25971204804955 834.45739386283094 0 834.45739386283094 -837.96302979257598 0 0 0 0 -876.06291444200906 780.14888765395153 0 780.14888765395153 -877.86418835601944 0 0 0 0 -808.40985582790745 871.7090400389252 0 871.7090400389252 -752.25129365279281 0 0 0 0 -825.44715354108484 848.03025602854905 0 848.03025602854905 -772.69522005521867 0 0 0 0 -779.07297543410095 991.72797115495632 0 991.72797115495632 -849.88990376743459 0 0 0 0 -463.9489230660547 1157.5142743778342 0 1157.5142743778342 -1046.6155688851213 0 0 0 0 -663.42904359297245 1031.4159833280464 0 1031.4159833280464 -856.81491375949554 0 0 0 0 -591.28183634592278 888.91810524216817 0 888.91810524216817 -1028.4235361484753 0 0 0 0 -745.1474641393288 732.49177718657666 0 732.49177718657666 -1156.7399854846299 0 0 0 0 -894.39779943044414 750.89943961247627 0 750.89943961247627 -973.51219617942115 0 0 0 0 -576.64282477812958 798.94454575733835 0 798.94454575733835 -930.81604319094913 0 0 0 0 -258.42925920116249 845.60025605196279 0 845.60025605196279 -1169.1926223888586 0 0 0 0 -524.25340107397642 925.08472940115462 0 925.08472940115462 -1103.3941533806064 0 0 0 0 15.652673230058099 1150.6198153051653 0 1150.6198153051653 -1099.960270177311 0 0 0 0 -282.52116690168623 1209.0165362767802 0 1209.0165362767802 -1039.3933942578915 0 0 0 0 236.66498030888033 1115.5866642373439 0 1115.5866642373439 -1124.8547422016054 0 0 0 0 271.18736652439111 914.54723551409552 0 914.54723551409552 -798.20241571070801 0 0 0 0 -235.02257309915149 917.98441896967415 0 917.98441896967415 -924.57889906965283 0 0 0 0 -208.61467245736276 776.92191108765837 0 776.92191108765837 -617.22262608493088 0 0 0 0 -350.61775911680888 2157.3983375230382 0 2157.3983375230382 -1237.7653406361569 0 0 0 0 -256.40067065169569 1940.5809556127133 0 1940.5809556127133 -1092.5135916651052 0 0 0 0 -229.19374931952916 1849.1566873545817 0 1849.1566873545817 -1016.5805301294386 0 0 0 0 43.73202440401019 1591.9298092968304 0 1591.9298092968304 -1322.8146277989144 0 0 0 0 208.45742329713539 1597.9235734919348 0 1597.9235734919348 -1377.4488528478105 0 0 0 0 544.33357315530884 1231.8346416404165 0 1231.8346416404165 -1666.1191140039446 0 0 0 0 627.55742683963035 892.72191515535087 0 892.72191515535087 -1282.0962515078791 0 0 0 0 -150.71892387309344 2204.7475191837511 0 2204.7475191837511 -2161.1415122393373 0 0 0 0 0.43087713455315679 2048.0454039470897 0 2048.0454039470897 -1883.4695911012532 0 0 0 0 600.048639935354 1342.1248856760212 0 1342.1248856760212 -2576.2953096441925 0 0 0 0 212.15480363479219 1876.9513637636719 0 1876.9513637636719 -1914.1054866411578 0 0 0 0 -1214.5589082998922 881.52558025998587 0 881.52558025998587 -2994.6945460922725 0 0 0 0 -1.4401590583438519 1315.1486388189805 0 1315.1486388189805 -3427.7154595609009 0 0 0 0 629.53022168754251 383.74267205796787 0 383.74267205796787 -1483.131658729224 0 0 0 0 -631.43998104752245 169.93581723599254 0 169.93581723599254 -60.741652239405084 0 0 0 0 -6.9938964020081471 11.827935997773437 0 11.827935997773437 -9.3385886987434219 0 0 0 0 136.38363023186685 181.99736402183407 0 181.99736402183407 243.51634720919901 0 0 0 0 -0.19642889543263209 -2.5834314902062445 0 -2.5834314902062445 0.20195179873059033 0 0 0 0 0.21596783638902114 267.84760761572716 0 267.84760761572716 312.11207249161089 0 0 0 0 -4.8445064995030407 4.081680585128197 0 4.081680585128197 51.276226354439132 0 0 0 0 -9.9844556613523991 9.4338707505732771 0 9.4338707505732771 7.4593927805157421 0 0 0 0 -13.855814629178781 16.811828175184782 0 16.811828175184782 -10.432678791141313 0 0 0 0 71.386468392127426 854.82712409686792 0 854.82712409686792 1211.8496426722922 0 0 0 0 208.02907319166115 8.7305877458566101 0 8.7305877458566101 510.57022456191771 0 0 0 0 573.73227745876648 14.514833557157544 0 14.514833557157544 -173.98700732525322 0 0 0 0 431.90540475427406 676.20030091464105 0 676.20030091464105 -65.208483814742067 0 0 0 0 603.96358169235464 762.13679930661601 0 762.13679930661601 -1396.923409827752 0 0 0 0 537.97479396278504 755.63762155862787 0 755.63762155862787 -856.90903305740176 0 0 0 0 -29.305663858423941 848.07064003087362 0 848.07064003087362 368.62615952371198 0 0 0 0 158.98308904992882 473.50072320053005 0 473.50072320053005 65.237643864369602 0 0 0 0 316.21755621136981 392.52469815746008 0 392.52469815746008 90.149294886097778 0 0 0 0 154.45795647750492 731.59046108395705 0 731.59046108395705 -618.34610859441023 0 0 0 0 -470.57123713791952 511.171375262933 0 511.171375262933 75.317177225610067 0 0 0 0 -19.8984576658695 1103.6160275466755 0 1103.6160275466755 1786.7282104400838 0 0 0 0 652.10186875348154 583.59814368770094 0 583.59814368770094 753.18386668369931 0 0 0 0 468.19605539675104 161.543175082159 0 161.543175082159 869.07874617690322 0 0 0 0 -21.511719244153937 -31.58876335102741 0 -31.58876335102741 2.0437595312541816 0 0 0 0 -87.167003969290818 100.01201583458806 0 100.01201583458806 46.745147262779938 0 0 0 0 -23.954547745347668 13.537674038549248 0 13.537674038549248 -4.0095467840125423 0 0 0 0 -88.386707111400028 373.81583651904202 0 373.81583651904202 -962.32225735983957 0 0 0 0 -449.20125378033845 80.172617029762478 0 80.172617029762478 104.73831721807801 0 0 0 0 -147.22676620732818 -187.730774682228 0 -187.730774682228 11.377087261906127 0 0 0 0 78.04792594157334 19.277738548846173 0 19.277738548846173 -44.191632552967349 0 0 0 0 -7.4784030989534358 8.0889375333607632 0 8.0889375333607632 0.75267172261231963 0 0 0 0 571.38110958159086 502.18354808372897 0 502.18354808372897 203.0158528194188 0 0 0 0 0.038618718492216431 375.74852841854408 0 375.74852841854408 300.81929564193342 0 0 0 0 170.3841916731908 311.12900232622633 0 311.12900232622633 306.99941095904796 0 0 0 0 201.10654897558561 295.26674529035063 0 295.26674529035063 256.54835079178156 0 0 0 0 185.62082383625238 272.8642379335688 0 272.8642379335688 274.24366839315917 0 0 0 0 -298.42565785857732 201.18667513731634 0 201.18667513731634 89.319350443467556 0 0 0 0 -756.75682834553299 763.7648732545349 0 763.7648732545349 -525.29132774296886 0 0 0 0 -808.66303627366869 1094.370380478771 0 1094.370380478771 -595.40036345804401 0 0 0 0 -237.66043404644006 558.04203274400425 0 558.04203274400425 -491.1422768564953 0 0 0 0 -1414.5233530763071 1187.3431346407961 0 1187.3431346407961 164.31702771990967 0 0 0 0 100.00389677186467 40.648554894647532 0 40.648554894647532 -41.010332610545447 0 0 0 0 46.744529764720937 153.77690488805092 0 153.77690488805092 -229.75169146523695 0 0 0 0 1.5384955149296502 9.6833082189588993 0 9.6833082189588993 17.133092936886115 0 0 0 0 57.323168470873497 84.147823050116131 0 84.147823050116131 64.920109757433238 0 0 0 0 11.674876660497716 26.828057509226312 0 26.828057509226312 2.7347570068633615 0 0 0 0 19.162097309721105 71.441261094830196 0 71.441261094830196 9.3312988692610048 0 0 0 0 22.279893368397438 56.225090622215646 0 56.225090622215646 38.54294442794928 0 0 0 0 -85.306919734590338 53.340430688423567 0 53.340430688423567 285.58970718902856 0 0 0 0 -33.839132038032403 -190.00923448578033 0 -190.00923448578033 188.54056748087532 0 0 0 0 11.96866293711355 182.31731912993291 0 182.31731912993291 86.84010294755717 0 0 0 0 43.317075242986903 59.21802960363857 0 59.21802960363857 32.008351040756679 0 0 0 0 22.8387155274782 84.208793981167886 0 84.208793981167886 -3.7150434891897817 0 0 0 0 8.5095018806790392 77.670730389890991 0 77.670730389890991 28.357405843258334 0 0 0 0 5.0307077191741882 36.353184275952231 0 36.353184275952231 52.388164283553436 0 0 0 0 145.03305522404844 121.70872762105682 0 121.70872762105682 -0.94020468178860028 0 0 0 0 33.423887287441175 1.2082318944012513 0 1.2082318944012513 19.662827762720553 0 0 0 0 -1785.8365976589848 598.2726788440832 0 598.2726788440832 -1278.2054904431752 0 0 0 0 -2046.8698856226401 1256.1788255783795 0 1256.1788255783795 -487.15643049540813 0 0 0 0 1.0829991350584152 13.768844597530347 0 13.768844597530347 -4.7724268429905408 0 0 0 0 -1841.718288033444 1468.2602379194686 0 1468.2602379194686 -664.95895830309382 0 0 0 0 -294.86291672420339 -206.32172801429988 0 -206.32172801429988 1311.0486702693706 0 0 0 0 -14.374319522754263 4.1918476709704997 0 4.1918476709704997 0.021625648309097301 0 0 0 0 -1793.9656791301677 680.7450626801583 0 680.7450626801583 1840.2663873823367 0 0 0 0 -521.82833339825447 1230.5959590843131 0 1230.5959590843131 -1607.2325550425085 0 0 0 0 -2221.980967416981 1887.5135724686697 0 1887.5135724686697 80.181623727843544 0 0 0 0 -1417.5764909884892 1167.5393675040978 0 1167.5393675040978 719.46326084928296 0 0 0 0 -1466.4465229026973 717.31201526503719 0 717.31201526503719 780.3362888016045 0 0 0 0 -1490.3037331220403 564.92446606214799 0 564.92446606214799 565.36476653306454 0 0 0 0 -1397.3256677582103 281.13428848120384 0 281.13428848120384 703.73794758312579 0 0 0 0 -1454.7916776784659 392.26066326177079 0 392.26066326177079 1013.6929452351178 0 0 0 0 -341.21452471008524 -94.082656852173386 0 -94.082656852173386 695.62033168251219 0 0 0 0 -489.35009571735281 417.75521059961466 0 417.75521059961466 831.56855959842505 0 0 0 0 -349.17434816835157 501.60321345788179 0 501.60321345788179 -247.02906431490555 0 0 0 0 -1149.8000892443233 353.15952150779049 0 353.15952150779049 469.82381699472899 0 0 0 0 -1236.8965435533901 160.49653044457955 0 160.49653044457955 420.69608623966087 0 0 0 0 -1395.4500413632486 153.54840836674703 0 153.54840836674703 218.41444543933176 0 0 0 0 -1101.6119512012883 256.74576138635894 0 256.74576138635894 224.27531802766316 0 0 0 0 -1202.4742193593993 60.575569789056317 0 60.575569789056317 232.45695639084124 0 0 0 0 -1507.9466739955824 -104.3384818854538 0 -104.3384818854538 69.052549666707819 0 0 0 0 -1404.0692803621787 372.007596652953 0 372.007596652953 -31.148288722048164 0 0 0 0 -1633.5529293479412 293.19248113147387 0 293.19248113147387 257.14579131737992 0 0 0 0 -1591.3959840554162 449.66947468635044 0 449.66947468635044 308.55130761628971 0 0 0 0 -7.0626983106932357 4.8413737895682516 0 4.8413737895682516 -1.5274701208911381 0 0 0 0 -1452.2927234722738 383.8654063401118 0 383.8654063401118 161.57938621815993 0 0 0 0 -1332.7801654372597 595.15480742367072 0 595.15480742367072 309.2077810621995 0 0 0 0 -1468.1699137006653 687.33481639732781 0 687.33481639732781 292.91336254051384 0 0 0 0 227.98815518639458 50.887280842307518 0 50.887280842307518 -67.988783843225974 0 0 0 0 112.98847621842287 -35.951091934079159 0 -35.951091934079159 -116.99883281846269 0 0 0 0 -179.51232204079133 743.72962452496085 0 743.72962452496085 34.057125239072775 0 0 0 0 -42.501752838719881 33.011342994855326 0 33.011342994855326 -31.223521888314082 0 0 0 0 69.769454923225567 193.54693221004709 0 193.54693221004709 199.31922060732177 0 0 0 0 -932.37633082645334 -539.16047151825296 0 -539.16047151825296 115.80716048702016 0 0 0 0 -2425.065602438277 -288.78641950312158 0 -288.78641950312158 371.10912236514196 0 0 0 0 138.76763400577875 308.30814932252156 0 308.30814932252156 -975.12229949045286 0 0 0 0 -18.287524857162794 13.384017161345085 0 13.384017161345085 -9.1466493368073429 0 0 0 0 122.09525077511353 168.47091872909095 0 168.47091872909095 138.03660289589607 0 0 0 0 0.73493026901269332 111.32302410755074 0 111.32302410755074 263.85823732896824 0 0 0 0 -905.53086287187762 577.01406744305132 0 577.01406744305132 -256.74390856994432 0 0 0 0 -1176.9101462140825 944.22923578569316 0 944.22923578569316 -752.83004441144294 0 0 0 0 -1762.0277832375723 230.65722540856223 0 230.65722540856223 273.92400294685649 0 0 0 0 -2620.1595485494472 982.65338954801518 0 982.65338954801518 -377.02725776522129 0 0 0 0 -1556.3639625918295 1255.3265946493884 0 1255.3265946493884 -1598.84366733559 0 0 0 0 -654.42284268006915 948.00336357543347 0 948.00336357543347 -1160.2395488446346 0 0 0 0 -804.47700481599895 636.56556288212596 0 636.56556288212596 -1244.1807068011258 0 0 0 0 -1162.9161271749763 682.140871246389 0 682.140871246389 -773.23967380551312 0 0 0 0 -1032.2615434032341 496.7651560385566 0 496.7651560385566 -1282.0173190350688 0 0 0 0 -1059.3333667725674 722.92009853677155 0 722.92009853677155 -1180.293042394449 0 0 0 0 -1293.2980502576393 316.22095827808516 0 316.22095827808516 -1878.5320950882051 0 0 0 0 -1566.6989009911267 915.53218491537882 0 915.53218491537882 -629.8523119368765 0 0 0 0 -2936.2946597035043 408.3098207102812 0 408.3098207102812 -813.62153819906234 0 0 0 0 -1431.7220510257466 880.55156054216059 0 880.55156054216059 -637.2486961513132 0 0 0 0 -1750.1427536338815 504.51896757287795 0 504.51896757287795 -782.98949896031991 0 0 0 0 -1213.7672600714432 740.30610321299173 0 740.30610321299173 -682.14267113390088 0 0 0 0 -1233.2606980965647 676.46262624746305 0 676.46262624746305 -748.48993787309155 0 0 0 0 -502.59867417432542 793.40243641642337 0 793.40243641642337 -713.14370101655368 0 0 0 0 3.3412669224025535 3.0274518891524735 0 3.0274518891524735 2.1653424011061588 0 0 0 0 -295.42628937241534 1238.1733940019967 0 1238.1733940019967 -1025.123490037673 0 0 0 0 -1578.1704295777017 1867.9546282806987 0 1867.9546282806987 -867.65052352074599 0 0 0 0 -840.88729811576195 1373.2293331036053 0 1373.2293331036053 -1020.344353436011 0 0 0 0 -1487.2595323983223 1140.6630412378654 0 1140.6630412378654 -796.51044358771469 0 0 0 0 -606.71948562543548 1085.8494827785107 0 1085.8494827785107 -1063.0244811087905 0 0 0 0 -841.46548361887108 1059.6970941419495 0 1059.6970941419495 -840.89997212670278 0 0 0 0 -588.25043283023115 286.31827873698239 0 286.31827873698239 -210.26571021959535 0 0 0 0 -1705.6276194278325 1023.1257328644642 0 1023.1257328644642 -523.09633470831614 0 0 0 0 4.3296544626809919 15.838302376672402 0 15.838302376672402 3.127500013060569 0 0 0 0 -6.7973448467673734 56.251070599173545 0 56.251070599173545 -7.3645591016684193 0 0 0 0 15.0792481219396 38.838917100787512 0 38.838917100787512 1.5703641301151947 0 0 0 0 -17.851415642915526 23.465098693537584 0 23.465098693537584 7.8759096750000026 0 0 0 0 -21.268355854717896 36.849793223816079 0 36.849793223816079 -9.9428509751183185 0 0 0 0 90.583979298709892 81.178990443746443 0 81.178990443746443 -30.797152403451037 0 0 0 0 7.6048458103905432 53.452364083044813 0 53.452364083044813 -11.317809282176313 0 0 0 0 41.344491855284559 31.916412298771178 0 31.916412298771178 6.8913671982904248 0 0 0 0 5.1007293794646102 12.637614324213274 0 12.637614324213274 -10.026788711759508 0 0 0 0 45.366502772394597 52.655576529670725 0 52.655576529670725 -29.569013166314107 0 0 0 0 45.053847534985834 56.756785331099309 0 56.756785331099309 -74.094086850251188 0 0 0 0 60.109462040534709 72.628449127849308 0 72.628449127849308 -9.8233952026930638 0 0 0 0 7.7332263646912907 139.64959127201041 0 139.64959127201041 -93.734177981663379 0 0 0 0 11.707576664775843 70.146540336660109 0 70.146540336660109 -17.586595753135043 0 0 0 0 51.507400967095748 46.795362762311527 0 46.795362762311527 19.073682101146176 0 0 0 0 34.82806189492112 54.344847635649785 0 54.344847635649785 -7.3457419651313103 0 0 0 0 61.500315875251545 78.111796729732305 0 78.111796729732305 -18.127538610642659 0 0 0 0 86.701202155403735 47.710626129357479 0 47.710626129357479 -15.152637389022857 0 0 0 0 12.032936652833044 8.1815607887033366 0 8.1815607887033366 2.662594109034444 0 0 0 0 42.985571782377974 50.109596047808253 0 50.109596047808253 22.644992159349982 0 0 0 0 -4.3644905670205958 34.213092820588827 0 34.213092820588827 1.9465282594204325 0 0 0 0 43.73066551994998 106.48105836050672 0 106.48105836050672 54.057875758655427 0 0 0 0 119.30225352628622 57.211157032899791 0 57.211157032899791 10.912360834539868 0 0 0 0 -0.82597095474193338 66.977926219022265 0 66.977926219022265 56.576013355283067 0 0 0 0 60.523416595708113 71.478997856131173 0 71.478997856131173 -0.23467461729160277 0 0 0 0 -133.18927189579699 71.915416473901132 0 71.915416473901132 16.821276051097811 0 0 0 0 -18.294139187216899 39.067406726628462 0 39.067406726628462 28.52644701537622 0 0 0 0 -45.7770223786938 54.674197484957404 0 54.674197484957404 9.3618266648263671 0 0 0 0 12.330304944087402 70.531024030990011 0 70.531024030990011 40.616995593300089 0 0 0 0 9.3272902467288077 78.465025914458238 0 78.465025914458238 72.613717008556705 0 0 0 0 -157.73274365386169 161.32364216541828 0 161.32364216541828 24.58614510615007 0 0 0 0 -159.77585112723682 122.61052789125324 0 122.61052789125324 44.105640055378899 0 0 0 0 -102.15123517945176 147.76375973172981 0 147.76375973172981 46.519658907825942 0 0 0 0 -97.590754872202524 65.010880499816267 0 65.010880499816267 90.989449489468825 0 0 0 0 -180.75097307233955 75.462801291003416 0 75.462801291003416 33.398414918134222 0 0 0 0 -133.98437092777749 129.29895184573979 0 129.29895184573979 40.977740600486868 0 0 0 0 -242.22412766756315 122.15005468292838 0 122.15005468292838 103.85897375454078 0 0 0 0 41.824449227628065 121.73849167914159 0 121.73849167914159 72.947319352140767 0 0 0 0 23.152906546951272 84.881834131665528 0 84.881834131665528 36.839797132786771 0 0 0 0 -144.6262483241735 50.035447850910714 0 50.035447850910714 19.206868081033463 0 0 0 0 -271.40694045116834 27.003647461369837 0 27.003647461369837 63.659883707179688 0 0 0 0 35.084784853846429 16.104790546387775 0 16.104790546387775 6.5537152904867924 0 0 0 0 37.944863932556473 144.47178472272935 0 144.47178472272935 101.60006581055495 0 0 0 0 14.922165344876703 121.30020849306311 0 121.30020849306311 112.40476084538386 0 0 0 0 27.498979904252337 91.546263767173514 0 91.546263767173514 45.538876034232089 0 0 0 0 46.163745983038098 138.46463531474001 0 138.46463531474001 93.712951124740357 0 0 0 0 78.463439494502381 171.30809909958043 0 171.30809909958043 114.37691656106836 0 0 0 0 47.09759236536047 135.48979439616414 0 135.48979439616414 102.69949425237428 0 0 0 0 -11.607160683226539 118.26295485722949 0 118.26295485722949 190.86421542501921 0 0 0 0 -19.862594036232622 31.231063903258473 0 31.231063903258473 87.329535109936842 0 0 0 0 -7.2897071643092204 52.063474552691332 0 52.063474552691332 84.580704584397608 0 0 0 0 -3.4085315800621174 77.461244632107991 0 77.461244632107991 55.70220499089919 0 0 0 0 0.0058389834011904895 84.907522489244002 0 84.907522489244002 50.620833731343737 0 0 0 0 11.792145604733378 80.779739161036559 0 80.779739161036559 51.936769728526997 0 0 0 0 8.0572694558650255 68.691010071022902 0 68.691010071022902 61.229838121798821 0 0 0 0 4.1567785499501042 85.698690816308954 0 85.698690816308954 65.523947729350766 0 0 0 0 -5.5984273946960457 82.514663624941022 0 82.514663624941022 84.817382767418167 0 0 0 0 247.73758265182551 199.89707401520718 0 199.89707401520718 -58.459152262345015 0 0 0 0 312.60845468624939 260.79115495113092 0 260.79115495113092 -164.30154646013398 0 0 0 0 349.96399654247944 119.69878290587803 0 119.69878290587803 -84.385529212391702 0 0 0 0 -38.850546642863044 121.45112025288893 0 121.45112025288893 -29.525319150961877 0 0 0 0 -72.285436201505945 109.43247736588091 0 109.43247736588091 9.1349685928653344 0 0 0 0 -46.197664691921091 123.32470190985623 0 123.32470190985623 -28.103619613022602 0 0 0 0 -102.1793880440091 137.96398584834969 0 137.96398584834969 -48.486815334872517 0 0 0 0 -63.504235867148964 105.52832235120877 0 105.52832235120877 -41.12388322744664 0 0 0 0 -85.167708168417448 139.89772578269185 0 139.89772578269185 -83.851592263636121 0 0 0 0 -164.67468869536242 211.9879838169436 0 211.9879838169436 -51.327313000903814 0 0 0 0 -146.82837183581432 140.77058039859548 0 140.77058039859548 -55.070462192990817 0 0 0 0 -91.584787709645752 169.22057768185368 0 169.22057768185368 -49.762381366730551 0 0 0 0 -99.546940152940806 127.74110149523767 0 127.74110149523767 -5.5748358794153319 0 0 0 0 -80.974284507421544 180.22352823286201 0 180.22352823286201 -84.48962495629894 0 0 0 0 -28.402717895311071 176.73176052174676 0 176.73176052174676 27.796636357925308 0 0 0 0 -123.06929677234075 102.56905613033905 0 102.56905613033905 175.13638479427027 0 0 0 0 -42.965465740155196 112.56317149948154 0 112.56317149948154 55.08958923019236 0 0 0 0 8.4447489632002544 19.485854872935306 0 19.485854872935306 92.637583930700202 0 0 0 0 -83.592680500776623 -23.188605785839172 0 -23.188605785839172 480.02447688011307 0 0 0 0 4.4718954442024028 -2.1556422263231241 0 -2.1556422263231241 -2.4860657306968506 0 0 0 0 -49.487362428946653 95.118982863928977 0 95.118982863928977 21.462854804551171 0 0 0 0 -39.83478460837614 180.92342049930221 0 180.92342049930221 108.55378198843391 0 0 0 0 -44.188680280640256 143.97326435099421 0 143.97326435099421 -17.966809264937183 0 0 0 0 -3.632880363627919 191.50457926134914 0 191.50457926134914 30.52955324715731 0 0 0 0 -134.51682142781647 340.94438398154216 0 340.94438398154216 29.004823613548069 0 0 0 0 -38.222751231953204 120.31176693771448 0 120.31176693771448 -20.502392569707126 0 0 0 0 99.573439479172521 305.22314386286598 0 305.22314386286598 21.172398730956047 0 0 0 0 152.2215014711619 151.0481783861178 0 151.0481783861178 -137.92366902333742 0 0 0 0 -290.04576580814683 68.688729202136528 0 68.688729202136528 19.828359489678405 0 0 0 0 -43.779638939499847 117.97779914996765 0 117.97779914996765 -10.38784996618196 0 0 0 0 -160.48322271301004 276.3676973556212 0 276.3676973556212 -13.737969872105168 0 0 0 0 105.86109111495898 101.18017199602582 0 101.18017199602582 -171.3336910089929 0 0 0 0 60.659962073681527 134.09098614725735 0 134.09098614725735 -41.700251606824168 0 0 0 0 -25.622369951015571 51.119960808951873 0 51.119960808951873 -113.84224192831607 0 0 0 0 -3.3164299593276496 32.663254706672049 0 32.663254706672049 -4.0674715454710331 0 0 0 0 -78.684644982298778 154.86684476000482 0 154.86684476000482 -310.23601490509463 0 0 0 0 -6.54984346794771 -2.8163514736950503 0 -2.8163514736950503 0.71771911711561465 0 0 0 0 -118.49189010919144 367.85002766792695 0 367.85002766792695 -366.85492985126621 0 0 0 0 -143.73105829297856 310.0598289917798 0 310.0598289917798 -301.18601622935603 0 0 0 0 -78.537718986393884 449.32767734004665 0 449.32767734004665 -1120.6157452601547 0 0 0 0 -71.846529614093015 120.46988660468924 0 120.46988660468924 -403.33141578066716 0 0 0 0 -3.1941584392844788 0.49424885808696217 0 0.49424885808696217 -0.086839602314270237 0 0 0 0 -323.9808529142465 -150.1295289314221 0 -150.1295289314221 914.74608508611709 0 0 0 0 156.84000958978868 249.60775532732441 0 249.60775532732441 227.26714925875422 0 0 0 0 -479.48379489476793 130.82120039796064 0 130.82120039796064 -2.699758918291991 0 0 0 0 -259.38250860521293 243.674156976738 0 243.674156976738 9.1462808569340268 0 0 0 0 -312.91578439018031 -321.5496756890409 0 -321.5496756890409 135.63199240851827 0 0 0 0 -33.486503139778506 263.74995582074916 0 263.74995582074916 -64.835487471000306 0 0 0 0 -107.81132471597812 72.340009658299095 0 72.340009658299095 191.59518839295197 0 0 0 0 -111.74711067421595 303.5676545175811 0 303.5676545175811 -69.382939109993458 0 0 0 0 -12.632273595339939 355.12065194258321 0 355.12065194258321 -43.501010449326714 0 0 0 0 -119.13988030597102 74.657132094514964 0 74.657132094514964 791.20508708642194 0 0 0 0 -81.638179496920202 185.71165333763929 0 185.71165333763929 212.44586913976673 0 0 0 0 243.76889515679795 3.4463476660675951 0 3.4463476660675951 136.54238467257528 0 0 0 0 -483.54970660153776 172.27221128695237 0 172.27221128695237 420.17926165948353 0 0 0 0 188.49035880697193 324.19072490795952 0 324.19072490795952 -64.371022605322651 0 0 0 0 -99.881075995624997 509.28356911855371 0 509.28356911855371 -5.6794404669399228 0 0 0 0 -690.76476336964697 267.69086524744489 0 267.69086524744489 89.73826013654616 0 0 0 0 -5.9388107932172716 186.70912804123509 0 186.70912804123509 -35.414593878103915 0 0 0 0 -57.536132817025646 224.85353569661856 0 224.85353569661856 -14.277873027487658 0 0 0 0 6.1134193858335095 113.95777612463368 0 113.95777612463368 -13.79014743605282 0 0 0 0 217.20983167903614 102.34145033584718 0 102.34145033584718 78.06967487775546 0 0 0 0 35.006395555737981 186.57312567913141 0 186.57312567913141 33.404776373005006 0 0 0 0 132.77875212040817 147.42572549196848 0 147.42572549196848 -192.76402018492809 0 0 0 0 333.70182641796418 190.42035923235744 0 190.42035923235744 -45.762213936592161 0 0 0 0 -30.28036132354994 111.55724376700576 0 111.55724376700576 -18.949520040594848 0 0 0 0 -0.83449703528960129 1.7223038031644933 0 1.7223038031644933 -3.1029462260357832 0 0 0 0 511.32638828873314 159.71822551501737 0 159.71822551501737 -83.015984340789146 0 0 0 0 80.476206746505341 175.00582666830451 0 175.00582666830451 102.23408520624798 0 0 0 0 263.15823102701688 128.18807890593416 0 128.18807890593416 -69.875910178627237 0 0 0 0 -35.296891300234222 65.898993894355783 0 65.898993894355783 -27.744480894150115 0 0 0 0 194.3057529492653 263.3360723912192 0 263.3360723912192 65.589048381822067 0 0 0 0 41.391130008763866 137.85606559515145 0 137.85606559515145 110.06535453555989 0 0 0 0 45.540458301198669 152.61003120211535 0 152.61003120211535 116.26313329296318 0 0 0 0 -23.85053509427496 72.681222928604257 0 72.681222928604257 49.145926344294708 0 0 0 0 43.067082297202433 125.68758061021981 0 125.68758061021981 85.489133544047945 0 0 0 0 -4.6010714199073846 165.96103692659017 0 165.96103692659017 37.350474052058416 0 0 0 0 33.129382772633107 125.36811990259957 0 125.36811990259957 90.637171225156635 0 0 0 0 48.253569139924366 126.475518902771 0 126.475518902771 76.980012229803833 0 0 0 0 54.355722914304351 139.96838278059295 0 139.96838278059295 94.97049485077514 0 0 0 0 -12.015538168445346 29.027543997606699 0 29.027543997606699 28.446594911314605 0 0 0 0 -366.43342078496789 79.48776830949646 0 79.48776830949646 -16.772995755651209 0 0 0 0 -81.306921135808807 9.2634612332803954 0 9.2634612332803954 177.05884432343737 0 0 0 0 -8.8831484734876085 10.933338804694074 0 10.933338804694074 1.2627109532054277 0 0 0 0 -672.94526347401552 675.50779897402026 0 675.50779897402026 -188.09546144751221 0 0 0 0 -0.94527326217540519 41.936642376679799 0 41.936642376679799 -68.036483070252331 0 0 0 0 186.08064396827103 223.10913943276773 0 223.10913943276773 -120.98667282358656 0 0 0 0 -378.69489178768708 243.4093954252894 0 243.4093954252894 -394.7415027480456 0 0 0 0 56.087777492706664 146.42807658057427 0 146.42807658057427 78.380729112934205 0 0 0 0 129.08158744493267 171.71682167663676 0 171.71682167663676 -30.750971486475464 0 0 0 0 64.80381117809759 106.34779463755183 0 106.34779463755183 70.12856187239862 0 0 0 0 -145.87261223461246 351.93503974514897 0 351.93503974514897 -93.209316661261255 0 0 0 0 210.04973843091284 183.06947681715974 0 183.06947681715974 -244.05128734327809 0 0 0 0 294.95768731596763 38.245319008994556 0 38.245319008994556 34.312262605510114 0 0 0 0 207.99074230501265 158.6753247354095 0 158.6753247354095 -12.062511118674593 0 0 0 0 -69.963893193751574 162.06882033278089 0 162.06882033278089 -12.521318209823221 0 0 0 0 128.18006607424468 129.98991138841666 0 129.98991138841666 -15.743003798930658 0 0 0 0 -390.13649300800171 257.92446284786274 0 257.92446284786274 282.25811156321288 0 0 0 0 -8.0384373440826238 19.551698229803009 0 19.551698229803009 -46.923556433285228 0 0 0 0 -851.71307881033863 -74.584371078977711 0 -74.584371078977711 131.1603508493863 0 0 0 0 770.55542106624489 458.08051055819942 0 458.08051055819942 137.33737402599945 0 0 0 0 581.41220177205105 137.52230420949127 0 137.52230420949127 43.54132900199329 0 0 0 0 209.90949292329606 242.28509793674311 0 242.28509793674311 138.4982014630732 0 0 0 0 267.85621523240115 260.25793584194616 0 260.25793584194616 278.8932256053813 0 0 0 0 99.792597598629072 247.46902196558585 0 247.46902196558585 210.24440191114263 0 0 0 0 212.90849995968165 153.38677501436177 0 153.38677501436177 159.6259273113119 0 0 0 0 78.676968890038552 153.85460618740035 0 153.85460618740035 324.9896016147286 0 0 0 0 111.38440129806986 201.72761480028203 0 201.72761480028203 157.47579301468795 0 0 0 0 12.984376127889846 280.53159241496178 0 280.53159241496178 118.70564582418592 0 0 0 0 61.695071739610285 269.24192821287579 0 269.24192821287579 30.207446624699514 0 0 0 0 101.8230106740084 187.52933857210883 0 187.52933857210883 136.99816812959762 0 0 0 0 56.745803244528361 216.63218543289258 0 216.63218543289258 -20.366409007539914 0 0 0 0 35.861218616068072 305.03480899069291 0 305.03480899069291 29.275798408103583 0 0 0 0 99.840861567558022 269.07343083106844 0 269.07343083106844 -165.04300304968638 0 0 0 0 140.21819833617627 84.730676073958108 0 84.730676073958108 26.885714463308219 0 0 0 0 133.28851545902762 158.85547240268852 0 158.85547240268852 -152.27526408804988 0 0 0 0 134.92311343236361 162.77252976040108 0 162.77252976040108 -430.9818025480854 0 0 0 0 31.210107768636078 28.740960561985133 0 28.740960561985133 23.627764497354903 0 0 0 0 -67.768446723040142 393.6761421905793 0 393.6761421905793 -208.59725174876803 0 0 0 0 125.25349662342342 116.98669175604573 0 116.98669175604573 -45.542686007684097 0 0 0 0 41.875289360526949 165.82386052868969 0 165.82386052868969 16.24812225480855 0 0 0 0 121.13539002801792 81.929368370732334 0 81.929368370732334 30.013329743907789 0 0 0 0 72.624208890774753 217.24062842689455 0 217.24062842689455 -0.095570920406316873 0 0 0 0 165.13800881670613 347.71737345121437 0 347.71737345121437 264.30694127877723 0 0 0 0 128.44222882442409 67.304907543068111 0 67.304907543068111 20.807177019802111 0 0 0 0 3.3824010961398017 191.71209126869144 0 191.71209126869144 170.67305060930084 0 0 0 0 34.057879278960172 263.9341811304148 0 263.9341811304148 156.69660239561472 0 0 0 0 124.3706787131523 51.213930260146299 0 51.213930260146299 -35.163424605707405 0 0 0 0 -8.3335394520732962 29.377462893916757 0 29.377462893916757 -13.755709979957587 0 0 0 0 -44.925172923200449 55.992126165328955 0 55.992126165328955 -28.559577830244791 0 0 0 0 143.5573649132275 18.075052334281281 0 18.075052334281281 31.294939790477656 0 0 0 0 662.51406892563682 794.83927494630916 0 794.83927494630916 -357.75157021505947 0 0 0 0 -9.1117222042297499 1.2285761212432647 0 1.2285761212432647 -1.1911854672245497 0 0 0 0 175.92763426658348 -207.20213199535601 0 -207.20213199535601 -1656.1680139587297 0 0 0 0 -261.60835675059934 22.554284463965814 0 22.554284463965814 42.345853311802784 0 0 0 0 8.6254090758448001 125.14622085854717 0 125.14622085854717 -191.26880470533797 0 0 0 0 -120.35844536294462 91.646137724550499 0 91.646137724550499 -2.836591888921248 0 0 0 0 193.5852509078104 231.18977328108122 0 231.18977328108122 -219.53264408624818 0 0 0 0 -39.793230135432054 50.770647358510246 0 50.770647358510246 -55.796490631355738 0 0 0 0 -7.4571322299647704 5.1996404213824121 0 5.1996404213824121 -6.4113518423458586 0 0 0 0 70.709500011864293 -151.52305201635772 0 -151.52305201635772 -595.01290973084542 0 0 0 0 -65.510311190912034 264.43538045451714 0 264.43538045451714 515.05714118107426 0 0 0 0 117.49238449553377 159.67311493219131 0 159.67311493219131 325.62433107868037 0 0 0 0 419.40707845694851 247.1340349950442 0 247.1340349950442 273.734979931206 0 0 0 0 223.46522390704195 649.56190374451216 0 649.56190374451216 519.65043124527438 0 0 0 0 2.1979669308639131 573.96547387254031 0 573.96547387254031 639.75611061554446 0 0 0 0 666.63502767970203 -577.54959020858223 0 -577.54959020858223 -855.60133457672782 0 0 0 0 1100.6534870969117 88.780109534814073 0 88.780109534814073 -670.29655170904152 0 0 0 0 -2.5650982150022941 7.5314734616499379 0 7.5314734616499379 -17.430909574210403 0 0 0 0 392.25476376307779 134.56999778439786 0 134.56999778439786 -267.79176982652643 0 0 0 0 23.418135291416547 238.36501865436912 0 238.36501865436912 -295.56303850081167 0 0 0 0 252.85340283252299 186.68447688666492 0 186.68447688666492 -683.66993582350915 0 0 0 0 223.34530703083146 413.35428311705618 0 413.35428311705618 -464.9942460980601 0 0 0 0 133.64398641855223 242.19085205450392 0 242.19085205450392 -331.55945667348351 0 0 0 0 119.61389675497776 375.79945745842997 0 375.79945745842997 -180.31075483167911 0 0 0 0 50.605775598546415 65.168198871958765 0 65.168198871958765 -47.937103698857584 0 0 0 0 300.1010683226632 60.54003913390261 0 60.54003913390261 126.21216706981068 0 0 0 0 422.5408268769097 590.84567222679834 0 590.84567222679834 155.45034277576997 0 0 0 0 83.754535951127764 323.61334983586494 0 323.61334983586494 0.17456847313587787 0 0 0 0 299.25746921633254 451.55098324490245 0 451.55098324490245 -123.17396720079705 0 0 0 0 -144.16998493025312 88.593419215745598 0 88.593419215745598 199.92249673494916 0 0 0 0 -74.902937186751672 92.938736813774284 0 92.938736813774284 46.151474542812409 0 0 0 0 630.94388153008913 170.03373256470059 0 170.03373256470059 -323.44232678307162 0 0 0 0 591.48646640439983 260.72969495870711 0 260.72969495870711 -227.16144752521359 0 0 0 0 768.35969640422263 353.14574737907606 0 353.14574737907606 -287.91012665703965 0 0 0 0 730.73680715160299 255.44718547559933 0 255.44718547559933 -370.4201148924767 0 0 0 0 58.42340929133934 -11.461593426665956 0 -11.461593426665956 -68.223239589531659 0 0 0 0 5.4179681754903868 215.81394696494317 0 215.81394696494317 59.411988777319493 0 0 0 0 -26.817402390871763 49.882811631582143 0 49.882811631582143 -30.855599912949266 0 0 0 0 378.83151159682893 322.61894410866626 0 322.61894410866626 -51.414947139993274 0 0 0 0 -43.679581371399081 7.5898790250808759 0 7.5898790250808759 17.504047133615202 0 0 0 0 264.14939074436552 325.07160252460017 0 325.07160252460017 -16.822317415450016 0 0 0 0 487.2905389421212 83.923599194207782 0 83.923599194207782 173.41265642026337 0 0 0 0 52.321119423311416 70.955409202691442 0 70.955409202691442 51.051825644124115 0 0 0 0 -12.719456191349309 157.0839198950016 0 157.0839198950016 28.117318539851112 0 0 0 0 4.3988600977172609 189.51877512355622 0 189.51877512355622 15.885114658534405 0 0 0 0 -24.081685046752682 132.23450030471304 0 132.23450030471304 17.548528813495068 0 0 0 0 4.0517356686177664 122.79030959637385 0 122.79030959637385 -24.129662285995437 0 0 0 0 -14.400707077930747 155.7853315405055 0 155.7853315405055 -30.086592955780361 0 0 0 0 -14.826342806889443 169.48960825316135 0 169.48960825316135 30.65044008053701 0 0 0 0 107.97413211251842 118.72015288015791 0 118.72015288015791 41.76388805922943 0 0 0 0 -30.989904328802368 45.853725960978409 0 45.853725960978409 178.46371205537798 0 0 0 0 125.86334576367517 328.93193800878726 0 328.93193800878726 -128.96365823654924 0 0 0 0 546.03541762677196 156.78731235021587 0 156.78731235021587 -776.47108449795996 0 0 0 0 8.2895162919448921 213.24955323330141 0 213.24955323330141 171.81175919685847 0 0 0 0 -6.3721945604428356 34.314730121570051 0 34.314730121570051 -12.411575663051007 0 0 0 0 -38.428287158952884 64.33390452952932 0 64.33390452952932 -46.542977464583927 0 0 0 0 77.382448853837559 216.36976692019743 0 216.36976692019743 51.363822463443285 0 0 0 0 231.12421546933183 -144.10512766840111 0 -144.10512766840111 353.0773976487551 0 0 0 0 -6.0014465959448557 133.51773527420161 0 133.51773527420161 -54.30485223394318 0 0 0 0 565.53450307479579 82.393017093253548 0 82.393017093253548 -93.789357264497085 0 0 0 0 -38.999303030621377 281.67871068299701 0 281.67871068299701 -145.9528811592827 0 0 0 0 24.5066978874234 18.281794662324145 0 18.281794662324145 -3.8203903258991829 0 0 0 0 260.90448767389171 166.10958991581356 0 166.10958991581356 -11.321180945080414 0 0 0 0 -16.204098492984485 181.37212521062429 0 181.37212521062429 -27.942707700247411 0 0 0 0 24.948588404994808 18.409959322339233 0 18.409959322339233 -4.6821388491887888 0 0 0 0 212.65754227115394 97.627615275119751 0 97.627615275119751 -33.956096997833811 0 0 0 0 76.554104861460729 134.9877699996469 0 134.9877699996469 2.2333565585791035 0 0 0 0 -7.3361046173085924 149.79821225506021 0 149.79821225506021 14.269197862471628 0 0 0 0 -52.866475586692104 245.56378683054936 0 245.56378683054936 -80.759088806138607 0 0 0 0 90.411142321216175 168.60387634408835 0 168.60387634408835 -79.349521726204216 0 0 0 0 67.905904384795576 180.89680638999926 0 180.89680638999926 71.851492209105345 0 0 0 0 228.74127304271678 11.386978629921941 0 11.386978629921941 -34.275397560679266 0 0 0 0 -5.983050374684467 47.587572758073918 0 47.587572758073918 61.174718201780053 0 0 0 0 -391.95520751277218 448.59601181097241 0 448.59601181097241 -57.160607554629678 0 0 0 0 130.70615753610036 141.21856112269597 0 141.21856112269597 -218.36975585775508 0 0 0 0 -159.26713296870003 308.82336547884915 0 308.82336547884915 -123.62971523194574 0 0 0 0 57.475947963765066 284.38429323345645 0 284.38429323345645 -160.72390600832296 0 0 0 0 -149.03872346325079 318.09172336026677 0 318.09172336026677 -77.262713725620415 0 0 0 0 -140.62472431687638 285.41382848338344 0 285.41382848338344 -167.19002101449587 0 0 0 0 -291.8328609346936 153.28419109281094 0 153.28419109281094 -164.00916939579474 0 0 0 0 -640.19240823083965 333.09717690934121 0 333.09717690934121 -46.189054931761348 0 0 0 0 -512.93431671678263 204.19388453980719 0 204.19388453980719 -160.97452999436064 0 0 0 0 -787.99649358695024 -144.31396205789861 0 -144.31396205789861 -342.6166433396138 0 0 0 0 -1809.9722770970693 -60.258538065572793 0 -60.258538065572793 211.0494774926301 0 0 0 0 -1374.4679128855496 628.74790118020428 0 628.74790118020428 160.00342934761284 0 0 0 0 -547.8855624764692 123.03808724682676 0 123.03808724682676 -265.03978265638216 0 0 0 0 485.38562599156285 -587.18012228240877 0 -587.18012228240877 -206.06058691296494 0 0 0 0 -471.92570251540747 709.44015149844927 0 709.44015149844927 -308.65887954990103 0 0 0 0 -1301.7821073871455 591.47544229745472 0 591.47544229745472 1162.1158500024067 0 0 0 0 8.1792585956281982 35.008151121109222 0 35.008151121109222 -44.350280425531764 0 0 0 0 19.029959040242943 52.91548397342028 0 52.91548397342028 -25.280721072144651 0 0 0 0 -111.7305273443344 301.26780106632214 0 301.26780106632214 -655.39564096890808 0 0 0 0 -103.45154254215595 267.67246344604018 0 267.67246344604018 -406.43296868333891 0 0 0 0 10.423870855818222 47.945398460295337 0 47.945398460295337 68.837026021447912 0 0 0 0 -596.03594700866961 287.98327549185706 0 287.98327549185706 7.053921220985103 0 0 0 0 -295.32689817581559 260.78066133120228 0 260.78066133120228 -30.686884273894975 0 0 0 0 0.33836784403229103 5.5920864048334664 0 5.5920864048334664 14.004147441981754 0 0 0 0 559.66926115838578 234.05491418415113 0 234.05491418415113 -392.49745659215478 0 0 0 0 572.09345252386993 -369.01356060070248 0 -369.01356060070248 29.370101011459383 0 0 0 0 -144.25687349569489 131.62120458543336 0 131.62120458543336 -40.084192513244489 0 0 0 0 -268.07282667855179 227.67485152562267 0 227.67485152562267 -96.903000158506984 0 0 0 0 -237.85103525828163 358.27566286716137 0 358.27566286716137 -112.87001661561226 0 0 0 0 12.10261284771525 36.377456292474079 0 36.377456292474079 73.174512560171308 0 0 0 0 -63.154658050043508 117.93235353985165 0 117.93235353985165 -74.393421382959332 0 0 0 0 -23.8191666091152 272.28960593288502 0 272.28960593288502 -163.63833678150513 0 0 0 0 137.88032448492595 76.223287173304016 0 76.223287173304016 -40.877026664677487 0 0 0 0 -28.263470833059273 165.62784082919612 0 165.62784082919612 3.6678104910770344 0 0 0 0 194.89653992185777 217.19666363661781 0 217.19666363661781 -125.98452133728279 0 0 0 0 -40.838532971663241 113.21228782544401 0 113.21228782544401 -34.519142557829852 0 0 0 0 1161.1033089647826 -38.737979614353208 0 -38.737979614353208 -2105.0565711909294 0 0 0 0 -78.354029386056936 207.65129088089816 0 207.65129088089816 107.77710149985796 0 0 0 0 98.933656460780185 315.6985558924971 0 315.6985558924971 -38.624884958982875 0 0 0 0 -63.910668763371291 137.68292838905541 0 137.68292838905541 22.592651600587057 0 0 0 0 179.46363144948555 147.91201215506044 0 147.91201215506044 79.936117942467718 0 0 0 0 48.536470167877269 10.096782475722648 0 10.096782475722648 225.00457392290082 0 0 0 0 -7.3760894073530494 122.71742029050429 0 122.71742029050429 73.033658993890086 0 0 0 0 118.01009685994359 11.89594198199211 0 11.89594198199211 -9.0754889807369636 0 0 0 0 -24.077102351904614 177.67160402381751 0 177.67160402381751 11.802117885286862 0 0 0 0 -139.81184769340325 68.894886224152287 0 68.894886224152287 234.44533359620254 0 0 0 0 -75.41709669183183 260.65077225598725 0 260.65077225598725 -3.0877976398041938 0 0 0 0 -11.702933933034615 99.805744899271744 0 99.805744899271744 72.254388286038207 0 0 0 0 -147.23672314290889 8.4984985814080574 0 8.4984985814080574 338.13538108322791 0 0 0 0 11.15231445619429 63.472819566894032 0 63.472819566894032 -28.910628851532238 0 0 0 0 -431.19572608610906 85.81132130161086 0 85.81132130161086 50.310447352595475 0 0 0 0 -192.22338819746801 426.00428589172316 0 426.00428589172316 -423.92010698579907 0 0 0 0 -37.488744512549601 137.22984977612214 0 137.22984977612214 -69.695183803925829 0 0 0 0 -195.2235311160257 406.76760211932515 0 406.76760211932515 -279.87467133453356 0 0 0 0 -108.19679893029388 268.60691404251099 0 268.60691404251099 -360.73187831310315 0 0 0 0 8.9326386534838207 4.5628072781405535 0 4.5628072781405535 -17.013377835196486 0 0 0 0 -29.313833518154581 103.12522756827826 0 103.12522756827826 71.648739195905534 0 0 0 0 -177.74216530901322 293.01160879710665 0 293.01160879710665 131.44078806929792 0 0 0 0 -60.604467228244175 145.54013954546735 0 145.54013954546735 254.28333450822038 0 0 0 0 43.892803813665523 39.120674903555482 0 39.120674903555482 154.0238975335451 0 0 0 0 -12.184248624595966 -22.011769377886594 0 -22.011769377886594 207.79990296420874 0 0 0 0 -5.3619286639949735 27.424282241709449 0 27.424282241709449 36.918968428297262 0 0 0 0 59.639410183954169 225.31197308811534 0 225.31197308811534 282.90894828853925 0 0 0 0 -48.65927315162844 -79.967771371302661 0 -79.967771371302661 238.69414973857056 0 0 0 0 29.593185890495079 382.84394219274691 0 382.84394219274691 -8.001224483603437 0 0 0 0 -175.40901299795951 40.566405247598595 0 40.566405247598595 253.04876517603407 0 0 0 0 -30.868764235799972 135.98047287187478 0 135.98047287187478 77.60859907331178 0 0 0 0 -322.12562836038705 279.22160200837243 0 279.22160200837243 124.15248676371266 0 0 0 0 -484.2282521580637 450.07680250691919 0 450.07680250691919 -153.95682906265461 0 0 0 0 -204.15229200222529 263.55971113416672 0 263.55971113416672 -143.44839246854826 0 0 0 0 -239.93834211616195 422.43512015738816 0 422.43512015738816 -311.89174709982399 0 0 0 0 -392.2403967915161 566.99723826246918 0 566.99723826246918 -364.60324729683998 0 0 0 0 -296.29462241658621 565.87027890299032 0 565.87027890299032 -396.73583675065311 0 0 0 0 -262.05807480153453 449.68827935736954 0 449.68827935736954 -69.397162794644828 0 0 0 0 -171.28978995046054 229.71666133920735 0 229.71666133920735 1.6411079358076677 0 0 0 0 -348.0226169138914 445.59927549943313 0 445.59927549943313 -126.10976020304952 0 0 0 0 -3.409509743883973 107.60089911601744 0 107.60089911601744 39.34883672433989 0 0 0 0 -9.7093728226682288 121.59987346171533 0 121.59987346171533 40.642378899699906 0 0 0 0 12.019916847842978 147.13583370808556 0 147.13583370808556 22.996380334005153 0 0 0 0 23.191867061366793 152.21694570102773 0 152.21694570102773 43.782623530027195 0 0 0 0 68.117506237213263 73.847560243709438 0 73.847560243709438 55.164704000635517 0 0 0 0 71.64156853678287 99.338074897324987 0 99.338074897324987 -41.650014899410962 0 0 0 0 -2.771800033893669 139.67799205840856 0 139.67799205840856 -52.208751256490359 0 0 0 0 6.6383911367447581 126.5754380261593 0 126.5754380261593 11.477528692629221 0 0 0 0 37.582687189773424 109.3185276193044 0 109.3185276193044 12.100063942814501 0 0 0 0 -146.53651429301681 340.32700785088582 0 340.32700785088582 129.71929190345145 0 0 0 0 423.92064763151575 185.28604895989247 0 185.28604895989247 -120.59201780639341 0 0 0 0 279.33352337341057 15.046202753773287 0 15.046202753773287 -121.75801692892674 0 0 0 0 -41.398537300639589 66.615962036055379 0 66.615962036055379 -16.875133006190278 0 0 0 0 111.13714247332246 362.12144421505036 0 362.12144421505036 78.717927846636485 0 0 0 0 60.020778438462003 138.56518693284556 0 138.56518693284556 50.114039986839089 0 0 0 0 33.209665542203766 106.69748998214448 0 106.69748998214448 30.713042099510858 0 0 0 0 33.403950083557902 101.58205564229351 0 101.58205564229351 76.746883450259702 0 0 0 0 44.988266496548306 92.104925770559092 0 92.104925770559092 46.777584079353197 0 0 0 0 4.0713023646967486 97.463897898083815 0 97.463897898083815 100.9564784734539 0 0 0 0 -44.945452769695294 114.44800483337701 0 114.44800483337701 -124.98698728744057 0 0 0 0 -38.904709698166698 -3.1472391963652626 0 -3.1472391963652626 102.39494592004485 0 0 0 0 10.734495695418445 50.134513063072518 0 50.134513063072518 148.92275771561981 0 0 0 0 35.712018134858226 27.992852688663334 0 27.992852688663334 78.044863622271805 0 0 0 0 148.90876335973735 22.030320544843562 0 22.030320544843562 72.10129418336146 0 0 0 0 67.103935897219344 70.6927641653092 0 70.6927641653092 87.053495668173127 0 0 0 0 281.77984872792149 -571.89506305046234 0 -571.89506305046234 -672.10473424992233 0 0 0 0 95.813899420172675 77.031257608272426 0 77.031257608272426 79.833611872312758 0 0 0 0 -8.5107627239326007 30.868049018853014 0 30.868049018853014 5.7756927071481812 0 0 0 0 12.995417871803511 123.68840697011638 0 123.68840697011638 17.815070204316726 0 0 0 0 17.470216074536438 135.34087879618619 0 135.34087879618619 46.981532622872692 0 0 0 0 39.225166950652579 86.774814038419706 0 86.774814038419706 40.126835230434892 0 0 0 0 18.461458533565747 96.604380966993631 0 96.604380966993631 17.850372048473218 0 0 0 0 -55.252188604848925 53.833581463125938 0 53.833581463125938 122.25189982731172 0 0 0 0 188.2752334716497 76.073641771202347 0 76.073641771202347 -175.93377943946143 0 0 0 0 140.78938276716508 -95.086351264733821 0 -95.086351264733821 102.2455567064244 0 0 0 0 -8.7063241123687476 104.94118737242752 0 104.94118737242752 103.20056779590232 0 0 0 0 -6.9932415701170498 7.1355995433967649 0 7.1355995433967649 3.5232307763073543 0 0 0 0 7.8774393158498697 2.0170710386696555 0 2.0170710386696555 -9.8241257154307888 0 0 0 0 3.2701271405497323 62.60248935470247 0 62.60248935470247 26.652550704389419 0 0 0 0 -1.4922318309905336 72.235716740274057 0 72.235716740274057 -7.3196920528043137 0 0 0 0 52.461027180077508 121.28327704793992 0 121.28327704793992 5.9654707013178268 0 0 0 0 16.949868648570259 61.8056268316152 0 61.8056268316152 30.856525996710964 0 0 0 0 21.463906377828948 64.145226683137366 0 64.145226683137366 27.2384001557323 0 0 0 0 -42.49817671913479 384.6109130968207 0 384.6109130968207 -23.060061226104153 0 0 0 0 -4.4274081175972242 414.49815976842365 0 414.49815976842365 -71.988155221060879 0 0 0 0 2.7164453770674299 93.091149731157202 0 93.091149731157202 23.570896706978601 0 0 0 0 6.6901124760075277 58.236734134477032 0 58.236734134477032 54.272475721977521 0 0 0 0 41.665140703669749 84.431249625013152 0 84.431249625013152 32.526205022626527 0 0 0 0 2.901904958212981 93.983063615749415 0 93.983063615749415 -38.527682395118973 0 0 0 0 -277.1705268243677 59.170127969722671 0 59.170127969722671 606.35152738369288 0 0 0 0 32.574009759761111 53.714250869063335 0 53.714250869063335 33.602392949592826 0 0 0 0 -37.274476333986968 248.55720350985757 0 248.55720350985757 -148.40658933390512 0 0 0 0 42.0319116272766 28.697372298955756 0 28.697372298955756 17.127775982213976 0 0 0 0 183.44814274393138 141.90055295620959 0 141.90055295620959 74.550442826880499 0 0 0 0 -589.49305583850946 -377.43937628086223 0 -377.43937628086223 328.93058916898349 0 0 0 0 9.42212710357893 1.7217577256028562 0 1.7217577256028562 -3.9720103248354093 0 0 0 0 -14.567143634776585 74.292471217449929 0 74.292471217449929 -46.629844013591082 0 0 0 0 -23.167182856181171 112.24899582980015 0 112.24899582980015 -15.302894160997312 0 0 0 0 -35.85672517659259 150.25385816156449 0 150.25385816156449 114.18129777560716 0 0 0 0 -14.393222130976255 23.260638516106084 0 23.260638516106084 31.870231309110594 0 0 0 0 -39.876353905303404 75.063239385741667 0 75.063239385741667 5.3338322065683315 0 0 0 0 -50.174020722566638 72.982442469337002 0 72.982442469337002 12.218924809852979 0 0 0 0 -39.773886090959422 125.58635656506158 0 125.58635656506158 77.37846434558378 0 0 0 0 -53.246058814605931 124.84083764622665 0 124.84083764622665 37.677213401822883 0 0 0 0 34.005669745496107 45.882911444663335 0 45.882911444663335 27.168590850939935 0 0 0 0 19.169651323826656 16.194010758215597 0 16.194010758215597 -44.932238493543991 0 0 0 0 5.8807524474975139 46.124563668294172 0 46.124563668294172 -2.5573633328924323 0 0 0 0 11.396226019714959 81.014067773436182 0 81.014067773436182 19.414083569583454 0 0 0 0 -0.99397561047976524 5.0210703380520982 0 5.0210703380520982 -5.6371797224558424 0 0 0 0 -5.2784507219330408 92.151662502314139 0 92.151662502314139 194.47672045182208 0 0 0 0 22.684558628301602 128.97212629852947 0 128.97212629852947 -94.60119362561818 0 0 0 0 -8.0230311813472781 1.6731949534571697 0 1.6731949534571697 8.6965997973728406 0 0 0 0 -26.873060742072994 41.836964392630762 0 41.836964392630762 121.28519662078406 0 0 0 0 -21.76520808387636 14.155645817752699 0 14.155645817752699 2.6624178885968988 0 0 0 0 -234.50700000679353 241.42570693057314 0 241.42570693057314 -175.52017177749258 0 0 0 0 -105.22200313898793 167.2190683378285 0 167.2190683378285 -283.39141363374256 0 0 0 0 -82.742681402742164 72.919781048599361 0 72.919781048599361 206.64624110776549 0 0 0 0 -312.03679505630862 159.99304371842209 0 159.99304371842209 -209.0337330035436 0 0 0 0 -262.14660975147854 314.56170577976627 0 314.56170577976627 -199.66025518785716 0 0 0 0 -242.13920089072781 262.00099091267839 0 262.00099091267839 -65.101765759794944 0 0 0 0 -142.51002981458441 281.97596718775276 0 281.97596718775276 -132.04760886294389 0 0 0 0 -73.24181191122625 203.38337013113778 0 203.38337013113778 -61.792072139138327 0 0 0 0 -80.045955143403262 231.64096394440821 0 231.64096394440821 -81.289270917310205 0 0 0 0 39.235629998656805 201.32378238513502 0 201.32378238513502 -17.848688929727359 0 0 0 0 31.549157747882418 173.13802284324629 0 173.13802284324629 -96.086069753211632 0 0 0 0 -104.91401677223621 175.83138802235408 0 175.83138802235408 -144.24572439382609 0 0 0 0 -76.762755766860209 234.83489727293636 0 234.83489727293636 -38.860882014503659 0 0 0 0 -84.398564248636831 660.13218628558934 0 660.13218628558934 -18.118664282514146 0 0 0 0 1.8435161657704384 6.1382450724307205 0 6.1382450724307205 9.2007493771087354 0 0 0 0 893.52133705979213 297.08592603254692 0 297.08592603254692 -304.19705368285759 0 0 0 0 -435.15836517844582 254.1434735488192 0 254.1434735488192 -33.172616029216442 0 0 0 0 -527.1983341788 352.05813593664607 0 352.05813593664607 -91.424963749986091 0 0 0 0 -8.7092058125647327 11.106865561841552 0 11.106865561841552 3.2472500707363015 0 0 0 0 219.86862789388397 737.44076621072963 0 737.44076621072963 -1137.0349770627181 0 0 0 0 -242.22237765946193 476.07948781706546 0 476.07948781706546 -37.455356040780316 0 0 0 0 -157.61919359397143 10.690595143352766 0 10.690595143352766 485.99184404537777 0 0 0 0 -296.67925365823612 235.1943379816139 0 235.1943379816139 -663.81229396658819 0 0 0 0 300.96733290766133 1080.3830909907902 0 1080.3830909907902 -617.87374158762395 0 0 0 0 -118.86181244143881 -424.53438892936992 0 -424.53438892936992 -452.12426678522024 0 0 0 0 -46.725318586424692 183.34929514956593 0 183.34929514956593 243.63592609578563 0 0 0 0 52.11054621238145 -72.823160926945775 0 -72.823160926945775 262.94012681558524 0 0 0 0 42.770647958954214 -3.4549819732817468 0 -3.4549819732817468 169.90028982104468 0 0 0 0 9.7245898237451911 73.224436199839829 0 73.224436199839829 -54.477490140091504 0 0 0 0 -86.748872508935165 190.60699973452301 0 190.60699973452301 73.080242193592767 0 0 0 0 102.97076293587452 62.500784119165473 0 62.500784119165473 165.1961845085857 0 0 0 0 -85.850040324046859 27.240957220134533 0 27.240957220134533 -67.926894394404371 0 0 0 0 26.19682167634187 15.722466400015108 0 15.722466400015108 8.5931659342189093 0 0 0 0 -82.855809198197676 380.98865584345981 0 380.98865584345981 -400.60278526047415 0 0 0 0 -192.56642055435805 131.63774987292481 0 131.63774987292481 43.346753446135153 0 0 0 0 -283.16929484994034 114.18081802190106 0 114.18081802190106 3.7456606833594748 0 0 0 0 -32.151302101661713 229.14324624866941 0 229.14324624866941 54.36727736179455 0 0 0 0 21.493660915264627 -28.830680471341118 0 -28.830680471341118 -451.41886183291308 0 0 0 0 192.82687647134298 271.05551144031188 0 271.05551144031188 -58.22889713285349 0 0 0 0 16.742020484889508 -12.517105893182418 0 -12.517105893182418 135.27842951954608 0 0 0 0 227.09536712836416 244.97032270793414 0 244.97032270793414 -262.98413092919463 0 0 0 0 224.12891108656913 368.55215264409617 0 368.55215264409617 -38.341889158211757 0 0 0 0 162.75739841186441 408.19368048940032 0 408.19368048940032 251.56973801251206 0 0 0 0 -141.97911825234769 113.23288388873652 0 113.23288388873652 1280.5565089484107 0 0 0 0 0.60647685536582685 -0.53325720744469152 0 -0.53325720744469152 -0.64084476636451093 0 0 0 0 99.881458624266088 163.31302245974621 0 163.31302245974621 343.62987277951106 0 0 0 0 -110.94326504530909 -30.02791993944129 0 -30.02791993944129 725.40139399925374 0 0 0 0 156.29187715833541 5.2390229581637868 0 5.2390229581637868 388.35669241844994 0 0 0 0 -1.123096587124337 5.9066730470407123 0 5.9066730470407123 1.0219670165938375 0 0 0 0 -124.42334614586434 271.24876215515224 0 271.24876215515224 -60.708982794949293 0 0 0 0 -87.458657993091037 446.24878480519328 0 446.24878480519328 -155.78777019727818 0 0 0 0 -84.058274017792428 515.51294019288343 0 515.51294019288343 513.98379258035493 0 0 0 0 -0.18689119729970116 387.6089520640603 0 387.6089520640603 -264.07214015087629 0 0 0 0 -208.70739238245733 662.54965940057377 0 662.54965940057377 -676.42943461598406 0 0 0 0 -170.79172054954688 536.95939005088439 0 536.95939005088439 -357.0420320984249 0 0 0 0 -177.00106998255069 524.26495699593943 0 524.26495699593943 -300.61199582256813 0 0 0 0 -159.54419961664826 468.82055670353475 0 468.82055670353475 -449.73483753252731 0 0 0 0 0.01635030192846898 482.08483642323245 0 482.08483642323245 -519.47902425254688 0 0 0 0 161.50670578354038 241.94076032725752 0 241.94076032725752 -1622.2650373901529 0 0 0 0 -280.12890723622695 372.64273189110281 0 372.64273189110281 -614.18684850501268 0 0 0 0 -74.680413219757611 386.92809936687718 0 386.92809936687718 -1629.0630803153563 0 0 0 0 -338.20994610272464 337.26189571503892 0 337.26189571503892 -492.50798926980951 0 0 0 0 -362.66957852465566 509.52282527093666 0 509.52282527093666 -74.143732406701019 0 0 0 0 -110.99488109158119 251.54908936156244 0 251.54908936156244 -576.4068791725017 0 0 0 0 -300.98708445734519 636.92380075451365 0 636.92380075451365 -167.36329027720058 0 0 0 0 -286.25983781853574 654.66642063296149 0 654.66642063296149 -146.05698305552141 0 0 0 0 0.012043205046211369 561.32088262581601 0 561.32088262581601 -400.64663801472852 0 0 0 0 -186.7654432534182 569.72956312067254 0 569.72956312067254 -321.76857237691547 0 0 0 0 -134.02328316929197 602.18243132119915 0 602.18243132119915 -336.05188102727698 0 0 0 0 0.12947847114992328 520.77850248628965 0 520.77850248628965 -117.17151769457632 0 0 0 0 213.38536247692537 510.92365299329504 0 510.92365299329504 -325.88395275318908 0 0 0 0 177.65371760242851 384.76909570019416 0 384.76909570019416 289.0327537094181 0 0 0 0 222.77511102073913 324.45767792418246 0 324.45767792418246 -13.595720957586309 0 0 0 0 -483.45655030231865 829.40348562706913 0 829.40348562706913 -597.89148500002193 0 0 0 0 -116.94932057474944 928.58832509702097 0 928.58832509702097 -456.18194916805078 0 0 0 0 -522.21570660015277 748.25841418537129 0 748.25841418537129 -160.43800098213296 0 0 0 0 853.97683987408527 498.12411710046217 0 498.12411710046217 -415.39797292530056 0 0 0 0 -5.3268216380980107 5.4792576464457454 0 5.4792576464457454 1.3485593461766427 0 0 0 0 -1007.5330697646277 631.73780605297543 0 631.73780605297543 -343.7876136589839 0 0 0 0 -805.25796843547141 837.1744872983445 0 837.1744872983445 -596.55058425243624 0 0 0 0 -1271.6656966872979 864.86072549717937 0 864.86072549717937 -365.99461619927933 0 0 0 0 -1421.496421395801 1347.601231390785 0 1347.601231390785 -641.66881061672393 0 0 0 0 -1052.8642220189504 410.31401378983355 0 410.31401378983355 190.92722508841689 0 0 0 0 0.51955290077599159 21.134289654127258 0 21.134289654127258 59.223599025130277 0 0 0 0 263.75362895580474 -104.01677159362998 0 -104.01677159362998 -181.77438212652487 0 0 0 0 -156.63605340040522 -58.469883384526838 0 -58.469883384526838 52.629536833883321 0 0 0 0 -1646.8179666269134 1134.0313665002541 0 1134.0313665002541 -464.36879858966859 0 0 0 0 -6.4197945798847513 -2.9429265424209063 0 -2.9429265424209063 6.2937500327650753 0 0 0 0 -134.48092020922923 77.88740331475492 0 77.88740331475492 277.64442299297525 0 0 0 0 -13.635732869879575 51.844740841264866 0 51.844740841264866 86.883423258283074 0 0 0 0 -10.523760200594552 -199.70123984284237 0 -199.70123984284237 248.78382847258399 0 0 0 0 -326.93388014959055 312.06470377220103 0 312.06470377220103 398.63417206811937 0 0 0 0 -106.5187703010015 41.280132549986774 0 41.280132549986774 104.01067036540189 0 0 0 0 -747.09044545251527 110.75575974808453 0 110.75575974808453 96.50998408419764 0 0 0 0 -404.11948831667542 633.75681046105274 0 633.75681046105274 -616.03046315396932 0 0 0 0 -100.69251976057421 342.71001966409676 0 342.71001966409676 -603.41023757243511 0 0 0 0 -186.65026185373426 -226.78473538508842 0 -226.78473538508842 -361.3430716918956 0 0 0 0 -73.778881232632557 161.87935058158473 0 161.87935058158473 51.736910395966333 0 0 0 0 -236.7029551739688 318.68576235594264 0 318.68576235594264 -15.050138998506327 0 0 0 0 -425.37802603802993 245.38273007049065 0 245.38273007049065 377.59043391939667 0 0 0 0 -457.97663189822924 542.98137267601305 0 542.98137267601305 0.26866199934011092 0 0 0 0 -222.84972466313047 133.80530323004314 0 133.80530323004314 139.01509226736925 0 0 0 0 -267.63391486025648 303.36436524273086 0 303.36436524273086 0.34169303714952548 0 0 0 0 -185.20816371960973 234.03637848861263 0 234.03637848861263 31.62409985168415 0 0 0 0 -25.298427453875775 127.0680479908242 0 127.0680479908242 -17.581305399682606 0 0 0 0 -243.82566816225881 326.19682984400242 0 326.19682984400242 -22.817329603190956 0 0 0 0 -199.9241816683716 293.85286591580802 0 293.85286591580802 -87.266453512500448 0 0 0 0 -270.91607591618595 222.69392612490014 0 222.69392612490014 -29.701137494350405 0 0 0 0 -249.23313047711054 260.61555945091959 0 260.61555945091959 114.17730617251436 0 0 0 0 -80.73790089051181 293.73364724564453 0 293.73364724564453 -46.16281442089803 0 0 0 0 3.3176611955721 11.138917634234019 0 11.138917634234019 32.103186142370589 0 0 0 0 -13.058078486530576 241.76259897351429 0 241.76259897351429 -93.399075643525066 0 0 0 0 311.93802758249149 188.99117278483436 0 188.99117278483436 -351.61680960340345 0 0 0 0 -554.7224519806914 339.76145427358551 0 339.76145427358551 -172.08052586100348 0 0 0 0 183.0904882593386 84.300510671637539 0 84.300510671637539 -77.619629093903313 0 0 0 0 85.491974368432267 64.261368614472971 0 64.261368614472971 33.842713807464762 0 0 0 0 17.237128253988892 11.89293213960152 0 11.89293213960152 -9.5101431367155591 0 0 0 0 -497.14454199020111 456.53031897100072 0 456.53031897100072 -49.209509851647454 0 0 0 0 -363.61443720690659 483.61429322908293 0 483.61429322908293 -547.19174397820461 0 0 0 0 -324.96233387530083 697.9664027651811 0 697.9664027651811 -57.509386756832612 0 0 0 0 -374.97675156488549 742.08480826266077 0 742.08480826266077 650.70135726189437 0 0 0 0 -525.96405464909913 396.77576582795336 0 396.77576582795336 -94.776069411844446 0 0 0 0 -576.04645488904498 353.3687910361366 0 353.3687910361366 190.58397312335546 0 0 0 0 -955.89742735444452 -418.96032935252606 0 -418.96032935252606 342.04390178616495 0 0 0 0 -640.92122808410204 93.590883431732436 0 93.590883431732436 384.48088195923629 0 0 0 0 1745.234972367718 302.0279001047511 0 302.0279001047511 -1081.7178001943266 0 0 0 0 -15.729270541958414 9.5490959575151884 0 9.5490959575151884 -9.4603681938045092 0 0 0 0 -971.3943971273693 -40.581817576395679 0 -40.581817576395679 343.3098636647137 0 0 0 0 -859.86054011936358 278.73030752435125 0 278.73030752435125 1029.0996297465572 0 0 0 0 -493.16793545103428 460.90264584157876 0 460.90264584157876 540.61681003469857 0 0 0 0 -1607.2603042140254 -240.26882293471317 0 -240.26882293471317 1119.3485460485454 0 0 0 0 -1112.5278194194834 -229.90720569434234 0 -229.90720569434234 968.09731145927151 0 0 0 0 -231.53309882761732 36.208396183170009 0 36.208396183170009 554.72493938416028 0 0 0 0 -651.41538928769296 -87.512926250637975 0 -87.512926250637975 251.38806376158482 0 0 0 0 -271.71507766838477 -269.46321059022966 0 -269.46321059022966 135.13445770330691 0 0 0 0 -625.27182754813111 48.730978236924784 0 48.730978236924784 -139.13522266395876 0 0 0 0 -56.829695743182299 48.223896359745893 0 48.223896359745893 -27.648237138526824 0 0 0 0 -21.598604447266553 137.05989236633923 0 137.05989236633923 93.528582364529484 0 0 0 0 17.32619626581436 37.797377653856529 0 37.797377653856529 94.377005510595723 0 0 0 0 -64.398419648130584 451.90838133829931 0 451.90838133829931 171.75563236817956 0 0 0 0 2.4005129554270752 157.66046634282463 0 157.66046634282463 133.93026364297066 0 0 0 0 -6.0144517859444022 130.30726746581968 0 130.30726746581968 124.19656015716373 0 0 0 0 -37.805122042307516 47.295919005422647 0 47.295919005422647 12.369328391965755 0 0 0 0 -28.22743649451877 112.01140931497139 0 112.01140931497139 116.85892269325632 0 0 0 0 26.688996937948104 123.61914328580315 0 123.61914328580315 34.318669614745886 0 0 0 0 13.142793509612517 69.306446356375034 0 69.306446356375034 26.812900112636406 0 0 0 0 17.641026151162805 83.938076031476157 0 83.938076031476157 31.711796011666593 0 0 0 0 7.69316939692456 64.624058656056647 0 64.624058656056647 47.313375577458132 0 0 0 0 1.6986385809068452 88.170170856295954 0 88.170170856295954 107.38947138719413 0 0 0 0 96.56925884210068 294.67680678488796 0 294.67680678488796 178.2128756271145 0 0 0 0 -41.277848615283176 40.419814524576658 0 40.419814524576658 0.98479493334002211 0 0 0 0 82.53475764290485 64.876347462199305 0 64.876347462199305 19.412275741496213 0 0 0 0 86.101430139795411 47.316423131844203 0 47.316423131844203 1.9336355561536038 0 0 0 0 57.75867687161147 62.383674095364697 0 62.383674095364697 50.414035773829056 0 0 0 0 -0.79016509628854692 268.86073042531643 0 268.86073042531643 -420.59815226605133 0 0 0 0 -102.6081636431154 442.98654383350913 0 442.98654383350913 -526.58398795859102 0 0 0 0 -149.35686559925671 599.83406333061794 0 599.83406333061794 -316.45374657836146 0 0 0 0 66.035334893515 60.183673491271065 0 60.183673491271065 54.598330390357773 0 0 0 0 -167.02476075911545 510.6783028997088 0 510.6783028997088 -405.96972764755628 0 0 0 0 3.0117598658935094 19.752678802154151 0 19.752678802154151 83.65792847758712 0 0 0 0 33.760426454696329 62.773533858221775 0 62.773533858221775 66.701026161064704 0 0 0 0 28.066972761240322 170.96661362619852 0 170.96661362619852 -0.16727489098411752 0 0 0 0 167.1427612331463 43.156318907669629 0 43.156318907669629 23.020694169401395 0 0 0 0 63.127168298407923 54.81038665703818 0 54.81038665703818 156.85994480094087 0 0 0 0 -11.9863093024248 9.382127965410767 0 9.382127965410767 16.274315143446813 0 0 0 0 -86.825928748596198 66.769075862763202 0 66.769075862763202 146.81526661244834 0 0 0 0 59.766271534740696 72.302273837725551 0 72.302273837725551 52.843835053016761 0 0 0 0 47.834467200205836 230.17158542628749 0 230.17158542628749 115.61021984584659 0 0 0 0 94.525297552252596 131.08677942934628 0 131.08677942934628 -28.859268196276389 0 0 0 0 -9.8854057961398212 45.858800967361276 0 45.858800967361276 86.74983171157146 0 0 0 0 65.165626093847095 281.93040819105863 0 281.93040819105863 208.09762229977514 0 0 0 0 50.074067832640139 394.48212295752592 0 394.48212295752592 -343.88348781966488 0 0 0 0 -115.72360545505944 521.34020902456678 0 521.34020902456678 -348.39315242744033 0 0 0 0 -80.639011699473485 379.24294931984605 0 379.24294931984605 -247.35086261100787 0 0 0 0 64.559953030729957 806.09703271064427 0 806.09703271064427 -1435.7195952492402 0 0 0 0 -187.67978969442629 753.8579396186019 0 753.8579396186019 -807.10437624693986 0 0 0 0 -20.808817048162382 85.235763904222722 0 85.235763904222722 543.82128883647238 0 0 0 0 1.2843656286992342 -1.4870474485649652 0 -1.4870474485649652 -2.224285224697848 0 0 0 0 8.4333185272334958 353.09735334369725 0 353.09735334369725 -1098.9614176407104 0 0 0 0 535.578214597841 423.74047393572528 0 423.74047393572528 -488.12346281715895 0 0 0 0 -384.55552098159387 1014.6011913287784 0 1014.6011913287784 -694.22680603657818 0 0 0 0 -1611.02839275527 562.89559671114307 0 562.89559671114307 87.076335785532592 0 0 0 0 -1174.4939235409292 -51.511653164794666 0 -51.511653164794666 -16.839626691429658 0 0 0 0 -647.08817289205399 326.60409636133727 0 326.60409636133727 117.88292539263148 0 0 0 0 -773.69967599404845 413.98299048618856 0 413.98299048618856 252.09298758637306 0 0 0 0 -620.01088864047051 538.84838739758118 0 538.84838739758118 145.80950113255653 0 0 0 0 -657.42140911528259 499.91531794491004 0 499.91531794491004 107.68750320958861 0 0 0 0 -582.22983221300456 286.29811020115147 0 286.29811020115147 50.356240244438879 0 0 0 0 -943.08713646612705 182.97369578750266 0 182.97369578750266 113.67357539879859 0 0 0 0 -691.78903416696994 365.25303631413749 0 365.25303631413749 29.23349644928112 0 0 0 0 93.918638564748107 727.05902569518867 0 727.05902569518867 -117.56322535545587 0 0 0 0 -189.18272186470858 438.42755268804103 0 438.42755268804103 397.60652241705179 0 0 0 0 -375.87138894658074 450.95929190278446 0 450.95929190278446 -222.40596869434557 0 0 0 0 -226.89802284843972 341.27995951737921 0 341.27995951737921 -283.40596848095265 0 0 0 0 202.48271838115761 559.5871682074835 0 559.5871682074835 -203.96580315085339 0 0 0 0 -269.86799510587298 133.23252865584254 0 133.23252865584254 392.59887453515023 0 0 0 0 -602.27183636908831 563.70797904595906 0 563.70797904595906 -122.28417117434674 0 0 0 0 -620.16996874874167 547.27744461958036 0 547.27744461958036 618.77016000523656 0 0 0 0 -166.19392156903632 500.97573045635386 0 500.97573045635386 350.70554087010362 0 0 0 0 -202.03781942835849 857.23425677003479 0 857.23425677003479 -30.148204267889923 0 0 0 0 -19.277489813769307 29.197958449458252 0 29.197958449458252 -23.553327183254879 0 0 0 0 -294.17419726615481 490.39159863406087 0 490.39159863406087 -640.54984901488888 0 0 0 0 16.233183726668358 548.07656442613006 0 548.07656442613006 1344.3967295715029 0 0 0 0 1107.6812309895467 566.24360379012523 0 566.24360379012523 409.88653538696929 0 0 0 0 -195.26391481721657 279.13754870593789 0 279.13754870593789 1536.6049874179907 0 0 0 0 -392.81446794071235 776.55746337132246 0 776.55746337132246 1490.0619656360932 0 0 0 0 -32.491765000775224 32.098605610069946 0 32.098605610069946 -7.7359220418953498 0 0 0 0 -322.24049259027379 853.79919168469655 0 853.79919168469655 831.25766515080795 0 0 0 0 1557.1471672586777 -142.48412929867027 0 -142.48412929867027 1005.8881731321085 0 0 0 0 -1293.5277627140458 859.8552455317249 0 859.8552455317249 906.96807752412496 0 0 0 0 -335.74356523860479 22.346079507227842 0 22.346079507227842 -599.00510501457029 0 0 0 0 -637.58264948042051 347.02604720023169 0 347.02604720023169 -247.79436848755267 0 0 0 0 28.099739368719046 93.886658691323703 0 93.886658691323703 -144.17049858335315 0 0 0 0 -598.34606932875249 299.74166222908502 0 299.74166222908502 -291.51282974352034 0 0 0 0 -599.70570410320943 -85.046089935443888 0 -85.046089935443888 253.45958635811985 0 0 0 0 -453.96489313218262 516.34363369274615 0 516.34363369274615 -218.38103759805381 0 0 0 0 -505.30390702969453 495.05510861786615 0 495.05510861786615 -166.59708718769775 0 0 0 0 -458.04417457089949 461.14815783098334 0 461.14815783098334 -236.37465250531932 0 0 0 0 -673.28028444846132 352.75849959839798 0 352.75849959839798 -271.59205952023694 0 0 0 0 -567.62985046802714 495.21057896836533 0 495.21057896836533 -184.91308043615754 0 0 0 0 -678.85618177869765 389.8219591045281 0 389.8219591045281 -214.68730348918916 0 0 0 0 -798.98385767846048 228.47411617080161 0 228.47411617080161 -317.95537060194192 0 0 0 0 -636.5313377022685 296.19236550032315 0 296.19236550032315 -347.79112492798231 0 0 0 0 -499.29419409022375 322.7049092632551 0 322.7049092632551 -126.79464819843452 0 0 0 0 -453.64257448625722 409.70749271307159 0 409.70749271307159 37.291174654528049 0 0 0 0 -496.85772824207379 591.24687185793618 0 591.24687185793618 28.816387391292892 0 0 0 0 -507.54583328773151 517.97980182086349 0 517.97980182086349 -164.34553611306728 0 0 0 0 -526.1877202979158 605.94648308432716 0 605.94648308432716 -209.09437031098605 0 0 0 0 -295.03081923991704 461.53287672002671 0 461.53287672002671 -189.54926361864727 0 0 0 0 -334.3628107078257 397.53836743049237 0 397.53836743049237 -240.72470689583679 0 0 0 0 -351.52857079022942 189.25202947304342 0 189.25202947304342 -75.277943595483521 0 0 0 0 -261.46773099535494 302.88753759771498 0 302.88753759771498 -130.73532189556909 0 0 0 0 -160.24726246571299 20.230925301974366 0 20.230925301974366 100.78589113669113 0 0 0 0 80.595381291372178 203.38892486067925 0 203.38892486067925 -208.8040879591249 0 0 0 0 -222.02683231520132 150.15307706803605 0 150.15307706803605 -74.331658776714903 0 0 0 0 -102.25592250842055 515.39757124211724 0 515.39757124211724 -341.17475016811841 0 0 0 0 -7.7569238554198598 6.2604970015419639 0 6.2604970015419639 -1.9275065197855028 0 0 0 0 -117.24161553667545 165.11543418560223 0 165.11543418560223 -125.20361895249152 0 0 0 0 27.802867174890707 99.237409623615349 0 99.237409623615349 120.34146807882917 0 0 0 0 -2.2357452452817625 6.832294723042537 0 6.832294723042537 -3.342811845099277 0 0 0 0 -74.553797659013071 337.08408461699764 0 337.08408461699764 -149.85332000089693 0 0 0 0 -279.93489307495474 363.11900515447451 0 363.11900515447451 233.87269998132388 0 0 0 0 -944.23793039456359 324.37425616688006 0 324.37425616688006 -268.11871364788385 0 0 0 0 -699.75791910747284 405.93259455091516 0 405.93259455091516 -328.8702374530294 0 0 0 0 -832.26758671231801 396.79107013677276 0 396.79107013677276 -327.6710452972161 0 0 0 0 -960.78329636119088 368.06809947572538 0 368.06809947572538 -139.63269327032503 0 0 0 0 -828.15832990605759 377.39631277767478 0 377.39631277767478 -251.08124802661769 0 0 0 0 -1041.7986650624371 303.96076461916982 0 303.96076461916982 -140.72656406591159 0 0 0 0 -7.7469677393964957 134.33620336807144 0 134.33620336807144 -164.72087753683809 0 0 0 0 1.43620496011863 235.29848124186901 0 235.29848124186901 -420.03629385536988 0 0 0 0 -154.52020475655445 359.29166309500943 0 359.29166309500943 13.814147893433983 0 0 0 0 -135.47684148739791 518.60625763751159 0 518.60625763751159 -373.32431836261821 0 0 0 0 -80.046754684299231 158.42880949990285 0 158.42880949990285 -217.99449886664661 0 0 0 0 41.431406760870992 80.437821584600556 0 80.437821584600556 -139.19057653728035 0 0 0 0 -192.43852125421108 262.23222773484667 0 262.23222773484667 -223.03826513320564 0 0 0 0 -250.24935344938422 188.09514801346813 0 188.09514801346813 -203.48367841067375 0 0 0 0 -276.80158185694017 386.27728667419569 0 386.27728667419569 -474.10473904426181 0 0 0 0 -101.8516446484573 207.78346564007552 0 207.78346564007552 -598.65178424045735 0 0 0 0 -214.00167578725086 -69.018258531636093 0 -69.018258531636093 -179.71774337052921 0 0 0 0 -121.95696871800101 313.11358673274117 0 313.11358673274117 -591.6270915178975 0 0 0 0 -72.614917058795982 103.406562402296 0 103.406562402296 31.158255763498801 0 0 0 0 -64.588462893135443 46.056190912265677 0 46.056190912265677 43.928378078307382 0 0 0 0 -87.00810834360496 38.001272378218303 0 38.001272378218303 10.192565914368171 0 0 0 0 -183.67317546923789 53.901613548686925 0 53.901613548686925 49.639258443121811 0 0 0 0 -4069.1955270171748 -1993.2013949442153 0 -1993.2013949442153 -528.25643994253005 0 0 0 0 -28.83451592541121 -34.649974297952909 0 -34.649974297952909 54.498610661975363 0 0 0 0 -184.44548765596119 190.06263541143562 0 190.06263541143562 -780.87905170609156 0 0 0 0 -31.221496090610344 65.175970631067742 0 65.175970631067742 25.72231779802496 0 0 0 0 -29.380306569430104 128.86449444956725 0 128.86449444956725 30.300176197884866 0 0 0 0 -100.73987751637469 66.00219118825953 0 66.00219118825953 42.742888456239598 0 0 0 0 -8.4095108266192256 761.91931384710915 0 761.91931384710915 250.94281987765862 0 0 0 0 -148.7756754157017 258.95752056069614 0 258.95752056069614 -304.93440332330647 0 0 0 0 -25.132720377050646 59.801087139542311 0 59.801087139542311 47.005272345290273 0 0 0 0 -3.7586365307215601 124.88120181710383 0 124.88120181710383 -58.180632144158153 0 0 0 0 -5.165575000335707 -2.4493077189009682 0 -2.4493077189009682 16.433942940595045 0 0 0 0 4.4313466157696553 2.2413996687802253 0 2.2413996687802253 0.92682498277903846 0 0 0 0 236.52893814304844 141.96823051855608 0 141.96823051855608 -1226.5242293926276 0 0 0 0 -142.26187604203915 -863.7239556917566 0 -863.7239556917566 406.56471314184455 0 0 0 0 -192.31470375979552 281.84324995001225 0 281.84324995001225 -724.78255312837427 0 0 0 0 -95.082045651477529 528.65038686886692 0 528.65038686886692 -835.62721372622764 0 0 0 0 -143.41248938004719 581.33273098002246 0 581.33273098002246 -556.9366731045593 0 0 0 0 -86.579430766141741 330.13540534119238 0 330.13540534119238 -566.33938667886991 0 0 0 0 -115.8105127630115 304.64996113674715 0 304.64996113674715 -303.25581621000129 0 0 0 0 -164.04844422757742 389.49287400168396 0 389.49287400168396 -567.82508811465232 0 0 0 0 -217.66530806147784 281.39106559169159 0 281.39106559169159 -528.65792170598979 0 0 0 0 -53.112646549008787 293.52570033942175 0 293.52570033942175 -586.77856234651699 0 0 0 0 -71.706157216569409 191.24301692389736 0 191.24301692389736 -299.00263234743034 0 0 0 0 -207.99310574828269 253.53167297497566 0 253.53167297497566 -592.47961866076366 0 0 0 0 -284.34863077309274 278.9161500804039 0 278.9161500804039 -576.5711872674583 0 0 0 0 -221.41149972474886 305.92450271349753 0 305.92450271349753 -592.22417847061297 0 0 0 0 -291.51468632984324 312.42787862011028 0 312.42787862011028 -557.85991268849466 0 0 0 0 -387.3761265281646 278.15157202834962 0 278.15157202834962 -552.49095690461399 0 0 0 0 -346.12719949806342 133.94435560183047 0 133.94435560183047 -275.97533284269139 0 0 0 0 -146.40686057577841 266.20628922939068 0 266.20628922939068 -785.54178416472132 0 0 0 0 30.191707621168462 18.91969687009987 0 18.91969687009987 -668.43483289010328 0 0 0 0 7.9188733242863236 656.32177545581226 0 656.32177545581226 126.64643915853958 0 0 0 0 -0.090260860362775475 7.6437002439089312 0 7.6437002439089312 -17.563391571601102 0 0 0 0 16.534847885550619 13.092376730489313 0 13.092376730489313 7.0447111883546611 0 0 0 0 -207.6594064723904 -262.32358993156959 0 -262.32358993156959 401.55329154694846 0 0 0 0 25.898557307220472 197.19408712968288 0 197.19408712968288 122.68723406769277 0 0 0 0 122.17334386160655 4.3467203535219596 0 4.3467203535219596 -83.531590024609613 0 0 0 0 -0.85588779515506985 2.3501973354830454 0 2.3501973354830454 3.2712005231512933 0 0 0 0 36.212850074952314 23.269568820648985 0 23.269568820648985 14.018919615809807 0 0 0 0 299.14364573637431 589.66937519123167 0 589.66937519123167 -728.22858801818074 0 0 0 0 148.86637267380138 129.39717872322217 0 129.39717872322217 147.64955408015521 0 0 0 0 -248.41725207663694 193.98154070188684 0 193.98154070188684 -333.04212799110974 0 0 0 0 -24.128983930539107 -31.177527635012666 0 -31.177527635012666 82.995944941496418 0 0 0 0 18.552812600333709 133.55379482165154 0 133.55379482165154 35.591053263000504 0 0 0 0 40.94785947769924 123.50944335366785 0 123.50944335366785 -18.106621581231593 0 0 0 0 0.44355073168117087 3.9492964743330958 0 3.9492964743330958 -24.721231706338585 0 0 0 0 -115.85968272960235 220.12788119714332 0 220.12788119714332 -149.27244159912516 0 0 0 0 -20.358791717386339 81.155022361301235 0 81.155022361301235 -97.907097955670906 0 0 0 0 22.886839305981994 176.69492327774788 0 176.69492327774788 82.55603041354901 0 0 0 0 207.47977795871702 129.57096490476397 0 129.57096490476397 -116.14070396467287 0 0 0 0 15.62287903286051 118.06913029015413 0 118.06913029015413 -116.82762994888435 0 0 0 0 27.83498263018555 207.4913013190162 0 207.4913013190162 -178.10306159348511 0 0 0 0 -4.7325154052887228 166.05085753328967 0 166.05085753328967 -157.61103994666337 0 0 0 0 -11.20664717065938 110.5144955731032 0 110.5144955731032 -126.47070623654872 0 0 0 0 32.55268952241795 47.718032086746256 0 47.718032086746256 -4.3998114055163455 0 0 0 0 -333.63710073611583 2276.1049236934196 0 2276.1049236934196 1902.9310526125373 0 0 0 0 -6.252162447457124 133.11907458584346 0 133.11907458584346 -81.085330059385569 0 0 0 0 -779.72399516586302 591.67151717326396 0 591.67151717326396 131.89872492693212 0 0 0 0 287.6417653671524 713.7626295435839 0 713.7626295435839 404.04806447390592 0 0 0 0 3332.893540511257 1149.8549532753968 0 1149.8549532753968 403.18430381260987 0 0 0 0 40.665972339077541 49.611489046461514 0 49.611489046461514 -84.053045675954621 0 0 0 0 60.655906809814041 2968.4532080227709 0 2968.4532080227709 -766.25756088490016 0 0 0 0 -2905.6874046466546 -3984.1226441878607 0 -3984.1226441878607 1204.717649875347 0 0 0 0 10.854801560259716 81.069526016103609 0 81.069526016103609 58.346614857833991 0 0 0 0 -7.3191398613998899 89.989876835543328 0 89.989876835543328 43.935292531114101 0 0 0 0 20.314537092730461 71.686328886756655 0 71.686328886756655 -29.240124219484642 0 0 0 0 8.3182855367485899 110.50247518067408 0 110.50247518067408 9.9145783176250006 0 0 0 0 7.5229700470808893 79.777959834014837 0 79.777959834014837 29.164354747282232 0 0 0 0 -9.7296903307615139 80.552393968253796 0 80.552393968253796 -22.33981505589054 0 0 0 0 -19.151860828773351 32.698041002968239 0 32.698041002968239 -110.00272369363302 0 0 0 0 -6.9414533999758987 74.618326830420813 0 74.618326830420813 -38.046664689253973 0 0 0 0 69.652507703773153 79.178880085295532 0 79.178880085295532 -120.50329165910807 0 0 0 0 4.7692711408619175 75.89429099179813 0 75.89429099179813 -34.161564246195951 0 0 0 0 -23.106843371017021 37.539109488818212 0 37.539109488818212 -87.062147987693606 0 0 0 0 -281.83816055131319 520.8172358738484 0 520.8172358738484 -389.07927614873552 0 0 0 0 -259.80943899636623 398.23896798705027 0 398.23896798705027 -201.23805518914742 0 0 0 0 -316.27106855384773 573.28044555130691 0 573.28044555130691 -494.39194707757269 0 0 0 0 -331.19206560743623 548.77035041112686 0 548.77035041112686 -404.69469911992201 0 0 0 0 -351.8953177613439 584.97419987297326 0 584.97419987297326 -412.25175125837995 0 0 0 0 -394.94549647613894 512.78365638348623 0 512.78365638348623 -352.0087338868143 0 0 0 0 -395.44737862891634 504.71007584067411 0 504.71007584067411 -457.23522521974519 0 0 0 0 -375.67205859263777 555.70091546943513 0 555.70091546943513 -432.83594939336763 0 0 0 0 -405.71190143760759 586.22109453446319 0 586.22109453446319 -437.23505808829213 0 0 0 0 -26.957308284429416 14.011813238971314 0 14.011813238971314 2.6617564501534048 0 0 0 0 -579.13637693494093 654.46984919795068 0 654.46984919795068 -573.19634943487472 0 0 0 0 -519.29418548679678 529.69036346587382 0 529.69036346587382 -360.96545538485225 0 0 0 0 -591.70604389655637 486.39019017358078 0 486.39019017358078 -434.80944392301899 0 0 0 0 -512.60176516411593 585.5833985510144 0 585.5833985510144 -395.74085661004938 0 0 0 0 -454.36064183279814 436.73064463416813 0 436.73064463416813 -377.80113881096077 0 0 0 0 -437.07764362107264 498.29142094624694 0 498.29142094624694 -179.22372586867277 0 0 0 0 -487.6593776884547 538.19946239712226 0 538.19946239712226 -487.26720119378842 0 0 0 0 -129.62447643844644 266.49051440193944 0 266.49051440193944 -161.86595368672852 0 0 0 0 -661.49243730102899 639.95573606892867 0 639.95573606892867 -415.47873695830276 0 0 0 0 -5.0807562430317148 16.300947756629903 0 16.300947756629903 2.996993794011388 0 0 0 0 47.868543416418362 21.236246230095333 0 21.236246230095333 -32.689744383699946 0 0 0 0 -256.41761654405855 82.085209922923241 0 82.085209922923241 -30.528608675958822 0 0 0 0 7.7315009820886189 42.42451037498904 0 42.42451037498904 -115.33762748918161 0 0 0 0 -143.43909915124823 58.104990399802773 0 58.104990399802773 16.858323562872101 0 0 0 0 -194.98499698439264 196.27941642094447 0 196.27941642094447 -35.390986427094958 0 0 0 0 -72.820837913954165 49.710535520891426 0 49.710535520891426 -49.023114371899283 0 0 0 0 -26.896244905525236 0.25978459416000987 0 0.25978459416000987 181.61402409246512 0 0 0 0 26.793667622521752 56.298938663749141 0 56.298938663749141 -30.761815163627034 0 0 0 0 21.466721961601422 17.878964132560995 0 17.878964132560995 21.444962924384015 0 0 0 0 32.612885243307403 10.371127292238796 0 10.371127292238796 -38.691332262748389 0 0 0 0 -149.9767224387906 56.730328696423385 0 56.730328696423385 -59.624253693807987 0 0 0 0 -8.0009121757757384 243.60215949192752 0 243.60215949192752 -179.7180846513329 0 0 0 0 -804.00516329586389 524.38540413825467 0 524.38540413825467 -281.96791560242127 0 0 0 0 31.751882654079935 22.647125795142571 0 22.647125795142571 -88.930740938587405 0 0 0 0 -561.1038539725123 459.80399790846786 0 459.80399790846786 -347.29972617224121 0 0 0 0 5.3810984336324736 148.54945534725005 0 148.54945534725005 -84.762499849898234 0 0 0 0 -541.90607641443785 343.17363293908784 0 343.17363293908784 -122.14107389743731 0 0 0 0 -677.68861980308429 632.5696498269208 0 632.5696498269208 -461.22424647355365 0 0 0 0 -640.40986077315574 433.71311112153126 0 433.71311112153126 -224.28101473665447 0 0 0 0 -237.91562663134391 198.25755233368545 0 198.25755233368545 -100.73631991933507 0 0 0 0 -355.21589478371607 472.37248994714173 0 472.37248994714173 -323.67373572266297 0 0 0 0 -74.138675257117029 95.271194929151847 0 95.271194929151847 27.232820829148707 0 0 0 0 -358.10700197663391 118.09285203023228 0 118.09285203023228 198.50501372473263 0 0 0 0 -156.97316957144878 77.491884601625429 0 77.491884601625429 79.735940087598436 0 0 0 0 -382.2949523392017 125.14661581518158 0 125.14661581518158 151.7489196812312 0 0 0 0 -302.88952616450842 323.42441078675256 0 323.42441078675256 -244.02714917315461 0 0 0 0 -28.825581351713097 37.197408134645656 0 37.197408134645656 14.938250644478956 0 0 0 0 -475.73277327857795 272.2606179413051 0 272.2606179413051 4.2507908101033536 0 0 0 0 -262.15986835036892 250.22266969455814 0 250.22266969455814 -619.53904322445487 0 0 0 0 -457.88436370983254 744.8272697858265 0 744.8272697858265 -13.012895943666081 0 0 0 0 -798.57099187624408 556.94763134689856 0 556.94763134689856 334.66331995783548 0 0 0 0 -668.46398511589359 405.50534912617786 0 405.50534912617786 -214.73529883169249 0 0 0 0 -590.34825828412431 549.55764224708037 0 549.55764224708037 -262.2085840450909 0 0 0 0 -1689.0075767408125 -363.0019572355759 0 -363.0019572355759 1423.7341199489965 0 0 0 0 -18.901837580600699 -1.1606532610094327 0 -1.1606532610094327 1.7728368661166662 0 0 0 0 -13.859902259922819 544.00835672148582 0 544.00835672148582 473.66634381318363 0 0 0 0 -563.35449531632185 -656.45381703086878 0 -656.45381703086878 -342.98269709360829 0 0 0 0 -60.322104296421912 -5.6722806683671223 0 -5.6722806683671223 27.561006251812948 0 0 0 0 -107.71114558472846 -48.649198274139877 0 -48.649198274139877 151.41565947047457 0 0 0 0 -97.577234272568603 81.880703044840629 0 81.880703044840629 71.043414523835963 0 0 0 0 -226.32609556107491 63.446110679236881 0 63.446110679236881 -254.86299866160607 0 0 0 0 -30.838515155614004 -94.519486000415782 0 -94.519486000415782 -207.49590386952696 0 0 0 0 -173.76328730086971 -44.158951206407437 0 -44.158951206407437 -64.423042393867945 0 0 0 0 -227.08661933541589 7.3246462808826891 0 7.3246462808826891 -162.20859129780729 0 0 0 0 -192.28297092899447 -75.396265741463139 0 -75.396265741463139 -123.49410971414727 0 0 0 0 -537.10008807550184 621.97093520748422 0 621.97093520748422 -494.42286718206014 0 0 0 0 -96.907414261981216 -14.366195859259236 0 -14.366195859259236 -42.816325929285938 0 0 0 0 -70.5377429954533 -43.21267869505391 0 -43.21267869505391 -150.46502050726849 0 0 0 0 -108.9099114843284 130.69636144684523 0 130.69636144684523 -86.370419016118831 0 0 0 0 322.86241210464868 -208.24397213201428 0 -208.24397213201428 -168.51938668775983 0 0 0 0 540.52070347487825 221.84320658196884 0 221.84320658196884 -40.921764919738052 0 0 0 0 181.45089752675267 16.044777770213841 0 16.044777770213841 -13.854346928793348 0 0 0 0 -158.29666577306489 128.76064124481672 0 128.76064124481672 -54.013166634580557 0 0 0 0 -41.20767215598363 33.706057456557346 0 33.706057456557346 -25.800419568059212 0 0 0 0 -198.41279005456272 -1.0131935765421076 0 -1.0131935765421076 -110.58097192504647 0 0 0 0 -544.56939316524949 46.83473914226488 0 46.83473914226488 -87.497033514668146 0 0 0 0 -762.54803188689402 -132.28866828725586 0 -132.28866828725586 34.269756193215471 0 0 0 0 -427.16500213372638 257.99477050084897 0 257.99477050084897 63.492534796921973 0 0 0 0 -734.12973878502089 140.85959902736067 0 140.85959902736067 69.226948514064134 0 0 0 0 -2.317549553981074 8.4040521143991214 0 8.4040521143991214 -0.041763760785627824 0 0 0 0 -1003.7070482341551 181.09593846457028 0 181.09593846457028 81.962209333185456 0 0 0 0 -537.16403941620956 280.43985774934845 0 280.43985774934845 -99.351051764871954 0 0 0 0 -122.02782351142378 228.09370256800321 0 228.09370256800321 -27.852099239022209 0 0 0 0 512.79640583696892 591.23423536655173 0 591.23423536655173 452.62533504113526 0 0 0 0 91.626096416599466 465.8333715437002 0 465.8333715437002 -1224.6216160128824 0 0 0 0 -45.987588409007856 27.424777527264443 0 27.424777527264443 26.744381794449872 0 0 0 0 -388.50198402120441 336.91793052330831 0 336.91793052330831 55.980770028356346 0 0 0 0 63.812068463594187 -37.277804090983409 0 -37.277804090983409 93.069203348624796 0 0 0 0 -188.17807556058688 106.6465876493894 0 106.6465876493894 120.45766738515522 0 0 0 0 4.1836824389756657 67.600404642325884 0 67.600404642325884 13.529578063753434 0 0 0 0 13.41139897319681 64.367285759073937 0 64.367285759073937 47.022989295398148 0 0 0 0 1.9895943889277987 46.478189016412216 0 46.478189016412216 7.756857558277261 0 0 0 0 24.550597583519902 120.26390563648829 0 120.26390563648829 89.075273611622833 0 0 0 0 43.668877657677513 80.387136260484112 0 80.387136260484112 262.16872094982682 0 0 0 0 -13.510019287234172 106.37149039469841 0 106.37149039469841 147.26999349909238 0 0 0 0 7.2256288672080018 70.718704516118649 0 70.718704516118649 61.967808700831448 0 0 0 0 31.943299493345819 65.624755827314019 0 65.624755827314019 17.553979193953225 0 0 0 0 7.4244022703094288 75.593763619170687 0 75.593763619170687 113.78599807376683 0 0 0 0 22.748789567820495 82.046037092759434 0 82.046037092759434 46.032282672835208 0 0 0 0 1075.083160940907 -743.66382691492618 0 -743.66382691492618 845.25513652365771 0 0 0 0 33.782502387690158 82.099563808515484 0 82.099563808515484 100.22628734993377 0 0 0 0 318.23540014011087 314.5326412654249 0 314.5326412654249 96.838880271694507 0 0 0 0 -18.591625980651713 18.287884167784327 0 18.287884167784327 38.632031494509803 0 0 0 0 838.97883671525051 -73.971275922194764 0 -73.971275922194764 173.29444817408512 0 0 0 0 1962.9234756983642 526.42421431472758 0 526.42421431472758 -846.04761216323823 0 0 0 0 261.60600009941845 1057.6022074484499 0 1057.6022074484499 -411.84411610530515 0 0 0 0 2206.1845757466508 -481.67278927261941 0 -481.67278927261941 -75.16859157163708 0 0 0 0 2615.8929168011091 65.102642451283828 0 65.102642451283828 -578.17542648565723 0 0 0 0 -3454.5922381752898 1397.4495289589267 0 1397.4495289589267 438.42166159738554 0 0 0 0 1022.4973434382991 3131.0609703314331 0 3131.0609703314331 -2273.6919475187842 0 0 0 0 237.86511169371079 -1492.0380111977356 0 -1492.0380111977356 -3133.86025046953 0 0 0 0 506.96219059688156 86.020000852888188 0 86.020000852888188 -3934.976818172112 0 0 0 0 -20.425470942435368 29.237276047820444 0 29.237276047820444 -25.344100330034124 0 0 0 0 -3177.6675143788925 -0.7442903327678323 0 -0.7442903327678323 19.961108612638782 0 0 0 0 -2143.7369278186816 438.87023786145437 0 438.87023786145437 -276.78481426820508 0 0 0 0 -1297.535749503033 1976.8874270993183 0 1976.8874270993183 312.18448236157928 0 0 0 0 -23.272995376063477 19.887307510248036 0 19.887307510248036 -15.769627670338476 0 0 0 0 -382.67438036130625 157.01306115394254 0 157.01306115394254 -1472.7956538231801 0 0 0 0 1328.403869194357 659.03673286497724 0 659.03673286497724 -1803.7377404129584 0 0 0 0 703.74269032597658 1113.8524334312642 0 1113.8524334312642 -635.87644465546327 0 0 0 0 -57.585873073582974 52.861124805279552 0 52.861124805279552 -37.472907721448962 0 0 0 0 -20.721098096614298 2.4663642302718571 0 2.4663642302718571 -0.2943020033992525 0 0 0 0 -728.98856578191044 125.57816797284613 0 125.57816797284613 1299.7090498655089 0 0 0 0 -76.617681248841109 818.06867776101717 0 818.06867776101717 -1961.9418638637471 0 0 0 0 -332.7008308985387 844.80071087287797 0 844.80071087287797 1585.021111930997 0 0 0 0 -0.8538367690053974 15.571266178771339 0 15.571266178771339 -19.131021009742916 0 0 0 0 -2208.6555808089906 -146.98702815623255 0 -146.98702815623255 3960.442025077853 0 0 0 0 -884.80887138360413 1255.2955733897688 0 1255.2955733897688 -1210.9168679185168 0 0 0 0 -308.38319173258787 539.10336084925075 0 539.10336084925075 -609.52686729681591 0 0 0 0 -468.07581234164536 23.292050178293721 0 23.292050178293721 113.06335780912923 0 0 0 0 -1082.2033814524402 593.52391952251401 0 593.52391952251401 -276.93753892512177 0 0 0 0 -293.55110146499646 -30.925968025068869 0 -30.925968025068869 -67.11576552189581 0 0 0 0 -212.72462739353068 43.281666615508584 0 43.281666615508584 -88.445105151047755 0 0 0 0 89.089360797675909 -120.95107044263568 0 -120.95107044263568 -68.924872338220666 0 0 0 0 -203.06467811407492 74.951695460629708 0 74.951695460629708 22.435273486371443 0 0 0 0 -395.35480602744065 286.86579420829185 0 286.86579420829185 32.112177317365422 0 0 0 0 -170.67243856097048 98.516052046437835 0 98.516052046437835 -113.4291459465785 0 0 0 0 -652.90510604788142 441.17117207581396 0 441.17117207581396 -290.97274074294546 0 0 0 0 -203.84487508673919 474.60416966092816 0 474.60416966092816 -387.31774208331262 0 0 0 0 -375.29089546429168 302.82069511734881 0 302.82069511734881 -499.41504627178801 0 0 0 0 -363.13133547975667 725.80503004142793 0 725.80503004142793 -1046.4144016457867 0 0 0 0 -16.538774784625275 376.16386085008708 0 376.16386085008708 -1088.9221919176925 0 0 0 0 1.6802385794915153 14.4109469060175 0 14.4109469060175 18.495591397108257 0 0 0 0 -65.928805357238161 461.21280645922161 0 461.21280645922161 -394.75796165315114 0 0 0 0 -388.90893259214909 677.18941810057095 0 677.18941810057095 -508.4995004835655 0 0 0 0 -191.6185121678318 404.75233553470025 0 404.75233553470025 388.42983839485532 0 0 0 0 17.835208167634846 145.22684834398751 0 145.22684834398751 327.42299170019396 0 0 0 0 -122.74015162081196 462.25919177612013 0 462.25919177612013 778.20286899643179 0 0 0 0 -323.25130503818218 371.78053696307688 0 371.78053696307688 9.1169605594332097 0 0 0 0 -88.239419345947681 462.9454963602584 0 462.9454963602584 42.233833500737092 0 0 0 0 -92.315006481738237 207.36967291606925 0 207.36967291606925 330.76390550211363 0 0 0 0 -40.985121747941776 107.84486054234117 0 107.84486054234117 9.297385544370627 0 0 0 0 80.493844425807765 31.778423163195839 0 31.778423163195839 167.26746732962783 0 0 0 0 67.251203697145684 -17.178393641606817 0 -17.178393641606817 41.180771337406441 0 0 0 0 199.32441223457863 129.15208587362213 0 129.15208587362213 190.72757521475432 0 0 0 0 233.32916932459921 277.97292376488986 0 277.97292376488986 336.24718427751486 0 0 0 0 103.13678448938299 222.90033858198876 0 222.90033858198876 644.50970539130412 0 0 0 0 107.22627265911433 255.67566799026827 0 255.67566799026827 639.27095413202187 0 0 0 0 105.99658310494124 125.80066800691566 0 125.80066800691566 471.8574970675545 0 0 0 0 180.93582809875079 202.26666902109719 0 202.26666902109719 339.11770248861285 0 0 0 0 -162.34164401075395 315.45523905830487 0 315.45523905830487 1440.4478252311164 0 0 0 0 51.887366909926641 297.79341311717508 0 297.79341311717508 971.50237852963619 0 0 0 0 42.819817276875256 422.87734545087005 0 422.87734545087005 967.94561241620568 0 0 0 0 -80.146377284581831 83.319875086170214 0 83.319875086170214 1147.2603098169639 0 0 0 0 -295.64146925066234 44.131342232551106 0 44.131342232551106 918.17113691104169 0 0 0 0 267.99666893784888 316.27685194447258 0 316.27685194447258 -103.78052984964415 0 0 0 0 -1.5903918228382281 3.4638310196487225 0 3.4638310196487225 2.6469132502601127 0 0 0 0 82.319928138953401 178.59939716180816 0 178.59939716180816 403.42101141389139 0 0 0 0 -19.103918979570153 187.99350711718876 0 187.99350711718876 336.44335239764769 0 0 0 0 -63.016147032540175 -119.63702900516364 0 -119.63702900516364 1282.088007584156 0 0 0 0 0.23614421519761208 0.78333804810196739 0 0.78333804810196739 1.187250728676652 0 0 0 0 -588.36429460230283 451.67625697810581 0 451.67625697810581 -187.20474390928575 0 0 0 0 -1086.5689443457813 -307.89448369712773 0 -307.89448369712773 162.908132527813 0 0 0 0 -1228.8302183268825 -149.26318762479059 0 -149.26318762479059 341.75936326261581 0 0 0 0 -1110.9209402054548 -297.20786443222823 0 -297.20786443222823 244.93789272740833 0 0 0 0 -1064.8380773984827 -471.28773138269025 0 -471.28773138269025 899.5333007904992 0 0 0 0 -1512.7866413061638 2137.8156518972464 0 2137.8156518972464 1722.2538129714085 0 0 0 0 -394.22151982641662 140.47419295660075 0 140.47419295660075 97.140989064631867 0 0 0 0 -517.9910680114408 -242.98123518055218 0 -242.98123518055218 -32.857484789819864 0 0 0 0 -125.27206253062468 -58.62829195017548 0 -58.62829195017548 44.889795260183746 0 0 0 0 -1216.0582037406566 237.49991278038215 0 237.49991278038215 114.03177535609575 0 0 0 0 -1020.4777014270367 -109.42491331365454 0 -109.42491331365454 -345.40566329506692 0 0 0 0 -1172.554710915414 204.22767411448149 0 204.22767411448149 78.203571938007372 0 0 0 0 -8.2805771931993775 15.267124719631852 0 15.267124719631852 2.3396666001424364 0 0 0 0 -939.77421718076221 -405.95897728505952 0 -405.95897728505952 -3433.4283761315746 0 0 0 0 -1072.0275736011536 -211.47667480924429 0 -211.47667480924429 66.742952030366723 0 0 0 0 -18.493344258529021 11.7164004867942 0 11.7164004867942 -5.3353568256855226 0 0 0 0 114.50964294348523 17.067542472443165 0 17.067542472443165 -182.39421708189184 0 0 0 0 -14.763594826130429 262.06088140922657 0 262.06088140922657 -633.96183479584579 0 0 0 0 -859.60334241471719 1569.9755963645293 0 1569.9755963645293 -110.74213032978878 0 0 0 0 -226.92587530082528 327.36610219257636 0 327.36610219257636 -219.36380197007384 0 0 0 0 -494.80813021671202 118.66620166094799 0 118.66620166094799 106.68752654382843 0 0 0 0 -623.94928907594294 184.79833742392657 0 184.79833742392657 526.63286388842971 0 0 0 0 -1162.5900152444374 143.27086963492911 0 143.27086963492911 2184.2978585102246 0 0 0 0 -1145.1550287130522 505.50517015552032 0 505.50517015552032 351.29001635619352 0 0 0 0 -802.64432231863611 -94.11959408025723 0 -94.11959408025723 222.27655127095932 0 0 0 0 -260.05592997015628 131.1373502213246 0 131.1373502213246 84.296197201991163 0 0 0 0 -304.96986439260945 197.33435308097251 0 197.33435308097251 143.08959835367568 0 0 0 0 166.2101368366566 107.58430496605433 0 107.58430496605433 -0.8418789528805064 0 0 0 0 27.454801243467955 108.17980328706471 0 108.17980328706471 -55.435384263590095 0 0 0 0 27.601799662472331 119.29010904083407 0 119.29010904083407 31.063469061649812 0 0 0 0 108.25426125873219 -27.830789440605258 0 -27.830789440605258 -34.431537541517173 0 0 0 0 196.89409202548268 50.425437616901036 0 50.425437616901036 -135.28274952233187 0 0 0 0 206.88074821226473 -13.82989741343772 0 -13.82989741343772 -55.567668099780349 0 0 0 0 221.31026684438984 -8.4496636711028259 0 -8.4496636711028259 -57.243781838078576 0 0 0 0 191.12544628175965 32.240950140741916 0 32.240950140741916 66.28580130719638 0 0 0 0 152.55850372312125 167.85900399124512 0 167.85900399124512 245.74051062745275 0 0 0 0 215.48985078022815 88.039483782202296 0 88.039483782202296 31.355178219710069 0 0 0 0 163.89536303890054 153.70230786442698 0 153.70230786442698 339.09583374287467 0 0 0 0 261.26177534688759 239.96211772432798 0 239.96211772432798 220.06247760346741 0 0 0 0 162.29814631296904 338.62456765637762 0 338.62456765637762 581.74337858789886 0 0 0 0 152.91389712065575 288.48714893355645 0 288.48714893355645 583.65405479569745 0 0 0 0 -3.2755832289258251 435.58658164215012 0 435.58658164215012 1330.3822502877301 0 0 0 0 71.262260751464055 545.90297349153116 0 545.90297349153116 869.13275603581178 0 0 0 0 127.43990169663448 409.70641130988224 0 409.70641130988224 865.92942191475595 0 0 0 0 367.15368935477454 198.99311462470905 0 198.99311462470905 488.33479274812271 0 0 0 0 -147.18809730903013 833.19567337392073 0 833.19567337392073 1310.9976832372849 0 0 0 0 -24.913773414766183 308.56740253310772 0 308.56740253310772 300.76207891560625 0 0 0 0 40.779127470697858 182.2366771747329 0 182.2366771747329 506.08314115932808 0 0 0 0 -484.00474161806778 255.25463422191751 0 255.25463422191751 746.58971792292868 0 0 0 0 -540.65422968783241 484.95085577330065 0 484.95085577330065 -8.209009407182748 0 0 0 0 -12.003850013677948 224.13845334088091 0 224.13845334088091 5.1550739735102979 0 0 0 0 -521.10920898016047 -180.25752889466821 0 -180.25752889466821 -208.53861765886541 0 0 0 0 -39.600535835539631 674.17683350609514 0 674.17683350609514 326.03108008015624 0 0 0 0 -629.53366108327464 117.36982303783589 0 117.36982303783589 284.95506594855397 0 0 0 0 -5.8131945351775016 46.793001048477052 0 46.793001048477052 -3.5977912218448478 0 0 0 0 -887.61692159442464 2.1926762750808848 0 2.1926762750808848 234.68786211829502 0 0 0 0 -534.49976299260015 -200.82304451032178 0 -200.82304451032178 -186.49671908962773 0 0 0 0 5.8235529092125944 557.08440232010616 0 557.08440232010616 -333.11847731428861 0 0 0 0 -234.67357919864298 358.47590938269423 0 358.47590938269423 174.37053475586799 0 0 0 0 -336.14361201204156 452.66807562680151 0 452.66807562680151 312.24953972372896 0 0 0 0 -496.48926395859235 1235.3962044656728 0 1235.3962044656728 -714.78507409886515 0 0 0 0 -227.26512936399376 727.06082390133088 0 727.06082390133088 186.06300433000433 0 0 0 0 66.589063306280877 999.34571218213023 0 999.34571218213023 -2262.6973426512632 0 0 0 0 0.057447224482075399 4.5857200999820975 0 4.5857200999820975 1.6101506984591225 0 0 0 0 -261.97054057566856 -305.34268752662319 0 -305.34268752662319 2808.4225272185613 0 0 0 0 -159.67200883760233 331.57049339960213 0 331.57049339960213 2358.6711620072747 0 0 0 0 280.07027657679282 -279.96375309428549 0 -279.96375309428549 1439.8029965979076 0 0 0 0 -349.30666450737044 377.92805555159066 0 377.92805555159066 -868.20179257282143 0 0 0 0 -455.74949173685309 826.47646561375586 0 826.47646561375586 -262.09253877337324 0 0 0 0 -341.04648744386213 907.30514284608216 0 907.30514284608216 -498.38071201484127 0 0 0 0 -301.69127506099176 731.84815098306717 0 731.84815098306717 -806.93874548263557 0 0 0 0 -496.36428720155527 778.54735822445582 0 778.54735822445582 -218.42989138039411 0 0 0 0 -153.78183505465859 894.48850757838227 0 894.48850757838227 -182.12246007866634 0 0 0 0 73.62134413968306 702.79475751520658 0 702.79475751520658 -337.67351355357096 0 0 0 0 -252.18217731444383 739.00402038181892 0 739.00402038181892 -97.439052113186335 0 0 0 0 -426.24451236922869 625.58544442225684 0 625.58544442225684 -319.87861989256635 0 0 0 0 -52.719898085168097 496.355304057186 0 496.355304057186 -635.11390783790557 0 0 0 0 8.6148209057282656 624.60135121580242 0 624.60135121580242 -403.62671612540726 0 0 0 0 235.11398351215757 476.91132809462579 0 476.91132809462579 -174.59112043977075 0 0 0 0 64.602379134822741 384.46360265353769 0 384.46360265353769 -205.27398233640997 0 0 0 0 280.9749606781188 177.18590613325796 0 177.18590613325796 -84.799315790485707 0 0 0 0 397.25288214757165 181.39814543199464 0 181.39814543199464 -170.44360401632002 0 0 0 0 244.28441300045233 343.10931022041768 0 343.10931022041768 -259.8947073117015 0 0 0 0 113.36548670730372 343.43227315146032 0 343.43227315146032 -178.93896946117457 0 0 0 0 -447.68366113883894 173.51220553833991 0 173.51220553833991 517.45192635076819 0 0 0 0 8.1673140853471864 25.183757020736323 0 25.183757020736323 7.42162065533293 0 0 0 0 1135.9588180183491 -255.68780039590638 0 -255.68780039590638 -942.49924064595871 0 0 0 0 -39.936701571947196 70.235379518399895 0 70.235379518399895 928.90481300502142 0 0 0 0 141.70658702734363 -134.29723565589302 0 -134.29723565589302 763.78598920955847 0 0 0 0 -6.8646318590364785 0.92020022503396603 0 0.92020022503396603 2.0300579383516837 0 0 0 0 -31.904913047575974 93.858684363840439 0 93.858684363840439 964.61298343031376 0 0 0 0 147.80357572759385 -97.244512090102944 0 -97.244512090102944 787.31776474445155 0 0 0 0 -231.21897036395239 310.66775158479322 0 310.66775158479322 1550.3737201167751 0 0 0 0 -3.29069875624117 -0.69621987888453418 0 -0.69621987888453418 1.7600304904985196 0 0 0 0 2.451437803911972 17.178102488465584 0 17.178102488465584 5.2218033236128676 0 0 0 0 -378.53305153785914 253.40668785331945 0 253.40668785331945 -599.89808004465885 0 0 0 0 -260.90292250614584 473.19071009670552 0 473.19071009670552 -859.44782653971924 0 0 0 0 -430.12502464592399 150.0788509196791 0 150.0788509196791 -55.631479545569164 0 0 0 0 -598.3745392919227 690.94874351973704 0 690.94874351973704 146.34793046132108 0 0 0 0 -449.96450375725681 639.59464419953019 0 639.59464419953019 104.75221978970512 0 0 0 0 -459.47916757060739 665.62891874928755 0 665.62891874928755 -238.03869007631147 0 0 0 0 -463.58690857827605 641.68141720816493 0 641.68141720816493 -357.40421457230696 0 0 0 0 -596.71146479385789 683.80452262251492 0 683.80452262251492 -173.39546822974808 0 0 0 0 -529.82732344119722 851.17310143206487 0 851.17310143206487 11.832457967131631 0 0 0 0 -685.51691370781919 901.67278114650981 0 901.67278114650981 -3.4276153686223552 0 0 0 0 -681.03208401416487 895.64643960481772 0 895.64643960481772 -9.1419108566260547 0 0 0 0 -862.66084623418283 799.34537509829534 0 799.34537509829534 125.13733442271132 0 0 0 0 -685.76187444884999 904.2603471960465 0 904.2603471960465 -13.185573867260246 0 0 0 0 -385.20892860433378 40.55716925807792 0 40.55716925807792 101.06185061763972 0 0 0 0 -367.89907109735941 288.6772200107589 0 288.6772200107589 166.85525597035303 0 0 0 0 -808.15074039748288 495.25530815853563 0 495.25530815853563 253.52175366415577 0 0 0 0 -3.1074995019589551 667.75436835482833 0 667.75436835482833 266.42942169359594 0 0 0 0 -464.04931748708168 361.18358360220486 0 361.18358360220486 194.23107153538149 0 0 0 0 228.98936177760334 -462.1403017442899 0 -462.1403017442899 522.46342030225787 0 0 0 0 -767.3409626273351 289.71748514266801 0 289.71748514266801 1048.9811033370497 0 0 0 0 5.4632506527348994 6.1750384111430208 0 6.1750384111430208 15.871972442915791 0 0 0 0 313.80714975940646 63.08054857670686 0 63.08054857670686 -23.552556875962182 0 0 0 0 -37.03143195543089 -5.4731115598042379 0 -5.4731115598042379 180.19650618402011 0 0 0 0 -42.335793188307434 -2.8052280194242485 0 -2.8052280194242485 179.27378788720307 0 0 0 0 -74.700761113068438 33.915103333929437 0 33.915103333929437 190.98060321009143 0 0 0 0 -97.646461522665049 62.361756222988333 0 62.361756222988333 158.44602227574796 0 0 0 0 -106.72593686859182 11.234316232923447 0 11.234316232923447 241.69225231699966 0 0 0 0 -99.688713685260154 380.87482656430439 0 380.87482656430439 76.295454432493898 0 0 0 0 -38.637127872760175 27.018044859651127 0 27.018044859651127 177.78667426484026 0 0 0 0 -3.3890751510167334 24.202755768194692 0 24.202755768194692 167.71630248483828 0 0 0 0 -734.771492478656 40.907743120300438 0 40.907743120300438 -775.12622803932754 0 0 0 0 -1121.9830016814085 205.88324125995678 0 205.88324125995678 248.77878052490996 0 0 0 0 -829.68227721905714 49.88513940150915 0 49.88513940150915 161.8936825233468 0 0 0 0 7.7607103229336545 15.312925088670156 0 15.312925088670156 4.1916020529646687 0 0 0 0 -59.214861947140889 48.860473788925447 0 48.860473788925447 158.88123265408649 0 0 0 0 -58.74825957682333 26.421689653718204 0 26.421689653718204 189.12834216492593 0 0 0 0 -34.49617360701086 31.293215159384999 0 31.293215159384999 143.61076969446731 0 0 0 0 -53.818030225855182 61.033585860248422 0 61.033585860248422 107.55514558574941 0 0 0 0 -12.622337581968701 35.211118858002862 0 35.211118858002862 143.16773574885747 0 0 0 0 -373.08243966164446 410.87627678648641 0 410.87627678648641 552.14408014001674 0 0 0 0 -97.151022633636501 -18.616314215372711 0 -18.616314215372711 20.951973047691855 0 0 0 0 -323.10482085112017 -193.95662901572359 0 -193.95662901572359 236.73305935630196 0 0 0 0 -1916.781958062682 -792.66219026905492 0 -792.66219026905492 686.81284108145337 0 0 0 0 3.2001741731407449 -6.1941785124074187 0 -6.1941785124074187 -3.8099503950252682 0 0 0 0 656.63213006712613 97.195949238674075 0 97.195949238674075 -120.41924752061641 0 0 0 0 -354.7660579041476 -33.031287261201214 0 -33.031287261201214 -7.2710919238270435 0 0 0 0 -431.82516180891253 -27.069737443602207 0 -27.069737443602207 35.486746913084062 0 0 0 0 -21.230928001188317 27.143863086959527 0 27.143863086959527 23.369923382578506 0 0 0 0 -172.93339243448281 -43.700697486830904 0 -43.700697486830904 91.90914770575182 0 0 0 0 -9.7003499350511078 7.7902620197926069 0 7.7902620197926069 23.632764088345311 0 0 0 0 167.92114469649096 91.285493219387718 0 91.285493219387718 61.673892986391365 0 0 0 0 0.33736258208092806 2.4397214782076162 0 2.4397214782076162 9.1545303659307535 0 0 0 0 -265.72396609144926 -315.84383760578567 0 -315.84383760578567 1125.2875095346244 0 0 0 0 528.59858947219618 703.40198910937761 0 703.40198910937761 606.32327491976321 0 0 0 0 12.683248222456314 460.535137957595 0 460.535137957595 813.63594530189584 0 0 0 0 464.16827691833896 324.85933926174039 0 324.85933926174039 9.3870408294023946 0 0 0 0 151.35546963381785 738.07926463353579 0 738.07926463353579 1471.8208640535158 0 0 0 0 209.45178873380064 745.24080835290442 0 745.24080835290442 1011.4046907168231 0 0 0 0 -337.90034603669483 34.935878100888658 0 34.935878100888658 67.181975869651069 0 0 0 0 -159.91364368770883 -289.81625756347421 0 -289.81625756347421 404.7982991905883 0 0 0 0 -413.73633097059792 239.51651184166258 0 239.51651184166258 804.14780762643204 0 0 0 0 52.420632076187758 165.58400952655211 0 165.58400952655211 521.93436838406342 0 0 0 0 -77.244967412290862 355.3775130848444 0 355.3775130848444 -263.68626827128901 0 0 0 0 0.95023524740969378 29.147438094984977 0 29.147438094984977 6.2773756035756989 0 0 0 0 -199.70366912390455 -74.462841942360683 0 -74.462841942360683 613.50408303306176 0 0 0 0 1.1327846212843724 436.25135423920256 0 436.25135423920256 776.02280189078738 0 0 0 0 -3.5028960927646153 0.078396309536231001 0 0.078396309536231001 1.5628881249361983 0 0 0 0 -285.13255119737005 109.40848237270984 0 109.40848237270984 1270.1675398206312 0 0 0 0 195.96181569315377 -17.27696047983045 0 -17.27696047983045 639.94062037037543 0 0 0 0 -27.981600101280492 154.01351052959581 0 154.01351052959581 118.18300369157805 0 0 0 0 -159.64282198174624 67.790815993219439 0 67.790815993219439 610.62463386447962 0 0 0 0 -189.38645462495333 198.57793191541714 0 198.57793191541714 245.01447299456777 0 0 0 0 -143.64075396420958 269.04844166443945 0 269.04844166443945 -30.114250890030235 0 0 0 0 -118.33419205587415 207.12367869376612 0 207.12367869376612 91.95831336226729 0 0 0 0 -1.312363296261708 1.4600912276868598 0 1.4600912276868598 1.8916281372586781 0 0 0 0 -502.08573700924171 402.55364110974187 0 402.55364110974187 1885.8254881914036 0 0 0 0 -743.30780817076447 143.33443969417567 0 143.33443969417567 1693.5572888360621 0 0 0 0 -55.271760699368315 242.85995225419902 0 242.85995225419902 -10.819722022803035 0 0 0 0 20.0870151387644 366.10643291343877 0 366.10643291343877 151.06069621218194 0 0 0 0 858.55873202439398 -70.342709035729058 0 -70.342709035729058 1908.8144269303593 0 0 0 0 -198.11875307827722 541.16526693629567 0 541.16526693629567 1662.014704812027 0 0 0 0 1729.1900431510294 -94.623110144690145 0 -94.623110144690145 966.99441286514048 0 0 0 0 520.11270386353135 955.6013002020045 0 955.6013002020045 1233.9616896861116 0 0 0 0 -96.60731480474351 627.93869130026724 0 627.93869130026724 1081.1596449265198 0 0 0 0 169.16880085447337 363.18132173978665 0 363.18132173978665 927.98695934802527 0 0 0 0 -10.392129073326942 495.18396127667074 0 495.18396127667074 452.58854347462693 0 0 0 0 207.77561169973342 386.51064462558861 0 386.51064462558861 100.43190856545698 0 0 0 0 97.802916680753697 543.79354272993078 0 543.79354272993078 472.0210826468101 0 0 0 0 334.57008564053103 697.17189044403494 0 697.17189044403494 515.06524065003032 0 0 0 0 -465.49071663376526 148.24293988644786 0 148.24293988644786 644.26809115163633 0 0 0 0 -402.91313253017142 166.51775348397496 0 166.51775348397496 976.64253623463446 0 0 0 0 -96.803066362102982 669.45491075419704 0 669.45491075419704 864.27884938869465 0 0 0 0 -286.80486835888587 461.60172055345902 0 461.60172055345902 677.53146787460719 0 0 0 0 15.601787457359023 612.66914799418737 0 612.66914799418737 328.05345448758453 0 0 0 0 -288.82899059413285 486.05178489835862 0 486.05178489835862 450.98201556415006 0 0 0 0 -337.44790101586841 432.0118021930175 0 432.0118021930175 400.3162567528052 0 0 0 0 -168.17324164320235 524.26450679352092 0 524.26450679352092 103.30909620030434 0 0 0 0 -191.55580760425073 466.21804831542613 0 466.21804831542613 246.35448901273776 0 0 0 0 -89.873857462618616 548.16991998048979 0 548.16991998048979 -14.123538935491524 0 0 0 0 -87.947618320627953 446.42390305190202 0 446.42390305190202 -192.06912379768619 0 0 0 0 -261.06955000343441 447.99436627472096 0 447.99436627472096 70.18570767933852 0 0 0 0 -135.41600711841602 351.18694631690596 0 351.18694631690596 126.34392332596508 0 0 0 0 -33.292297119201976 312.76577992261082 0 312.76577992261082 -74.682874055826687 0 0 0 0 -272.20930717122974 477.34248695904444 0 477.34248695904444 -120.97087450610707 0 0 0 0 -362.40102045951062 382.32358174742876 0 382.32358174742876 -193.34477199846151 0 0 0 0 36.679824079193281 17.717451769140297 0 17.717451769140297 -12.738677704337391 0 0 0 0 -666.72944197746983 747.09029175679098 0 747.09029175679098 -209.76864682955852 0 0 0 0 442.07495825908336 334.89271192088381 0 334.89271192088381 -198.64184984487656 0 0 0 0 -306.10732561866189 529.6283481552714 0 529.6283481552714 -303.61864271430386 0 0 0 0 52.766219304829463 64.141531338604238 0 64.141531338604238 66.34082993332963 0 0 0 0 -158.95962668675929 485.107031625932 0 485.107031625932 -402.04185674336713 0 0 0 0 -289.71615869294146 426.13260378315999 0 426.13260378315999 -191.38458571550291 0 0 0 0 -190.69994039250014 424.20194393076599 0 424.20194393076599 -71.358316546844435 0 0 0 0 -181.65800482893246 396.96780888340072 0 396.96780888340072 113.45977127901278 0 0 0 0 -74.457105648849392 366.89656238729731 0 366.89656238729731 -80.546813920736895 0 0 0 0 -209.21861194467056 312.3374082349319 0 312.3374082349319 25.493596623229678 0 0 0 0 -158.29826748761116 439.25116787767911 0 439.25116787767911 -191.23276092103879 0 0 0 0 8.2054192835270854 34.678520758772343 0 34.678520758772343 -17.931860201889393 0 0 0 0 -1178.8647718241446 122.89334588790916 0 122.89334588790916 157.92991318362192 0 0 0 0 -1469.1761266872145 620.88308140469735 0 620.88308140469735 -37.054524895651411 0 0 0 0 -1825.3299969310883 726.65967633356286 0 726.65967633356286 -26.223677328855047 0 0 0 0 -2311.0351099204108 246.72842497229885 0 246.72842497229885 192.34574619850173 0 0 0 0 -8.1280114784823638 6.612514382017423 0 6.612514382017423 -10.19170294507974 0 0 0 0 59.04186380734609 140.67442620056408 0 140.67442620056408 148.84763816051054 0 0 0 0 168.32615085140969 73.351124484665888 0 73.351124484665888 46.154439653957525 0 0 0 0 92.13654031124679 218.96212285628735 0 218.96212285628735 20.099936239374074 0 0 0 0 58.572649685378565 148.65920257139169 0 148.65920257139169 60.316207741364451 0 0 0 0 129.50326609903357 118.78780702504039 0 118.78780702504039 101.93280183366832 0 0 0 0 184.11952525104061 239.36632582322 0 239.36632582322 60.153851676336672 0 0 0 0 113.59044705467173 118.73410373825287 0 118.73410373825287 91.478609986969772 0 0 0 0 -220.23067733689095 334.52742005973414 0 334.52742005973414 26.729003809603455 0 0 0 0 -205.84503374229098 397.77210934603499 0 397.77210934603499 70.138730873688473 0 0 0 0 -198.63156040625472 480.07347839368595 0 480.07347839368595 -216.85054712730562 0 0 0 0 -358.70573783854343 242.44000685254287 0 242.44000685254287 325.64451810012542 0 0 0 0 -345.34680619440041 381.11780179064226 0 381.11780179064226 88.07270221766521 0 0 0 0 -365.3650299394576 198.38698646492776 0 198.38698646492776 119.55043996332824 0 0 0 0 -20.515969287517308 75.470079251721529 0 75.470079251721529 41.82440163822352 0 0 0 0 5.3054394357365595 35.333517186133292 0 35.333517186133292 39.454539765411667 0 0 0 0 -884.05981162757598 -6.9454515568504576 0 -6.9454515568504576 -9.4211891110981014 0 0 0 0 -22.372915018881031 114.74341151282897 0 114.74341151282897 155.52096204741974 0 0 0 0 -542.904989313638 486.57927566491435 0 486.57927566491435 -186.28623107535896 0 0 0 0 -989.25040405058712 1109.7214479260592 0 1109.7214479260592 -517.46516361997055 0 0 0 0 135.4894987416119 81.233461002761032 0 81.233461002761032 617.96256852798251 0 0 0 0 -1170.9649221986401 -914.50270461876971 0 -914.50270461876971 2364.2387063790738 0 0 0 0 1.9862282264394651 7.5817733154103877 0 7.5817733154103877 13.252688563269544 0 0 0 0 95.186279643377929 417.84637398927225 0 417.84637398927225 112.56664777941478 0 0 0 0 292.1347473149217 313.87378307869767 0 313.87378307869767 29.365580370904354 0 0 0 0 304.64776103613258 633.11372878497059 0 633.11372878497059 145.77474860272196 0 0 0 0 586.56928383384729 762.22085364504801 0 762.22085364504801 -152.91153604429564 0 0 0 0 681.01343720915975 166.71119645047065 0 166.71119645047065 -150.38480865908787 0 0 0 0 -57.544578313492821 1170.709820135522 0 1170.709820135522 -234.87256240336319 0 0 0 0 -1288.8551775820233 1183.4984109005163 0 1183.4984109005163 -370.40612738468917 0 0 0 0 -975.72138608929527 629.11865039434633 0 629.11865039434633 608.34811525836994 0 0 0 0 -398.12362565381045 156.11580503589357 0 156.11580503589357 210.5871321997256 0 0 0 0 -339.1103229252617 -185.49818280704045 0 -185.49818280704045 139.98223611102731 0 0 0 0 222.20678473734733 279.62766204878426 0 279.62766204878426 15.164755289850291 0 0 0 0 -51.055380606102098 46.552117618114522 0 46.552117618114522 51.421272551431031 0 0 0 0 -18.673768329379527 -89.890594766156028 0 -89.890594766156028 135.21474856598797 0 0 0 0 -562.97245379055676 -87.976884483261529 0 -87.976884483261529 102.02588567021303 0 0 0 0 -1729.277136525885 -246.98299243431484 0 -246.98299243431484 1195.6780445329932 0 0 0 0 -558.24792666871508 -192.82843016554398 0 -192.82843016554398 236.73011855948971 0 0 0 0 -11.558129022195267 -6.5641021270496367 0 -6.5641021270496367 0.23877806108484378 0 0 0 0 -385.42454130564875 45.00975899918194 0 45.00975899918194 1042.4950191126991 0 0 0 0 539.71621695390058 303.67447332329903 0 303.67447332329903 1062.694112387624 0 0 0 0 537.86032999134477 -113.81824276076441 0 -113.81824276076441 29.016016730030969 0 0 0 0 5.1354713349016947 16.393587076839736 0 16.393587076839736 6.9852271114011799 0 0 0 0 -264.3192035947759 258.54425840364456 0 258.54425840364456 1333.8727302264233 0 0 0 0 130.73434517880378 530.77839184876211 0 530.77839184876211 1181.2043177739288 0 0 0 0 395.09798820345532 322.01855298564624 0 322.01855298564624 1855.9895370747909 0 0 0 0 457.34977243448884 372.12411494099615 0 372.12411494099615 779.24286691375892 0 0 0 0 580.1684958908063 703.56652565146624 0 703.56652565146624 201.58209136038204 0 0 0 0 498.53845803441072 362.53090942439394 0 362.53090942439394 311.93686744492152 0 0 0 0 205.84845596346713 674.71622726064743 0 674.71622726064743 396.74107073876075 0 0 0 0 74.131139734381577 547.0665922899243 0 547.0665922899243 276.9466625437999 0 0 0 0 178.19215418036038 620.45465469724149 0 620.45465469724149 926.82477850022406 0 0 0 0 -87.374495120617212 223.9038028796931 0 223.9038028796931 753.24789811402297 0 0 0 0 -115.55462443226133 120.5256672517753 0 120.5256672517753 277.45114240531984 0 0 0 0 -141.44689746949007 263.94094176814906 0 263.94094176814906 1157.8094171438061 0 0 0 0 -238.14819352363702 637.75817816015115 0 637.75817816015115 446.15854947416665 0 0 0 0 78.489383626540075 556.50364186107981 0 556.50364186107981 124.66742990849161 0 0 0 0 -537.48160517228098 558.37662952200299 0 558.37662952200299 -53.444589034887031 0 0 0 0 -398.34102029552741 361.60788378683719 0 361.60788378683719 169.28814561278114 0 0 0 0 -399.23637449876696 490.65644001851615 0 490.65644001851615 368.98210504858071 0 0 0 0 -819.82937718112953 37.682283590327643 0 37.682283590327643 303.42093581565132 0 0 0 0 -636.70116578450688 -239.51678242542039 0 -239.51678242542039 1115.6033459187747 0 0 0 0 -708.27224427513556 248.99172195996425 0 248.99172195996425 -133.31149409584759 0 0 0 0 -1762.0120622062313 47.41028294343414 0 47.41028294343414 -564.8288009932221 0 0 0 0 -1758.2812927691048 -58.302031824401638 0 -58.302031824401638 690.88399611150817 0 0 0 0 -3097.5561851422244 467.71800829787026 0 467.71800829787026 712.01928689236229 0 0 0 0 -2758.3925752422801 193.21053058138205 0 193.21053058138205 -58.704725203890121 0 0 0 0 -1400.5947039483035 -102.08653670764761 0 -102.08653670764761 -753.82254915792146 0 0 0 0 -2445.4885253957691 -494.63722242112271 0 -494.63722242112271 -605.00700860033976 0 0 0 0 -535.91856497064146 341.54500437508614 0 341.54500437508614 186.33874286804348 0 0 0 0 -761.68933541371371 791.50105497696859 0 791.50105497696859 -599.19795317421085 0 0 0 0 1435.6588845148653 820.92757776266808 0 820.92757776266808 -188.40460747377074 0 0 0 0 351.06347039114917 503.88553825356576 0 503.88553825356576 1305.0487183392979 0 0 0 0 293.19573237072473 840.85256058174855 0 840.85256058174855 -51.273486333164328 0 0 0 0 1240.8476616318076 144.36444340246453 0 144.36444340246453 -166.97326693352443 0 0 0 0 1765.9961933354934 617.45169567597259 0 617.45169567597259 606.34952940750372 0 0 0 0 1973.522667164536 9.1401038479598355 0 9.1401038479598355 1049.8123006479 0 0 0 0 129.11867113768221 305.28728716389492 0 305.28728716389492 1784.5051383654863 0 0 0 0 -2.8407521071415118 -2.6516653950910865 0 -2.6516653950910865 20.898094204683389 0 0 0 0 702.77346480943379 -789.84883400496255 0 -789.84883400496255 524.34721150626865 0 0 0 0 1303.4521297320516 211.61041520162144 0 211.61041520162144 43.42924450065766 0 0 0 0 730.63882053861744 -746.93992157632601 0 -746.93992157632601 -469.53316876763711 0 0 0 0 205.19125531670579 -505.78892213903237 0 -505.78892213903237 1497.9650215498095 0 0 0 0 138.9896661799321 216.51799459165841 0 216.51799459165841 907.8846514087345 0 0 0 0 173.94210559303974 -693.32394623319487 0 -693.32394623319487 408.65085693751462 0 0 0 0 1044.8323947951576 879.13621380708719 0 879.13621380708719 797.26573040360381 0 0 0 0 919.85652826762816 499.7685909058855 0 499.7685909058855 -9.9797967214253731 0 0 0 0 611.06215304911893 -317.04777533290144 0 -317.04777533290144 92.407530612472328 0 0 0 0 274.82613097569265 -651.14096270112714 0 -651.14096270112714 432.90401725584525 0 0 0 0 -228.21338074166852 -257.1256625731512 0 -257.1256625731512 349.88186129607493 0 0 0 0 -325.43551869608928 -361.1296710367169 0 -361.1296710367169 441.85230794821882 0 0 0 0 -533.30809610309188 -157.63414384720545 0 -157.63414384720545 458.33907275123784 0 0 0 0 -442.70037947501987 -520.55743813667868 0 -520.55743813667868 591.15261940821074 0 0 0 0 -1460.3696469131755 -473.33904915051244 0 -473.33904915051244 910.90629819904279 0 0 0 0 -1665.7451936361522 481.00747911036706 0 481.00747911036706 406.69745790777233 0 0 0 0 -3019.9870447791036 -196.38739576757507 0 -196.38739576757507 669.26226511552522 0 0 0 0 -2068.4457843969722 243.42523617329425 0 243.42523617329425 786.22013359508856 0 0 0 0 -765.17114154726733 303.7620552213757 0 303.7620552213757 714.80213326863304 0 0 0 0 71.439384397446702 86.325648843731869 0 86.325648843731869 234.09213728424947 0 0 0 0 -873.23757130392914 173.15396145098748 0 173.15396145098748 618.10217584174097 0 0 0 0 -13.85732056580504 37.128585917056334 0 37.128585917056334 30.353406557483147 0 0 0 0 -319.1789587532694 252.79921069050397 0 252.79921069050397 624.75489904987217 0 0 0 0 -668.77065461639722 -277.01557828865407 0 -277.01557828865407 516.20424892855954 0 0 0 0 -49.128018848139618 5.4388205069699325 0 5.4388205069699325 181.28958821016568 0 0 0 0 -251.46575105136435 -114.8781182022467 0 -114.8781182022467 365.86145461146225 0 0 0 0 -144.13697986179614 -210.90740579394696 0 -210.90740579394696 288.29465123318369 0 0 0 0 196.55265482643154 -338.48308104276657 0 -338.48308104276657 321.79957603489493 0 0 0 0 -110.74203527971986 -18.058671014445281 0 -18.058671014445281 344.61505246224988 0 0 0 0 -313.61018682551367 211.81218303676542 0 211.81218303676542 481.18631711381022 0 0 0 0 149.05684659301187 332.18640870362833 0 332.18640870362833 464.98455131043193 0 0 0 0 -8.7424760497560783 536.22686221548156 0 536.22686221548156 580.65268009801366 0 0 0 0 -656.46564652393135 442.82675519646546 0 442.82675519646546 625.68583545681031 0 0 0 0 -270.97715143242749 507.67512457818157 0 507.67512457818157 618.91970352552744 0 0 0 0 -110.9029236408096 223.90069955492072 0 223.90069955492072 420.61176802659975 0 0 0 0 -313.71960736635083 703.44489143179817 0 703.44489143179817 387.91333261684849 0 0 0 0 -17.273004577000364 21.26359518696659 0 21.26359518696659 -20.561178180609303 0 0 0 0 186.84683491093165 80.923140106884148 0 80.923140106884148 -177.74670994064218 0 0 0 0 488.37855645940726 336.80104850026828 0 336.80104850026828 -606.08041159928689 0 0 0 0 660.82561861757131 -185.8738052415747 0 -185.8738052415747 -131.76427286834223 0 0 0 0 258.88758664035413 -53.464113806134264 0 -53.464113806134264 -78.272097907189163 0 0 0 0 409.42649260570761 -45.543310605316947 0 -45.543310605316947 -233.24732965197472 0 0 0 0 200.20869312257855 41.328186113547417 0 41.328186113547417 -179.19212478955887 0 0 0 0 237.50743317755223 -70.823675355407431 0 -70.823675355407431 138.34613999792782 0 0 0 0 211.30409113303176 -90.63443861464475 0 -90.63443861464475 162.16553269848373 0 0 0 0 172.38183423891633 145.23706232131417 0 145.23706232131417 -249.26868288093829 0 0 0 0 -106.30808672393323 328.23215521465318 0 328.23215521465318 -87.496207581963972 0 0 0 0 50.322014089451841 565.66208383120647 0 565.66208383120647 -506.59367448353441 0 0 0 0 318.02287599148985 81.041177295090165 0 81.041177295090165 -382.99378526750661 0 0 0 0 193.37890533552854 181.17172487878997 0 181.17172487878997 -295.19090862328449 0 0 0 0 185.02220066226437 191.12875819321926 0 191.12875819321926 -247.85979791756108 0 0 0 0 162.03055078766192 156.12238072697073 0 156.12238072697073 -207.8008726486587 0 0 0 0 -64.692370742435742 154.5618851929321 0 154.5618851929321 18.165120942241629 0 0 0 0 -31.242908029150399 94.970817584086461 0 94.970817584086461 15.431252285337335 0 0 0 0 -59.657384132158768 151.27796378518542 0 151.27796378518542 28.943663209960505 0 0 0 0 -84.31301601298037 71.513760569068836 0 71.513760569068836 -430.70104391345376 0 0 0 0 -2.4507376111432109 12.137654874849375 0 12.137654874849375 -32.483761287588308 0 0 0 0 47.742946140126151 142.7337661484944 0 142.7337661484944 47.636115937850263 0 0 0 0 -50.822372370748781 37.87575456124614 0 37.87575456124614 -52.57554044490098 0 0 0 0 173.77503888932654 91.972558438467843 0 91.972558438467843 -123.67596284949832 0 0 0 0 -20.490103671065299 107.16547924265615 0 107.16547924265615 68.588413047778886 0 0 0 0 -81.822556386250653 151.62836581755255 0 151.62836581755255 20.573508263310032 0 0 0 0 -14.771879804734454 46.035378848890105 0 46.035378848890105 -3.4857434428049601 0 0 0 0 -86.963279295001485 397.07502075827779 0 397.07502075827779 -767.03531762315924 0 0 0 0 -565.2154688120645 247.50217818631791 0 247.50217818631791 -125.96906868217047 0 0 0 0 -830.55157934210365 416.35052445455949 0 416.35052445455949 -146.49819324347482 0 0 0 0 72.228361514717108 93.252706744129227 0 93.252706744129227 -227.22069447929971 0 0 0 0 -77.712006963966232 69.823464337234981 0 69.823464337234981 -6.2987372782600062 0 0 0 0 -38.285262729448732 91.968053625285393 0 91.968053625285393 -69.452826743253468 0 0 0 0 -62.458453094568597 82.49341656355071 0 82.49341656355071 140.52306066685469 0 0 0 0 -13.047340403863558 116.78519547222308 0 116.78519547222308 -44.960110582167488 0 0 0 0 -56.930979456005502 107.58559000870324 0 107.58559000870324 -73.777977731443315 0 0 0 0 -37.278114471278968 147.54261710723949 0 147.54261710723949 -35.569667410167312 0 0 0 0 -799.13284888133057 337.83008331654128 0 337.83008331654128 -569.86972665856592 0 0 0 0 32.992588399361644 70.374721498316404 0 70.374721498316404 -3.9943303135101758 0 0 0 0 -17.981730510005988 27.596452052241517 0 27.596452052241517 -20.824887519058365 0 0 0 0 -68.477018370984297 170.96236785073415 0 170.96236785073415 -12.030118698312435 0 0 0 0 142.81875756731461 180.37869695747941 0 180.37869695747941 -139.9888727896905 0 0 0 0 32.954441265453696 73.228162415893934 0 73.228162415893934 33.672066497825597 0 0 0 0 -33.015290460600227 137.80767304397341 0 137.80767304397341 -14.667995572031941 0 0 0 0 -56.451008484957129 153.69753853771181 0 153.69753853771181 20.430180179682793 0 0 0 0 451.25606938834972 264.72965320359799 0 264.72965320359799 -106.10879321657922 0 0 0 0 0.66330843820404795 0.34679396242796656 0 0.34679396242796656 -1.010857314996656 0 0 0 0 -814.63417860339814 368.67836797197015 0 368.67836797197015 673.4941039190744 0 0 0 0 -159.37212681834171 178.80845137271899 0 178.80845137271899 10.539328421669779 0 0 0 0 -106.43508317471424 94.504731138054922 0 94.504731138054922 24.21305486982601 0 0 0 0 119.05448314856039 132.04219618502975 0 132.04219618502975 29.454330125328852 0 0 0 0 59.708584970150696 167.89100439715548 0 167.89100439715548 21.175230988796102 0 0 0 0 28.891360149362299 124.10479980472883 0 124.10479980472883 -2.9258224397926824 0 0 0 0 7.3393285840720637 174.45819678982662 0 174.45819678982662 -119.870670878292 0 0 0 0 0.0012836366913688835 203.4581120467119 0 203.4581120467119 35.879113655566471 0 0 0 0 19.436369623121657 14.394850862584377 0 14.394850862584377 21.805208050212116 0 0 0 0 -95.414388312055962 185.00966328278446 0 185.00966328278446 36.758696725359187 0 0 0 0 -49.824712970410474 113.69679614480992 0 113.69679614480992 79.372996548161609 0 0 0 0 58.631364022054186 152.18900864788156 0 152.18900864788156 73.981502856986481 0 0 0 0 71.768873294895457 190.75740480510467 0 190.75740480510467 67.492291365764686 0 0 0 0 19.004622769105481 298.67175670216466 0 298.67175670216466 30.155257123507909 0 0 0 0 84.876021662352741 135.39115390741895 0 135.39115390741895 12.15834144997617 0 0 0 0 28.341326098423451 175.81287146996328 0 175.81287146996328 133.58194269328669 0 0 0 0 -541.35464483129908 309.60525652872821 0 309.60525652872821 207.4836640882786 0 0 0 0 140.74560808595561 257.59357252143673 0 257.59357252143673 -8.4316594759583978 0 0 0 0 166.17182042318746 121.3721929803578 0 121.3721929803578 38.741161769707105 0 0 0 0 39.996756230865671 123.02779201537052 0 123.02779201537052 59.564308327903802 0 0 0 0 5.7097049147996586 105.6495314710628 0 105.6495314710628 -29.825123378541321 0 0 0 0 69.162617329920181 123.43088603256976 0 123.43088603256976 -52.304975917826653 0 0 0 0 241.99319895145527 160.99908616261837 0 160.99908616261837 -198.2246275078287 0 0 0 0 258.63077354550478 -19.002153261142666 0 -19.002153261142666 166.78720718573453 0 0 0 0 35.066473304885314 46.848274161460679 0 46.848274161460679 -35.040484584657818 0 0 0 0 20.121188453820906 137.49527239391583 0 137.49527239391583 48.611072952686918 0 0 0 0 6.5607348891160395 33.121540018310299 0 33.121540018310299 -9.7048208980020689 0 0 0 0 604.46939386003214 180.52335493027022 0 180.52335493027022 -355.74145517943543 0 0 0 0 396.15667626274808 466.48782828241747 0 466.48782828241747 -225.6881418205885 0 0 0 0 -345.16087133460678 564.87831457330321 0 564.87831457330321 -193.40629922076914 0 0 0 0 269.48822098555684 413.05144611638389 0 413.05144611638389 -167.18802292993496 0 0 0 0 318.04637245102276 664.57696117624528 0 664.57696117624528 -250.15004950988805 0 0 0 0 241.05154510206194 721.80761406590136 0 721.80761406590136 153.56532654289913 0 0 0 0 84.771794911415782 645.68863506846537 0 645.68863506846537 197.06452507535869 0 0 0 0 275.50883198775409 86.075783919939568 0 86.075783919939568 -265.62860339641702 0 0 0 0 -50.96480445085399 156.8708061083862 0 156.8708061083862 359.37473581149243 0 0 0 0 150.18471393198706 500.60825148448203 0 500.60825148448203 -38.918898941577936 0 0 0 0 40.643323584779864 452.74891368225508 0 452.74891368225508 114.71259333978014 0 0 0 0 141.90660687486525 589.96692142460233 0 589.96692142460233 -11.060522476362166 0 0 0 0 -15.41108653597621 636.68440061167348 0 636.68440061167348 178.56266087501717 0 0 0 0 -235.99381677378551 597.41520737661631 0 597.41520737661631 146.48060578288141 0 0 0 0 -91.170441294634657 502.76175735388279 0 502.76175735388279 101.64242170484795 0 0 0 0 -147.80064978983137 522.51840077406086 0 522.51840077406086 121.08590889369225 0 0 0 0 -131.15302914607855 365.78919136875629 0 365.78919136875629 184.60608063537802 0 0 0 0 -517.91147864195227 397.6895707972144 0 397.6895707972144 199.41354064696498 0 0 0 0 -33.059302061294147 84.194785319346011 0 84.194785319346011 430.53868102830165 0 0 0 0 -10.321122143226802 37.287331859304388 0 37.287331859304388 183.28613145992881 0 0 0 0 -117.938555353423 344.15292247877005 0 344.15292247877005 102.61848150654259 0 0 0 0 -314.17888778001361 156.16885240999545 0 156.16885240999545 -10.558964711737644 0 0 0 0 -303.21881216279871 353.49956743603616 0 353.49956743603616 316.49696952807426 0 0 0 0 -18.744585580434183 -25.381416631172925 0 -25.381416631172925 10.546753669207192 0 0 0 0 -62.198394607708906 31.636094144574599 0 31.636094144574599 194.29865234354656 0 0 0 0 -45.934239284950309 61.933638646441977 0 61.933638646441977 181.00027502659941 0 0 0 0 -18.956790275150183 48.554612484954788 0 48.554612484954788 22.219125288913382 0 0 0 0 -60.498868183029117 59.112915012861777 0 59.112915012861777 116.34404227895939 0 0 0 0 -39.288574144760787 44.617821062041912 0 44.617821062041912 133.52624374939478 0 0 0 0 60.62441906505515 133.1002058528768 0 133.1002058528768 23.909744309166403 0 0 0 0 149.34995833289577 144.31646710419591 0 144.31646710419591 23.048463721184817 0 0 0 0 -6.7016369912016671 117.983506507333 0 117.983506507333 274.20896368475951 0 0 0 0 1.6364213612784226 28.262136856890919 0 28.262136856890919 43.233659301023636 0 0 0 0 5.8254470284737181 -14.762642535428313 0 -14.762642535428313 155.24289459188367 0 0 0 0 -53.047172279606457 21.088668565127591 0 21.088668565127591 168.28012244685669 0 0 0 0 -34.859448088929639 32.301865421468392 0 32.301865421468392 166.87260125185094 0 0 0 0 -25.802195057475785 41.532324699752934 0 41.532324699752934 7.297908198821605 0 0 0 0 -20.647051778090827 20.606511563200911 0 20.606511563200911 108.58917516869406 0 0 0 0 50.294289356083027 94.916929695405997 0 94.916929695405997 9.2707785996965981 0 0 0 0 -207.62923325188603 192.76000892579032 0 192.76000892579032 -141.59782745156554 0 0 0 0 -8.5416493609448736 9.1432028900722457 0 9.1432028900722457 -5.2968734109236948 0 0 0 0 -196.06865317826743 496.73178218810227 0 496.73178218810227 -197.46036363525491 0 0 0 0 -198.54285688353411 181.02005178952095 0 181.02005178952095 72.334600248173956 0 0 0 0 -43.738099763140781 133.41833990589657 0 133.41833990589657 80.719238932579174 0 0 0 0 -107.06207221735531 110.47711840088232 0 110.47711840088232 113.78806442439964 0 0 0 0 -320.25787939333532 326.63375109138724 0 326.63375109138724 70.162359623411248 0 0 0 0 -597.78934500795003 531.02922674945148 0 531.02922674945148 -5.1314412903448101 0 0 0 0 -582.94879721522739 515.53962304211746 0 515.53962304211746 -0.91470213423599489 0 0 0 0 213.51401239286497 208.75000852151425 0 208.75000852151425 49.108577384249656 0 0 0 0 -119.61276945999271 95.636009056688636 0 95.636009056688636 96.264826493941655 0 0 0 0 6.151740066571989 19.264063864673282 0 19.264063864673282 12.385876739267871 0 0 0 0 122.72647656912159 158.21958953989815 0 158.21958953989815 159.07208336616168 0 0 0 0 -26.648251186314155 70.150007613156049 0 70.150007613156049 117.44443240509281 0 0 0 0 158.87288268267002 -25.613764542820718 0 -25.613764542820718 90.36963903389551 0 0 0 0 15.562558186129536 172.40921822394921 0 172.40921822394921 -20.556796810560627 0 0 0 0 -110.31773341507505 280.06838154410434 0 280.06838154410434 -166.41956768021191 0 0 0 0 -409.4723635436676 279.97663577010098 0 279.97663577010098 58.040540236455854 0 0 0 0 -146.43296170966642 251.61158819435514 0 251.61158819435514 236.11644033259654 0 0 0 0 -281.32276106847712 338.27831712675106 0 338.27831712675106 -10.999656833999325 0 0 0 0 -621.13091886922484 428.98741920068278 0 428.98741920068278 19.99559654521363 0 0 0 0 -623.43998380060657 384.78966314480931 0 384.78966314480931 -107.52743781566096 0 0 0 0 -604.2125218379806 341.66675796203344 0 341.66675796203344 -128.62753469542076 0 0 0 0 -377.71226562822085 417.75657882374708 0 417.75657882374708 -152.4954534760036 0 0 0 0 -772.69760988550843 484.12117580366612 0 484.12117580366612 -230.37211888752063 0 0 0 0 -692.03008458588738 551.55800295407425 0 551.55800295407425 -176.03417493856978 0 0 0 0 -798.26866525333025 589.53750440021395 0 589.53750440021395 -390.81895010633889 0 0 0 0 -707.34838985511669 617.83799245130649 0 617.83799245130649 -389.67847969148715 0 0 0 0 -786.56133414396027 514.28022713086102 0 514.28022713086102 -170.44794799674855 0 0 0 0 -455.43095181763056 330.16117207637581 0 330.16117207637581 -347.29328001358954 0 0 0 0 -598.09852129382489 598.65220592645346 0 598.65220592645346 -311.48553555842955 0 0 0 0 -957.50881430245499 360.30746117674425 0 360.30746117674425 -333.61277748584689 0 0 0 0 -1164.4969797720114 1068.2346175370039 0 1068.2346175370039 -766.48174822367582 0 0 0 0 -196.40944978917105 -163.24801275096615 0 -163.24801275096615 304.32812350895256 0 0 0 0 -3.6568050800050003 -0.81132547285866963 0 -0.81132547285866963 -0.69417818982617518 0 0 0 0 -59.326585851071286 236.74275861692149 0 236.74275861692149 -163.83123973938928 0 0 0 0 -460.41190033470048 364.66448688462697 0 364.66448688462697 -84.366960198254674 0 0 0 0 -201.45530627066182 414.64730312336178 0 414.64730312336178 -257.38026398252259 0 0 0 0 -471.53631320274144 389.48673807757041 0 389.48673807757041 -157.5376087964396 0 0 0 0 -192.72277999882886 203.03653387202871 0 203.03653387202871 -104.43736784020439 0 0 0 0 -112.20479303604225 212.98753781202686 0 212.98753781202686 -138.13362492150191 0 0 0 0 4.7367393001914024 90.966294205274608 0 90.966294205274608 -139.00895972311991 0 0 0 0 -141.75390007671376 113.99661352450494 0 113.99661352450494 -68.503671420126921 0 0 0 0 61.682776281013503 71.286970505876525 0 71.286970505876525 -132.21385166011169 0 0 0 0 3.8325038303592009 42.195236092724372 0 42.195236092724372 -142.86818780623435 0 0 0 0 -52.667346744870883 68.903883485138067 0 68.903883485138067 -96.772585902464925 0 0 0 0 25.318060786608839 96.357982253925002 0 96.357982253925002 -91.268317996349651 0 0 0 0 4.3000082809303422 90.171839418631862 0 90.171839418631862 -76.669506130361697 0 0 0 0 29.726121810992481 82.648709939327091 0 82.648709939327091 -81.856542629247997 0 0 0 0 56.408116126083769 117.4879607668845 0 117.4879607668845 -75.162278117612004 0 0 0 0 21.512141291415901 110.48681677273999 0 110.48681677273999 -97.884736074542161 0 0 0 0 86.16053483763244 159.25125601845502 0 159.25125601845502 -38.339503382803741 0 0 0 0 9.9609238421253394 132.14741920158849 0 132.14741920158849 -40.07357950145888 0 0 0 0 22.110957646247698 132.47460215492174 0 132.47460215492174 -59.097037479747087 0 0 0 0 -2.4254756412410643 136.38801491376944 0 136.38801491376944 -59.72120127845119 0 0 0 0 4.5007712237129454 95.636266099652858 0 95.636266099652858 -79.586479642654012 0 0 0 0 -18.288888713366759 146.19344868007101 0 146.19344868007101 13.114028755328036 0 0 0 0 -41.551646298437845 78.882326778184506 0 78.882326778184506 -18.30328765710874 0 0 0 0 0.55627912502770016 55.136419304397833 0 55.136419304397833 -4.9439147921318067 0 0 0 0 -22.840356348227942 55.547549902898027 0 55.547549902898027 -19.171249923412688 0 0 0 0 -0.69975342478591074 50.378944305130972 0 50.378944305130972 -13.025205884954346 0 0 0 0 -25.113422595325446 62.693256788032571 0 62.693256788032571 -22.609706274170236 0 0 0 0 -405.04038827779004 47.106796649044554 0 47.106796649044554 108.41378183501365 0 0 0 0 46.829501678018701 63.334874087194223 0 63.334874087194223 8.4996059947359868 0 0 0 0 2.296130935959809 82.999486049971892 0 82.999486049971892 82.099194439928397 0 0 0 0 71.21867042328995 56.730337208944547 0 56.730337208944547 -54.617025102925254 0 0 0 0 -95.372043832176132 96.61774551817507 0 96.61774551817507 -196.94020701904083 0 0 0 0 -4.2830638920568163 130.00870892472449 0 130.00870892472449 -101.77769685840758 0 0 0 0 0.74880741230600734 14.643284377016272 0 14.643284377016272 1.8990478142276856 0 0 0 0 561.55670438721427 -150.36804697153275 0 -150.36804697153275 -233.43496046969085 0 0 0 0 -340.51627357857797 -195.12299138116759 0 -195.12299138116759 460.69106790106161 0 0 0 0 -17.198210362665122 47.239580225621467 0 47.239580225621467 11.84613242719206 0 0 0 0 -60.285349051440789 156.44447735589347 0 156.44447735589347 28.551920763915405 0 0 0 0 -100.32699365182634 -126.86660215856318 0 -126.86660215856318 291.36118012173392 0 0 0 0 26.49980183986554 64.186549206970085 0 64.186549206970085 -33.118583886185661 0 0 0 0 685.66949186447891 382.45807775571302 0 382.45807775571302 -159.01220221685071 0 0 0 0 42.808780945979578 68.583505031890681 0 68.583505031890681 24.440343420697445 0 0 0 0 -2.3172926734157855 0.88243133237588722 0 0.88243133237588722 7.6656923141426887 0 0 0 0 -376.0183099686983 160.45971303497208 0 160.45971303497208 363.73220211398439 0 0 0 0 -440.3981326807625 75.185494134517285 0 75.185494134517285 271.96963779884391 0 0 0 0 -128.97261423755845 62.763671265660378 0 62.763671265660378 87.217625859659165 0 0 0 0 -266.43562661144824 -56.033072618825827 0 -56.033072618825827 -13.465966756921262 0 0 0 0 -29.331253795007797 243.00424808698699 0 243.00424808698699 282.17259564099368 0 0 0 0 250.2204842935098 117.4162028662322 0 117.4162028662322 5.5569605153996235 0 0 0 0 219.56550074610277 228.25602071035246 0 228.25602071035246 -164.16193600955694 0 0 0 0 109.83659315260593 34.493522665186902 0 34.493522665186902 -145.234094202704 0 0 0 0 -216.58610371519171 97.735804425825336 0 97.735804425825336 352.53220709471498 0 0 0 0 6.5052084622039956 0.48208526758881476 0 0.48208526758881476 0.68703101926317345 0 0 0 0 -119.49359688990808 198.03010132721101 0 198.03010132721101 280.26065834239125 0 0 0 0 2261.0222720729653 1850.5407766523858 0 1850.5407766523858 -516.22720561559117 0 0 0 0 1482.7133700506092 2336.7542121232182 0 2336.7542121232182 1639.8429526609325 0 0 0 0 11.427925335205032 -3.6710782748758817 0 -3.6710782748758817 2.3891157321500032 0 0 0 0 1292.2297595974087 420.17533710565476 0 420.17533710565476 -477.21238545914593 0 0 0 0 1196.7767750699822 1242.3768733515426 0 1242.3768733515426 742.61968911916483 0 0 0 0 362.82458998338552 2336.3287009956548 0 2336.3287009956548 -1384.1992359046999 0 0 0 0 -5.0480913326788368 2.900965375809875 0 2.900965375809875 5.7876828931176192 0 0 0 0 -417.73615118369344 1790.7994570707597 0 1790.7994570707597 1657.631821759016 0 0 0 0 748.24578855832078 1272.0771176956969 0 1272.0771176956969 1941.7719050210435 0 0 0 0 1285.7885613932594 597.51225911291112 0 597.51225911291112 86.696270278363954 0 0 0 0 622.74782455545937 -487.119066240959 0 -487.119066240959 -796.25724939309293 0 0 0 0 1042.9295647613471 156.68515800448949 0 156.68515800448949 -154.80992956433329 0 0 0 0 385.16901521383988 213.78985957994882 0 213.78985957994882 143.17609072380583 0 0 0 0 1205.2325593410496 446.2058907677565 0 446.2058907677565 -70.639972581106122 0 0 0 0 656.3018485065968 344.22948149622971 0 344.22948149622971 238.05951474580797 0 0 0 0 671.50295618829841 152.40684857164888 0 152.40684857164888 -51.84547786314215 0 0 0 0 525.96008666115813 120.26841743610566 0 120.26841743610566 -72.753921163122868 0 0 0 0 403.57735547274933 319.54878597599964 0 319.54878597599964 1.084875098982593 0 0 0 0 625.63165469905653 384.46050218251185 0 384.46050218251185 -157.20602416656038 0 0 0 0 288.96411443738907 488.22421206758008 0 488.22421206758008 66.709603902010713 0 0 0 0 810.59993654678692 764.50020394206331 0 764.50020394206331 210.75803560393979 0 0 0 0 364.673891633116 367.87087035815057 0 367.87087035815057 807.04673840769101 0 0 0 0 885.79199208735372 229.89222863464965 0 229.89222863464965 0.29589195034350269 0 0 0 0 448.59408581502794 500.02356706125283 0 500.02356706125283 221.66593298769737 0 0 0 0 182.55543106957339 683.40219232693198 0 683.40219232693198 -104.58718381719336 0 0 0 0 -73.14373196811357 682.54756169219036 0 682.54756169219036 117.07307119228062 0 0 0 0 321.35775277057655 799.05561453772953 0 799.05561453772953 -13.460302047955338 0 0 0 0 68.7769424674334 811.20102363068145 0 811.20102363068145 225.2071364356816 0 0 0 0 -113.79935671610292 895.17955343775975 0 895.17955343775975 -110.61743118062441 0 0 0 0 -341.78659519193752 813.33769315404061 0 813.33769315404061 -45.725795659775031 0 0 0 0 -282.52925752606461 694.43598790619399 0 694.43598790619399 291.9145038544666 0 0 0 0 66.132165022288973 811.33143691263467 0 811.33143691263467 256.37993443723826 0 0 0 0 -211.56736332621222 -67.836532377383264 0 -67.836532377383264 845.66818411379427 0 0 0 0 442.69877724004618 -202.62713105879266 0 -202.62713105879266 471.38908588125196 0 0 0 0 146.39421574346488 -586.66092750181269 0 -586.66092750181269 2131.9894749182031 0 0 0 0 -56.381226812896784 -526.0312937644776 0 -526.0312937644776 645.96768052739026 0 0 0 0 152.53548254648922 -3.9393005446399911 0 -3.9393005446399911 183.56432186346501 0 0 0 0 -880.0579599920602 -118.32300050639606 0 -118.32300050639606 363.13182186803897 0 0 0 0 -742.9599522475155 552.78068141690983 0 552.78068141690983 111.88091217567853 0 0 0 0 -2218.2646489657636 895.78568137619004 0 895.78568137619004 -189.78310307585343 0 0 0 0 -237.01176476642058 351.86023483050099 0 351.86023483050099 -106.02603456530778 0 0 0 0 -849.01271658066253 232.20625510551326 0 232.20625510551326 -0.95718853156722616 0 0 0 0 -514.74077697678877 1109.7842728940013 0 1109.7842728940013 -577.53024963007556 0 0 0 0 -258.60849861403403 727.59135451590555 0 727.59135451590555 -100.87224989294191 0 0 0 0 -681.178564523565 897.2979905774755 0 897.2979905774755 -19.742155430329149 0 0 0 0 -481.7060303083781 1068.0034371768197 0 1068.0034371768197 -103.18481186332065 0 0 0 0 -929.15083326704917 821.53090947306919 0 821.53090947306919 32.049813613251899 0 0 0 0 -926.7321912700645 -49.601139651107587 0 -49.601139651107587 -1022.714209828715 0 0 0 0 -1364.892707763378 1469.5946389335149 0 1469.5946389335149 -930.24648677195364 0 0 0 0 -16.69681943178017 -0.039473993664984164 0 -0.039473993664984164 -1.5451732556361673 0 0 0 0 -680.83089515935717 -375.83717513849842 0 -375.83717513849842 135.13354114774847 0 0 0 0 -778.44976940334891 1285.3990093006723 0 1285.3990093006723 -1942.5383387631798 0 0 0 0 -1738.4075761381791 341.10272695698768 0 341.10272695698768 267.84898608637741 0 0 0 0 -32.536568721152435 88.0241976157522 0 88.0241976157522 74.81891989056021 0 0 0 0 -31.520486276815063 115.44465235577809 0 115.44465235577809 -130.2321582846489 0 0 0 0 -45.583163055157343 6.7767143457405723 0 6.7767143457405723 9.8592135219902577 0 0 0 0 -314.92039557384851 339.53999496051256 0 339.53999496051256 -330.65290330737434 0 0 0 0 -180.91587325966248 404.92231086619722 0 404.92231086619722 -651.63391993645928 0 0 0 0 -1030.7174400028453 360.14779534498666 0 360.14779534498666 -16.398085343687853 0 0 0 0 -1003.0824297118379 980.19655312987015 0 980.19655312987015 -300.82031297068534 0 0 0 0 -608.63052343978779 625.49557639077102 0 625.49557639077102 7.8835163970215945 0 0 0 0 -785.39611974892614 651.46244715162175 0 651.46244715162175 18.148506526675192 0 0 0 0 -734.07176949182758 555.58843094884651 0 555.58843094884651 19.915064476212137 0 0 0 0 -673.11753189787851 514.58527800644515 0 514.58527800644515 33.159164202108514 0 0 0 0 -806.15780555052334 468.42671219872864 0 468.42671219872864 147.25893074032865 0 0 0 0 -793.33545936175506 313.50704608522938 0 313.50704608522938 298.87852578126331 0 0 0 0 -868.32107687493408 622.59347440239071 0 622.59347440239071 94.592987452298985 0 0 0 0 -562.98654267199163 574.21075177945386 0 574.21075177945386 -84.142795644365833 0 0 0 0 -768.87105559791598 424.65324193432389 0 424.65324193432389 -223.20937634122674 0 0 0 0 -797.11302785848966 696.13421838225622 0 696.13421838225622 -383.16198336358138 0 0 0 0 -1160.6976924159826 616.99648363910819 0 616.99648363910819 -276.63404228145373 0 0 0 0 -798.7312739751942 583.68705422463245 0 583.68705422463245 -375.35080901045148 0 0 0 0 -7.5303568964651433 0.6818778083015502 0 0.6818778083015502 -3.6613074453967442 0 0 0 0 -9.5873878042154956 -3.221686568459404 0 -3.221686568459404 -2.8678144007812421 0 0 0 0 1.1340521651800373 28.504451262182556 0 28.504451262182556 95.902808720304165 0 0 0 0 -23.398631962772079 11.505712102738201 0 11.505712102738201 18.520717135651466 0 0 0 0 165.35521159372729 190.1413234741849 0 190.1413234741849 -203.31944192577066 0 0 0 0 -1007.9498103762162 1452.1989018711611 0 1452.1989018711611 1025.044042582449 0 0 0 0 -96.523178018273029 42.670057863426337 0 42.670057863426337 42.513726092416618 0 0 0 0 112.48224509899228 605.16625092856339 0 605.16625092856339 462.94962315296289 0 0 0 0 -28.960166429569853 23.539571686458572 0 23.539571686458572 61.00775777200181 0 0 0 0 -171.90588722309985 -342.66076836708089 0 -342.66076836708089 324.06242070166627 0 0 0 0 -17.265675020579067 -3.9355703977106771 0 -3.9355703977106771 21.3026631517493 0 0 0 0 -590.20071853027912 309.90614580811234 0 309.90614580811234 -190.5781624794472 0 0 0 0 -531.82205086899921 197.42430000429158 0 197.42430000429158 -239.30990742275026 0 0 0 0 -507.24346421618247 225.97548611272941 0 225.97548611272941 -369.7775907087198 0 0 0 0 -605.60907192839659 228.21986230221228 0 228.21986230221228 -524.48637970461277 0 0 0 0 -646.19631194460089 309.99200430259953 0 309.99200430259953 -239.40875726024387 0 0 0 0 -576.13887116528349 344.25606189202517 0 344.25606189202517 -311.07759132178035 0 0 0 0 -558.89327769784722 266.25820651598042 0 266.25820651598042 -505.80959953565616 0 0 0 0 -704.89377901662374 283.30794909322867 0 283.30794909322867 -251.44745842067641 0 0 0 0 -540.91753675324435 31.119391631240433 0 31.119391631240433 15.344884743142757 0 0 0 0 -41.788167993905518 9.743362881225039 0 9.743362881225039 -20.439279413971235 0 0 0 0 -35.392411128155373 -2.332969667075389 0 -2.332969667075389 24.338594041934556 0 0 0 0 -369.43952790630283 362.17241949985328 0 362.17241949985328 -72.32454718707595 0 0 0 0 -328.88383389744558 379.210450526778 0 379.210450526778 -411.87578380083664 0 0 0 0 -450.47194839096483 31.693765836811508 0 31.693765836811508 -226.18624006410164 0 0 0 0 -1074.2174140847783 296.43736763249035 0 296.43736763249035 -532.79688018150773 0 0 0 0 -41.88537023644767 57.868897829409661 0 57.868897829409661 -50.760644863519531 0 0 0 0 -994.85092445547343 596.70353084958333 0 596.70353084958333 -405.96535109466186 0 0 0 0 -800.73194716416765 168.37650803990255 0 168.37650803990255 -389.13431198350736 0 0 0 0 -969.62909305049106 579.20828768811043 0 579.20828768811043 -461.06321201706305 0 0 0 0 -1651.1824275636609 820.84763680119067 0 820.84763680119067 -535.30213530663605 0 0 0 0 -966.26178496424109 770.99091498179769 0 770.99091498179769 -608.81706214892984 0 0 0 0 -1064.8960227507487 967.71199623751454 0 967.71199623751454 -588.47303156618727 0 0 0 0 -847.38521742064768 775.39750705951883 0 775.39750705951883 -421.75503738458065 0 0 0 0 -693.96976882457238 778.41376928650425 0 778.41376928650425 -528.05184307893069 0 0 0 0 -35.149542574963874 0.28649911287624263 0 0.28649911287624263 17.4917130265585 0 0 0 0 -650.48692328146717 538.49867694576096 0 538.49867694576096 -378.9170986440331 0 0 0 0 -344.08937198225613 -176.35642390380144 0 -176.35642390380144 460.68585073413851 0 0 0 0 -184.15579933793197 292.7845661000465 0 292.7845661000465 -27.117430252139457 0 0 0 0 -21.770659380711407 3.548570806955837 0 3.548570806955837 16.180631560549131 0 0 0 0 -954.29829751808575 817.66549579780258 0 817.66549579780258 -778.24698288334912 0 0 0 0 -1201.7049233444632 28.003592531560571 0 28.003592531560571 -503.49014379740584 0 0 0 0 122.62454497915314 631.48119509474418 0 631.48119509474418 -964.19429094764928 0 0 0 0 -1696.8232298256007 1435.5305065304092 0 1435.5305065304092 -1210.8255152533384 0 0 0 0 -638.80906680564181 806.50946166263645 0 806.50946166263645 -851.73056130758778 0 0 0 0 -859.97795934298574 864.79888815621325 0 864.79888815621325 -592.06581917160656 0 0 0 0 -1072.7799054833231 889.76607112414058 0 889.76607112414058 -489.16100268154696 0 0 0 0 -914.48949592967983 875.79395275252682 0 875.79395275252682 -537.68401017413998 0 0 0 0 17.477446354845057 16.993128948074002 0 16.993128948074002 -15.21070761116107 0 0 0 0 -845.08717977806373 805.09239625576447 0 805.09239625576447 -576.89115930345406 0 0 0 0 -1139.6343160496617 690.0727725121742 0 690.0727725121742 -580.88847929470649 0 0 0 0 5.2874556318783306 4.1969643372719077 0 4.1969643372719077 -8.9915383291046282 0 0 0 0 3541.9551340799444 -2305.2389029759579 0 -2305.2389029759579 -22.966517771745202 0 0 0 0 4129.6588811344191 -1115.6006508074279 0 -1115.6006508074279 -802.35261432199331 0 0 0 0 2371.7024088391627 355.54893015287234 0 355.54893015287234 -440.81102997507787 0 0 0 0 -465.26340034764507 -1083.7946224647676 0 -1083.7946224647676 -691.7197417718271 0 0 0 0 1777.3530471716367 -593.17114893938196 0 -593.17114893938196 -1665.1814429359511 0 0 0 0 849.26355458408943 705.12275698061421 0 705.12275698061421 -2848.4628387888952 0 0 0 0 1604.3287368570309 -1387.3430647767091 0 -1387.3430647767091 -1106.0612425867548 0 0 0 0 1992.2020272354493 -716.50492013986877 0 -716.50492013986877 -174.52700686179742 0 0 0 0 902.13282095378963 103.56287928245001 0 103.56287928245001 -515.35112848713106 0 0 0 0 856.34266713292891 -120.3296338147702 0 -120.3296338147702 2274.9168995430082 0 0 0 0 114.23999133327038 451.7426437378308 0 451.7426437378308 625.75219879519136 0 0 0 0 1462.6689710238279 1250.465145503149 0 1250.465145503149 594.77450810726441 0 0 0 0 1306.7977001275576 3809.6053853780031 0 3809.6053853780031 978.67698289584951 0 0 0 0 1167.9939558814367 2241.5033081173024 0 2241.5033081173024 -672.1120597627887 0 0 0 0 -721.58079450440709 1015.0538102965802 0 1015.0538102965802 -1258.1410981570079 0 0 0 0 7.5764310343370767 -3.0745898119393189 0 -3.0745898119393189 0.34266208037544743 0 0 0 0 738.49809893834754 3668.0553759688701 0 3668.0553759688701 2642.7436459648889 0 0 0 0 5.5078909357779402 58.721925409825516 0 58.721925409825516 -65.484844393293145 0 0 0 0 -50.899600562872365 626.23931506308145 0 626.23931506308145 -1989.4410732844844 0 0 0 0 -142.32456610206282 -475.14624201651895 0 -475.14624201651895 -744.59446412214311 0 0 0 0 213.36495168681722 -176.1338186217763 0 -176.1338186217763 224.99697110964917 0 0 0 0 -272.99769279966131 37.450150145421503 0 37.450150145421503 -10.306007958977716 0 0 0 0 -9.6612189404685296 16.383870089917792 0 16.383870089917792 -2.1005182728314225 0 0 0 0 740.68758509724285 1650.282809563636 0 1650.282809563636 3483.6687909601605 0 0 0 0 753.94190278515453 2461.5406446880079 0 2461.5406446880079 1798.0357770245173 0 0 0 0 1231.8730538687087 1016.0794265763252 0 1016.0794265763252 1370.1986531916555 0 0 0 0 1412.7007913654961 3132.6402448013105 0 3132.6402448013105 2115.60089679464 0 0 0 0 2523.9586656855681 745.14100545836118 0 745.14100545836118 946.48518814245472 0 0 0 0 -21.351628019467803 74.710651507193688 0 74.710651507193688 -44.242578340648151 0 0 0 0 -136.37728156469529 186.01700163848 0 186.01700163848 -146.40674063516781 0 0 0 0 67.690219088327524 5.8532194831785773 0 5.8532194831785773 -60.562338198515988 0 0 0 0 1950.2451242709067 549.84318155620713 0 549.84318155620713 2231.7302892632724 0 0 0 0 1662.1082273891661 1196.9189977027127 0 1196.9189977027127 287.73901138412475 0 0 0 0 2450.3230938470224 1134.1933914441761 0 1134.1933914441761 285.67471550925984 0 0 0 0 1379.0860615939891 1453.166079543822 0 1453.166079543822 1247.7444063198054 0 0 0 0 425.75286212022183 1438.3497806042942 0 1438.3497806042942 -565.53965109676938 0 0 0 0 1118.6453283125011 1592.9546347261639 0 1592.9546347261639 213.18940457349527 0 0 0 0 641.81561960122781 977.8321277784562 0 977.8321277784562 415.10798289255763 0 0 0 0 54.310389815247618 1935.3656272558292 0 1935.3656272558292 1018.6571009117906 0 0 0 0 751.54411562577297 2020.3140177797511 0 2020.3140177797511 646.76870783936465 0 0 0 0 -1505.5361664003576 791.20397238102305 0 791.20397238102305 -173.31237808914739 0 0 0 0 451.14341008439078 1633.8549433157605 0 1633.8549433157605 -408.62547920562793 0 0 0 0 -2056.9568840991415 1741.6174841195389 0 1741.6174841195389 -202.99281548065483 0 0 0 0 -1031.4550207748252 687.82312910300971 0 687.82312910300971 81.630552497925237 0 0 0 0 -1591.9893928715173 996.65771489511826 0 996.65771489511826 -229.43116969059338 0 0 0 0 -566.71497335823369 1475.6304069137987 0 1475.6304069137987 -754.96898759371834 0 0 0 0 -241.88879621165688 808.51207143852662 0 808.51207143852662 -268.76836914520391 0 0 0 0 946.40470661615836 1353.1635104247762 0 1353.1635104247762 -1036.9195941362705 0 0 0 0 388.81478386762319 871.92285946138145 0 871.92285946138145 -800.79824049427407 0 0 0 0 -1496.5214665608946 1334.2161533888575 0 1334.2161533888575 -660.92866345112998 0 0 0 0 132.09543263155501 1481.7591718364129 0 1481.7591718364129 -1601.7653697909263 0 0 0 0 62.003745082038222 763.98123583213601 0 763.98123583213601 -1392.128187464692 0 0 0 0 677.32938861093135 1252.2574748665429 0 1252.2574748665429 -1372.9582865760749 0 0 0 0 2082.0679271319023 457.63634448205994 0 457.63634448205994 -326.79795660602394 0 0 0 0 2079.4935076614056 323.06070253896905 0 323.06070253896905 -805.8084810313303 0 0 0 0 1774.8835635087016 1030.074761437063 0 1030.074761437063 -1600.6291354245914 0 0 0 0 2039.2594214793062 704.20811593156759 0 704.20811593156759 -127.5795312243863 0 0 0 0 1893.3291034126887 1086.2144236541353 0 1086.2144236541353 -1080.1926287986098 0 0 0 0 1755.7976492964954 1280.8005895463721 0 1280.8005895463721 -525.74235042190412 0 0 0 0 1187.1906869709856 853.14619140194191 0 853.14619140194191 -387.92676375049632 0 0 0 0 1985.6792413066141 1146.6831814633406 0 1146.6831814633406 -318.2895072925603 0 0 0 0 11.665380951612917 46.265162784869943 0 46.265162784869943 -5.4120876483270308 0 0 0 0 2293.0507598686381 595.86836470010894 0 595.86836470010894 -659.88019640195125 0 0 0 0 2318.8239954172568 472.03037384133131 0 472.03037384133131 -80.138007153320359 0 0 0 0 1981.3442198015182 934.81700104324409 0 934.81700104324409 404.77263773218147 0 0 0 0 -864.21797651715315 617.26509435522166 0 617.26509435522166 -289.55709565703 0 0 0 0 -123.13278854913369 358.26802570396285 0 358.26802570396285 -606.33642928933841 0 0 0 0 -313.21560171264355 -64.324001299559313 0 -64.324001299559313 -169.87464842235204 0 0 0 0 -18.914102717233703 59.897373622954561 0 59.897373622954561 -67.145582817076075 0 0 0 0 -37.496872004940087 97.961405206002382 0 97.961405206002382 -42.962045558699174 0 0 0 0 -111.28843094535841 214.04214281604072 0 214.04214281604072 183.13851677370258 0 0 0 0 1.6394852428878295 47.581741190470524 0 47.581741190470524 -11.276451426798815 0 0 0 0 -36.345690511774279 59.108016551926909 0 59.108016551926909 -32.805458057066517 0 0 0 0 -37.722002180336858 94.48624315795314 0 94.48624315795314 -22.614697973011062 0 0 0 0 1813.6762700415911 1019.6652858736052 0 1019.6652858736052 374.17636877115001 0 0 0 0 -2.0604998170938416 43.734337464165947 0 43.734337464165947 -38.111060061870376 0 0 0 0 -48.457566533172212 75.945610065951769 0 75.945610065951769 -49.697157026006607 0 0 0 0 -23.31505395944987 91.510116491670487 0 91.510116491670487 -63.651261849961884 0 0 0 0 24.331670176819898 98.402230304360273 0 98.402230304360273 -77.668765245296527 0 0 0 0 -9.2572133388152622 45.062623177745877 0 45.062623177745877 -1.556817038481995 0 0 0 0 5.5297637897310778 42.336367582436651 0 42.336367582436651 -29.772624025586993 0 0 0 0 83.830592240263172 100.91898225546609 0 100.91898225546609 -152.8890810475163 0 0 0 0 36.747844545410771 25.653177109055832 0 25.653177109055832 311.21768223971594 0 0 0 0 126.87459641791065 170.89647941435396 0 170.89647941435396 -175.05368927502423 0 0 0 0 272.65738187627721 403.90232486327295 0 403.90232486327295 -314.03502229745936 0 0 0 0 61.855792749410341 53.29334514890536 0 53.29334514890536 -6.9192051421273106 0 0 0 0 -500.23236064451339 355.41024722075963 0 355.41024722075963 -377.57179711305071 0 0 0 0 45.094195742341981 -2.7059889732045121 0 -2.7059889732045121 -520.43288839342131 0 0 0 0 -1942.1362112471397 800.72675548659754 0 800.72675548659754 113.82361212199612 0 0 0 0 263.03477449352795 301.49615299369907 0 301.49615299369907 -564.02708720002192 0 0 0 0 -498.2580944103247 137.41999643411691 0 137.41999643411691 -63.441723522671964 0 0 0 0 -402.48105969027529 149.49536579034611 0 149.49536579034611 399.57545224984642 0 0 0 0 -183.05891668624099 323.81275683246349 0 323.81275683246349 118.4584150899318 0 0 0 0 -26.826239107867337 59.747653413401707 0 59.747653413401707 -51.237296520279472 0 0 0 0 266.44865922859208 617.65356042674102 0 617.65356042674102 -1275.4753671999497 0 0 0 0 -845.28435292897848 689.67629687226872 0 689.67629687226872 -919.5038156194496 0 0 0 0 -34.600622379101168 57.498442759257415 0 57.498442759257415 -65.565129916269939 0 0 0 0 -850.15300767516601 724.03196488363756 0 724.03196488363756 -1043.8570573472534 0 0 0 0 -1067.7492992967018 999.38358432937093 0 999.38358432937093 -1046.2259372229455 0 0 0 0 -305.41756176266063 2519.3374662861024 0 2519.3374662861024 -1592.8854137061717 0 0 0 0 -1617.8301823547517 1342.2234893074492 0 1342.2234893074492 1130.8646084748907 0 0 0 0 -3509.6408463417101 173.73686241850373 0 173.73686241850373 836.06771022701287 0 0 0 0 -2767.1868195353454 1411.5903930249842 0 1411.5903930249842 -290.18786041310523 0 0 0 0 -19.300985950271496 17.82596151736378 0 17.82596151736378 -22.234941312114813 0 0 0 0 -1217.5489787454135 1357.8960423807584 0 1357.8960423807584 -1131.9804099035246 0 0 0 0 -1259.2822066504523 1785.9867989841441 0 1785.9867989841441 -2809.685336972354 0 0 0 0 -1092.7593824205105 1216.6248820563196 0 1216.6248820563196 -997.77930856667808 0 0 0 0 -1168.0792995905649 -200.40051687692176 0 -200.40051687692176 -2254.0161760604897 0 0 0 0 -1160.8158451292838 68.752094596420648 0 68.752094596420648 -228.63997562933946 0 0 0 0 -689.75875730041298 518.63100825891706 0 518.63100825891706 22.601787139690714 0 0 0 0 -626.89052547042957 683.29348327826301 0 683.29348327826301 -1741.6375898840488 0 0 0 0 -881.21072001905122 -294.25670501654895 0 -294.25670501654895 441.4678839824046 0 0 0 0 -578.80708215064806 173.65611317332514 0 173.65611317332514 -213.40149106737226 0 0 0 0 -1745.8255301144382 117.07006697176257 0 117.07006697176257 369.14982146612601 0 0 0 0 -49.398770156390569 30.447982663810137 0 30.447982663810137 122.97008434063218 0 0 0 0 -60.469806541084836 64.628912958527508 0 64.628912958527508 130.87944968005468 0 0 0 0 -351.85230759598926 608.81728569413099 0 608.81728569413099 -905.28420367451326 0 0 0 0 -7.916396629765508 28.56018964677564 0 28.56018964677564 -43.605903810227403 0 0 0 0 107.68274018070588 292.38627506732882 0 292.38627506732882 -239.55327989743091 0 0 0 0 -1138.0733421438758 511.73581535513949 0 511.73581535513949 -263.96822914032964 0 0 0 0 1.0513486191949895 4.2951067748210647 0 4.2951067748210647 -15.431556007333825 0 0 0 0 729.70920257603757 -7.7145965851468645 0 -7.7145965851468645 -455.30895623995457 0 0 0 0 -3539.764111601442 1710.4751757115082 0 1710.4751757115082 -188.45197851120611 0 0 0 0 -2310.8453767997416 993.90373075650132 0 993.90373075650132 -266.08352786282194 0 0 0 0 -1869.5507749427525 1600.1863263822524 0 1600.1863263822524 -427.28294237391674 0 0 0 0 -1864.7869647991756 1662.3507352422457 0 1662.3507352422457 -543.70938756541 0 0 0 0 -1534.428219381778 1138.372632837898 0 1138.372632837898 -642.70429117906315 0 0 0 0 -1618.8629099780374 1088.5507221076841 0 1088.5507221076841 -581.21326033110381 0 0 0 0 -523.57060813700082 233.99124913696141 0 233.99124913696141 -700.05258547180711 0 0 0 0 -996.24564638661104 1313.1489152754075 0 1313.1489152754075 -1481.4025445453299 0 0 0 0 -2263.1803657093442 2053.8056200534847 0 2053.8056200534847 -1095.1248884814559 0 0 0 0 -1766.6949197539186 1413.5368595839609 0 1413.5368595839609 -1251.9016350076272 0 0 0 0 5.905599475579578 8.423818085799553 0 8.423818085799553 5.7446681349973687 0 0 0 0 -37.957658420033113 -879.84155811982055 0 -879.84155811982055 3616.0929144226611 0 0 0 0 -1551.091847249314 757.43824320290878 0 757.43824320290878 2620.2314281804138 0 0 0 0 -1382.7751688145895 1211.9015316469586 0 1211.9015316469586 789.7589220640657 0 0 0 0 -4124.9392075624301 -182.52122409921049 0 -182.52122409921049 952.40637616661843 0 0 0 0 -1459.7841062398984 1406.0101315056381 0 1406.0101315056381 -3.6746175928419689 0 0 0 0 -155.67915478649593 1363.1396898423773 0 1363.1396898423773 459.43691779693472 0 0 0 0 -589.13758656098798 654.94706854346441 0 654.94706854346441 211.13683104334632 0 0 0 0 -208.76306541109807 1184.6023737479227 0 1184.6023737479227 333.05801986853476 0 0 0 0 321.16774599060591 1126.7374528108194 0 1126.7374528108194 1.0662086296651978 0 0 0 0 280.83541470109049 893.20151323860046 0 893.20151323860046 506.24101825337857 0 0 0 0 171.11674490773294 651.0905978208466 0 651.0905978208466 804.47333456251363 0 0 0 0 -88.295304570249755 958.29451825169599 0 958.29451825169599 585.63305639626924 0 0 0 0 -666.44205121799678 775.2543328174761 0 775.2543328174761 1460.4440352646634 0 0 0 0 -172.3203252927342 761.65663148825115 0 761.65663148825115 1385.3527696592937 0 0 0 0 -166.114024887298 37.920847387504182 0 37.920847387504182 2015.5384659100382 0 0 0 0 30.41798586882598 22.682958179063064 0 22.682958179063064 16.00040652734495 0 0 0 0 188.20213986662566 407.74504928960232 0 407.74504928960232 495.95862560821115 0 0 0 0 -159.65874253680056 352.2071131660291 0 352.2071131660291 587.02443790007965 0 0 0 0 -17.495583646066194 46.922823372300542 0 46.922823372300542 -59.587613034185893 0 0 0 0 54.198717615730857 287.14607522226652 0 287.14607522226652 457.6867080986267 0 0 0 0 59.95400068780873 110.41222503177414 0 110.41222503177414 -71.582801008567913 0 0 0 0 0.26664798876088014 22.999775238690376 0 22.999775238690376 -14.462494328794719 0 0 0 0 57.196820938069322 42.855613794249393 0 42.855613794249393 -52.346929036488291 0 0 0 0 -3.7199633596757167 29.63011123800986 0 29.63011123800986 -45.555773199141584 0 0 0 0 26.273795505840098 106.67940638263099 0 106.67940638263099 -1.8519252641999628 0 0 0 0 460.19548495598428 574.31983539366047 0 574.31983539366047 304.0724040785135 0 0 0 0 260.51370834128466 480.70654141214618 0 480.70654141214618 331.68421826184203 0 0 0 0 415.1639300318493 942.61005850625224 0 942.61005850625224 268.36390667375235 0 0 0 0 859.5403428535501 936.80525656546524 0 936.80525656546524 -0.6136669211264234 0 0 0 0 410.83042221675169 890.67841550240337 0 890.67841550240337 284.0025667695736 0 0 0 0 37.032711432751967 1441.7425433199969 0 1441.7425433199969 -112.78225187689532 0 0 0 0 1625.8632336524606 818.06801460846327 0 818.06801460846327 -68.624206012580544 0 0 0 0 790.02106562106565 569.0842755843114 0 569.0842755843114 300.47676045932167 0 0 0 0 -19.652703043101383 30.259389110516736 0 30.259389110516736 -24.913965023979927 0 0 0 0 -8.6255459630040949 5.3997002804987773 0 5.3997002804987773 10.764740100234349 0 0 0 0 -5988.3600512582816 -1398.8162393555867 0 -1398.8162393555867 443.97444110034849 0 0 0 0 -230.23178191421903 498.39143644308206 0 498.39143644308206 -995.08157937506621 0 0 0 0 -862.54429899941169 1050.865626329025 0 1050.865626329025 0.43641614308580756 0 0 0 0 -6897.6397429972712 966.87951114117459 0 966.87951114117459 78.977229497788358 0 0 0 0 -2153.7975318786048 37.058219131838996 0 37.058219131838996 -2473.0497634032727 0 0 0 0 -2872.0139016945614 3547.5217510268412 0 3547.5217510268412 -788.83120471346047 0 0 0 0 -1647.7311871829224 3142.9159939489691 0 3142.9159939489691 2837.7576249982812 0 0 0 0 -408.87907056181575 285.77490705646051 0 285.77490705646051 -268.89950237828452 0 0 0 0 -13.966003583527954 60.615432377971004 0 60.615432377971004 -18.870221905390679 0 0 0 0 -2932.2576447269189 339.4419582189164 0 339.4419582189164 1633.4404320880567 0 0 0 0 -506.04136273743643 1787.3073714290658 0 1787.3073714290658 397.96659381475183 0 0 0 0 282.36109329194005 2360.1368003415555 0 2360.1368003415555 -966.65366725256172 0 0 0 0 153.87932983177598 1895.9861476877413 0 1895.9861476877413 -1684.6457155005573 0 0 0 0 -2.5434390412337962 45.150654495948402 0 45.150654495948402 -42.140563538341667 0 0 0 0 -11.118633419006073 25.88228359907589 0 25.88228359907589 -70.606809698903817 0 0 0 0 -33.562532889668034 28.368850376773764 0 28.368850376773764 -27.16337714755997 0 0 0 0 2.4063121701919954 7.5879015291669987 0 7.5879015291669987 -4.7383538623591335 0 0 0 0 85.714995399859617 321.19470533497224 0 321.19470533497224 87.761998407935607 0 0 0 0 550.32645535298798 768.50015475433611 0 768.50015475433611 -2179.8326681269536 0 0 0 0 -2.28537145409544 -0.69886205189237671 0 -0.69886205189237671 -1.2756904822307717 0 0 0 0 -497.57836972933001 410.90653037916491 0 410.90653037916491 -347.09936740668491 0 0 0 0 -964.60432030967786 1160.8718483139819 0 1160.8718483139819 -618.36094223079272 0 0 0 0 -490.75104818497493 821.51594346560887 0 821.51594346560887 -460.36052431260032 0 0 0 0 -986.71150448966364 755.70797514178412 0 755.70797514178412 -36.030685538658872 0 0 0 0 -491.09254414011957 866.20162536157295 0 866.20162536157295 -440.14388871737174 0 0 0 0 -30.141967218801625 67.291885203106332 0 67.291885203106332 -60.889174692934773 0 0 0 0 -863.56754916164209 627.87343190275715 0 627.87343190275715 -363.31847903750895 0 0 0 0 -23.606011772484635 -1.5550983918947168 0 -1.5550983918947168 53.874574355848381 0 0 0 0 -38.320073681598302 38.15869019720472 0 38.15869019720472 5.5418220911134455 0 0 0 0 -25.519113935501082 12.26298571586085 0 12.26298571586085 52.04888955016213 0 0 0 0 -32.28294553694991 18.554344114155995 0 18.554344114155995 -4.4977591420727094 0 0 0 0 -11.061852049249865 11.288467535356176 0 11.288467535356176 19.727039175719256 0 0 0 0 6.4331643454352161 -14.98683547777182 0 -14.98683547777182 24.669043456200598 0 0 0 0 -7.7636676827683573 7.9644117012343543 0 7.9644117012343543 -1.3690404661130486 0 0 0 0 -40.391761101258453 -60.48033157523605 0 -60.48033157523605 -27.266667976960889 0 0 0 0 -123.46024799160659 133.58712747870595 0 133.58712747870595 -48.624315687193302 0 0 0 0 -114.09281723563618 159.30520145293849 0 159.30520145293849 -78.95460780634312 0 0 0 0 -2.9907129570072755 2.5636614862635838 0 2.5636614862635838 2.1554587127464657 0 0 0 0 -8.2660864245699486 15.421649668118334 0 15.421649668118334 125.18302677577594 0 0 0 0 -166.57720975698612 167.92726772636524 0 167.92726772636524 -36.186189713611384 0 0 0 0 -114.38123620481929 174.02065385291644 0 174.02065385291644 -45.026472742931219 0 0 0 0 7.0647941494017488 -1.1508484573231001 0 -1.1508484573231001 -2.65251540361038 0 0 0 0 42.736087595072604 425.86292040159242 0 425.86292040159242 -179.04743252470507 0 0 0 0 -439.99864720446567 208.21262794246286 0 208.21262794246286 3.2115848061221186 0 0 0 0 -153.75105291580985 145.44339372805553 0 145.44339372805553 -9.682998384552775 0 0 0 0 -171.66835750120299 489.37595190157299 0 489.37595190157299 -143.41921197299962 0 0 0 0 -202.64262117505132 -22.677365835406817 0 -22.677365835406817 -35.51345740139368 0 0 0 0 -0.91158218681260905 7.4404816525070885 0 7.4404816525070885 -9.7762056821248393 0 0 0 0 25.987715389877849 58.4953642387336 0 58.4953642387336 -390.84042485553073 0 0 0 0 -98.956382391806983 108.15450459204294 0 108.15450459204294 178.31993325967778 0 0 0 0 -156.6967348435137 456.7020494677563 0 456.7020494677563 -91.656792200257769 0 0 0 0 -28.718027286599067 32.86000799618202 0 32.86000799618202 19.137230461982256 0 0 0 0 -58.174199356806639 69.906269551807782 0 69.906269551807782 -28.796123055857606 0 0 0 0 -63.521442605604534 64.638947871862911 0 64.638947871862911 -30.205599094872014 0 0 0 0 -204.38889746766881 -574.16477464887089 0 -574.16477464887089 11.049868738744408 0 0 0 0 -26.334551341198107 16.880507790032823 0 16.880507790032823 19.861623682166595 0 0 0 0 -55.852337063646701 57.430645511158218 0 57.430645511158218 -5.0638406030193437 0 0 0 0 -42.49647406834265 65.125050526337873 0 65.125050526337873 -7.0735844823066145 0 0 0 0 -10.208888215323832 43.19164800432705 0 43.19164800432705 -0.65420249610247083 0 0 0 0 -64.162110799319777 50.299742212198424 0 50.299742212198424 -19.192313770302007 0 0 0 0 -10.593305240749032 145.43611544951273 0 145.43611544951273 12.99586599785107 0 0 0 0 47.691828813171014 262.80341772901011 0 262.80341772901011 275.77946553329821 0 0 0 0 -20.431018837525755 14.010531648296165 0 14.010531648296165 1.5893039136413165 0 0 0 0 -14.167061858832312 145.53640732474014 0 145.53640732474014 79.749935462488793 0 0 0 0 31.054847766572493 122.99699592003162 0 122.99699592003162 19.096524437831249 0 0 0 0 47.337797847983893 144.9558292607253 0 144.9558292607253 -77.635390822039881 0 0 0 0 109.70746398151459 98.773885927996162 0 98.773885927996162 25.044578514120076 0 0 0 0 15.350636672126711 153.12781736893521 0 153.12781736893521 35.694697000057204 0 0 0 0 1.0593953820352908 137.50929862794874 0 137.50929862794874 81.121191888247267 0 0 0 0 126.14945706925937 250.04696940495342 0 250.04696940495342 66.099259599992365 0 0 0 0 112.55115497045335 273.48039125313517 0 273.48039125313517 27.064483409783861 0 0 0 0 -105.04196001034006 191.68299180712711 0 191.68299180712711 -37.685174144833582 0 0 0 0 -55.50154272754267 52.696056610890231 0 52.696056610890231 -37.713428900591168 0 0 0 0 61.064487401206861 104.37912827697437 0 104.37912827697437 -5.2702779891696991 0 0 0 0 -289.38156864380289 151.75259938844829 0 151.75259938844829 133.8538749348736 0 0 0 0 -220.52750233256666 95.577481964879553 0 95.577481964879553 16.581791267861263 0 0 0 0 21.676720514300541 121.15871096004685 0 121.15871096004685 -98.121412405002047 0 0 0 0 -378.6106593090808 305.55177630868275 0 305.55177630868275 -62.282217557250988 0 0 0 0 -376.4475388384235 328.99689465663323 0 328.99689465663323 7.6185689023986924 0 0 0 0 -582.44170760236739 567.78323487912712 0 567.78323487912712 -199.17273660731371 0 0 0 0 -583.86477010241651 656.9095978351761 0 656.9095978351761 -31.868247522856109 0 0 0 0 -563.99747645170282 626.05478194339776 0 626.05478194339776 -50.645704306298285 0 0 0 0 -1574.5449849376309 1077.6483486626385 0 1077.6483486626385 -151.45814248165334 0 0 0 0 -1593.2655051099282 152.20111347465718 0 152.20111347465718 331.38227462109353 0 0 0 0 -1037.522874188282 406.66658007755905 0 406.66658007755905 62.345838230001391 0 0 0 0 -290.09104697825387 161.13395185806439 0 161.13395185806439 58.513094824302243 0 0 0 0 -150.20076493274246 292.65160180776002 0 292.65160180776002 -58.28157542111876 0 0 0 0 -235.49745759772486 -82.799034248426324 0 -82.799034248426324 79.038124208302179 0 0 0 0 -1012.7198494190961 325.55690759132995 0 325.55690759132995 157.64271171473956 0 0 0 0 -505.5400244541961 639.79184722744685 0 639.79184722744685 -346.85781235891091 0 0 0 0 -560.93931617846829 651.77260400007799 0 651.77260400007799 -58.95757557048637 0 0 0 0 -183.40482712549419 146.13624949484074 0 146.13624949484074 73.538040086506953 0 0 0 0 -159.14538730387721 603.12266676125 0 603.12266676125 -289.04380194365513 0 0 0 0 -309.68612063344335 74.367333144444274 0 74.367333144444274 269.28976799150405 0 0 0 0 -49.811953874372449 33.876876148107641 0 33.876876148107641 129.86012880601453 0 0 0 0 -294.55069281903775 442.58582432040407 0 442.58582432040407 -133.69373515970074 0 0 0 0 -390.02237377973506 278.74010199743498 0 278.74010199743498 -106.22873807312499 0 0 0 0 -46.210888295933074 36.26020682913321 0 36.26020682913321 138.00320839652565 0 0 0 0 -466.74018283418991 566.16305280340021 0 566.16305280340021 -113.95750174703426 0 0 0 0 -426.99767433213128 337.44480562486206 0 337.44480562486206 -193.21246651609545 0 0 0 0 -393.65711241272948 1007.028664692858 0 1007.028664692858 -926.41875446157064 0 0 0 0 244.19537843811122 487.18781359887362 0 487.18781359887362 -725.87356494215783 0 0 0 0 -1602.487002862501 1972.9984181278851 0 1972.9984181278851 -1647.5587173603271 0 0 0 0 -958.47380251499999 1521.1132788850373 0 1521.1132788850373 -2456.4985106060631 0 0 0 0 -14.244047137163193 2.3032080512354298 0 2.3032080512354298 -3.0970554016901275 0 0 0 0 -381.45886007658555 -275.49989003973678 0 -275.49989003973678 392.49905259994557 0 0 0 0 164.60244913298811 -485.19062941351876 0 -485.19062941351876 -187.19601728859561 0 0 0 0 -316.73176873009652 809.60225671307853 0 809.60225671307853 -1140.5102517138876 0 0 0 0 -336.66140743413416 479.90816005247325 0 479.90816005247325 26.398854283426772 0 0 0 0 -1749.3446257247851 52.533676063118037 0 52.533676063118037 -517.04396492175874 0 0 0 0 186.14522313398788 573.91604713578681 0 573.91604713578681 -509.5384367602237 0 0 0 0 -1331.4977161974384 214.16334305716737 0 214.16334305716737 420.55143139431311 0 0 0 0 -3.2785637982742628 -347.82538596117229 0 -347.82538596117229 268.68904584381744 0 0 0 0 -470.54742501399596 980.34123004980211 0 980.34123004980211 -576.70385665210779 0 0 0 0 -954.79155764617553 556.16590667015134 0 556.16590667015134 -838.75890876245103 0 0 0 0 -65.414037072607755 59.250717422950999 0 59.250717422950999 1.72833452895199 0 0 0 0 -143.51561531472544 -217.14094750162621 0 -217.14094750162621 66.265790922072483 0 0 0 0 -378.78570873719582 820.82314576690987 0 820.82314576690987 -35.328573904982477 0 0 0 0 -393.96357639919734 192.76622908489662 0 192.76622908489662 2.2451697796932422 0 0 0 0 -60.403109514554927 62.16104827784352 0 62.16104827784352 138.63762937573745 0 0 0 0 -568.65708148412523 330.43390814142185 0 330.43390814142185 24.322772427945893 0 0 0 0 -516.831502773799 374.10369260190055 0 374.10369260190055 -25.452501852589194 0 0 0 0 -404.68390816696001 311.9160432448416 0 311.9160432448416 53.453558463079389 0 0 0 0 -297.04416701472655 219.89020646907738 0 219.89020646907738 58.970440305314696 0 0 0 0 -80.985660759417968 49.242630721928663 0 49.242630721928663 7.7501794919132863 0 0 0 0 -26.455437027632357 -0.15447204139006487 0 -0.15447204139006487 20.319865311043657 0 0 0 0 -388.40546847669611 331.6096048191248 0 331.6096048191248 -10.331839325866895 0 0 0 0 -393.40301911805727 317.85953979272745 0 317.85953979272745 -37.624111994955456 0 0 0 0 -425.33128448836624 409.00650767685147 0 409.00650767685147 -49.731777067645453 0 0 0 0 -87.183948182004173 41.403871101294499 0 41.403871101294499 135.5926431215629 0 0 0 0 -1769.9656727667034 1710.0403676499718 0 1710.0403676499718 300.12913872115314 0 0 0 0 -1235.4042346518254 700.89032500746544 0 700.89032500746544 1285.9552990644152 0 0 0 0 -604.66791699991154 289.41899384032877 0 289.41899384032877 30.437948866660008 0 0 0 0 -1232.6864845886885 507.78205767598411 0 507.78205767598411 69.824586570321117 0 0 0 0 -562.5036087954777 476.73237578220505 0 476.73237578220505 5.2184674265736248 0 0 0 0 -390.33374257334071 48.950543521466898 0 48.950543521466898 43.237307017436251 0 0 0 0 -1119.2017427193932 -188.08534113124188 0 -188.08534113124188 73.059500336326892 0 0 0 0 19.526193994886853 8.958338547375007 0 8.958338547375007 -20.419711915736286 0 0 0 0 -1048.5957320574962 -64.482400908251293 0 -64.482400908251293 49.604237531981198 0 0 0 0 -1745.581912090478 -240.19844210833253 0 -240.19844210833253 1079.7223185698531 0 0 0 0 -1604.6823374936266 -467.43941929831271 0 -467.43941929831271 422.39823724652524 0 0 0 0 -1537.681871556546 -279.83383126661647 0 -279.83383126661647 2.5326270174991805 0 0 0 0 -1726.9831552315882 -657.6459298475238 0 -657.6459298475238 63.10045663054143 0 0 0 0 -1239.5023997539975 -763.94414692607825 0 -763.94414692607825 -611.66531830857275 0 0 0 0 -39.944883404159455 26.162795252141535 0 26.162795252141535 -18.783625249448789 0 0 0 0 -104.93333984594574 271.47912303396151 0 271.47912303396151 116.19899400947907 0 0 0 0 45.643392453344859 78.509439685389225 0 78.509439685389225 71.928758814348839 0 0 0 0 -3703.1452553781946 -2172.6916622801273 0 -2172.6916622801273 -901.50389454033575 0 0 0 0 -14.436768699266551 7.2904721047991927 0 7.2904721047991927 -6.7948469550926802 0 0 0 0 170.47286754307424 189.8078078043618 0 189.8078078043618 0.15393193262571003 0 0 0 0 -382.70021557117479 230.79564877121993 0 230.79564877121993 -119.27610941673629 0 0 0 0 -382.21026891811925 222.40680852926744 0 222.40680852926744 23.861701886195078 0 0 0 0 -306.1171452293911 274.22871201967791 0 274.22871201967791 37.428747190104332 0 0 0 0 -123.16565418535902 212.90216865133334 0 212.90216865133334 -13.802103513356997 0 0 0 0 -300.49863003708924 146.9234227047782 0 146.9234227047782 19.177422517241212 0 0 0 0 -140.23911107646927 233.08190878761525 0 233.08190878761525 0.047120793737121858 0 0 0 0 -407.93213087971799 246.68466991202877 0 246.68466991202877 -0.094482875356334262 0 0 0 0 -528.11420092191838 195.66686035472958 0 195.66686035472958 0.27257572446251288 0 0 0 0 -559.33779441063871 51.22888663876256 0 51.22888663876256 -104.1586068807519 0 0 0 0 -860.8265604476328 199.90093035851896 0 199.90093035851896 0.13149060207069851 0 0 0 0 -674.90886906776723 224.20309631399141 0 224.20309631399141 47.880700841458747 0 0 0 0 -1216.8250060238197 385.07629683860432 0 385.07629683860432 112.4602595778706 0 0 0 0 -87.735302349722176 102.82090335819453 0 102.82090335819453 14.050099089096534 0 0 0 0 -14.614419235442682 12.820217311735433 0 12.820217311735433 -16.728441723895003 0 0 0 0 -195.01913205747405 56.645983715454349 0 56.645983715454349 -105.1367607578668 0 0 0 0 -555.10431285711093 255.90922176485765 0 255.90922176485765 0.52284724390301562 0 0 0 0 -405.2378375356675 385.97289357412228 0 385.97289357412228 -183.97774860734353 0 0 0 0 -2.2279134274448111 -9.9418388883361217 0 -9.9418388883361217 25.165064795572199 0 0 0 0 -519.78557854779501 93.302586530451663 0 93.302586530451663 110.13822136127783 0 0 0 0 -398.61015957604832 323.97324793795997 0 323.97324793795997 -44.558537869554129 0 0 0 0 -714.64990380490053 201.64805398930184 0 201.64805398930184 253.42826840438647 0 0 0 0 -519.68643543562212 370.4772256786091 0 370.4772256786091 62.65494458602916 0 0 0 0 -78.201343954816792 47.497324103353009 0 47.497324103353009 125.27457662752022 0 0 0 0 -648.71945738783506 225.37696264740407 0 225.37696264740407 41.355631456739502 0 0 0 0 -710.94642951597598 241.29907870499756 0 241.29907870499756 62.450739503343357 0 0 0 0 -669.58671390156815 260.95589604438283 0 260.95589604438283 57.268434492289089 0 0 0 0 -434.29000159754287 645.42005980987597 0 645.42005980987597 -838.61070832626137 0 0 0 0 -614.39134263527194 462.63481141044758 0 462.63481141044758 -394.59017252209014 0 0 0 0 -876.96089779409522 520.72652531322092 0 520.72652531322092 -58.142943379280041 0 0 0 0 -602.09585177899498 410.01287487141235 0 410.01287487141235 -170.12361659455928 0 0 0 0 -912.53645621585019 691.32433378126007 0 691.32433378126007 -418.73334543735837 0 0 0 0 -787.77605628763558 26.911758518559509 0 26.911758518559509 107.86467942821037 0 0 0 0 -992.29197032684897 602.05783643930044 0 602.05783643930044 -207.08386362125748 0 0 0 0 -1033.8259900233679 299.86724664088979 0 299.86724664088979 -840.12118807222578 0 0 0 0 -777.18593925824825 256.83763098456257 0 256.83763098456257 67.553104109334527 0 0 0 0 -240.53441558424674 66.489429690642282 0 66.489429690642282 116.82410356820037 0 0 0 0 -155.40004400373618 141.31909367327899 0 141.31909367327899 -117.31276431371225 0 0 0 0 -54.260664161379907 37.642963934749332 0 37.642963934749332 9.3431485516516801 0 0 0 0 -152.22490085173922 316.31571723344678 0 316.31571723344678 -635.96870820417826 0 0 0 0 -71.817678311661439 104.9980336430599 0 104.9980336430599 -283.60612393124029 0 0 0 0 -108.77495336263382 229.55229124940524 0 229.55229124940524 -327.94916946019657 0 0 0 0 -424.19184046164446 163.66766939961235 0 163.66766939961235 -99.312280334343086 0 0 0 0 -459.22126911435407 321.73470428764267 0 321.73470428764267 -177.85643242454444 0 0 0 0 -218.21543950864725 62.211696693520935 0 62.211696693520935 -91.522698273605783 0 0 0 0 -22.688121107107687 32.91188434161586 0 32.91188434161586 -12.835967675424683 0 0 0 0 82.388224555550551 53.618464262828638 0 53.618464262828638 -267.71626069831837 0 0 0 0 73.596386750765305 326.54407193810403 0 326.54407193810403 -386.67211095025414 0 0 0 0 -85.755029129822859 109.38661863322096 0 109.38661863322096 -21.630890631172619 0 0 0 0 -352.81110444884143 155.41367578004429 0 155.41367578004429 172.75859596868759 0 0 0 0 -323.88054974271108 48.461233178932162 0 48.461233178932162 -164.7230804914725 0 0 0 0 -509.10911232986473 334.15737749129039 0 334.15737749129039 -141.00772878303542 0 0 0 0 -297.67604454516504 99.362479447292571 0 99.362479447292571 -0.12962048740882892 0 0 0 0 -16.052855365252316 11.124877238349683 0 11.124877238349683 -2.9504282311987708 0 0 0 0 -150.7980898775721 125.34482232468872 0 125.34482232468872 -52.472879561406444 0 0 0 0 -56.8054310284042 166.09233933400537 0 166.09233933400537 0.001293053530389443 0 0 0 0 -15.653806230830128 186.174422023847 0 186.174422023847 -87.831265216518659 0 0 0 0 -41.936737294703562 138.03204913240916 0 138.03204913240916 -82.009603866026737 0 0 0 0 -22.333734095287745 58.493720906563908 0 58.493720906563908 -20.410069647596565 0 0 0 0 -12.64993986861009 105.33976836111106 0 105.33976836111106 -151.08072434418136 0 0 0 0 -15.095363201086002 148.0042658381135 0 148.0042658381135 -92.585612028487958 0 0 0 0 -38.038867012312949 80.245899524787092 0 80.245899524787092 -290.63916344672907 0 0 0 0 24.741828305012405 -6.7836586843259283 0 -6.7836586843259283 -123.85068959358614 0 0 0 0 -25.812854932328495 -5.4903349687622836 0 -5.4903349687622836 52.250565148280884 0 0 0 0 -80.426218192049561 109.99534203330927 0 109.99534203330927 -17.011103217711913 0 0 0 0 -226.4476451144119 232.19315266847843 0 232.19315266847843 46.71339598857594 0 0 0 0 -26.099711506079984 105.31422436257708 0 105.31422436257708 6.9657023736799601 0 0 0 0 -20.146477289248651 111.55132472820696 0 111.55132472820696 -0.082129131438315683 0 0 0 0 -41.781113566085878 140.81727290763502 0 140.81727290763502 -35.25057485801517 0 0 0 0 -19.972918022955128 79.665226460783742 0 79.665226460783742 -41.545485419575925 0 0 0 0 -18.617532594967997 95.097540606453549 0 95.097540606453549 -10.29390226835676 0 0 0 0 -1.3923248067658278 61.834292735220515 0 61.834292735220515 -58.024326844519237 0 0 0 0 -2.0760709400246924 57.221382512267155 0 57.221382512267155 -25.878045476245461 0 0 0 0 -17.749456050037551 58.808580010905303 0 58.808580010905303 -55.737846316347373 0 0 0 0 -13.992912221905499 69.737606734386645 0 69.737606734386645 -26.494652083267283 0 0 0 0 -10.562150956416666 52.706238215689268 0 52.706238215689268 -6.2249433582074722 0 0 0 0 -23.905030836797323 84.402963379194262 0 84.402963379194262 -42.914081334078219 0 0 0 0 24.575678873571405 74.295418550667819 0 74.295418550667819 -130.39490631220542 0 0 0 0 13.844667380204745 20.304579304878672 0 20.304579304878672 -17.029529345254673 0 0 0 0 53.083229606916575 92.336186267857556 0 92.336186267857556 -121.50427369323734 0 0 0 0 6.0593747459261067 64.428055916308949 0 64.428055916308949 -133.38951629668009 0 0 0 0 13.133891704510461 37.030054895854846 0 37.030054895854846 -76.775724017832545 0 0 0 0 7.1332160849840989 36.990893630704903 0 36.990893630704903 -6.8448219978378546 0 0 0 0 0.85126176800682885 51.086289640940549 0 51.086289640940549 -46.587042997894883 0 0 0 0 23.632254015346476 9.2775699007535763 0 9.2775699007535763 -21.51608131432863 0 0 0 0 -7.0237648602293792 1.9355272346545771 0 1.9355272346545771 -7.8758088805467992 0 0 0 0 -162.48668134642139 -125.08761760382185 0 -125.08761760382185 -161.64981439331314 0 0 0 0 275.88777454034425 -109.68160639161943 0 -109.68160639161943 -519.71626237174496 0 0 0 0 -1136.5872862073811 59.021672232542187 0 59.021672232542187 746.55691994132576 0 0 0 0 467.84504188612482 174.21207872850937 0 174.21207872850937 -638.97425059592933 0 0 0 0 -36.258304003542435 67.659227776544867 0 67.659227776544867 36.012362182638753 0 0 0 0 332.84429449106392 452.7677035908182 0 452.7677035908182 -67.585881369683193 0 0 0 0 -36.59199959762185 63.164116167338165 0 63.164116167338165 -26.848915094849161 0 0 0 0 25.118517442322627 -12.001420868458808 0 -12.001420868458808 -81.649597066338174 0 0 0 0 40.697980680125966 133.02996282521417 0 133.02996282521417 34.316424759657821 0 0 0 0 20.642873237903501 28.463354792833144 0 28.463354792833144 -9.0780909976628834 0 0 0 0 -60.111254554028164 -19.747608497462352 0 -19.747608497462352 13.082070349399146 0 0 0 0 -4.3815003279323719 163.83956379916344 0 163.83956379916344 -140.44630680429691 0 0 0 0 26.776960522518493 26.299503270660352 0 26.299503270660352 -140.59943221957656 0 0 0 0 -309.32164086430203 245.29126640642789 0 245.29126640642789 -179.21775761983008 0 0 0 0 -105.59175789481014 184.84439949844091 0 184.84439949844091 -158.67892522457987 0 0 0 0 54.566620078154529 101.24398684294283 0 101.24398684294283 -163.04638852027711 0 0 0 0 0.89920706290166308 51.514724261545339 0 51.514724261545339 -80.09720103306222 0 0 0 0 85.022527384662681 16.744450998059619 0 16.744450998059619 -132.45575891048793 0 0 0 0 42.932834258397634 17.498068870641873 0 17.498068870641873 -0.68024880437587854 0 0 0 0 67.289141005390775 101.75906281916104 0 101.75906281916104 -30.814755950996187 0 0 0 0 2.9040068665021792 57.573782056287968 0 57.573782056287968 -31.195059534608845 0 0 0 0 43.876750008592353 63.663464138604468 0 63.663464138604468 -31.941783481859602 0 0 0 0 15.186295545605399 34.27445433408559 0 34.27445433408559 -7.3887174211370734 0 0 0 0 18.541221327161111 83.962966177874478 0 83.962966177874478 -62.762423361513356 0 0 0 0 -30.475285908886235 100.12901673830493 0 100.12901673830493 -67.971020432465593 0 0 0 0 -45.88620911005475 56.510120845807251 0 56.510120845807251 -40.082777140283724 0 0 0 0 16.040304568374658 9.2608606940290201 0 9.2608606940290201 -22.483522176421303 0 0 0 0 13.912544422948429 32.857368317985674 0 32.857368317985674 -291.29304591243272 0 0 0 0 -47.641280965813287 59.363221380563402 0 59.363221380563402 -47.882767976891046 0 0 0 0 -168.04822631839488 168.20080689701717 0 168.20080689701717 1.93158580463205 0 0 0 0 -100.01838430406497 -35.281590686485288 0 -35.281590686485288 -185.82897230016533 0 0 0 0 35.855936802335414 -1.6093492533594826 0 -1.6093492533594826 -44.281776356123345 0 0 0 0 -11.210959452508295 9.8890897019034014 0 9.8890897019034014 4.1805909437287028 0 0 0 0 145.04087313853961 35.663515455162269 0 35.663515455162269 -168.81744324046304 0 0 0 0 150.19070826878306 -9.6776091144492966 0 -9.6776091144492966 -402.2170525114052 0 0 0 0 194.30298385485366 82.065806262282422 0 82.065806262282422 -334.01529912774276 0 0 0 0 76.903635791572015 40.398871193516243 0 40.398871193516243 -296.34887777912081 0 0 0 0 89.224378510654788 30.021859722903173 0 30.021859722903173 -95.501041343522957 0 0 0 0 -34.736708457261507 60.953677831665587 0 60.953677831665587 -45.356114798734666 0 0 0 0 56.581553748637816 71.688344883470563 0 71.688344883470563 -32.50560155166022 0 0 0 0 -231.62742256733418 -117.88146508327191 0 -117.88146508327191 290.71053772079176 0 0 0 0 210.86156426625712 54.558268224798667 0 54.558268224798667 -116.35033173096599 0 0 0 0 152.62454128529134 189.97351658839034 0 189.97351658839034 104.7738470818731 0 0 0 0 36.124692044392248 49.868213566229173 0 49.868213566229173 -40.253079307807809 0 0 0 0 -30.63866669062395 92.937276622305944 0 92.937276622305944 -124.37194594857283 0 0 0 0 -6.1501602167381861 188.64898353755416 0 188.64898353755416 -24.314352767745731 0 0 0 0 31.077370648062242 50.949531631340506 0 50.949531631340506 -254.08479817523039 0 0 0 0 67.966301877826481 159.72144646800007 0 159.72144646800007 -187.68847702986386 0 0 0 0 4.7411721186382687 3.6135326545356889 0 3.6135326545356889 0.29799453632449513 0 0 0 0 -75.272715954496562 137.63827889390814 0 137.63827889390814 13.687828414593241 0 0 0 0 -175.46976642032769 113.40716305880051 0 113.40716305880051 13.453189748630393 0 0 0 0 57.933639488352128 75.97594534007294 0 75.97594534007294 -44.89376571320463 0 0 0 0 -1.6645273359071755 55.900961301265788 0 55.900961301265788 -41.268874187413815 0 0 0 0 138.95854329230326 244.77512016111723 0 244.77512016111723 -298.3241838561662 0 0 0 0 -36.221697777695184 67.046378626287748 0 67.046378626287748 -55.177732007134182 0 0 0 0 0.55350541583882418 51.290401922131977 0 51.290401922131977 -58.529558086528084 0 0 0 0 -164.62161491268125 8.8903073079272872 0 8.8903073079272872 76.673732272029156 0 0 0 0 124.48799004604734 60.497476211814501 0 60.497476211814501 -48.419980138147366 0 0 0 0 -8.9693712893122211 64.28853312908177 0 64.28853312908177 -107.29118293883221 0 0 0 0 319.0956916595926 -141.76820731959015 0 -141.76820731959015 -27.805334008182399 0 0 0 0 10.20610279930861 112.53754491693689 0 112.53754491693689 12.621879536760389 0 0 0 0 -64.254344721039615 89.793872504676983 0 89.793872504676983 -44.448139633645042 0 0 0 0 -81.756113469535194 54.934798217756907 0 54.934798217756907 -40.980148730981455 0 0 0 0 -20.295093083750238 11.487891952530543 0 11.487891952530543 3.0376303451793092 0 0 0 0 -73.681395178613457 116.98012669294985 0 116.98012669294985 1.9037964606832247 0 0 0 0 24.125888106253115 78.36192987467075 0 78.36192987467075 -25.60840891008047 0 0 0 0 107.59266327564364 78.602248356097334 0 78.602248356097334 -91.046266350720543 0 0 0 0 -2.8092907485115575 45.59418600652134 0 45.59418600652134 -21.103517971987458 0 0 0 0 -32.846120998063483 54.726855624559434 0 54.726855624559434 -23.137757158102659 0 0 0 0 5.1488564256654001 37.408122569187398 0 37.408122569187398 -3.8392282479530877 0 0 0 0 103.59081967692418 54.92459677952138 0 54.92459677952138 -32.328702049853746 0 0 0 0 11.778779769712784 17.223680269628424 0 17.223680269628424 -32.978388089188854 0 0 0 0 -93.771937472840364 91.051507694253814 0 91.051507694253814 -27.18820807807424 0 0 0 0 -13.927703614268054 9.754874807066841 0 9.754874807066841 -4.8874987246384194 0 0 0 0 -4.4058859651455649 60.534478242255005 0 60.534478242255005 -32.09973060175389 0 0 0 0 4.1708324583190546 50.408264548109557 0 50.408264548109557 -38.079043982288397 0 0 0 0 116.58173377676576 31.478224532474997 0 31.478224532474997 -19.86730237986194 0 0 0 0 -80.637046069714415 77.4160993196856 0 77.4160993196856 -21.676803286085487 0 0 0 0 -15.669051009541704 92.514007334139023 0 92.514007334139023 -31.48227981312084 0 0 0 0 76.963040503153024 27.233834522652614 0 27.233834522652614 35.421656060076202 0 0 0 0 -6.7493540657640523 26.135174419466523 0 26.135174419466523 2.4044351018809493 0 0 0 0 273.89933662378462 126.18914522199339 0 126.18914522199339 -226.23963380034547 0 0 0 0 -201.37294168569497 147.99219256410288 0 147.99219256410288 297.75764666487521 0 0 0 0 -0.61120459737423971 8.8639954677832975 0 8.8639954677832975 3.1208607416616587 0 0 0 0 -11.559915696114331 255.72996763618721 0 255.72996763618721 -1657.138194567 0 0 0 0 5.6923358215693867 9.7098701214669063 0 9.7098701214669063 0.33573098337399188 0 0 0 0 -106.54686798840339 -444.25748507823846 0 -444.25748507823846 -744.22190428260365 0 0 0 0 33.73097794946807 -81.24180290933873 0 -81.24180290933873 -387.27324310895347 0 0 0 0 46.685140980677943 11.152119046343444 0 11.152119046343444 -22.86905282970497 0 0 0 0 23.731378202704946 -62.738008852451458 0 -62.738008852451458 -221.65835576254176 0 0 0 0 194.5920066834442 146.08971034822753 0 146.08971034822753 -432.32419666807982 0 0 0 0 286.97498818794702 118.33193921181373 0 118.33193921181373 -197.54702389884915 0 0 0 0 198.61111873533264 4.4315007856321245 0 4.4315007856321245 -111.25852202138049 0 0 0 0 83.938632592071372 18.637660676511587 0 18.637660676511587 -44.899447517687804 0 0 0 0 98.994525984030588 -39.601612178979849 0 -39.601612178979849 -223.38295700337039 0 0 0 0 64.523925140449137 11.028266104782233 0 11.028266104782233 101.89312927676656 0 0 0 0 60.98334935945374 -0.73885853716296879 0 -0.73885853716296879 -17.604312588922426 0 0 0 0 51.114894034777535 -76.746969862258993 0 -76.746969862258993 -52.391919007699471 0 0 0 0 -24.033801518431574 135.0635352962563 0 135.0635352962563 158.9050738705846 0 0 0 0 84.630056100801639 -8.2270644794571695 0 -8.2270644794571695 -25.783810362415153 0 0 0 0 85.389313296877845 85.385812785350936 0 85.385812785350936 -33.485681216523517 0 0 0 0 20.486496576646459 176.19358299591113 0 176.19358299591113 -360.6093629549141 0 0 0 0 -253.87642301504093 8.0351124115550192 0 8.0351124115550192 -33.820075307292825 0 0 0 0 121.37122238262236 -26.35046548317041 0 -26.35046548317041 -184.59316701610805 0 0 0 0 97.399466171758831 -2.9689979980612407 0 -2.9689979980612407 -117.3375734416768 0 0 0 0 -17.93623372899674 -178.43121128682105 0 -178.43121128682105 -382.68725784579874 0 0 0 0 202.46670691688632 97.954174810874974 0 97.954174810874974 -421.8197900014784 0 0 0 0 224.7807937162579 174.50285604635428 0 174.50285604635428 -243.04274959661052 0 0 0 0 109.16428989043925 67.016615751570498 0 67.016615751570498 -92.364462868252303 0 0 0 0 2.2295250239791713 30.206690731406866 0 30.206690731406866 -55.273203097188571 0 0 0 0 139.24497219104524 25.37169464411636 0 25.37169464411636 -36.058697627391666 0 0 0 0 74.027252657329882 2.7670440027250152 0 2.7670440027250152 -28.526183455105638 0 0 0 0 111.82276264980464 103.1519353108888 0 103.1519353108888 -7.1395875497837551 0 0 0 0 117.32540538948524 -21.760877572261961 0 -21.760877572261961 8.9490052724140696 0 0 0 0 208.80661144399346 -25.268107539333869 0 -25.268107539333869 -85.247052288628765 0 0 0 0 54.110061733561139 -5.701480274788878 0 -5.701480274788878 -18.24492402193335 0 0 0 0 116.58233116899646 12.216551852499833 0 12.216551852499833 -84.297495531223831 0 0 0 0 27.387343801648967 4.7306871703029856 0 4.7306871703029856 -30.385775157344369 0 0 0 0 56.945394982481957 17.437789176219667 0 17.437789176219667 -51.985600899788551 0 0 0 0 16.166587897625536 9.1571680495681562 0 9.1571680495681562 -53.059793765494817 0 0 0 0 140.1143111739766 149.00483981707657 0 149.00483981707657 80.522379206144251 0 0 0 0 153.55179902327291 -12.889798415260884 0 -12.889798415260884 -117.6535695012717 0 0 0 0 23.924709533647871 13.677191898911701 0 13.677191898911701 -19.778441167845301 0 0 0 0 76.389142142652418 58.22818438494869 0 58.22818438494869 -15.959804493842967 0 0 0 0 40.217663897594321 12.440879024521564 0 12.440879024521564 -21.061372547934297 0 0 0 0 85.971578720214893 150.05471161483729 0 150.05471161483729 -183.03331654969952 0 0 0 0 6.6617568814383077 23.778097073175246 0 23.778097073175246 -34.138204816666757 0 0 0 0 -51.23804139746062 93.701884478970896 0 93.701884478970896 74.890890858892817 0 0 0 0 100.3851414105302 -95.848683039745083 0 -95.848683039745083 23.608565022237599 0 0 0 0 459.96410161552194 407.06541058386938 0 407.06541058386938 30.127661452774191 0 0 0 0 7.4347395042319278 2.1792614944202455 0 2.1792614944202455 0.50283851029847426 0 0 0 0 -106.62186181075231 -69.013123369426467 0 -69.013123369426467 185.69176298918319 0 0 0 0 -543.1480358552999 476.58535204902364 0 476.58535204902364 707.04097507384722 0 0 0 0 304.2956594536663 -519.06591651967028 0 -519.06591651967028 -28.452907990751555 0 0 0 0 5.6461874314479701 8.8564971388852882 0 8.8564971388852882 -18.859626437623405 0 0 0 0 41.994832636897627 670.80656047345838 0 670.80656047345838 -205.3953025111623 0 0 0 0 147.83188360409986 -275.83608004148118 0 -275.83608004148118 -374.91467940362054 0 0 0 0 53.999965022892866 -32.890095171125722 0 -32.890095171125722 -15.713651988088714 0 0 0 0 101.82588196610595 -8.5964033588388702 0 -8.5964033588388702 -162.91816721323994 0 0 0 0 75.419901955694513 78.125862510198203 0 78.125862510198203 -319.56840674905106 0 0 0 0 0.35946857405777166 9.4874823488831908 0 9.4874823488831908 10.521891076200959 0 0 0 0 23.421941919960773 185.62461414473 0 185.62461414473 -356.71661442436744 0 0 0 0 9.9057936604367569 86.165677119366592 0 86.165677119366592 -211.37117861316074 0 0 0 0 30.009051872882992 -10.914087812241632 0 -10.914087812241632 -159.77164851466659 0 0 0 0 201.85893770210532 18.622521414945368 0 18.622521414945368 -387.55435948894592 0 0 0 0 12.52764016896981 52.649214041521191 0 52.649214041521191 -57.008825595094095 0 0 0 0 2.6431123901893159 56.139093456799543 0 56.139093456799543 3.5362383126095835 0 0 0 0 -114.78430922141706 197.29639869695529 0 197.29639869695529 -166.49275124905398 0 0 0 0 -68.476300695969258 338.56357043399476 0 338.56357043399476 -764.81157464889111 0 0 0 0 25.583538483950051 16.428503580571032 0 16.428503580571032 -8.1382512050920468 0 0 0 0 -4.9832911781382165 12.841929172571781 0 12.841929172571781 0.6288962534875111 0 0 0 0 8.3642685097311187 70.657535808557441 0 70.657535808557441 6.131242417221074 0 0 0 0 -9.7719437737141561 97.798003467163653 0 97.798003467163653 52.271344024953578 0 0 0 0 16.410744768063537 48.907696522644159 0 48.907696522644159 32.858300989796135 0 0 0 0 58.898408331580868 79.545534735996625 0 79.545534735996625 63.772952659248404 0 0 0 0 3.2640480545328501 21.452772140462912 0 21.452772140462912 40.140793602971826 0 0 0 0 38.212690063286573 35.457657557795756 0 35.457657557795756 26.283555781643372 0 0 0 0 6.911268500734046 1.0955502083811268 0 1.0955502083811268 -3.9773198503211233 0 0 0 0 13.543277752345602 29.1098389383842 0 29.1098389383842 0.10396605604910292 0 0 0 0 -43.635475608212914 30.143229280909509 0 30.143229280909509 32.449145213264273 0 0 0 0 -48.978096397961053 118.00920305079489 0 118.00920305079489 0.079935221161576919 0 0 0 0 325.92761458868699 -69.644005214846402 0 -69.644005214846402 -93.617786674032686 0 0 0 0 203.25307860102475 139.43788976750511 0 139.43788976750511 -13.441575691271282 0 0 0 0 23.482948374467014 -71.723072230608523 0 -71.723072230608523 33.833993082647794 0 0 0 0 21.821782397566551 8.4259543126821086 0 8.4259543126821086 -28.083781111079304 0 0 0 0 10.564457586349391 11.575734554098688 0 11.575734554098688 0.24821880724903167 0 0 0 0 1.057047508422329 2.6806522337174101 0 2.6806522337174101 25.575194368429948 0 0 0 0 25.896251018280054 32.112579500315007 0 32.112579500315007 7.4853070936228505 0 0 0 0 36.714183888645493 30.735223328250868 0 30.735223328250868 -16.927706614951603 0 0 0 0 31.435679428348521 38.301187836528698 0 38.301187836528698 0.022168241819599643 0 0 0 0 4.4274073006680652 -3.297611110002336 0 -3.297611110002336 -0.93108431419557292 0 0 0 0 56.81388972843888 33.156786795025255 0 33.156786795025255 -25.237071823677979 0 0 0 0 -5.4114369737289962 9.1867718933353899 0 9.1867718933353899 -15.6572786270699 0 0 0 0 -13.938414274373827 30.604496554318757 0 30.604496554318757 -0.042307027877541259 0 0 0 0 2.0024933050866309 3.7543451308395106 0 3.7543451308395106 6.2573097492294778 0 0 0 0 2063.5336869626626 -410.90241941310524 0 -410.90241941310524 -60.530931882560253 0 0 0 0 2070.9528301605715 622.78679750142919 0 622.78679750142919 -371.33246569999028 0 0 0 0 1291.5034780972019 651.90440799020143 0 651.90440799020143 -372.39142875003745 0 0 0 0 1579.9450450976292 332.14831684106321 0 332.14831684106321 -208.53425334818894 0 0 0 0 1282.1659603131193 684.97589865930786 0 684.97589865930786 -256.8166517742211 0 0 0 0 1282.2441564727596 851.30308023611724 0 851.30308023611724 0.37578556801599916 0 0 0 0 176.18924403624987 729.29922142006399 0 729.29922142006399 -0.38424891953320445 0 0 0 0 697.15694081555921 300.08782375062219 0 300.08782375062219 -219.33582598078647 0 0 0 0 -506.14668508587056 187.95411112307193 0 187.95411112307193 176.50552634338965 0 0 0 0 -1601.7086384116192 478.86789007006882 0 478.86789007006882 216.88774515206114 0 0 0 0 1407.301443352495 521.36681734876765 0 521.36681734876765 -420.06752872642392 0 0 0 0 485.0853999457413 458.38963781515849 0 458.38963781515849 -79.461597437708406 0 0 0 0 2240.0752512351246 -29.528881798236398 0 -29.528881798236398 -266.99527258345915 0 0 0 0 162.48830696518417 -465.94505783372369 0 -465.94505783372369 -405.74241147615248 0 0 0 0 -1578.1442330580994 1076.2686017238266 0 1076.2686017238266 632.26284684962593 0 0 0 0 254.73728850756015 1266.9899487782532 0 1266.9899487782532 -654.5282216042142 0 0 0 0 2634.8639151478601 1271.6318056720738 0 1271.6318056720738 -73.651940888434183 0 0 0 0 321.83386704560689 736.55333962061559 0 736.55333962061559 1910.2681356871763 0 0 0 0 29.201366382390376 1.3100748500639838 0 1.3100748500639838 -3.5662543485304035 0 0 0 0 1348.8017933780066 -375.6944832856534 0 -375.6944832856534 -70.218529958161525 0 0 0 0 817.17958133149659 1036.4736367707374 0 1036.4736367707374 1320.6066028616879 0 0 0 0 155.88191829132847 -203.59259017292061 0 -203.59259017292061 383.48450019744814 0 0 0 0 10.997994659504187 3.4751735101553436 0 3.4751735101553436 -4.5178967081884025 0 0 0 0 583.87954909174005 364.55985598251573 0 364.55985598251573 -155.55025484565704 0 0 0 0 142.07120970196411 366.61030999761715 0 366.61030999761715 669.95954056622577 0 0 0 0 1364.5460211588143 830.92543053811823 0 830.92543053811823 99.680830784927821 0 0 0 0 1416.834619747242 671.19149476556231 0 671.19149476556231 -262.85033481835853 0 0 0 0 2149.2511216834901 1284.8251782186999 0 1284.8251782186999 210.90933173862868 0 0 0 0 1.7660959592294034 -0.67215629720129755 0 -0.67215629720129755 -0.30256293561762959 0 0 0 0 -594.77086192768184 689.50119842913409 0 689.50119842913409 492.50288833116065 0 0 0 0 -986.56192551177082 39.908163149739266 0 39.908163149739266 -74.231484056028421 0 0 0 0 559.71920575118565 654.24532211736368 0 654.24532211736368 476.46971944207326 0 0 0 0 -92.090388596698176 788.4698929694423 0 788.4698929694423 -893.42336646711919 0 0 0 0 -18.070894980467529 -13.645223486338182 0 -13.645223486338182 0.31079745077295229 0 0 0 0 40.767391987086739 574.46342933262349 0 574.46342933262349 -920.37360912316944 0 0 0 0 377.44112411202514 -114.51252906120499 0 -114.51252906120499 -430.0642604654422 0 0 0 0 271.32437106259749 357.52907318910002 0 357.52907318910002 -716.45496145472862 0 0 0 0 -317.73529725021217 772.35438714784686 0 772.35438714784686 -623.39842576533556 0 0 0 0 -314.70652329965378 274.94377625078778 0 274.94377625078778 -237.37191659997916 0 0 0 0 -1071.6587076514552 693.52518891033833 0 693.52518891033833 -1.2175120306928875 0 0 0 0 -39.175583657677635 188.81300299467694 0 188.81300299467694 -342.27862418474979 0 0 0 0 -48.189632458193046 175.05730892235169 0 175.05730892235169 -450.43547036573 0 0 0 0 -4.7108410963386405 5.5393667219723284 0 5.5393667219723284 1.861959103373195 0 0 0 0 -528.17238709628873 30.480613549647387 0 30.480613549647387 640.60140914711519 0 0 0 0 -2.3516955104569206 -289.79813329165336 0 -289.79813329165336 155.10664599813754 0 0 0 0 -277.95287556160474 278.00496862272848 0 278.00496862272848 61.714896093981224 0 0 0 0 -290.68762493535178 304.41011169043486 0 304.41011169043486 192.26182273050654 0 0 0 0 -817.94491271086736 409.1111075108347 0 409.1111075108347 535.69822840375127 0 0 0 0 -654.37640553837991 466.774673801061 0 466.774673801061 128.25046014638792 0 0 0 0 -352.08871934884519 379.55589816746215 0 379.55589816746215 -24.882091179082636 0 0 0 0 -90.537725487374701 532.21151197564905 0 532.21151197564905 -220.5247793328017 0 0 0 0 -324.15189163258765 454.28683172866295 0 454.28683172866295 121.39416972742765 0 0 0 0 -790.9542723493505 780.42658841775847 0 780.42658841775847 34.83569326538418 0 0 0 0 -747.1481989944732 588.52188457321608 0 588.52188457321608 33.435133089340525 0 0 0 0 -552.83771056917612 622.6077474096237 0 622.6077474096237 -303.67974105349276 0 0 0 0 -654.82238946089637 465.09871909950743 0 465.09871909950743 129.14345390384551 0 0 0 0 -1113.8002627520182 677.77220990101341 0 677.77220990101341 295.27509534823184 0 0 0 0 -1062.2348533647682 646.96226308710175 0 646.96226308710175 -139.58054144465132 0 0 0 0 -936.63877189557388 880.10165183150093 0 880.10165183150093 -88.771618866856443 0 0 0 0 -938.28124918493268 783.0198514238582 0 783.0198514238582 0.66443940919998568 0 0 0 0 -894.35996699715906 802.1454817030899 0 802.1454817030899 -45.244913974456722 0 0 0 0 -929.96384951254731 797.00958632776747 0 797.00958632776747 53.321869917301228 0 0 0 0 -1302.0613308933771 1181.3339534465722 0 1181.3339534465722 -262.23333327309228 0 0 0 0 -21.868496781970748 10.734353645580256 0 10.734353645580256 -4.3336111846600147 0 0 0 0 -1046.7465690099853 -9.5052586064703064 0 -9.5052586064703064 809.3622858900635 0 0 0 0 64.745457812809036 76.311584443086758 0 76.311584443086758 -144.7417713694449 0 0 0 0 -211.71929884405108 776.53389347116172 0 776.53389347116172 -1044.5668101003539 0 0 0 0 -313.14025898122691 -100.40822679541316 0 -100.40822679541316 -98.709941583219916 0 0 0 0 -365.72557878201769 449.36115554002754 0 449.36115554002754 -432.35483492587809 0 0 0 0 -345.65302400443761 -34.218255842992221 0 -34.218255842992221 266.62107834566268 0 0 0 0 -58.576846167833196 24.279399781667337 0 24.279399781667337 -8.502202693845561 0 0 0 0 -289.92167478213378 189.47123850768548 0 189.47123850768548 361.62484091099759 0 0 0 0 153.2051187866964 -37.428023948319606 0 -37.428023948319606 -7.1620190812100191 0 0 0 0 -331.50455864260584 -90.322838059313654 0 -90.322838059313654 39.300772968868841 0 0 0 0 -60.350141724942659 20.762333942300756 0 20.762333942300756 -66.745311060381937 0 0 0 0 -20.087213656062886 291.09317822178491 0 291.09317822178491 213.94683014956536 0 0 0 0 174.37526301150865 255.68392589159339 0 255.68392589159339 219.9088568520674 0 0 0 0 -106.83770927313162 297.39801903330954 0 297.39801903330954 792.68963753290154 0 0 0 0 -33.50479662492944 443.97691242485598 0 443.97691242485598 362.57911776960827 0 0 0 0 94.37026192619669 121.88991031294427 0 121.88991031294427 -14.97699543316412 0 0 0 0 -8.974101885793516 143.13801753452026 0 143.13801753452026 281.76815241199802 0 0 0 0 -422.26942839349067 434.44200997061125 0 434.44200997061125 89.687237434001872 0 0 0 0 -135.41005324962316 265.20789616370894 0 265.20789616370894 -847.41652522658114 0 0 0 0 -144.71700200805208 246.16810413157145 0 246.16810413157145 -369.44659965668689 0 0 0 0 31.699407124513527 222.38216748875857 0 222.38216748875857 -713.11223746357427 0 0 0 0 12.698032300481458 16.683946066295334 0 16.683946066295334 0.22831982491229041 0 0 0 0 -108.21221773433354 127.33621887721529 0 127.33621887721529 -262.35041046646074 0 0 0 0 -54.064295111642423 80.37911923462525 0 80.37911923462525 -298.79194172019197 0 0 0 0 16.160464730659442 314.57008929628864 0 314.57008929628864 -196.68749533830851 0 0 0 0 93.24782483112358 151.55426217710192 0 151.55426217710192 -362.23529571829567 0 0 0 0 327.82326247654419 459.18413624641835 0 459.18413624641835 -1030.2594646443913 0 0 0 0 4.2891871808395479 14.63530409694323 0 14.63530409694323 0.077422532940534694 0 0 0 0 16.160298055398016 182.32630411165883 0 182.32630411165883 -116.21989705460146 0 0 0 0 337.19523648717586 153.50699438918673 0 153.50699438918673 -461.82307669409784 0 0 0 0 205.69611152276775 183.88114749678061 0 183.88114749678061 -359.4770680241636 0 0 0 0 266.94094352073444 0.54149239159596618 0 0.54149239159596618 -100.58079364083824 0 0 0 0 124.90957183724458 -27.710567128120601 0 -27.710567128120601 -85.277221572207054 0 0 0 0 101.59241826398647 -50.844884005535278 0 -50.844884005535278 -58.172744386654813 0 0 0 0 45.139990363863035 -98.582546139696206 0 -98.582546139696206 -93.454203745408449 0 0 0 0 231.31916229035414 -312.52444904793447 0 -312.52444904793447 -49.350029043853283 0 0 0 0 1405.6004823757685 126.03986893061665 0 126.03986893061665 -371.90114644503774 0 0 0 0 486.91013831387681 849.21688340341643 0 849.21688340341643 -149.43003075721208 0 0 0 0 70.939485133756534 628.8980109685217 0 628.8980109685217 -173.25353861569602 0 0 0 0 -5.4869887148597627 1072.5987855826897 0 1072.5987855826897 425.84188058480504 0 0 0 0 -411.56194389454504 527.68742495039578 0 527.68742495039578 -66.265523462352576 0 0 0 0 574.16585070002111 623.54181107736804 0 623.54181107736804 -397.61452036420815 0 0 0 0 140.19135622991598 487.53869576921716 0 487.53869576921716 -918.22098734101746 0 0 0 0 -89.767294276054599 465.37678956908348 0 465.37678956908348 -434.35068026780209 0 0 0 0 -161.02756498421513 708.9092069635517 0 708.9092069635517 -248.67314894380979 0 0 0 0 9.8749029806727719 13.021702740506726 0 13.021702740506726 0.33679028335024697 0 0 0 0 15.566171755832329 484.13533820604789 0 484.13533820604789 -1249.0361724320392 0 0 0 0 373.73079272980249 445.8409664001083 0 445.8409664001083 -2283.4236382652743 0 0 0 0 -257.70413347284193 251.4032084178325 0 251.4032084178325 -905.09312675870024 0 0 0 0 3.9849758180427273 4.0467655765037875 0 4.0467655765037875 -0.14666860231705314 0 0 0 0 181.89486864384526 849.14781035203487 0 849.14781035203487 -945.40832537642564 0 0 0 0 312.17441280518688 332.750315127465 0 332.750315127465 -1002.0840819978039 0 0 0 0 104.60531887033721 370.60947120662604 0 370.60947120662604 -382.57741428251029 0 0 0 0 174.79320121961791 244.69559830499929 0 244.69559830499929 -212.25924648565706 0 0 0 0 127.10612361095809 171.99725248862705 0 171.99725248862705 -287.85010328251519 0 0 0 0 -300.89136012232484 681.32178373839997 0 681.32178373839997 -443.04868485411134 0 0 0 0 136.99010017458932 844.90500596437778 0 844.90500596437778 -599.4425028701371 0 0 0 0 345.7894484643839 235.48184675592347 0 235.48184675592347 -404.80634366777667 0 0 0 0 -766.18924544905894 491.24574573071732 0 491.24574573071732 -334.40620925824624 0 0 0 0 -106.54653236588638 -52.343807991303038 0 -52.343807991303038 -568.67961936814254 0 0 0 0 45.062164186114387 -32.644212723964301 0 -32.644212723964301 254.03562590459478 0 0 0 0 -364.35162579276948 143.05830497363058 0 143.05830497363058 291.87604532392288 0 0 0 0 89.163137235707836 -16.62281885909033 0 -16.62281885909033 296.83635992836207 0 0 0 0 33.209168199748092 -18.07514922691189 0 -18.07514922691189 334.94948373908119 0 0 0 0 220.70472532893473 43.374920797505183 0 43.374920797505183 266.66013516399835 0 0 0 0 434.14871530519667 632.49908471323215 0 632.49908471323215 679.95178984935046 0 0 0 0 109.82744185363845 133.64154303185205 0 133.64154303185205 811.24514780820755 0 0 0 0 -128.3017997288116 363.76626473446959 0 363.76626473446959 1793.2186068553528 0 0 0 0 -51.712193945008039 338.05484127334785 0 338.05484127334785 760.24905001588832 0 0 0 0 -30.870015346212313 215.22462824953254 0 215.22462824953254 481.27500083920313 0 0 0 0 -16.325183372224728 330.05538355871795 0 330.05538355871795 588.53717036067974 0 0 0 0 45.147570687069674 431.63194184127497 0 431.63194184127497 714.36436813195178 0 0 0 0 346.50269579598171 254.90460231777979 0 254.90460231777979 330.13888870168012 0 0 0 0 56.783894796859386 310.30803288257994 0 310.30803288257994 310.97840264989645 0 0 0 0 86.217168430564925 187.42065190763969 0 187.42065190763969 195.79601051175268 0 0 0 0 -10.095468101542792 203.8922811015218 0 203.8922811015218 371.73788517375942 0 0 0 0 -73.371168149500591 17.013710584993532 0 17.013710584993532 193.45102130435407 0 0 0 0 44.60336839754018 175.06997471011709 0 175.06997471011709 202.92910284470418 0 0 0 0 -19.008159876668103 32.030186680422645 0 32.030186680422645 39.914481176928632 0 0 0 0 -39.778730666128467 222.63023574661202 0 222.63023574661202 291.36939990418614 0 0 0 0 17.396705139020924 100.72034355750657 0 100.72034355750657 7.5649565178900957 0 0 0 0 -0.2230892530738231 1.4157829311777732 0 1.4157829311777732 -32.837808373181325 0 0 0 0 -116.12814292540133 -13.643463276908733 0 -13.643463276908733 -455.54668992149709 0 0 0 0 -49.418653197595233 103.52737027206072 0 103.52737027206072 -41.212555483286707 0 0 0 0 17.07130842326842 53.973604845813441 0 53.973604845813441 -27.423406669630239 0 0 0 0 2.8456468060030602 138.37346563668689 0 138.37346563668689 146.3650250207611 0 0 0 0 84.383047046503634 171.88654799659707 0 171.88654799659707 129.81853057266562 0 0 0 0 75.822034074495605 107.77091281481262 0 107.77091281481262 -9.5434003569735069 0 0 0 0 -47.524451197836214 63.770268477471234 0 63.770268477471234 -32.235463251166379 0 0 0 0 -174.62535902267336 -111.58767365650056 0 -111.58767365650056 -8.1077913438202813 0 0 0 0 -148.48318813832157 108.79102632960712 0 108.79102632960712 -55.061601044581039 0 0 0 0 18.693276538104328 14.820973718371533 0 14.820973718371533 -169.78172235496459 0 0 0 0 40.73055678387027 -73.047455178690143 0 -73.047455178690143 119.63432918468607 0 0 0 0 247.64500169990788 187.81142665270454 0 187.81142665270454 -83.313458409787927 0 0 0 0 -50.382244650214489 209.82406573954904 0 209.82406573954904 -84.73009260991239 0 0 0 0 77.585385686194059 295.64105691586883 0 295.64105691586883 190.87248794420157 0 0 0 0 -72.585574901400832 168.63906682646484 0 168.63906682646484 206.27712059004989 0 0 0 0 -55.672534287761664 190.78350871217845 0 190.78350871217845 185.61952439503511 0 0 0 0 -69.948237285836512 148.95291108248784 0 148.95291108248784 235.63406169667724 0 0 0 0 -84.582037190230039 68.262966464644705 0 68.262966464644705 207.53283781357459 0 0 0 0 -88.008996840610052 49.299490648452775 0 49.299490648452775 142.37574287691677 0 0 0 0 -72.514753878138436 130.3886456355358 0 130.3886456355358 116.64605827897321 0 0 0 0 -51.639057812833926 2.8137603592913365 0 2.8137603592913365 -30.599133650712247 0 0 0 0 -14.209751518035773 147.14940555836074 0 147.14940555836074 -11.743997204262996 0 0 0 0 2.1659238067513797 181.83184199946118 0 181.83184199946118 -477.47823811595299 0 0 0 0 -9.8891230115829671 7.7919997856950545 0 7.7919997856950545 -24.061416837328881 0 0 0 0 -57.455204678002701 94.971386306830027 0 94.971386306830027 388.87978495316929 0 0 0 0 -29.676205917792771 81.514889310906057 0 81.514889310906057 -4.6437322578360352 0 0 0 0 138.89558609799133 150.4571006690021 0 150.4571006690021 -262.72641180267965 0 0 0 0 1614.8139981959866 851.13409680023324 0 851.13409680023324 140.86669755197363 0 0 0 0 -544.30163753403758 285.22223397229391 0 285.22223397229391 1895.5842315815389 0 0 0 0 1936.138566484391 -639.72796679733437 0 -639.72796679733437 -315.95058459759457 0 0 0 0 -356.31529998397309 593.88463977125502 0 593.88463977125502 1652.028614598501 0 0 0 0 164.87695474988868 -711.59078632607998 0 -711.59078632607998 1796.070587739001 0 0 0 0 8.2452603585262239 8.6743066189927589 0 8.6743066189927589 12.176075221925487 0 0 0 0 -144.94679270475172 48.015199268105789 0 48.015199268105789 684.28670241982036 0 0 0 0 -193.44550139487546 -38.321280215706793 0 -38.321280215706793 532.50536960503086 0 0 0 0 -180.32176791291567 252.77974876338703 0 252.77974876338703 834.8578694548778 0 0 0 0 -161.95061890444049 728.05951588130847 0 728.05951588130847 -99.078010287033067 0 0 0 0 -179.53528946817823 236.63770539377583 0 236.63770539377583 688.65100603480823 0 0 0 0 -76.394817582942778 119.98620228316577 0 119.98620228316577 411.7266843180405 0 0 0 0 -52.223147121152579 157.26534786116463 0 157.26534786116463 440.73385664075613 0 0 0 0 -85.597484655212611 118.25387333823892 0 118.25387333823892 -70.307062296420554 0 0 0 0 -8.8521041788881121 40.475860444508726 0 40.475860444508726 -35.166044306446565 0 0 0 0 2.379512122952292 137.38703229851308 0 137.38703229851308 -199.34645165581605 0 0 0 0 64.8281486678557 29.033105559462967 0 29.033105559462967 -58.434157602209268 0 0 0 0 -0.43330062918539625 30.343143488178612 0 30.343143488178612 268.98435349726424 0 0 0 0 18.164038136437739 -46.288485962963023 0 -46.288485962963023 531.96970104059437 0 0 0 0 -30.951672772164386 62.763458628554162 0 62.763458628554162 -6.2773719903062783 0 0 0 0 248.40684236747984 347.98560466316849 0 347.98560466316849 345.29475787041883 0 0 0 0 14.686831945771701 37.440693690927347 0 37.440693690927347 19.354651122196515 0 0 0 0 5.6782737710581159 1.0699203560635056 0 1.0699203560635056 -3.1768474347498028 0 0 0 0 37.792498103190155 122.46807496849942 0 122.46807496849942 -365.97380306568994 0 0 0 0 257.46206789104372 195.93147160592707 0 195.93147160592707 -373.83068148717575 0 0 0 0 448.59460818593652 403.26340094782063 0 403.26340094782063 49.418553442301345 0 0 0 0 97.053922986675616 149.74477669948783 0 149.74477669948783 -41.577851471356176 0 0 0 0 975.05870476106338 1497.3716991772865 0 1497.3716991772865 -4868.8514220335237 0 0 0 0 157.8022050845284 257.52980067833414 0 257.52980067833414 -305.98597094952129 0 0 0 0 -674.76938842776872 -580.8462101253499 0 -580.8462101253499 -1889.0528696564022 0 0 0 0 51.091525865173026 169.48596453551727 0 169.48596453551727 -359.2174826524024 0 0 0 0 60.979612636117963 185.37725986339137 0 185.37725986339137 -474.23011819306703 0 0 0 0 300.55434279119072 -1306.4250768252623 0 -1306.4250768252623 -1318.5864875406187 0 0 0 0 59.745175485120853 189.80493406177266 0 189.80493406177266 -478.15615615724141 0 0 0 0 28.3524601225335 145.33744456952758 0 145.33744456952758 -14.521513768233145 0 0 0 0 -125.82746229467739 -57.507190070711658 0 -57.507190070711658 509.40132613217429 0 0 0 0 -84.884210192249157 -49.151184795118752 0 -49.151184795118752 -852.71528387186117 0 0 0 0 -47.618154817479081 335.37558657025511 0 335.37558657025511 -208.28083780467568 0 0 0 0 31.437620485710795 499.61424555945268 0 499.61424555945268 -673.43294261956908 0 0 0 0 6.7130378166912124 220.20117587505229 0 220.20117587505229 -74.933938888447301 0 0 0 0 47.254904946617984 64.176765893318191 0 64.176765893318191 -98.515340090546317 0 0 0 0 -305.60748543009686 35.764315873348096 0 35.764315873348096 -582.3343015878927 0 0 0 0 -17.16427164301048 44.428635306498251 0 44.428635306498251 48.273244059246586 0 0 0 0 -309.26511810495867 74.000538936748853 0 74.000538936748853 323.39220196799704 0 0 0 0 -107.49322020992679 183.76858348233947 0 183.76858348233947 13.125221368510292 0 0 0 0 -461.68765537685249 405.84295012261282 0 405.84295012261282 151.92011355614522 0 0 0 0 -58.688362513563732 67.952300860647028 0 67.952300860647028 98.516767075228358 0 0 0 0 -48.035938717526733 157.53426821321864 0 157.53426821321864 154.28156362805385 0 0 0 0 -180.33454141452967 495.6800052908693 0 495.6800052908693 212.31866723540224 0 0 0 0 -369.59889000459589 517.30867057289743 0 517.30867057289743 566.58419584787771 0 0 0 0 -292.47796583962918 374.13688971217562 0 374.13688971217562 660.68960648429129 0 0 0 0 -126.23488051477398 215.56862240030023 0 215.56862240030023 407.86345232886742 0 0 0 0 786.3743067520445 773.86786746124017 0 773.86786746124017 528.87552209779642 0 0 0 0 -16.003150153221213 329.63330927365496 0 329.63330927365496 101.24220356826845 0 0 0 0 -50.879929678828319 70.14571679204748 0 70.14571679204748 -5.1274960419066247 0 0 0 0 143.40703539992501 648.54894319191271 0 648.54894319191271 125.09811093224744 0 0 0 0 -90.488028973159089 468.65985363187792 0 468.65985363187792 244.18296483796803 0 0 0 0 93.96364140483638 551.00792080791325 0 551.00792080791325 231.77033836212649 0 0 0 0 150.82607167225797 835.90346642598888 0 835.90346642598888 -817.01578964282817 0 0 0 0 41.908012560365023 1329.0987016685613 0 1329.0987016685613 315.18288115134055 0 0 0 0 -83.168944809352979 213.1786533694285 0 213.1786533694285 657.28053520453886 0 0 0 0 -29.633455922888913 33.383388050330694 0 33.383388050330694 -34.067196242664814 0 0 0 0 -620.77740070251457 -224.14243482950224 0 -224.14243482950224 511.50472013870512 0 0 0 0 -45.107387765317981 240.06995345562063 0 240.06995345562063 -156.26968836312153 0 0 0 0 -8.9621194617703281 13.240927217165918 0 13.240927217165918 -6.3268623619593214 0 0 0 0 -425.6349055998835 476.98080289518794 0 476.98080289518794 2014.4075130436249 0 0 0 0 -299.39856510761092 1492.0533795649894 0 1492.0533795649894 2521.1416495997801 0 0 0 0 -47.087406231396017 58.937576897420513 0 58.937576897420513 -22.308742450135469 0 0 0 0 -41.982070996709595 51.486882913759842 0 51.486882913759842 3.8280319167997812 0 0 0 0 -36.292895594371657 73.015611995888321 0 73.015611995888321 -37.435486817794299 0 0 0 0 -19.512044706949382 76.242311177447846 0 76.242311177447846 63.808699928935766 0 0 0 0 -82.474579866120621 166.52698510671689 0 166.52698510671689 306.27144880371634 0 0 0 0 -76.216214978438074 123.78188848823629 0 123.78188848823629 157.5404168611567 0 0 0 0 -82.581353507834137 137.9702251930139 0 137.9702251930139 188.61315597905923 0 0 0 0 247.18732880062998 265.34076442368132 0 265.34076442368132 104.42823463445529 0 0 0 0 -4.3700457122286025 24.207900281720015 0 24.207900281720015 -4.8283255799326525 0 0 0 0 -58.828720904268266 1.5707686407477013 0 1.5707686407477013 198.92589520675392 0 0 0 0 -25.854654664828558 336.52266049102764 0 336.52266049102764 334.56936791569387 0 0 0 0 -32.813436749071116 120.327024186161 0 120.327024186161 405.87402290770842 0 0 0 0 151.93832529613428 392.97541745709168 0 392.97541745709168 25.893513577466365 0 0 0 0 -157.67412081277871 154.75838238674623 0 154.75838238674623 338.79537120952591 0 0 0 0 -62.410324976415723 314.20152510754269 0 314.20152510754269 371.76586114701058 0 0 0 0 -188.84230484839645 99.085098030140216 0 99.085098030140216 322.72862534427259 0 0 0 0 -33.698526776345929 67.86910538440776 0 67.86910538440776 -1.1347417253468279 0 0 0 0 183.19782647923421 108.10907157214751 0 108.10907157214751 -271.6300640449299 0 0 0 0 168.67412983388931 205.11489911920216 0 205.11489911920216 -25.389824954254436 0 0 0 0 16.568730895956747 127.71911504118749 0 127.71911504118749 -8.3259213197817257 0 0 0 0 -18.928592173704004 50.077474719813196 0 50.077474719813196 21.155950881040873 0 0 0 0 -34.272032881483028 63.174549822822883 0 63.174549822822883 38.697548686949347 0 0 0 0 91.341374569768959 94.873565635854902 0 94.873565635854902 -70.814356581453467 0 0 0 0 12.527114784913906 41.168899099465378 0 41.168899099465378 -35.816931835756634 0 0 0 0 6.8058437784016803 52.540867359060229 0 52.540867359060229 85.257784860086701 0 0 0 0 -228.73774108553698 775.47229602296375 0 775.47229602296375 285.77866875427935 0 0 0 0 183.19782647911052 108.1090715721275 0 108.1090715721275 -271.63006404492444 0 0 0 0 -4.2931913134767399 36.919439800963637 0 36.919439800963637 -33.615334901206815 0 0 0 0 -56.831576641190622 139.68666473276426 0 139.68666473276426 388.7112891153447 0 0 0 0 183.19782647915417 108.10907157217025 0 108.10907157217025 -271.63006404493535 0 0 0 0 -175.26077977185196 432.63825861209443 0 432.63825861209443 652.95600676915637 0 0 0 0 -279.67208253341232 244.63406386511451 0 244.63406386511451 311.69442269320098 0 0 0 0 152.86797672649845 530.63321789625843 0 530.63321789625843 500.74635299878355 0 0 0 0 -390.93187182277325 -320.9790458061816 0 -320.9790458061816 364.91834021332011 0 0 0 0 295.12467337738599 -61.354717228812433 0 -61.354717228812433 127.25731121922581 0 0 0 0 -413.34207331090875 -8.4993509877858742 0 -8.4993509877858742 166.22525643735025 0 0 0 0 -50.515972334549588 24.410875981306162 0 24.410875981306162 36.572395941830109 0 0 0 0 -2.2791636722579653 3.1952094741063846 0 3.1952094741063846 55.412742043175768 0 0 0 0 0.51932496571626885 12.263878986328351 0 12.263878986328351 25.948651574554077 0 0 0 0 -7.5150516514277115 30.913519296861523 0 30.913519296861523 18.545037807023618 0 0 0 0 -1.4499935071637111 21.824618236383301 0 21.824618236383301 22.981516693953481 0 0 0 0 -630.10412006046317 -68.479866193040834 0 -68.479866193040834 251.74441723286509 0 0 0 0 -34.365971651288419 60.7394146032766 0 60.7394146032766 51.262510247630416 0 0 0 0 3.0273544175289757 38.713685305798862 0 38.713685305798862 13.448100207094598 0 0 0 0 51.768865919108066 73.384677058340458 0 73.384677058340458 -42.254904851502943 0 0 0 0 5.4553387349079401 11.751625053776053 0 11.751625053776053 4.5719810822919271 0 0 0 0 -86.111310727186719 79.325192078577857 0 79.325192078577857 28.476581959723262 0 0 0 0 -17.062308425534866 54.460858106103842 0 54.460858106103842 35.556004797748756 0 0 0 0 -43.89275341864959 106.21390150616571 0 106.21390150616571 64.302501546117128 0 0 0 0 -23.612669105656096 132.38160767399131 0 132.38160767399131 94.976390437426744 0 0 0 0 111.98506774212001 81.227035606323625 0 81.227035606323625 27.330465275732422 0 0 0 0 -56.072696088609518 72.709015079060919 0 72.709015079060919 56.767484034953668 0 0 0 0 -84.964026300040132 73.622161443581717 0 73.622161443581717 80.324324604360299 0 0 0 0 -76.433352673506306 61.073026812795433 0 61.073026812795433 50.220062921478529 0 0 0 0 -62.989049299467297 35.601904991297488 0 35.601904991297488 35.149979662081023 0 0 0 0 -66.086973865354594 45.97408552493107 0 45.97408552493107 22.925168480840512 0 0 0 0 -32.050804579885153 55.370074356608711 0 55.370074356608711 25.424861659215821 0 0 0 0 -36.93821897804628 73.519591255915202 0 73.519591255915202 21.283824598351202 0 0 0 0 -54.647366302371665 83.634554308013321 0 83.634554308013321 20.977511010249145 0 0 0 0 -43.931612695734657 69.961588234840747 0 69.961588234840747 22.515738080786832 0 0 0 0 -19.851875453852699 43.2332066216768 0 43.2332066216768 42.840044017625814 0 0 0 0 -37.734581383805022 46.729692496409086 0 46.729692496409086 -0.48756032504639046 0 0 0 0 -143.2799206869222 159.37278596545548 0 159.37278596545548 -45.134792670825846 0 0 0 0 -36.041166607286868 -17.437362476644921 0 -17.437362476644921 -64.82482047395024 0 0 0 0 -189.40218010402168 -10.475572987808846 0 -10.475572987808846 132.61576289389632 0 0 0 0 -164.78884037953685 269.16499579850642 0 269.16499579850642 62.322244327646331 0 0 0 0 17.221729495839099 143.55171210868866 0 143.55171210868866 -139.34153319361212 0 0 0 0 -8.9953733111397014 135.72327056200811 0 135.72327056200811 82.528563142492203 0 0 0 0 -17.656662298264564 130.69032307931047 0 130.69032307931047 93.975334994353034 0 0 0 0 -43.503633074593381 40.591881770375039 0 40.591881770375039 63.524886821425753 0 0 0 0 -48.18120290825027 61.781385422902531 0 61.781385422902531 -7.6347150627880183 0 0 0 0 -12.258098907175789 43.132528602752096 0 43.132528602752096 1.8461689266273424 0 0 0 0 -8.4832757428121326 55.057714288074237 0 55.057714288074237 -8.6917704740204726 0 0 0 0 260.4248970143326 31.750047031178838 0 31.750047031178838 20.029269496379129 0 0 0 0 -1.5659513148648028 65.69998434860014 0 65.69998434860014 13.266099227659424 0 0 0 0 -74.024548962806875 50.114878441287146 0 50.114878441287146 6.4352008805690275 0 0 0 0 -31.245340410418919 65.086918843635758 0 65.086918843635758 -2.1902511613046158 0 0 0 0 -6.8132728005986394 8.7973249295424978 0 8.7973249295424978 -9.7871445002334099 0 0 0 0 8.5801065945634036 73.854990752544836 0 73.854990752544836 -77.422394839879416 0 0 0 0 -87.574053806682059 48.675549282073916 0 48.675549282073916 154.76831700842013 0 0 0 0 -3.9832791083317716 105.64734509782284 0 105.64734509782284 -191.36830020114576 0 0 0 0 -31.12904000421986 125.37909098551609 0 125.37909098551609 59.113165323971771 0 0 0 0 -26.354672109330359 70.920317615667798 0 70.920317615667798 -36.544558362622553 0 0 0 0 -35.590625646866101 59.780814757665212 0 59.780814757665212 44.071207386922083 0 0 0 0 -32.580600629075803 56.52169532139996 0 56.52169532139996 -9.3041011320008735 0 0 0 0 4.9755231214512605 96.481524921378877 0 96.481524921378877 -15.356437690166786 0 0 0 0 -31.506359541206621 90.320362718397519 0 90.320362718397519 -7.7906816053437069 0 0 0 0 -9.8436848345658063 69.206182131024022 0 69.206182131024022 -4.1312894803166538 0 0 0 0 -28.084520010408596 99.96700021091965 0 99.96700021091965 -15.556491152499802 0 0 0 0 46.09113186574541 66.713377848616801 0 66.713377848616801 -21.495173885813529 0 0 0 0 -65.944414847622738 109.76989807131395 0 109.76989807131395 153.61977100795775 0 0 0 0 -55.468290855991654 77.813592952006729 0 77.813592952006729 7.744330446163076 0 0 0 0 -31.480865552411593 71.424715171672077 0 71.424715171672077 -10.527328153139592 0 0 0 0 26.844470758418893 70.842228672201259 0 70.842228672201259 0.4495000689900337 0 0 0 0 -66.717640954959279 75.92642853237669 0 75.92642853237669 30.45478019647291 0 0 0 0 -18.671115407924717 134.14530420116481 0 134.14530420116481 -57.200081514273478 0 0 0 0 -288.38413036227803 83.634069909057871 0 83.634069909057871 103.4728800043813 0 0 0 0 23.674464090277979 82.588470354422498 0 82.588470354422498 -7.4207291773636825 0 0 0 0 1.3738142178676114 52.108460604036338 0 52.108460604036338 -11.74381111693171 0 0 0 0 -18.072338970648907 6.3493039118490824 0 6.3493039118490824 -1.2099328946477499 0 0 0 0 -3.5200754678226076 77.122483511826431 0 77.122483511826431 10.393884673299908 0 0 0 0 126.26749528031678 68.187803678119963 0 68.187803678119963 -399.97362869844073 0 0 0 0 -28.691615689077629 44.352603883952654 0 44.352603883952654 13.414015450799525 0 0 0 0 -13.109006092465279 83.525950945217119 0 83.525950945217119 8.5730302825395484 0 0 0 0 -17.207816320803865 36.450531381544209 0 36.450531381544209 10.647396599732019 0 0 0 0 20.592267979671703 25.476182855452549 0 25.476182855452549 -23.214236540535943 0 0 0 0 37.778735022417095 56.386394931136238 0 56.386394931136238 -14.340909362439561 0 0 0 0 116.86484167272465 195.00799232150166 0 195.00799232150166 -130.76841865843016 0 0 0 0 -2.9826347544858729 61.458672090888726 0 61.458672090888726 14.618509628652674 0 0 0 0 -19.940021196882299 60.365867593445728 0 60.365867593445728 20.885469904351339 0 0 0 0 0.75971578715544119 37.061875249597989 0 37.061875249597989 -43.298985508836523 0 0 0 0 -10.09395837982629 3.2949200828061294 0 3.2949200828061294 -154.75062314364004 0 0 0 0 -6.1705375069359434 7.4520874906193058 0 7.4520874906193058 -153.89470805143446 0 0 0 0 -13.191020156992181 145.30825606370854 0 145.30825606370854 324.53145176003454 0 0 0 0 56.096761164250992 63.008974507244652 0 63.008974507244652 -79.361062133448257 0 0 0 0 -5.466233219123211 -19.496554991530957 0 -19.496554991530957 -217.76402574856093 0 0 0 0 -13.827540315167425 12.27500717186831 0 12.27500717186831 -325.75189856647376 0 0 0 0 0.49867112393124202 5.6097692209950623 0 5.6097692209950623 -32.23821223947661 0 0 0 0 21.498383433984507 77.759029308795746 0 77.759029308795746 -64.257951344658522 0 0 0 0 210.77255530363027 278.94072175873589 0 278.94072175873589 61.854300090271863 0 0 0 0 46.212413168512285 71.02916213786375 0 71.02916213786375 -48.971889852356981 0 0 0 0 234.44696414844293 100.75238510548297 0 100.75238510548297 -157.87304335739464 0 0 0 0 120.52125179891891 224.16274508972856 0 224.16274508972856 245.97995974661077 0 0 0 0 115.2635311882068 103.03823650322738 0 103.03823650322738 25.444694571255241 0 0 0 0 176.35666908106941 164.02919878414832 0 164.02919878414832 -453.05575491016498 0 0 0 0 -91.725820945197484 154.04389412942692 0 154.04389412942692 333.14843042643042 0 0 0 0 -167.59272132186106 333.91359789005219 0 333.91359789005219 169.89828140748432 0 0 0 0 6.4679745261018979 440.23974822664604 0 440.23974822664604 -202.1785584030149 0 0 0 0 152.94426016043963 207.00025168521097 0 207.00025168521097 27.944080101995496 0 0 0 0 133.88593011130069 346.70980367816082 0 346.70980367816082 2.7202135264524259 0 0 0 0 -165.68144075328382 627.34715247564964 0 627.34715247564964 545.83640647241373 0 0 0 0 7.9644820128741287 11.288422127318119 0 11.288422127318119 -8.6512753006688268 0 0 0 0 -47.267180824535899 677.76327966045028 0 677.76327966045028 547.99385533401073 0 0 0 0 -1402.9514690151846 725.85547129526094 0 725.85547129526094 781.40880606178462 0 0 0 0 -414.85155501220288 788.24626994307982 0 788.24626994307982 770.45502356417273 0 0 0 0 1309.9565687794566 695.67983892384109 0 695.67983892384109 98.501631097995414 0 0 0 0 6.1842970536514361 12.442635336684184 0 12.442635336684184 -9.2531102515113837 0 0 0 0 15.591020919284347 9.7698236067262769 0 9.7698236067262769 -25.434673359941371 0 0 0 0 497.66472268352663 -271.744656470466 0 -271.744656470466 916.54399485594695 0 0 0 0 8.3854119284326813 5.217498925079628 0 5.217498925079628 -17.233598014275785 0 0 0 0 -5.6778382313641487 68.390920546378766 0 68.390920546378766 10.366396905426143 0 0 0 0 -9.5775992184680945 -50.071795655065671 0 -50.071795655065671 -403.75681963928946 0 0 0 0 -10.17864579958349 42.299094104435554 0 42.299094104435554 4.7538694122800536 0 0 0 0 21.480868326853397 116.83784433193796 0 116.83784433193796 36.678214008708892 0 0 0 0 2.2185664425167957 72.818227548302019 0 72.818227548302019 -26.368477538834568 0 0 0 0 -393.51549154630629 -129.10043722574483 0 -129.10043722574483 -647.7977003455635 0 0 0 0 6.8773040455416776 77.117826310275632 0 77.117826310275632 -820.37950970334623 0 0 0 0 -20.061558518408617 69.748645468997012 0 69.748645468997012 22.470574525236138 0 0 0 0 -23.222196557926537 54.290654669718435 0 54.290654669718435 14.375825210672957 0 0 0 0 -8.0272645434415608 61.780475283012493 0 61.780475283012493 -5.7674460834932688 0 0 0 0 520.76155863139866 -411.07159401328954 0 -411.07159401328954 -1506.6822122414014 0 0 0 0 10.212681794727679 0.67719823314237715 0 0.67719823314237715 -10.782143898992462 0 0 0 0 -114.4952452722755 120.90061693316602 0 120.90061693316602 24.95673789846478 0 0 0 0 -345.1164000257595 -124.44979300691921 0 -124.44979300691921 57.27793392087915 0 0 0 0 -0.34947890033843265 8.0145821013920937 0 8.0145821013920937 22.008886886582673 0 0 0 0 37.257243323638249 47.661498344255961 0 47.661498344255961 -310.87728026224431 0 0 0 0 -1.9351188073851517 194.16238572001748 0 194.16238572001748 -244.37407752311992 0 0 0 0 -14.936111192231692 129.16487826970115 0 129.16487826970115 -105.10447285238479 0 0 0 0 43.347861043123743 37.848232354169596 0 37.848232354169596 8.712416240634056 0 0 0 0 30.948421085580776 58.391297119807859 0 58.391297119807859 -78.374358298140578 0 0 0 0 4.9303229246579576 128.79448509133363 0 128.79448509133363 -160.43168430334481 0 0 0 0 23.843335204133837 31.727624088391167 0 31.727624088391167 -138.71407574613113 0 0 0 0 43.04662656961591 76.169104969016189 0 76.169104969016189 -88.083564444939839 0 0 0 0 73.972425020489027 85.552828853600658 0 85.552828853600658 -111.18963173239899 0 0 0 0 -13.153592858580851 124.20812781403038 0 124.20812781403038 -68.312256973833428 0 0 0 0 156.19103146038833 99.687581310987298 0 99.687581310987298 -76.135004457915784 0 0 0 0 -219.22778135761473 543.58458311209688 0 543.58458311209688 -724.57101008517202 0 0 0 0 210.51815302884825 -84.756259441790462 0 -84.756259441790462 -131.68238989834208 0 0 0 0 42.592552345738341 48.785244729795508 0 48.785244729795508 21.535322574689047 0 0 0 0 -18.40843520125236 141.26062589655157 0 141.26062589655157 -105.3114318362932 0 0 0 0 32.118713311727333 151.15113613690482 0 151.15113613690482 -137.69468489627252 0 0 0 0 -360.07490905316808 409.02626160823274 0 409.02626160823274 -158.96047355333576 0 0 0 0 28.627136130259714 -21.252051972522167 0 -21.252051972522167 176.75981341052102 0 0 0 0 44.055746948493834 74.447657220749534 0 74.447657220749534 84.621821567518055 0 0 0 0 3.8231525513213587 85.841072896325699 0 85.841072896325699 4.9449414945460717 0 0 0 0 93.95066908134595 20.313378279970493 0 20.313378279970493 93.682378728452022 0 0 0 0 -12.203258480272552 57.795152967646658 0 57.795152967646658 7.5289658808305413 0 0 0 0 -38.667214910416078 68.787802798760822 0 68.787802798760822 114.26338946176656 0 0 0 0 0.8596151690626499 54.010607741226522 0 54.010607741226522 -33.183404461757164 0 0 0 0 29.832606965050452 56.209719584654749 0 56.209719584654749 -8.7633584286882353 0 0 0 0 -35.881584835039575 56.175785626037396 0 56.175785626037396 123.45020223868778 0 0 0 0 -35.273034485891912 48.048451697468408 0 48.048451697468408 107.53289599875279 0 0 0 0 24.533290019129709 -99.999822674108145 0 -99.999822674108145 -252.43196039108807 0 0 0 0 13.395994009347536 19.038716075614843 0 19.038716075614843 14.168570745840782 0 0 0 0 18.758008893294573 41.355774914823996 0 41.355774914823996 -93.81638567965274 0 0 0 0 123.01925031968722 101.71511557162739 0 101.71511557162739 -115.74344953527907 0 0 0 0 112.54556671038881 101.23935744151822 0 101.23935744151822 101.49599069753094 0 0 0 0 143.72684307483723 76.458279241080163 0 76.458279241080163 -79.24488322835532 0 0 0 0 63.268368761752889 46.726059856050639 0 46.726059856050639 2.7954350857794168 0 0 0 0 60.742272323357611 164.16342543611972 0 164.16342543611972 31.898538101704617 0 0 0 0 8.6280956231781403 28.583255628411678 0 28.583255628411678 -0.75452072745513021 0 0 0 0 -40.467184391163592 57.27159527987105 0 57.27159527987105 -42.266085066915849 0 0 0 0 -59.971128254431505 529.36522466324095 0 529.36522466324095 247.67388236726401 0 0 0 0 158.35935571755181 206.26694578395836 0 206.26694578395836 -44.39889105992188 0 0 0 0 -47.694891830674806 57.632153261103667 0 57.632153261103667 175.91019461938413 0 0 0 0 129.33308180208769 -156.31687972274813 0 -156.31687972274813 -133.61379949669936 0 0 0 0 0.66799838764518427 164.90654075850034 0 164.90654075850034 174.29185419995338 0 0 0 0 149.17396418027261 125.53817925442127 0 125.53817925442127 120.06336976535385 0 0 0 0 131.63734686390251 33.29825903596975 0 33.29825903596975 139.46846731918049 0 0 0 0 -20.28607501213537 132.77267300580024 0 132.77267300580024 149.78524738602573 0 0 0 0 -38.724515775961208 2.6805898499515024 0 2.6805898499515024 -759.81088184987311 0 0 0 0 -756.61967809741327 -141.64113843058294 0 -141.64113843058294 50.304599414128461 0 0 0 0 -712.5629126733163 482.30109595389513 0 482.30109595389513 367.707459024532 0 0 0 0 506.23329279348536 -82.274810806105961 0 -82.274810806105961 -618.07527236068563 0 0 0 0 -515.90733251035044 152.5940302007657 0 152.5940302007657 254.23984802744235 0 0 0 0 -6.1711085214868397 6.2327651762836211 0 6.2327651762836211 -5.0036355857756689 0 0 0 0 27.602913051205633 -223.51569779189595 0 -223.51569779189595 -297.75521181199292 0 0 0 0 133.99733599711544 154.51102830497257 0 154.51102830497257 22.735903513879748 0 0 0 0 -124.8609625847912 -64.626632283470826 0 -64.626632283470826 362.17259770732198 0 0 0 0 -271.14784819098213 78.073801417522191 0 78.073801417522191 229.11384030642512 0 0 0 0 5.1910234784636486 77.516991827098536 0 77.516991827098536 157.53892808429373 0 0 0 0 286.04702325677863 254.14040911494521 0 254.14040911494521 -225.77606885261775 0 0 0 0 -398.61085666676308 427.30280546856375 0 427.30280546856375 -118.62832615070511 0 0 0 0 -109.0383556681918 88.966694704860856 0 88.966694704860856 -52.901167413070652 0 0 0 0 540.41508962179114 296.4442027267587 0 296.4442027267587 -278.93432836048305 0 0 0 0 44.795527854161264 147.14756040262364 0 147.14756040262364 55.426328008402379 0 0 0 0 -94.788482212867166 167.39512601979368 0 167.39512601979368 52.972619440231938 0 0 0 0 -23.383702882420764 57.425133766610116 0 57.425133766610116 -57.443320726727421 0 0 0 0 106.18088289276056 154.67408840414282 0 154.67408840414282 98.391815768060042 0 0 0 0 128.77161306504604 97.289236077136593 0 97.289236077136593 -26.338181956263725 0 0 0 0 102.73939416272697 83.040795123735734 0 83.040795123735734 118.60287908904138 0 0 0 0 201.14973373110115 -19.539986856514588 0 -19.539986856514588 31.969430223442032 0 0 0 0 52.713133834389495 90.300881215911545 0 90.300881215911545 -45.324250755760772 0 0 0 0 32.679272907634697 63.933275239314099 0 63.933275239314099 18.41225433101809 0 0 0 0 -171.53571869802909 179.92169998755344 0 179.92169998755344 24.50363301608013 0 0 0 0 -221.76257990596059 111.0469516331068 0 111.0469516331068 -31.016233546775766 0 0 0 0 48.344389838967999 4.3378880719614727 0 4.3378880719614727 -16.701396907979188 0 0 0 0 -82.87812891532667 182.15644451063054 0 182.15644451063054 -58.701924416775 0 0 0 0 -121.96012866092497 173.59504315075901 0 173.59504315075901 30.62694894993183 0 0 0 0 -28.02534421874563 54.983207624954368 0 54.983207624954368 -31.945853616867794 0 0 0 0 55.39189691626234 84.459899748006137 0 84.459899748006137 -29.108919912483543 0 0 0 0 9.7372239081232692 85.153608703825739 0 85.153608703825739 -49.97588221244223 0 0 0 0 1.7600743785177073 17.882962680257052 0 17.882962680257052 -17.425043696724117 0 0 0 0 76.260629761307428 69.872839412390022 0 69.872839412390022 -18.801383061621891 0 0 0 0 37.932432029530901 100.30705344417584 0 100.30705344417584 2.04496155391098 0 0 0 0 77.199154500982786 80.87443243337475 0 80.87443243337475 -9.2785404846217716 0 0 0 0 2.8730366677164341 70.976776347443021 0 70.976776347443021 8.6893700806609218 0 0 0 0 219.18498426684528 21.873292506832513 0 21.873292506832513 -91.933236869459506 0 0 0 0 47.973372458831548 16.154795112580473 0 16.154795112580473 -25.25927964957549 0 0 0 0 -28.398593475394591 109.65753160460736 0 109.65753160460736 -47.981651351903565 0 0 0 0 -26.856742828384153 62.720069209906953 0 62.720069209906953 -33.896485918572978 0 0 0 0 -3.8825503571937112 13.48955382986442 0 13.48955382986442 2.8981920830128729 0 0 0 0 -37.715836979848973 85.975971968407976 0 85.975971968407976 31.73485830827849 0 0 0 0 83.367206128896214 134.36163824168761 0 134.36163824168761 -89.497601377690444 0 0 0 0 -29.500232555936236 136.80111293571099 0 136.80111293571099 49.857682238070993 0 0 0 0 -62.15058874036913 72.447428421233781 0 72.447428421233781 -48.35460630612215 0 0 0 0 -17.319869126505324 18.597188550312922 0 18.597188550312922 -5.4727668744906453 0 0 0 0 -63.140981607620461 129.39380849766894 0 129.39380849766894 -176.4354667373409 0 0 0 0 -2.3046380751536786 8.7179380901359309 0 8.7179380901359309 -12.518835670157898 0 0 0 0 10.630033542427554 207.8561318193606 0 207.8561318193606 -366.56225981199532 0 0 0 0 284.91423267223126 220.0294292030303 0 220.0294292030303 -524.22597950935597 0 0 0 0 -135.93569156374542 161.02584308371297 0 161.02584308371297 73.259378513786942 0 0 0 0 -143.10519077680146 287.81500379888166 0 287.81500379888166 -130.71278617484495 0 0 0 0 -113.40224192239384 30.319961986460839 0 30.319961986460839 122.4111613958521 0 0 0 0 211.41022019090428 -47.565950927259109 0 -47.565950927259109 -14.711253447865602 0 0 0 0 17.064418318086609 88.740748340351274 0 88.740748340351274 -89.677215480845916 0 0 0 0 -27.311632396088882 67.367837599418721 0 67.367837599418721 -70.811994869796536 0 0 0 0 -79.558253725965301 167.15335299386788 0 167.15335299386788 -37.325948013924062 0 0 0 0 234.6796611329064 204.62186439417565 0 204.62186439417565 -155.67673881357769 0 0 0 0 178.53007752718986 158.33935292340902 0 158.33935292340902 -101.42431286010833 0 0 0 0 79.285078308355878 79.528092274405935 0 79.528092274405935 -80.084421819774434 0 0 0 0 13.958103423085536 47.683882731232757 0 47.683882731232757 -66.92996734860435 0 0 0 0 -33.795096168606491 80.375292753373358 0 80.375292753373358 -65.647108598711839 0 0 0 0 16.894900081286323 178.4008304433155 0 178.4008304433155 -110.78729321906576 0 0 0 0 -234.15050067537959 305.79865688868449 0 305.79865688868449 -47.683002460405987 0 0 0 0 -34.378545384499745 80.616627534994848 0 80.616627534994848 -20.017024931684062 0 0 0 0 82.018545128354162 93.76948184199864 0 93.76948184199864 -70.068940080993343 0 0 0 0 16.634805571885835 112.93737961253282 0 112.93737961253282 -97.217802743530171 0 0 0 0 1.53280855361146 23.705400725618858 0 23.705400725618858 -9.0801163487092253 0 0 0 0 87.614017605679692 303.67264325593715 0 303.67264325593715 211.41511437260488 0 0 0 0 421.19815966695751 201.74817799963785 0 201.74817799963785 -58.390108674488147 0 0 0 0 276.99315585219301 371.3248746059835 0 371.3248746059835 -257.67279556623544 0 0 0 0 88.880384634365328 225.26636208434502 0 225.26636208434502 -215.48522403831885 0 0 0 0 85.869494525308255 393.63551395344257 0 393.63551395344257 -905.57691172949126 0 0 0 0 -463.99152447060624 512.90685150823265 0 512.90685150823265 -117.16996012456366 0 0 0 0 -258.81842145354312 521.68709596092231 0 521.68709596092231 -1580.7102577312908 0 0 0 0 -418.61953431527218 161.36873515322804 0 161.36873515322804 -363.99241418612655 0 0 0 0 -221.68440346048737 -10.465390305020264 0 -10.465390305020264 -239.35611594716829 0 0 0 0 -358.68139998764673 252.1440813493391 0 252.1440813493391 613.36608002857247 0 0 0 0 -30.533938686319743 93.688362090353621 0 93.688362090353621 148.27981780312257 0 0 0 0 -50.112127999789664 448.50516940058151 0 448.50516940058151 59.869573633986874 0 0 0 0 28.712285806876935 -399.46649012688886 0 -399.46649012688886 -491.65592320464202 0 0 0 0 -21.134865046948391 84.012201921895041 0 84.012201921895041 -20.442756030308139 0 0 0 0 -70.27991232284694 132.07272893689515 0 132.07272893689515 296.69878787991547 0 0 0 0 33.089750609582552 -88.118476122654783 0 -88.118476122654783 -590.27732100240246 0 0 0 0 -2.569062667511929 1.4640546578404781 0 1.4640546578404781 2.8472978162038984 0 0 0 0 -50.648153769085184 298.4101643597096 0 298.4101643597096 -382.28510682176056 0 0 0 0 43.091288536365028 178.16047528467607 0 178.16047528467607 231.01335395022761 0 0 0 0 -46.530551607502275 228.77388123919081 0 228.77388123919081 151.30798032520397 0 0 0 0 -48.899885896488286 147.19740749150515 0 147.19740749150515 221.29013324258267 0 0 0 0 -45.940972761658486 181.57359184417874 0 181.57359184417874 195.07603479037061 0 0 0 0 -66.924002961342921 153.8275742386013 0 153.8275742386013 162.13094998712768 0 0 0 0 -168.99716235412779 -40.804171073876205 0 -40.804171073876205 826.7385617402324 0 0 0 0 130.2070552859368 -34.90812907594227 0 -34.90812907594227 370.50844285063795 0 0 0 0 -59.694307089361246 156.47767200476665 0 156.47767200476665 228.36240247682144 0 0 0 0 2.0761062672572734 113.47000467446924 0 113.47000467446924 162.4347039994027 0 0 0 0 -26.939200577007796 -50.29138107250219 0 -50.29138107250219 390.07161242081202 0 0 0 0 -42.143090507146553 101.64119762049813 0 101.64119762049813 205.21548533682653 0 0 0 0 -64.918371948791901 -8.5902671526528138 0 -8.5902671526528138 231.93670950623346 0 0 0 0 -161.89942081223126 200.44169454164512 0 200.44169454164512 688.19763358047203 0 0 0 0 58.454677393165184 355.20594092679676 0 355.20594092679676 342.05952127320052 0 0 0 0 21.880276678173686 45.590480233939161 0 45.590480233939161 94.784695408307016 0 0 0 0 -58.919810150109697 145.17844139137014 0 145.17844139137014 426.42937961821735 0 0 0 0 -72.38412223080104 45.147325665378958 0 45.147325665378958 -7.7303338041820098 0 0 0 0 181.62197001616005 276.41681650592363 0 276.41681650592363 36.374644378167432 0 0 0 0 -7.9640138163813976 68.880241542158132 0 68.880241542158132 -26.173005313016631 0 0 0 0 -6.9443533598387148 102.21576364129578 0 102.21576364129578 -93.898551356454846 0 0 0 0 -17.922461914594823 70.405242990837792 0 70.405242990837792 -6.142547038074099 0 0 0 0 -24.757639483104867 75.163933070500207 0 75.163933070500207 -9.389648862881586 0 0 0 0 -13.661968252331462 105.53470798489798 0 105.53470798489798 14.580067186790984 0 0 0 0 -17.292979352660041 89.386376186404959 0 89.386376186404959 -19.858904626084041 0 0 0 0 -13.512722753159721 67.008312176732147 0 67.008312176732147 38.830676905665598 0 0 0 0 -210.42698594904505 170.51724039055989 0 170.51724039055989 -24.346343900218926 0 0 0 0 -2.8426332382801718 85.030891580037519 0 85.030891580037519 -13.719681590296275 0 0 0 0 187.19742674969893 143.48061299692199 0 143.48061299692199 -903.53280684391211 0 0 0 0 0.10453279558487338 -1.5118918788426186 0 -1.5118918788426186 -0.70763412551043103 0 0 0 0 -50.770479349026573 499.65737288540549 0 499.65737288540549 -459.06844707610435 0 0 0 0 -706.8030819121559 1311.1090825432111 0 1311.1090825432111 2232.7709865061333 0 0 0 0 364.76561498900992 89.793831472619786 0 89.793831472619786 1213.7992609772818 0 0 0 0 -639.03069826614228 609.0006449528446 0 609.0006449528446 1174.8878323894241 0 0 0 0 -1095.6917232560518 -604.534950947178 0 -604.534950947178 6407.2705361336557 0 0 0 0 1.2087633869814454 1253.011919559649 0 1253.011919559649 3588.6657115412672 0 0 0 0 311.54956026174477 -562.08226924073097 0 -562.08226924073097 3020.4118221198878 0 0 0 0 -1270.3109216087905 1216.8728096149716 0 1216.8728096149716 3012.7685487783892 0 0 0 0 -729.18163357005687 1300.373020179155 0 1300.373020179155 2263.5121667853091 0 0 0 0 -620.43342966720229 1562.9422586810542 0 1562.9422586810542 3307.2053077841847 0 0 0 0 -793.15088598240982 1048.1122146722191 0 1048.1122146722191 2614.0222523122502 0 0 0 0 1766.0908952471218 1627.1960855034558 0 1627.1960855034558 1607.5825527329289 0 0 0 0 745.26814296387602 286.58714049392438 0 286.58714049392438 18.561623163033801 0 0 0 0 -3754.3039112140978 1147.8335241419336 0 1147.8335241419336 2409.1614631709017 0 0 0 0 -1.5480557965895514 2.5667224867823961 0 2.5667224867823961 -2.06573611243914 0 0 0 0 -1443.2560190418008 417.07722783237114 0 417.07722783237114 1252.9870478915836 0 0 0 0 -1465.979405000121 922.16761250745185 0 922.16761250745185 -618.98366137361154 0 0 0 0 -1674.2676220740832 1407.5913728051382 0 1407.5913728051382 -317.9023405080261 0 0 0 0 7.391772470673132 14.292873182916708 0 14.292873182916708 -26.082736361691275 0 0 0 0 249.306349039427 -193.37364031363541 0 -193.37364031363541 128.52982128233998 0 0 0 0 67.040124175637175 14.672871741793642 0 14.672871741793642 -97.947748468577629 0 0 0 0 20.079264530407215 50.444911374968058 0 50.444911374968058 -22.960101975438761 0 0 0 0 78.31573329816456 93.103021458693547 0 93.103021458693547 -31.71359876630595 0 0 0 0 -1536.3581156030996 1593.1900341268338 0 1593.1900341268338 -1579.3951980780985 0 0 0 0 0.46961967643017033 14.510606782407024 0 14.510606782407024 -5.8387588250027989 0 0 0 0 -1874.431741826178 -42.340171953794197 0 -42.340171953794197 295.65994312724797 0 0 0 0 -1739.9069044104835 1656.5182273657847 0 1656.5182273657847 -764.85529477619275 0 0 0 0 -273.7768094552448 1149.4296100771462 0 1149.4296100771462 -1595.4101454050178 0 0 0 0 -302.32764749965281 1027.3158203937055 0 1027.3158203937055 -441.02654579027148 0 0 0 0 -1912.2506587269927 693.2184793934648 0 693.2184793934648 -500.51339617058693 0 0 0 0 0.41802206268766895 1133.4631982176943 0 1133.4631982176943 -419.50250789438724 0 0 0 0 -0.21280443311843555 1045.8296018699984 0 1045.8296018699984 -870.84860171603941 0 0 0 0 -210.06875080031386 818.46030553277888 0 818.46030553277888 -657.08660617306305 0 0 0 0 -491.02447920190752 1020.9166138300134 0 1020.9166138300134 -538.13336297485512 0 0 0 0 -436.77139447241643 852.3118778349999 0 852.3118778349999 -286.78419240243966 0 0 0 0 -426.67318292241544 669.46091517441891 0 669.46091517441891 -457.92952969454927 0 0 0 0 -186.28788998839445 762.9978535707487 0 762.9978535707487 -507.36566756394132 0 0 0 0 -0.32400363430497237 722.80509709365288 0 722.80509709365288 -627.99586821437697 0 0 0 0 14.194140146540235 4.6071220350976887 0 4.6071220350976887 3.4603480161250531 0 0 0 0 2239.0181102107454 2416.8513859094528 0 2416.8513859094528 2.9145767086010892 0 0 0 0 -17.601884478295688 493.89624460539198 0 493.89624460539198 -1089.6689206809388 0 0 0 0 49.026903601675144 14.516722599292223 0 14.516722599292223 -4.5627551333881939 0 0 0 0 -118.71782592548698 197.6114967604808 0 197.6114967604808 -80.931736871702014 0 0 0 0 40.449990683235228 258.37670235082624 0 258.37670235082624 -276.48907035398588 0 0 0 0 1761.2986413950348 2431.9046633170256 0 2431.9046633170256 1920.9584025822696 0 0 0 0 -2.2549345574225299 4569.3358688121443 0 4569.3358688121443 5333.4608385487409 0 0 0 0 1580.2741358775747 2943.4038296188555 0 2943.4038296188555 487.62838551137247 0 0 0 0 37.546347109106136 37.33273621344415 0 37.33273621344415 -0.014319390116725117 0 0 0 0 39.474336246785242 32.076026617229218 0 32.076026617229218 -5.1069108109222725 0 0 0 0 32.761335577959471 17.38377326236548 0 17.38377326236548 -6.464409781991094 0 0 0 0 28.067858169582905 34.783674321923172 0 34.783674321923172 0.98695987655082718 0 0 0 0 28.34808648959006 36.760665083056665 0 36.760665083056665 14.632467667979654 0 0 0 0 12.104452768777264 50.397159771979204 0 50.397159771979204 16.281155501113972 0 0 0 0 24.075955453212373 45.634952977357898 0 45.634952977357898 0.023923119471874088 0 0 0 0 12.490658306843898 5.4008131524323062 0 5.4008131524323062 3.4355537848598487 0 0 0 0 2664.6821161487605 1584.9628483743581 0 1584.9628483743581 965.90703838820627 0 0 0 0 14.354622192535317 44.37489413782896 0 44.37489413782896 27.830833448242629 0 0 0 0 9.6148354280581998 26.368230624790613 0 26.368230624790613 -0.43171311163247594 0 0 0 0 9.6067186397121986 54.666311036424304 0 54.666311036424304 5.1515715497735073 0 0 0 0 20.821178868825655 45.102619074716614 0 45.102619074716614 5.5996408941029472 0 0 0 0 12.097861712420126 127.07101715017779 0 127.07101715017779 -168.58200523408595 0 0 0 0 18.410775277778157 37.396206212910329 0 37.396206212910329 32.12323347342317 0 0 0 0 29.977532697295828 70.106415152337831 0 70.106415152337831 21.21625112608308 0 0 0 0 -268.34441792168946 237.73375854971164 0 237.73375854971164 89.887223623954924 0 0 0 0 -274.06337060985243 71.362332688575407 0 71.362332688575407 -211.20406590597122 0 0 0 0 14.246371860945175 52.063449601458444 0 52.063449601458444 17.225002080003549 0 0 0 0 -873.39329587141401 657.09462444168457 0 657.09462444168457 -99.410861702999682 0 0 0 0 24.317359192107688 63.745818351017078 0 63.745818351017078 16.39882530914474 0 0 0 0 -65.840768554829992 123.05745017588924 0 123.05745017588924 335.48515623455751 0 0 0 0 720.95930147804029 613.69956230392563 0 613.69956230392563 460.43708227996103 0 0 0 0 40.777448226084346 46.454780346670987 0 46.454780346670987 -22.562687539413218 0 0 0 0 -166.65724169192254 39.229795174192986 0 39.229795174192986 188.44443303186563 0 0 0 0 -180.85516516374355 341.7614468176198 0 341.7614468176198 -242.21946475282311 0 0 0 0 173.64609752857359 -4.4087627636326943 0 -4.4087627636326943 91.771937055920716 0 0 0 0 11.68136273348307 51.351222867758963 0 51.351222867758963 54.194003086800933 0 0 0 0 43.585132729494944 45.728277831556625 0 45.728277831556625 18.624837499461137 0 0 0 0 325.74926102416066 -82.961525221886404 0 -82.961525221886404 -196.3536894111603 0 0 0 0 11.436797036483668 34.99368332167154 0 34.99368332167154 32.984131374729031 0 0 0 0 56.013255835219752 132.17098080737924 0 132.17098080737924 5.8955561077455059 0 0 0 0 -423.31769114281633 393.34318828729738 0 393.34318828729738 70.099170484958449 0 0 0 0 -751.57924251876466 541.68927597075526 0 541.68927597075526 13.373929373075953 0 0 0 0 -669.5520282475336 -23.221451798599446 0 -23.221451798599446 71.74467653137981 0 0 0 0 -8.7755225667854688 10.89443490958962 0 10.89443490958962 3.4429300186943124 0 0 0 0 -1218.836109087104 894.16783788017347 0 894.16783788017347 -519.69768751689116 0 0 0 0 -891.37570469442289 -47.884485722490354 0 -47.884485722490354 68.353896141859877 0 0 0 0 -1580.2894105855958 679.58295401962823 0 679.58295401962823 213.79796193174843 0 0 0 0 -2275.5056603572448 748.5276852894749 0 748.5276852894749 238.59895821067039 0 0 0 0 -33.685311163542792 -201.9773936142883 0 -201.9773936142883 -36.212020215636585 0 0 0 0 -21.81898263093899 21.776674538268708 0 21.776674538268708 -1.8183583131661913 0 0 0 0 52.379822012269869 34.402578106091823 0 34.402578106091823 -5.5150659832288511 0 0 0 0 5.0059109477455763 2.0093589630075144 0 2.0093589630075144 -0.63500898002871509 0 0 0 0 -99.45261948442203 1525.1442805108964 0 1525.1442805108964 -569.49089123334852 0 0 0 0 244.40252394564595 976.47325903744058 0 976.47325903744058 -472.15520641295006 0 0 0 0 -997.85040723020211 1355.4877316557395 0 1355.4877316557395 0.64072474951191183 0 0 0 0 -1800.8571084688301 1667.8974459505698 0 1667.8974459505698 -160.37267033327953 0 0 0 0 -1850.717526216642 182.00405510136625 0 182.00405510136625 -1147.4121936869342 0 0 0 0 -933.03757955884794 1515.7447286264505 0 1515.7447286264505 -175.39839393272996 0 0 0 0 -690.93026837681828 1308.792565419426 0 1308.792565419426 -200.98780106048798 0 0 0 0 -437.27374612778658 1202.7701358695194 0 1202.7701358695194 -184.84441767598037 0 0 0 0 -592.6940905826923 990.69154920152505 0 990.69154920152505 -457.59434557691566 0 0 0 0 -259.27712096460164 1032.358456965012 0 1032.358456965012 -707.66770482307038 0 0 0 0 -623.89959580828145 1428.4448260766803 0 1428.4448260766803 -733.80863230298564 0 0 0 0 -523.89209564353223 1118.9777543025994 0 1118.9777543025994 -331.18254039468593 0 0 0 0 -360.41488424973795 1232.1696564998711 0 1232.1696564998711 -649.44319355765037 0 0 0 0 46.088841128835497 29.61873480691429 0 29.61873480691429 -30.053771790724085 0 0 0 0 -278.20292610618344 1308.8153612672322 0 1308.8153612672322 -1272.6876609040773 0 0 0 0 28.523442369871191 622.13680079777987 0 622.13680079777987 -1512.9066365109466 0 0 0 0 2968.4791590369132 1884.652881581962 0 1884.652881581962 2100.8600215869046 0 0 0 0 202.27188200474484 192.42502729958505 0 192.42502729958505 -589.38345767485771 0 0 0 0 -325.55835378382471 948.40662668226287 0 948.40662668226287 -547.79974421203951 0 0 0 0 -77.572572689066874 -46.434106496395543 0 -46.434106496395543 158.02785882540047 0 0 0 0 545.09886022063438 1155.4076569428871 0 1155.4076569428871 947.30769699822122 0 0 0 0 1022.8818640324462 1928.2459143735614 0 1928.2459143735614 2173.1218211786254 0 0 0 0 2106.9596353898814 1758.2188199864977 0 1758.2188199864977 312.31616084289271 0 0 0 0 1159.5486859068478 899.84997069177189 0 899.84997069177189 331.94284224667354 0 0 0 0 1202.3034582766995 958.56477868427464 0 958.56477868427464 2.3344170351847424 0 0 0 0 791.71399448183729 912.18566919020486 0 912.18566919020486 722.64667619206011 0 0 0 0 728.84149382154828 1282.7746824591031 0 1282.7746824591031 1205.7425482793769 0 0 0 0 160.89968183944438 341.12450245849686 0 341.12450245849686 781.12630470536533 0 0 0 0 1434.3087466806755 1333.6926342448351 0 1333.6926342448351 475.30012369500764 0 0 0 0 1417.4160123501206 1409.6608784860109 0 1409.6608784860109 545.19886792660691 0 0 0 0 963.85691916086944 771.26534893985809 0 771.26534893985809 559.80556796908058 0 0 0 0 9.1987415935128638 29.859139385332838 0 29.859139385332838 51.941740751777047 0 0 0 0 -143.09288771095453 323.79960660735378 0 323.79960660735378 -191.0174941761652 0 0 0 0 -909.11382453504484 233.03690484617255 0 233.03690484617255 989.03072172790417 0 0 0 0 422.14254903388792 142.45769766634476 0 142.45769766634476 -328.70399185345741 0 0 0 0 3772.1323750119482 2072.5803030058232 0 2072.5803030058232 853.03454641317512 0 0 0 0 1.5184633951406994 2.1825407323450463 0 2.1825407323450463 22.471793126108935 0 0 0 0 1271.5817510756533 916.10367823952038 0 916.10367823952038 323.54663533579151 0 0 0 0 2242.4373221296428 622.76939144411062 0 622.76939144411062 1416.1890404076694 0 0 0 0 709.39143328298815 2001.1536631457711 0 2001.1536631457711 2729.1756462325429 0 0 0 0 2090.0453520124429 2564.9566711924563 0 2564.9566711924563 2120.3716890084834 0 0 0 0 1481.8993366222421 1246.5191008566908 0 1246.5191008566908 2543.6031375304156 0 0 0 0 1417.1048126070309 1943.108463861176 0 1943.108463861176 1609.955064673064 0 0 0 0 -821.50872991079814 176.64443448150996 0 176.64443448150996 1583.64718198626 0 0 0 0 1658.1535188209964 1738.59053423359 0 1738.59053423359 1749.3097970221133 0 0 0 0 18.959352555742441 7.2030956726731858 0 7.2030956726731858 3.1351512433760718 0 0 0 0 534.76222796388902 -39.755812187075207 0 -39.755812187075207 -582.83199845658964 0 0 0 0 91.044866319192806 471.97189376252936 0 471.97189376252936 874.3053712891051 0 0 0 0 -89.058476342615904 -33.000718492112355 0 -33.000718492112355 643.72992193135724 0 0 0 0 35.499210082460195 -272.86857671425969 0 -272.86857671425969 -146.52481414418435 0 0 0 0 155.1549712974811 114.73494138936348 0 114.73494138936348 337.11845084340894 0 0 0 0 415.63232285334379 814.55227263025881 0 814.55227263025881 1296.5464865381146 0 0 0 0 408.12345702967195 442.98238958870616 0 442.98238958870616 816.6233872648445 0 0 0 0 353.19923028102494 1143.6168967027625 0 1143.6168967027625 2612.7385564025826 0 0 0 0 -159.15618154851836 182.11555383660016 0 182.11555383660016 302.67927293261891 0 0 0 0 -111.95083983015502 136.3248030289833 0 136.3248030289833 346.48137732688338 0 0 0 0 67.77290439378703 211.35391172289383 0 211.35391172289383 446.54567638435401 0 0 0 0 -35.024171015218599 266.74390291010059 0 266.74390291010059 442.38166964967968 0 0 0 0 167.11389892129228 404.8191448784055 0 404.8191448784055 585.6704517501181 0 0 0 0 -34.894238319626311 146.91660027050239 0 146.91660027050239 588.25496416937335 0 0 0 0 -5.4904871583858039 48.340146646107314 0 48.340146646107314 308.76888278390834 0 0 0 0 -73.389480260317214 139.27152751061658 0 139.27152751061658 214.35268576390808 0 0 0 0 -24.735162888799096 12.91355288719933 0 12.91355288719933 377.98622478429752 0 0 0 0 19.70066563502769 -24.855099748070643 0 -24.855099748070643 -174.97137442228268 0 0 0 0 -126.88597230328014 -13.767902536288602 0 -13.767902536288602 169.01736038980744 0 0 0 0 -50.100739366462221 -50.02462292042037 0 -50.02462292042037 -77.939249607705278 0 0 0 0 -87.679689413605956 28.532119921204867 0 28.532119921204867 185.14337804248498 0 0 0 0 -102.47925839500385 113.8604864920635 0 113.8604864920635 69.714443744596792 0 0 0 0 -249.06604420990334 243.11381900479319 0 243.11381900479319 -7.9481375020041014 0 0 0 0 32.644115027040243 193.95761044052779 0 193.95761044052779 -60.005517703553778 0 0 0 0 -267.66131423597835 167.77058045930971 0 167.77058045930971 106.1696542390855 0 0 0 0 -104.05901611611989 103.3019569393 0 103.3019569393 121.5494128895225 0 0 0 0 -419.44457303869422 142.62940876779612 0 142.62940876779612 168.78710574320576 0 0 0 0 -237.0999508388486 -2.7284011626907159 0 -2.7284011626907159 66.349291046732105 0 0 0 0 -620.67315961114946 312.81509800752974 0 312.81509800752974 52.468932747433428 0 0 0 0 -574.77101905914606 -109.08534415414033 0 -109.08534415414033 50.052666538365884 0 0 0 0 -268.0215049101098 151.33463165763533 0 151.33463165763533 162.6117563180851 0 0 0 0 -270.20883532171138 155.2493966726106 0 155.2493966726106 173.74196531673078 0 0 0 0 -282.43745239269629 149.86062805686379 0 149.86062805686379 242.16000227237237 0 0 0 0 -159.67811118516693 193.28027639184256 0 193.28027639184256 144.39653688759427 0 0 0 0 -228.47159167044447 253.68361939050374 0 253.68361939050374 258.39773058611536 0 0 0 0 -251.22282919352438 195.43304247935885 0 195.43304247935885 111.03157209143683 0 0 0 0 69.709621400067164 99.87078095939809 0 99.87078095939809 105.87357681154822 0 0 0 0 -169.32629089936381 252.82953453525261 0 252.82953453525261 129.9516174235614 0 0 0 0 -281.08523903987953 326.11876234694137 0 326.11876234694137 133.72001687379088 0 0 0 0 -213.07152614207007 270.00903318406199 0 270.00903318406199 92.839182239418733 0 0 0 0 -3.0385729002882726 475.75527604483068 0 475.75527604483068 135.72115759876579 0 0 0 0 127.5731138875999 376.57979721823358 0 376.57979721823358 -162.37934783063247 0 0 0 0 -16.453768419858534 359.73906801913108 0 359.73906801913108 147.98124367891796 0 0 0 0 -166.79841596000188 215.202890073655 0 215.202890073655 272.72678640972299 0 0 0 0 -124.02569344220683 397.95016690072953 0 397.95016690072953 276.57496823793917 0 0 0 0 -41.518368424265645 334.48504573700484 0 334.48504573700484 359.58499165611829 0 0 0 0 340.37141328892903 508.92090793246462 0 508.92090793246462 396.40066256105638 0 0 0 0 -66.659867848895374 295.3267017228427 0 295.3267017228427 580.65705595479812 0 0 0 0 315.71180342862499 543.38052658492234 0 543.38052658492234 450.1127085491753 0 0 0 0 -11.634009974310175 395.12764242552294 0 395.12764242552294 393.40039746859111 0 0 0 0 292.94789028022205 588.39762554828485 0 588.39762554828485 105.30385967441543 0 0 0 0 378.19591263445909 357.13443505765463 0 357.13443505765463 53.388525359012419 0 0 0 0 1791.727074546252 903.97647884473918 0 903.97647884473918 -615.49197415271192 0 0 0 0 706.43906029737263 -149.4004169482796 0 -149.4004169482796 -1527.6909147931146 0 0 0 0 17.703528489053781 3.5937878352131065 0 3.5937878352131065 -2.3148863102844643 0 0 0 0 -59.055685957529931 349.28446172648546 0 349.28446172648546 -78.312454154889565 0 0 0 0 -41.545771318633342 309.30646658450132 0 309.30646658450132 -153.10768131462464 0 0 0 0 6.42242048735352 407.8675992295357 0 407.8675992295357 -181.29283547637169 0 0 0 0 41.428405118611408 264.33904328758945 0 264.33904328758945 -377.34351059932669 0 0 0 0 41.095842132233145 25.504841713600968 0 25.504841713600968 4.2250225399870942 0 0 0 0 4412.4763977537295 1361.291772409073 0 1361.291772409073 -14.905063450773014 0 0 0 0 23.687442958267695 11.541759453984184 0 11.541759453984184 -10.119512725238536 0 0 0 0 -70.346279247751227 4082.9821138315019 0 4082.9821138315019 6558.394458366347 0 0 0 0 1137.2760284752585 3095.9136181360955 0 3095.9136181360955 5715.8438364384347 0 0 0 0 3308.5402389421361 -1849.0525325227063 0 -1849.0525325227063 -5951.7471978450194 0 0 0 0 -895.38099092480479 -374.5138617417706 0 -374.5138617417706 -2401.6593447893974 0 0 0 0 3056.3760919562774 2584.0921360877692 0 2584.0921360877692 -743.90308930379979 0 0 0 0 1234.9943773640116 -915.54301189443504 0 -915.54301189443504 -1057.5875512577186 0 0 0 0 5721.6255420839298 164.63027838010748 0 164.63027838010748 -5335.3543050230655 0 0 0 0 -740.45140144706238 189.53417529191938 0 189.53417529191938 944.36719495158468 0 0 0 0 2116.6339568343537 1562.8581928409112 0 1562.8581928409112 1768.5643830172776 0 0 0 0 2072.8271917849052 788.77152394882432 0 788.77152394882432 1.1627946022199467 0 0 0 0 31.810997966241871 6.0542570101507636 0 6.0542570101507636 -5.1882796932743318 0 0 0 0 -889.8968170186854 -384.45944352581864 0 -384.45944352581864 559.5251880994183 0 0 0 0 12.162043482858792 4.5574665973494533 0 4.5574665973494533 -7.4237868220819792 0 0 0 0 4119.6644394587784 1823.777406017558 0 1823.777406017558 173.82992355985334 0 0 0 0 4191.606569660129 879.80701212472923 0 879.80701212472923 -0.69207470323793241 0 0 0 0 -39.657969565196254 1044.9095890221652 0 1044.9095890221652 1424.5122240895289 0 0 0 0 -1.3911043155239895 21.228559580464207 0 21.228559580464207 0.13709300386835821 0 0 0 0 167.16680175950751 113.84520555631025 0 113.84520555631025 33.441004514461383 0 0 0 0 12.357928788442564 24.760662064107066 0 24.760662064107066 0.22139501468755185 0 0 0 0 -132.63686662417604 220.39216899688472 0 220.39216899688472 428.01622326992219 0 0 0 0 -505.02083698016213 990.51496101691009 0 990.51496101691009 1222.5947832880775 0 0 0 0 30.862731066081324 38.587137519556563 0 38.587137519556563 4.994658371044352 0 0 0 0 28.056870625461784 30.619283568367891 0 30.619283568367891 10.825632042673647 0 0 0 0 -0.10350050167471636 45.313573196464858 0 45.313573196464858 52.433762886124896 0 0 0 0 -31.464657069967075 28.322812868045787 0 28.322812868045787 12.32205307617869 0 0 0 0 -69.497196187556256 137.27137771961861 0 137.27137771961861 128.81467533815885 0 0 0 0 60.781933349906154 96.386420023498175 0 96.386420023498175 87.921875111753423 0 0 0 0 -67.079224425360735 366.14251891786625 0 366.14251891786625 3.5426619045902044 0 0 0 0 -6.0628002380544785 242.86151443699782 0 242.86151443699782 -110.32355175052362 0 0 0 0 -146.96598071345943 140.03102579030383 0 140.03102579030383 151.48354593358818 0 0 0 0 -99.865198270515975 81.339428686940664 0 81.339428686940664 144.08936892726342 0 0 0 0 -55.644442137243459 195.04636870557442 0 195.04636870557442 54.51224780807388 0 0 0 0 -16.837535914826731 124.84546908629272 0 124.84546908629272 151.916685652046 0 0 0 0 100.76793426639051 195.10818779680994 0 195.10818779680994 234.09106084304221 0 0 0 0 66.758873621831299 138.9176428126666 0 138.9176428126666 170.12691211310448 0 0 0 0 22.10983836199739 168.47683198360028 0 168.47683198360028 172.70437496164413 0 0 0 0 13.178709315398009 80.813899625427439 0 80.813899625427439 170.99783712757471 0 0 0 0 81.561671926188865 130.79922957647068 0 130.79922957647068 210.57874093065038 0 0 0 0 2.227643607853679 66.177374310267624 0 66.177374310267624 253.14547402926109 0 0 0 0 42.605195994256064 137.38953847446828 0 137.38953847446828 266.16368169561611 0 0 0 0 46.14161923872598 128.23068423953373 0 128.23068423953373 337.70836858372786 0 0 0 0 -24.076742035991629 79.509100509385462 0 79.509100509385462 120.24838776618708 0 0 0 0 -3.5113777425722219 84.012691988631559 0 84.012691988631559 207.28367910158704 0 0 0 0 -32.947525929463154 88.229022436149535 0 88.229022436149535 231.1389057161141 0 0 0 0 -17.752708481534455 1.408839798094732 0 1.408839798094732 0.26534622534907726 0 0 0 0 -9.1503836110641714 22.182179261435522 0 22.182179261435522 49.068023021158297 0 0 0 0 -10.613136250329262 31.187752766927588 0 31.187752766927588 34.680507334604044 0 0 0 0 -6.549828693663585 -16.681776181387249 0 -16.681776181387249 172.95472549453552 0 0 0 0 -46.288941767794313 24.500697328971 0 24.500697328971 75.109966886273469 0 0 0 0 -38.247225574654294 39.728717812919058 0 39.728717812919058 -22.253126822208287 0 0 0 0 -11.674637247671853 10.744012428183851 0 10.744012428183851 357.51467387005687 0 0 0 0 12.556325081532123 2.5510223200544715 0 2.5510223200544715 20.251265846687602 0 0 0 0 0.98041666588540011 1.5833270995784119 0 1.5833270995784119 -0.095578690027906532 0 0 0 0 -4.1199766800612565 16.968619620921359 0 16.968619620921359 12.73065001204202 0 0 0 0 -14.686757165509334 26.887081607055734 0 26.887081607055734 -2.8879031687392853 0 0 0 0 12.997182656792575 -6.1143960378649354 0 -6.1143960378649354 0.86721111746737733 0 0 0 0 4.9792182740347926 22.079360183692188 0 22.079360183692188 -20.309936712679701 0 0 0 0 -3.220137195052132 21.771005004928497 0 21.771005004928497 3.8764752959816384 0 0 0 0 -7.7660654471849284 3.217003253315653 0 3.217003253315653 2.6692020159720187 0 0 0 0 -182.43729007939692 654.61337506829295 0 654.61337506829295 -1004.3611497790698 0 0 0 0 -5.1322169739311221 6.8806357177046777 0 6.8806357177046777 1.3488639931990463 0 0 0 0 -196.39185903692851 611.18343897339946 0 611.18343897339946 -916.80906058032997 0 0 0 0 -305.19285492756171 574.18701804483135 0 574.18701804483135 -910.05303513344552 0 0 0 0 -122.53602953162044 -4.0802971474768128 0 -4.0802971474768128 -2.6254129123905781 0 0 0 0 -114.87152361619519 20.611923103206209 0 20.611923103206209 24.195756164888735 0 0 0 0 -20.598294088983437 9.6670392477177529 0 9.6670392477177529 2.2935435283564694 0 0 0 0 -190.91585898934864 -11.40281840453099 0 -11.40281840453099 28.72890351760725 0 0 0 0 -37.867433635128691 59.825055678193166 0 59.825055678193166 344.52261629974237 0 0 0 0 16.872053983519436 93.751878886701888 0 93.751878886701888 29.610331433061219 0 0 0 0 -5.7968399800195698 1.0657324535138315 0 1.0657324535138315 5.4213068715037593 0 0 0 0 -7.4312866718767623 6.4553215115300873 0 6.4553215115300873 -0.27426741573738411 0 0 0 0 48.444678947591456 222.82246741939161 0 222.82246741939161 506.26086930300517 0 0 0 0 234.44454337807838 316.5983017887047 0 316.5983017887047 551.82487586306343 0 0 0 0 159.20089183059463 261.3170240126783 0 261.3170240126783 411.85668905738567 0 0 0 0 302.01243538900599 256.1573599118492 0 256.1573599118492 373.82797838764964 0 0 0 0 178.76236469815194 248.43985258902831 0 248.43985258902831 351.57214970755376 0 0 0 0 52.087281029962469 131.09091503961827 0 131.09091503961827 303.86778566392604 0 0 0 0 111.71716077635938 205.46531288593542 0 205.46531288593542 324.73321151141135 0 0 0 0 205.64341025221802 218.60655054388189 0 218.60655054388189 233.70795825636014 0 0 0 0 227.83538250514539 280.5956342779391 0 280.5956342779391 266.8739085448542 0 0 0 0 154.42944632173749 187.21787142781977 0 187.21787142781977 176.82854123844299 0 0 0 0 175.9364675154502 241.59939866050263 0 241.59939866050263 252.7512428224727 0 0 0 0 2.966241756358329 -1.6173132275021089 0 -1.6173132275021089 2.3749168263422007 0 0 0 0 380.94622924430587 365.08671300759306 0 365.08671300759306 337.89578239006369 0 0 0 0 201.46775442136277 219.0822823710696 0 219.0822823710696 280.18407952680718 0 0 0 0 -15.887348992030041 -5.2507996638201462 0 -5.2507996638201462 13.236785921864566 0 0 0 0 -208.50240201355336 32.892356684133119 0 32.892356684133119 174.7232023125689 0 0 0 0 -62.190625176677713 337.63555615365476 0 337.63555615365476 450.70419960156141 0 0 0 0 -79.013558236088471 35.755373356338453 0 35.755373356338453 -12.137829476973565 0 0 0 0 -108.54808485547255 253.63195951473608 0 253.63195951473608 299.79131589690223 0 0 0 0 16.330088092916412 183.44818436523201 0 183.44818436523201 334.80036308338458 0 0 0 0 46.179052325627708 217.02296135912184 0 217.02296135912184 -103.08364635286853 0 0 0 0 178.24790241069422 268.69684054212121 0 268.69684054212121 213.99865635921014 0 0 0 0 172.29172502522169 333.6639012446376 0 333.6639012446376 74.643300067196833 0 0 0 0 173.23563480631856 272.4245037780056 0 272.4245037780056 164.51252523134644 0 0 0 0 -70.121047338612897 49.138395671474541 0 49.138395671474541 -24.747475517787279 0 0 0 0 -42.163413602705987 423.12276362311968 0 423.12276362311968 107.03119107167004 0 0 0 0 223.90659617364872 213.51685202715453 0 213.51685202715453 157.59549496223917 0 0 0 0 286.69887061501504 295.35447617221507 0 295.35447617221507 198.01527778280433 0 0 0 0 285.03058002406033 241.06373255496146 0 241.06373255496146 160.50038878666237 0 0 0 0 285.0305800238275 241.06373255443759 0 241.06373255443759 160.50038878724445 0 0 0 0 242.90898287825257 241.14573903378914 0 241.14573903378914 176.97598475590348 0 0 0 0 168.97295545358793 230.77059799659764 0 230.77059799659764 187.62598353641806 0 0 0 0 211.00933979669935 220.81537600891897 0 220.81537600891897 177.86892334133154 0 0 0 0 163.22311449592235 204.81732688154443 0 204.81732688154443 181.49714847613359 0 0 0 0 285.03058002368198 241.06373255478684 0 241.06373255478684 160.50038878712803 0 0 0 0 210.4020277595846 229.65708761266433 0 229.65708761266433 185.62686965824105 0 0 0 0 144.03045852106879 225.00697431422304 0 225.00697431422304 197.34962279367028 0 0 0 0 126.0789838177152 174.89783233175694 0 174.89783233175694 120.88581615744624 0 0 0 0 53.026818937127246 195.48923082725378 0 195.48923082725378 165.51840471417381 0 0 0 0 -123.83471002940496 169.742375700298 0 169.742375700298 138.92901769586024 0 0 0 0 47.846857582968369 169.03937576565477 0 169.03937576565477 99.173592391889542 0 0 0 0 87.074348925852973 164.56425660743844 0 164.56425660743844 41.851495361741399 0 0 0 0 174.67981500242604 274.4792907788069 0 274.4792907788069 105.44411322130327 0 0 0 0 192.36357116827548 213.06609597177339 0 213.06609597177339 61.683519505779259 0 0 0 0 200.75770854668372 155.68982593085093 0 155.68982593085093 109.05956357580726 0 0 0 0 -22.122516515244683 84.118170902828922 0 84.118170902828922 -16.474632552242667 0 0 0 0 416.24684986303328 157.41012562101241 0 157.41012562101241 53.080174502611044 0 0 0 0 41.17710687314684 258.59251715689606 0 258.59251715689606 91.527580324793234 0 0 0 0 59.039372044928115 112.15833091664797 0 112.15833091664797 115.78380816623309 0 0 0 0 -244.52574322559667 122.09547415777706 0 122.09547415777706 103.14458842710883 0 0 0 0 -154.44277338997927 125.54290136323834 0 125.54290136323834 102.45630019652526 0 0 0 0 210.26390758449998 200.646568048669 0 200.646568048669 213.47039115575899 0 0 0 0 86.949608345545869 153.22608733204882 0 153.22608733204882 93.615470875988137 0 0 0 0 38.287186400582016 41.49899450403052 0 41.49899450403052 7.2307505375307528 0 0 0 0 3.887293738196604 310.97253614940564 0 310.97253614940564 85.206909290838666 0 0 0 0 144.60871512697486 116.91419263066928 0 116.91419263066928 210.29237445548642 0 0 0 0 427.08089881303022 211.41495672313613 0 211.41495672313613 81.567132386669982 0 0 0 0 -0.57349030511142018 13.402919715100268 0 13.402919715100268 -2.3187150022218503 0 0 0 0 460.20419160093297 387.20704441829002 0 387.20704441829002 432.43236962966148 0 0 0 0 352.75679239741294 215.02364680542087 0 215.02364680542087 157.86655798257561 0 0 0 0 87.924550579569768 -296.4865466291958 0 -296.4865466291958 -735.78111569969042 0 0 0 0 -21.128490664917081 10.830600727473097 0 10.830600727473097 -3.0247738349496025 0 0 0 0 -162.22413058657548 75.157736463675974 0 75.157736463675974 -38.025887227064231 0 0 0 0 -130.78684687846544 210.97025469207438 0 210.97025469207438 -102.03501323540695 0 0 0 0 -271.4124313712382 87.594534812291386 0 87.594534812291386 -17.6425239675591 0 0 0 0 199.42415832058759 412.08141375987907 0 412.08141375987907 -22.324032398712006 0 0 0 0 -10.290942530385749 1.0787234778651964 0 1.0787234778651964 1.1834205218116836 0 0 0 0 372.78079326499574 312.90022364047763 0 312.90022364047763 34.412116646475624 0 0 0 0 272.41982467847993 276.77007585819229 0 276.77007585819229 93.876421453693183 0 0 0 0 -606.16114991588984 186.41220954680466 0 186.41220954680466 457.30034272282501 0 0 0 0 -673.71561035236664 342.23457910798606 0 342.23457910798606 222.63421227191429 0 0 0 0 -466.52364557621627 137.97355004809788 0 137.97355004809788 -22.444861340685748 0 0 0 0 -361.13549614959629 97.409509325672843 0 97.409509325672843 476.1494179214933 0 0 0 0 -374.02146790840197 37.234412734018406 0 37.234412734018406 313.57794780103723 0 0 0 0 -436.45333850252791 -189.39142414915841 0 -189.39142414915841 701.40614055056358 0 0 0 0 313.40345581619891 -987.21254918824138 0 -987.21254918824138 73.741918631247245 0 0 0 0 -403.40030417457456 -106.12281814447488 0 -106.12281814447488 24.685127285774797 0 0 0 0 398.36688300697278 148.56009606049338 0 148.56009606049338 -1.9530078818888796 0 0 0 0 -317.27102698497765 -88.487604067253415 0 -88.487604067253415 21.903514158912003 0 0 0 0 -312.00004838309997 -22.599356722950233 0 -22.599356722950233 27.691170957928989 0 0 0 0 -431.59759572586063 -192.4087046685745 0 -192.4087046685745 183.15983324090485 0 0 0 0 -473.19405696896865 55.966726475700852 0 55.966726475700852 351.46069139119936 0 0 0 0 -350.37617156775377 -22.805010749551002 0 -22.805010749551002 53.413256161380559 0 0 0 0 19.830212608055639 60.057655297484899 0 60.057655297484899 -21.09399802676603 0 0 0 0 293.25530770615296 286.95350492782018 0 286.95350492782018 11.558400276888278 0 0 0 0 91.365851844419524 158.22637614685675 0 158.22637614685675 79.639223642690695 0 0 0 0 251.24622177035781 84.880108538505738 0 84.880108538505738 -108.36246625575586 0 0 0 0 -12.353733558324166 -57.122121253603837 0 -57.122121253603837 228.8088052625917 0 0 0 0 220.60139080529916 136.097231574342 0 136.097231574342 -115.24639857883449 0 0 0 0 116.04020259273238 161.45964991732035 0 161.45964991732035 -73.834646636620164 0 0 0 0 289.65062395611312 162.0600862938154 0 162.0600862938154 -829.01052784809144 0 0 0 0 -93.559340782521758 708.0984671163169 0 708.0984671163169 -575.81471575342584 0 0 0 0 315.20350753748789 281.21547986782389 0 281.21547986782389 -446.37861572697875 0 0 0 0 56.47601862141164 281.66828956576137 0 281.66828956576137 -96.987331397162052 0 0 0 0 -766.73502456696588 530.13871824473608 0 530.13871824473608 -11.44620081296307 0 0 0 0 108.01409749645474 163.13741681552551 0 163.13741681552551 90.8605813789286 0 0 0 0 0.62299248648196226 496.92569461156017 0 496.92569461156017 11.716992432804545 0 0 0 0 338.53120159319951 379.62684224230179 0 379.62684224230179 -69.762179733603261 0 0 0 0 60.157054383515288 74.366072646540943 0 74.366072646540943 -66.813497454164406 0 0 0 0 370.16133496581097 429.78273428147804 0 429.78273428147804 -150.24484655853303 0 0 0 0 -174.27225380238087 140.57018018775852 0 140.57018018775852 133.36298207470099 0 0 0 0 -11.178929045563564 437.39226326387143 0 437.39226326387143 9.3802792355199927 0 0 0 0 -56.650048513241927 231.00103431380558 0 231.00103431380558 104.6176227676915 0 0 0 0 -18.223555618842056 50.0018284400835 0 50.0018284400835 -69.678562892225727 0 0 0 0 414.22794242727832 577.36112077629878 0 577.36112077629878 184.2637357240601 0 0 0 0 681.45022324449383 319.79529592546169 0 319.79529592546169 152.62577186111957 0 0 0 0 1044.8906785236322 452.92904310117592 0 452.92904310117592 75.349111396819353 0 0 0 0 1044.8906785241561 452.9290431017871 0 452.9290431017871 75.349111397285014 0 0 0 0 909.45844522769767 890.85452617757619 0 890.85452617757619 455.93276378422161 0 0 0 0 -5.7555877099955524 -1.4838966241185858 0 -1.4838966241185858 14.358525465454875 0 0 0 0 -118.73939129264909 -75.16359806930268 0 -75.16359806930268 147.31960310356226 0 0 0 0 922.86309980240185 621.30211689752468 0 621.30211689752468 238.73381639498984 0 0 0 0 1055.0764164868015 519.22225744685056 0 519.22225744685056 74.189286258420907 0 0 0 0 1044.8906785235449 452.92904310151062 0 452.92904310151062 75.349111397052184 0 0 0 0 621.75477724225493 519.26715942361625 0 519.26715942361625 204.18823483848246 0 0 0 0 446.3862131346832 493.11203066004964 0 493.11203066004964 409.75620033312589 0 0 0 0 239.24487622382003 435.74173637993226 0 435.74173637993226 475.41806341931806 0 0 0 0 442.67406980384271 743.69041427274203 0 743.69041427274203 1100.3571997487452 0 0 0 0 329.78216603607871 293.35680950604728 0 293.35680950604728 260.80261465054355 0 0 0 0 196.56655329506611 438.26581070774409 0 438.26581070774409 255.05720650791773 0 0 0 0 202.85191305249464 145.25952010377659 0 145.25952010377659 154.28518433405407 0 0 0 0 -473.68043860510807 408.73768292070599 0 408.73768292070599 210.91798325951095 0 0 0 0 -156.77977515588282 155.2094675234257 0 155.2094675234257 -59.864416116237408 0 0 0 0 -620.47747900822287 731.18068503842369 0 731.18068503842369 131.9304604230565 0 0 0 0 107.63941387614521 132.07165008905639 0 132.07165008905639 59.114472700895192 0 0 0 0 307.11983883913126 212.95372613832296 0 212.95372613832296 -41.797862308885669 0 0 0 0 -38.486563365710026 644.08703977074765 0 644.08703977074765 -34.04486462593195 0 0 0 0 298.91762551388274 488.72118280863924 0 488.72118280863924 -266.80643641670758 0 0 0 0 -328.71232944855728 303.00707347059506 0 303.00707347059506 110.5021592801495 0 0 0 0 -195.17490776514751 249.03215805454238 0 249.03215805454238 -135.25252912263386 0 0 0 0 93.586128168347614 129.25838196926409 0 129.25838196926409 -8.6372561530488383 0 0 0 0 -61.24654205564002 390.85058878596465 0 390.85058878596465 -290.36686506580736 0 0 0 0 -257.33624733400939 144.34005407585937 0 144.34005407585937 -0.67741798661882058 0 0 0 0 -294.65663024011883 130.09956794825666 0 130.09956794825666 -1064.1204014189716 0 0 0 0 -61.388016278891541 161.31116800484318 0 161.31116800484318 10.248847798089979 0 0 0 0 -114.57580282719573 92.682906429938157 0 92.682906429938157 -176.84293038945179 0 0 0 0 -253.83487268351018 -10.024221787407441 0 -10.024221787407441 -958.72369279576014 0 0 0 0 -85.205527244403413 243.90619796996833 0 243.90619796996833 91.195792689253125 0 0 0 0 160.76430502797302 619.5066567176691 0 619.5066567176691 -847.18477955296532 0 0 0 0 516.8347192905494 105.63897573656141 0 105.63897573656141 -2635.4217466083719 0 0 0 0 -31.496651943234951 32.881320482126384 0 32.881320482126384 -14.085357792014619 0 0 0 0 528.30019105211977 387.05309904933711 0 387.05309904933711 882.23865003684114 0 0 0 0 -120.53001193368982 728.53026322445476 0 728.53026322445476 1825.3809654942224 0 0 0 0 -46.25799085694598 -10.962098155861895 0 -10.962098155861895 -1490.4577532881651 0 0 0 0 109.81451038342493 699.79430568059797 0 699.79430568059797 969.32344783894951 0 0 0 0 -42.734103490889538 616.46272247833622 0 616.46272247833622 833.4527846394667 0 0 0 0 271.51774363868753 580.58864384847857 0 580.58864384847857 831.12729878441314 0 0 0 0 -555.17185295115632 278.88192160161998 0 278.88192160161998 949.90347027234839 0 0 0 0 9.309792412808747 87.075590000036755 0 87.075590000036755 -68.776702044167905 0 0 0 0 -64.7658559542906 90.338079616143659 0 90.338079616143659 -22.654295109121449 0 0 0 0 -46.504570774136937 50.282813532276748 0 50.282813532276748 -38.151428483654712 0 0 0 0 355.8847822574171 623.00381397261845 0 623.00381397261845 795.78369289038346 0 0 0 0 71.657479326866451 929.51864710663176 0 929.51864710663176 491.41238445523413 0 0 0 0 405.38257807458285 684.11797630333967 0 684.11797630333967 412.03527257133339 0 0 0 0 -83.524838443670888 78.180463911063271 0 78.180463911063271 -1491.3116429282381 0 0 0 0 -56.385045722522136 49.579583529139825 0 49.579583529139825 -21.872073395378411 0 0 0 0 -23.2841538330199 6.0026292185994237 0 6.0026292185994237 20.391832338799702 0 0 0 0 -248.47568948971457 -104.78760292545485 0 -104.78760292545485 -1090.4525984667853 0 0 0 0 16.887552600906929 -59.818616226642916 0 -59.818616226642916 -1864.0350577413337 0 0 0 0 16.198961199359474 -59.872467112221671 0 -59.872467112221671 -997.10283235667157 0 0 0 0 1.7710960227104806 44.99427530738572 0 44.99427530738572 -33.972132889716725 0 0 0 0 42.320508778371732 44.122764183544859 0 44.122764183544859 -807.18196458201055 0 0 0 0 -15.351408552833789 165.63509654763135 0 165.63509654763135 -9.6779121252782403 0 0 0 0 -12.153056830196874 151.9529026579512 0 151.9529026579512 -701.103887414989 0 0 0 0 310.80511609022506 190.69149255924276 0 190.69149255924276 -320.92054113965423 0 0 0 0 137.95304515771568 63.647172525608767 0 63.647172525608767 -1163.3452430819252 0 0 0 0 -13.94315911384183 325.98104437248185 0 325.98104437248185 -907.38977408221399 0 0 0 0 -113.74202643409808 268.4563816512964 0 268.4563816512964 236.05830000064452 0 0 0 0 -83.526504685127293 -0.50415448244893923 0 -0.50415448244893923 38.90053117001662 0 0 0 0 78.302818355688942 258.69708293871008 0 258.69708293871008 -91.310381382965716 0 0 0 0 260.90068413512199 -105.48809305852046 0 -105.48809305852046 383.07990855260869 0 0 0 0 229.14518535257048 123.09367115317309 0 123.09367115317309 1032.0520251173875 0 0 0 0 -259.56224126678717 868.42843324285059 0 868.42843324285059 375.34159900486702 0 0 0 0 740.73568938419339 -185.0620972829056 0 -185.0620972829056 -266.23216433008201 0 0 0 0 -411.45204940295662 572.38392912155541 0 572.38392912155541 -310.24596261892748 0 0 0 0 106.42149932206667 334.06306935134489 0 334.06306935134489 -302.34737903704081 0 0 0 0 137.48475785799383 212.83570119806245 0 212.83570119806245 47.301827106595738 0 0 0 0 66.814639123200323 187.42321754275326 0 187.42321754275326 73.966652157134376 0 0 0 0 -26.317186359519837 278.21902325983683 0 278.21902325983683 22.419532744272146 0 0 0 0 156.73678122347337 234.91735116283235 0 234.91735116283235 -727.98028307849199 0 0 0 0 150.20357852296308 100.17339733924612 0 100.17339733924612 -33.833149633262721 0 0 0 0 187.33195315377088 174.29521679191384 0 174.29521679191384 -134.03392526415701 0 0 0 0 25.387015093640901 64.843874934302306 0 64.843874934302306 -12.770838292467886 0 0 0 0 37.889216056850273 177.17299869125418 0 177.17299869125418 -469.31340776224533 0 0 0 0 42.908072247897508 52.515907993765722 0 52.515907993765722 -831.57829602067068 0 0 0 0 17.997915775672652 90.541352156467582 0 90.541352156467582 -112.51473036618199 0 0 0 0 168.99209600093309 457.85181185949477 0 457.85181185949477 -574.86397665357072 0 0 0 0 87.404764102742774 132.97236241676728 0 132.97236241676728 -763.46124996303115 0 0 0 0 198.56701981698279 191.57116803070676 0 191.57116803070676 -378.09459693887038 0 0 0 0 -77.572806559637343 55.425324979262513 0 55.425324979262513 -34.054910727286277 0 0 0 0 46.286742322932696 326.54955208454157 0 326.54955208454157 -298.17757131751569 0 0 0 0 1547.0823270688707 690.48293710802682 0 690.48293710802682 15.977672446748329 0 0 0 0 -28.779333732111702 45.093510018704592 0 45.093510018704592 -53.089632006100885 0 0 0 0 -2290.7923621523078 2073.9739705435568 0 2073.9739705435568 634.16174825610142 0 0 0 0 740.38777567085344 1663.2572535851614 0 1663.2572535851614 -3297.1486700261594 0 0 0 0 562.2676558571693 415.33137226315193 0 415.33137226315193 -159.33223989058752 0 0 0 0 -33.928181489027338 326.14385689432675 0 326.14385689432675 99.297532326396322 0 0 0 0 351.31512773395661 -122.77491658265717 0 -122.77491658265717 339.38654668186791 0 0 0 0 76.259246990433894 107.83273976924829 0 107.83273976924829 -39.679730402844143 0 0 0 0 -9.7969651664316189 682.83680398440629 0 682.83680398440629 709.05921743165163 0 0 0 0 -50.918680498457434 33.261009441945248 0 33.261009441945248 -11.806782958935649 0 0 0 0 -156.37513104535174 501.89777355324622 0 501.89777355324622 -1571.1040057902792 0 0 0 0 23.333117451984435 414.18315422236628 0 414.18315422236628 -103.3242593179657 0 0 0 0 177.61483430716908 516.58739337822772 0 516.58739337822772 -808.007885430241 0 0 0 0 -144.48621846269816 495.55049053233233 0 495.55049053233233 -795.82095571554964 0 0 0 0 -364.74742907821201 127.40496161585907 0 127.40496161585907 -911.32398233926506 0 0 0 0 110.73102184443269 251.68823473439261 0 251.68823473439261 -995.49951045017224 0 0 0 0 -165.05752836272586 360.25182203628356 0 360.25182203628356 -701.39310649738763 0 0 0 0 55.255769652896561 460.65624398243381 0 460.65624398243381 -144.94407935193885 0 0 0 0 128.88795187049254 206.99774958972739 0 206.99774958972739 -631.18953100102954 0 0 0 0 280.52711716153135 95.89957602971117 0 95.89957602971117 -691.12617823801702 0 0 0 0 176.04497990867821 304.55008186333725 0 304.55008186333725 -858.24596179636865 0 0 0 0 183.90661265864037 -5.9236507773748599 0 -5.9236507773748599 -1390.5245554411667 0 0 0 0 -35.342656245042917 42.185298095435996 0 42.185298095435996 18.078266031209111 0 0 0 0 -67.149062788870651 216.12264261001837 0 216.12264261001837 325.98708075584727 0 0 0 0 235.65315096447011 196.25750292414159 0 196.25750292414159 -1509.5281767403212 0 0 0 0 -28.608238509506918 143.02416316553717 0 143.02416316553717 -1391.2497924868676 0 0 0 0 -210.88088007562328 556.81644674984273 0 556.81644674984273 -2265.6480087192322 0 0 0 0 -180.84475259919418 -85.073368476616452 0 -85.073368476616452 -1374.1658174237527 0 0 0 0 10.861120955667081 42.768043448020251 0 42.768043448020251 -1.8801698420203934 0 0 0 0 90.796784564765403 149.27591215547 0 149.27591215547 79.960020281149582 0 0 0 0 263.38781232084148 231.94553984465165 0 231.94553984465165 -1143.9970521224241 0 0 0 0 128.04934783866554 93.830867538416356 0 93.830867538416356 1.4683651072569823 0 0 0 0 189.66278213332407 -81.874050368671305 0 -81.874050368671305 -1729.1914923275763 0 0 0 0 129.80912663438357 140.66858614658122 0 140.66858614658122 65.958160994603531 0 0 0 0 20.932017202256247 137.49985038324667 0 137.49985038324667 70.067696096026339 0 0 0 0 7.3349631394582016 88.624163760289377 0 88.624163760289377 81.065827701071896 0 0 0 0 40.831124578835443 131.87870410410687 0 131.87870410410687 46.588267055354663 0 0 0 0 78.580304446659284 103.65775155504525 0 103.65775155504525 63.979399962045136 0 0 0 0 -3.9198757745536579 73.287180855576622 0 73.287180855576622 50.894308505411516 0 0 0 0 96.785660060268128 143.97629149969725 0 143.97629149969725 82.627828305805451 0 0 0 0 128.25504721599282 80.020427155221114 0 80.020427155221114 5.114294163257 0 0 0 0 22.845502922121796 24.702148809654432 0 24.702148809654432 3.302093342131883 0 0 0 0 84.097978812351357 81.63421586980985 0 81.63421586980985 24.462534180318471 0 0 0 0 5.1850301694827241 65.076629817482115 0 65.076629817482115 41.99276180708182 0 0 0 0 65.352918154065264 99.392582636697625 0 99.392582636697625 31.047341999670607 0 0 0 0 -1.7818379088877236 19.402463306400591 0 19.402463306400591 9.690046522910734 0 0 0 0 45.299012026051059 76.405056074843742 0 76.405056074843742 94.913511186605319 0 0 0 0 -26.624315479479264 99.992947160593758 0 99.992947160593758 83.351504729130284 0 0 0 0 50.490398157504387 63.461592977400869 0 63.461592977400869 43.311032784957206 0 0 0 0 24.142143189907074 82.033676767663565 0 82.033676767663565 44.137326018506428 0 0 0 0 15.397923149905751 54.001901575523647 0 54.001901575523647 17.861508449797583 0 0 0 0 -23.975719324448221 52.011545213422551 0 52.011545213422551 0.015526175027616773 0 0 0 0 0.13026597115094773 147.6140765419841 0 147.6140765419841 80.237004334281664 0 0 0 0 0.47837905173264517 143.58906145786307 0 143.58906145786307 73.177283815748524 0 0 0 0 -79.103171175549505 187.64715354789223 0 187.64715354789223 74.466131388868234 0 0 0 0 -37.856584499619203 30.883602978603449 0 30.883602978603449 151.68431858493568 0 0 0 0 -97.116068134295347 162.05579299920646 0 162.05579299920646 252.61129600068671 0 0 0 0 -213.33254904460046 264.45166543925006 0 264.45166543925006 177.00203647649323 0 0 0 0 -54.929215283540543 57.096319803531514 0 57.096319803531514 176.09570068566245 0 0 0 0 -122.29564660348115 -82.858864453461138 0 -82.858864453461138 322.36177059722831 0 0 0 0 -207.41326121217571 159.89162835506431 0 159.89162835506431 776.22539823806437 0 0 0 0 -45.634335087845102 30.658919356821571 0 30.658919356821571 -3.3558423912327271 0 0 0 0 -33.718883350524209 56.483964034274919 0 56.483964034274919 15.689076289830552 0 0 0 0 -179.16100916417781 144.26507087914797 0 144.26507087914797 88.924952821442275 0 0 0 0 -3.6367019563331269 43.700338534923503 0 43.700338534923503 72.168501180945896 0 0 0 0 -26.613523374107899 99.958851394556405 0 99.958851394556405 63.188293317187345 0 0 0 0 -15.47897507562277 65.486232437253477 0 65.486232437253477 26.671542646284919 0 0 0 0 -18.834515098220436 36.465613354550442 0 36.465613354550442 159.9907578338607 0 0 0 0 14.807418967796593 27.006138206209755 0 27.006138206209755 11.551196908039429 0 0 0 0 -21.340676400373923 41.626719652856991 0 41.626719652856991 54.563259872520575 0 0 0 0 -0.36624695557111409 31.157673841593351 0 31.157673841593351 53.345845434014336 0 0 0 0 -11.927742206622497 54.126031501000398 0 54.126031501000398 44.908163724699989 0 0 0 0 -23.903560419523387 2.7780239088908729 0 2.7780239088908729 40.040739220907369 0 0 0 0 -1208.6077348697581 -283.76445192901883 0 -283.76445192901883 -309.76216078756624 0 0 0 0 7.343747261853423 28.459767100139288 0 28.459767100139288 44.963198182173073 0 0 0 0 -291.37215447984636 102.06971442571376 0 102.06971442571376 133.48403856556979 0 0 0 0 -11.202792212678332 -7.9808104706490326 0 -7.9808104706490326 18.740770804682995 0 0 0 0 1563.6472883898532 544.98698811844224 0 544.98698811844224 -825.44391221579281 0 0 0 0 -633.36496307014022 -284.80070977893774 0 -284.80070977893774 129.43788808543468 0 0 0 0 -0.80117972495395406 5.4293790983332428 0 5.4293790983332428 7.7469333457488005 0 0 0 0 -5.7706264135746324 3.1826112642473845 0 3.1826112642473845 -4.8408239229397623 0 0 0 0 -270.31183517840691 731.93657484932919 0 731.93657484932919 -738.78055095596937 0 0 0 0 411.51664707520104 328.86646314595055 0 328.86646314595055 -522.42576119751902 0 0 0 0 -1110.7908756421803 519.8290398987665 0 519.8290398987665 4.7173561864183284 0 0 0 0 -1175.0549144480319 -119.92387673267513 0 -119.92387673267513 92.804342070565326 0 0 0 0 307.13793076699221 24.26967817629702 0 24.26967817629702 -176.96972392426687 0 0 0 0 352.64951136661693 319.83077362758922 0 319.83077362758922 -355.43440353652113 0 0 0 0 -286.88181120605441 691.6837813044549 0 691.6837813044549 -376.35580582207513 0 0 0 0 -354.46034448570572 320.70367169874953 0 320.70367169874953 -20.805169849103549 0 0 0 0 -336.95273716208249 425.01896603971909 0 425.01896603971909 -185.44892552809324 0 0 0 0 23.797325750871096 144.14153616937983 0 144.14153616937983 -194.44357783833402 0 0 0 0 76.706511641998077 -2.7820729810919147 0 -2.7820729810919147 -2.5989482939185109 0 0 0 0 32.082740335330982 32.618889964446197 0 32.618889964446197 5.4782209478926234 0 0 0 0 3.0819150648603681 118.3137884720345 0 118.3137884720345 -105.4929960724985 0 0 0 0 74.314709128928371 50.303867916900344 0 50.303867916900344 -179.82156843313714 0 0 0 0 -46.201867184397997 -77.503674373525428 0 -77.503674373525428 -185.55079526295594 0 0 0 0 17.990971906213566 7.2436028182742689 0 7.2436028182742689 -1.0574086562996285 0 0 0 0 68.576868240974022 15.79738047951821 0 15.79738047951821 -1.5092658404768287 0 0 0 0 92.224889217497548 -13.903323992068181 0 -13.903323992068181 -0.47108345253218431 0 0 0 0 138.78115152176179 -65.623096513976634 0 -65.623096513976634 -384.74639751238283 0 0 0 0 34.527310847322738 31.234920161232139 0 31.234920161232139 -24.465860807761487 0 0 0 0 67.472463410877936 68.152793059110991 0 68.152793059110991 11.486479595070705 0 0 0 0 105.04599902927293 56.508588030061219 0 56.508588030061219 -89.098615746188443 0 0 0 0 95.72372462968633 67.394967587410065 0 67.394967587410065 -89.523315224185353 0 0 0 0 86.304222363454755 71.035052152903518 0 71.035052152903518 -84.827716793050058 0 0 0 0 34.07551078312099 9.3349998422490899 0 9.3349998422490899 -41.990835819626227 0 0 0 0 53.718411704773416 153.86100366347614 0 153.86100366347614 55.990065240475161 0 0 0 0 16.799068131547642 12.064708343316852 0 12.064708343316852 2.7021457150767674 0 0 0 0 65.318831397395115 91.717269800428767 0 91.717269800428767 36.744368591549573 0 0 0 0 104.829672851949 28.186135632829973 0 28.186135632829973 36.375693982467055 0 0 0 0 55.079693993378896 60.497323571500601 0 60.497323571500601 -14.024714454702917 0 0 0 0 11.576990642002784 68.071818842785433 0 68.071818842785433 51.368700650549727 0 0 0 0 30.13003224437125 67.216515198000707 0 67.216515198000707 39.329619273623393 0 0 0 0 -0.66822902571584564 37.450256085088768 0 37.450256085088768 14.333858560596127 0 0 0 0 77.637765819381457 77.186483566503739 0 77.186483566503739 -1.8764976690872572 0 0 0 0 29.186369854796794 62.456009960456868 0 62.456009960456868 15.555574981146492 0 0 0 0 98.530507939002632 46.312396889086045 0 46.312396889086045 14.990294788558259 0 0 0 0 282.25688708137022 165.34121638763463 0 165.34121638763463 -433.23615240337313 0 0 0 0 156.97938211007568 0.63986735869548284 0 0.63986735869548284 -593.37061241685296 0 0 0 0 105.01662980822221 47.045232886548717 0 47.045232886548717 9.0388200988904686 0 0 0 0 152.87130507142865 -36.064678948547225 0 -36.064678948547225 -135.63001236334821 0 0 0 0 160.71965249697678 49.710215221137332 0 49.710215221137332 -200.71432440202625 0 0 0 0 51.086930194207525 145.94258040892601 0 145.94258040892601 -121.15548935878905 0 0 0 0 50.585053046721669 10.874434927394873 0 10.874434927394873 2.782712805568508 0 0 0 0 -112.49010193053982 -191.07709956551844 0 -191.07709956551844 186.35036453237262 0 0 0 0 -480.38714517682092 -40.998940906196367 0 -40.998940906196367 448.76155790340999 0 0 0 0 -23.785171108786017 -330.68099113037169 0 -330.68099113037169 -337.57992614409886 0 0 0 0 1427.9167244435521 691.69150113571959 0 691.69150113571959 -767.94222273603373 0 0 0 0 462.55327453982318 -121.27068259069347 0 -121.27068259069347 404.36506075142825 0 0 0 0 2453.2673896780252 2116.219689600719 0 2116.219689600719 1703.6345180648786 0 0 0 0 2069.4904967191105 340.02140920713828 0 340.02140920713828 -42.331551588198636 0 0 0 0 66.385492284636712 561.96716806238692 0 561.96716806238692 -65.244649887954438 0 0 0 0 37.944531083121547 226.05771587889467 0 226.05771587889467 -325.60840390019439 0 0 0 0 77.127505883149865 43.528469342994484 0 43.528469342994484 13.921463390977735 0 0 0 0 32.585757174911123 -1.6986898566628952 0 -1.6986898566628952 17.919911452241649 0 0 0 0 221.66076210902247 349.66266103740782 0 349.66266103740782 -27.940836927387863 0 0 0 0 16.29551758323214 575.8022215203091 0 575.8022215203091 407.95138502428381 0 0 0 0 -4.0513924700725283 0.021315271257719814 0 0.021315271257719814 0.75375864120968572 0 0 0 0 350.05158106138697 106.51837246224022 0 106.51837246224022 -1110.152568798454 0 0 0 0 -68.591316869271395 129.95018206418536 0 129.95018206418536 48.623482408744167 0 0 0 0 52.813038451655302 299.64902080805768 0 299.64902080805768 -180.02060845213418 0 0 0 0 27.75862294549006 51.645914641601848 0 51.645914641601848 -327.77982577496732 0 0 0 0 -8.8061262424954521 2.5349521768617933 0 2.5349521768617933 -2.7587799499950876 0 0 0 0 -51.072674022128922 355.72391755582066 0 355.72391755582066 531.41724158005673 0 0 0 0 -82.122132605174556 -62.949616020036046 0 -62.949616020036046 277.79460309639398 0 0 0 0 114.08088772796327 271.39942228491418 0 271.39942228491418 1.4034944964951137 0 0 0 0 5.2353939311869908 93.765900656515441 0 93.765900656515441 32.257120806676539 0 0 0 0 -94.085707197111333 270.52574424436898 0 270.52574424436898 178.88776460877853 0 0 0 0 105.20968492151587 75.743497890438448 0 75.743497890438448 5.9677140238636639 0 0 0 0 76.948659323098582 71.789487338040317 0 71.789487338040317 -249.00297445696197 0 0 0 0 -5.8092367196354644 0.25524979342822007 0 0.25524979342822007 4.8954441553922265 0 0 0 0 -125.02353178529302 -34.759438660941669 0 -34.759438660941669 440.28627437187242 0 0 0 0 -51.888074892980512 347.25592052425054 0 347.25592052425054 11.049006759174517 0 0 0 0 148.39329632735462 145.02732898792601 0 145.02732898792601 -111.52392979266006 0 0 0 0 118.64284347576904 347.04163219961629 0 347.04163219961629 385.70000991254346 0 0 0 0 -68.181504988511733 299.66741846584955 0 299.66741846584955 -89.373078604447073 0 0 0 0 -28.788776125962045 20.996305399887575 0 20.996305399887575 -3.2099768368799433 0 0 0 0 -7.6461234684684314 12.636203179128643 0 12.636203179128643 -1789.1272949831036 0 0 0 0 -181.72730017043068 180.00141419599095 0 180.00141419599095 831.93838125167531 0 0 0 0 -135.52542406046996 264.9271019890657 0 264.9271019890657 -1230.4159889445509 0 0 0 0 -162.78390342037892 118.09574262544993 0 118.09574262544993 -828.33195741338568 0 0 0 0 174.1429226055759 36.170586794949259 0 36.170586794949259 -1080.7999147336668 0 0 0 0 89.458767901232932 455.23120853528962 0 455.23120853528962 -686.5216964083229 0 0 0 0 -228.88959113279998 401.75450480255677 0 401.75450480255677 -1245.7932273742044 0 0 0 0 -311.80489503263379 1264.6685673168522 0 1264.6685673168522 -1761.7785876180569 0 0 0 0 -541.09452985876123 1359.3178613579803 0 1359.3178613579803 -96.08987976609933 0 0 0 0 -670.44144111400237 776.61613010557994 0 776.61613010557994 1830.599501725439 0 0 0 0 -63.259590615460183 914.51351931309182 0 914.51351931309182 -1626.3357134889047 0 0 0 0 -136.93428080840386 989.62821946448821 0 989.62821946448821 -1415.0382447699922 0 0 0 0 -248.3951797443442 833.61481027786067 0 833.61481027786067 -1306.3191833787314 0 0 0 0 -221.25072300597094 302.55864351859054 0 302.55864351859054 -1833.9732030755695 0 0 0 0 -170.90827044282923 745.41916364292774 0 745.41916364292774 -2004.5114473469512 0 0 0 0 -277.04420127518279 579.77358626668456 0 579.77358626668456 -1797.8076437199779 0 0 0 0 56.507482116445317 536.92843348545648 0 536.92843348545648 -2696.7989655803904 0 0 0 0 -20.10821113273164 15.388249668113076 0 15.388249668113076 -1.617323850334826 0 0 0 0 -190.50987240846734 437.39898312314472 0 437.39898312314472 1239.9195718459609 0 0 0 0 208.34488547194633 109.44079657346538 0 109.44079657346538 48.946340887952829 0 0 0 0 -253.70544268899539 166.37472188536049 0 166.37472188536049 77.606586627443903 0 0 0 0 250.47783569046442 229.78460044402527 0 229.78460044402527 84.703842443050235 0 0 0 0 -600.82399110538972 981.34973376033577 0 981.34973376033577 -460.0812992752326 0 0 0 0 -492.86401451512938 499.74786978946941 0 499.74786978946941 1650.410624006392 0 0 0 0 -7.4793132534864526 2.6957390312902874 0 2.6957390312902874 -1.6312427380675123 0 0 0 0 25.858388880937127 712.80803234278937 0 712.80803234278937 -3839.7773450557152 0 0 0 0 -662.08864475540031 1054.5061531800402 0 1054.5061531800402 -1612.5786332684511 0 0 0 0 -136.65475613545277 419.49188664637768 0 419.49188664637768 -1265.7264630815771 0 0 0 0 -13.220244966854807 318.48844019606986 0 318.48844019606986 -1340.6418651545264 0 0 0 0 -80.027240539464401 517.52854972713249 0 517.52854972713249 -1102.4662687288583 0 0 0 0 0.42969589133281261 513.1230896922898 0 513.1230896922898 -1186.3639694844605 0 0 0 0 -30.485422556550475 691.90865473583108 0 691.90865473583108 -1083.9973610885354 0 0 0 0 -23.964236395724583 682.89749953007413 0 682.89749953007413 -1450.0039035175214 0 0 0 0 -0.26616477219795343 496.57203669140654 0 496.57203669140654 -781.05755160886474 0 0 0 0 -135.12922646879451 564.54165200649732 0 564.54165200649732 -713.15556471497257 0 0 0 0 -0.042591131204972044 409.53470993428346 0 409.53470993428346 -542.2501142660185 0 0 0 0 -136.81561502862314 342.80977500281006 0 342.80977500281006 -538.76691714813933 0 0 0 0 -114.23568252992118 275.1510822434866 0 275.1510822434866 -353.3061226821701 0 0 0 0 -265.02893682193098 463.52412477755206 0 463.52412477755206 -414.33678546904412 0 0 0 0 -163.29134151979815 318.89270340843359 0 318.89270340843359 -288.97976792914778 0 0 0 0 -64.874514999653911 352.87273500275478 0 352.87273500275478 -192.41764055320527 0 0 0 0 -65.357482095263549 379.46514359194043 0 379.46514359194043 -366.11571585878846 0 0 0 0 -36.861776904406724 215.00457607681892 0 215.00457607681892 -434.03454506894923 0 0 0 0 -62.637051878293278 248.90096813183118 0 248.90096813183118 -456.51595962673309 0 0 0 0 9.1616956317884615 126.53681545340805 0 126.53681545340805 -249.67955290371538 0 0 0 0 -425.78311998909339 910.81970776962407 0 910.81970776962407 2523.7904950719676 0 0 0 0 185.33958447710029 83.515818735701032 0 83.515818735701032 72.364800023962744 0 0 0 0 -1021.1790764159086 704.3499558039257 0 704.3499558039257 3460.5375188687758 0 0 0 0 38.217556417922538 31.643870369587802 0 31.643870369587802 14.29951665157256 0 0 0 0 -30.000648423651 251.50322341433639 0 251.50322341433639 -679.66513017594116 0 0 0 0 8.8199682070047629 8.218905276773512 0 8.218905276773512 8.7223191073911153 0 0 0 0 -0.25809859230365906 326.92326160986659 0 326.92326160986659 -537.90900892378704 0 0 0 0 376.44245697151928 353.68059887462914 0 353.68059887462914 348.67207115011115 0 0 0 0 0.17341961531201378 327.05341738046081 0 327.05341738046081 552.29272497778948 0 0 0 0 192.99436369605246 378.46395084284086 0 378.46395084284086 406.01993482348553 0 0 0 0 0.14622374621103518 189.37354831697485 0 189.37354831697485 228.37476465329746 0 0 0 0 64.5811148241919 126.64974885270567 0 126.64974885270567 194.2151899189048 0 0 0 0 254.64899174078164 183.85163273843864 0 183.85163273843864 118.88248762495641 0 0 0 0 -48.540674196265172 66.404691006795474 0 66.404691006795474 57.730773966693967 0 0 0 0 -142.73566507409851 175.72717648111939 0 175.72717648111939 42.028013501178066 0 0 0 0 -3.2522595631592424 2.5668021341971325 0 2.5668021341971325 24.581207289413868 0 0 0 0 -324.17711940224399 32.379386619319121 0 32.379386619319121 57.732504698621675 0 0 0 0 1226.4013432013671 1040.7881057436134 0 1040.7881057436134 833.95791098457994 0 0 0 0 -747.62812238562037 -217.00201421370002 0 -217.00201421370002 456.45238825297929 0 0 0 0 -2.7215643908572247 4.0875521572561411 0 4.0875521572561411 11.307496490583588 0 0 0 0 -75.96186073528952 67.753634637989308 0 67.753634637989308 -37.655416146630159 0 0 0 0 -346.52519968629349 382.19194256372612 0 382.19194256372612 1298.8902895362698 0 0 0 0 -139.61068477646768 198.6966405694202 0 198.6966405694202 351.42155546769209 0 0 0 0 140.62865924701327 903.20683680974616 0 903.20683680974616 958.81166135816784 0 0 0 0 106.40832967765164 703.11123425612823 0 703.11123425612823 1369.5859514790027 0 0 0 0 405.22724671341712 384.40358237685359 0 384.40358237685359 328.66439691465712 0 0 0 0 179.93086802771722 584.44252070555103 0 584.44252070555103 892.98396145523293 0 0 0 0 -0.14694219365914721 446.61104714745494 0 446.61104714745494 745.86377510269085 0 0 0 0 52.929350789199816 344.51700441546927 0 344.51700441546927 896.43014095250828 0 0 0 0 -12.886520386731718 212.9621184918542 0 212.9621184918542 601.34573249344248 0 0 0 0 182.13237946106528 391.76786770483159 0 391.76786770483159 143.51908219707548 0 0 0 0 0.10223084452445619 437.9471131339269 0 437.9471131339269 134.73757664504956 0 0 0 0 86.419568048440851 243.42793888632877 0 243.42793888632877 -1063.2871957533885 0 0 0 0 114.58529595989967 245.48021348797192 0 245.48021348797192 -376.89694372524536 0 0 0 0 -103.34440299667767 321.69082196609088 0 321.69082196609088 142.45637688860006 0 0 0 0 -0.13898547983262688 509.91355058613044 0 509.91355058613044 -496.62995244643389 0 0 0 0 -495.57373313320568 696.07174997087895 0 696.07174997087895 -857.77576738190692 0 0 0 0 -111.25708233482874 589.72263918109729 0 589.72263918109729 -738.036982739206 0 0 0 0 57.022522267769091 507.54009293831041 0 507.54009293831041 -186.95961468642781 0 0 0 0 -32.520344069198472 183.57754177981406 0 183.57754177981406 -488.02193814776911 0 0 0 0 -172.94667011757338 477.7285545249506 0 477.7285545249506 -2.9437677211899427 0 0 0 0 -83.067949721778859 405.37746820380562 0 405.37746820380562 587.53517556229781 0 0 0 0 94.131162152370962 586.24892687250349 0 586.24892687250349 24.416784631088376 0 0 0 0 41.879182519594906 255.5309339009691 0 255.5309339009691 180.71749307666323 0 0 0 0 -19.421346379582246 511.06070638309757 0 511.06070638309757 596.80174142216856 0 0 0 0 403.50941699826217 272.636727373545 0 272.636727373545 714.42542255927037 0 0 0 0 -10.758295633335365 707.26119637198281 0 707.26119637198281 716.6691598756006 0 0 0 0 -1.0857548898347886 697.45128157775071 0 697.45128157775071 687.74690309174912 0 0 0 0 501.91626670362893 1005.0386314369389 0 1005.0386314369389 813.77186374481244 0 0 0 0 1.6453175952912602 5.7464875903012285 0 5.7464875903012285 11.752043021857673 0 0 0 0 1364.4644568882977 587.77721434889918 0 587.77721434889918 166.56427633683779 0 0 0 0 142.55141870782245 64.884937374816218 0 64.884937374816218 216.32647440018627 0 0 0 0 -147.98743441406987 721.32898944811313 0 721.32898944811313 1059.1651566233522 0 0 0 0 -120.6079298373661 725.95516831906934 0 725.95516831906934 -403.2209220622608 0 0 0 0 468.00821845538303 613.54063763870545 0 613.54063763870545 -580.17031527744257 0 0 0 0 -233.62057516638015 819.51878808418769 0 819.51878808418769 -589.23438854490814 0 0 0 0 134.71269366904744 507.06660638837457 0 507.06660638837457 -1222.0563761844678 0 0 0 0 -215.75737263579504 970.89880735585393 0 970.89880735585393 -1324.9042604314163 0 0 0 0 103.42664069481543 359.74416607173771 0 359.74416607173771 -801.49992241447035 0 0 0 0 -15.601123886773735 14.478318201442505 0 14.478318201442505 -7.8596872285604604 0 0 0 0 772.76099900749978 -780.26510060812143 0 -780.26510060812143 -4360.9682102188999 0 0 0 0 318.04542894675978 2520.9685710017657 0 2520.9685710017657 -2717.2767107341424 0 0 0 0 -1747.6846389939601 1275.0151715218199 0 1275.0151715218199 -576.49128899219795 0 0 0 0 -435.88028180706897 298.53008998685982 0 298.53008998685982 -1778.6812654762361 0 0 0 0 1979.3887133196404 1360.1668305423445 0 1360.1668305423445 -1951.0746967143932 0 0 0 0 -135.94119744803174 891.08899176947307 0 891.08899176947307 -489.74256123170198 0 0 0 0 -376.23206715476408 1227.0791094515189 0 1227.0791094515189 2.6572287289600354 0 0 0 0 506.6987998818222 944.85686593342689 0 944.85686593342689 84.252609145762108 0 0 0 0 -460.67884987916841 818.97130156150979 0 818.97130156150979 403.37020460946951 0 0 0 0 -274.97713507877779 1303.2610493087668 0 1303.2610493087668 452.85357945835858 0 0 0 0 -476.46158318332164 917.92975124178338 0 917.92975124178338 1017.4997114056823 0 0 0 0 -1045.9616829059087 91.502169335635699 0 91.502169335635699 431.56397489199298 0 0 0 0 -723.31237569652149 514.49996525499591 0 514.49996525499591 961.04938950184351 0 0 0 0 -23.053694139089203 614.07052962879243 0 614.07052962879243 499.05236994683219 0 0 0 0 -424.92900588514749 239.52457487890752 0 239.52457487890752 151.81482939330454 0 0 0 0 -449.49415949775721 124.80105441209525 0 124.80105441209525 -136.70277605376032 0 0 0 0 -100.04425567832368 186.38835675696828 0 186.38835675696828 -90.163350508548319 0 0 0 0 -198.80834565218538 360.02580030218814 0 360.02580030218814 83.363731964869658 0 0 0 0 -300.91645960265305 387.87194682549671 0 387.87194682549671 -295.86985245988762 0 0 0 0 -120.15807928552385 255.78476680948006 0 255.78476680948006 -187.88997951649071 0 0 0 0 -138.70432378476835 226.07202215956204 0 226.07202215956204 -193.31496632532799 0 0 0 0 -321.83602796384366 330.23691295224853 0 330.23691295224853 -140.67840165750749 0 0 0 0 -376.38629022447276 79.604387421626598 0 79.604387421626598 29.456068343530205 0 0 0 0 -877.70251220272621 201.6403021117294 0 201.6403021117294 5.3166026944672922 0 0 0 0 -2.394597500417035 7.2804275082555705 0 7.2804275082555705 5.6225206711113174 0 0 0 0 -2.4879348986132754 11.26232826477559 0 11.26232826477559 32.974591195932021 0 0 0 0 -352.05642333376454 357.98293038026895 0 357.98293038026895 -256.27838622717536 0 0 0 0 -552.55118491669418 387.51027615732892 0 387.51027615732892 -9.2731240614812123 0 0 0 0 191.46400530555911 152.18533659992863 0 152.18533659992863 146.70817024423741 0 0 0 0 218.02433900855249 151.89763171449886 0 151.89763171449886 107.59525100941937 0 0 0 0 56.308461493550567 476.43684447174019 0 476.43684447174019 740.87910500221187 0 0 0 0 345.15089192621235 296.5958534169913 0 296.5958534169913 186.38891522835183 0 0 0 0 86.980064087561914 97.76647345593301 0 97.76647345593301 67.889416506048292 0 0 0 0 -15.221415139269084 221.78300745950764 0 221.78300745950764 334.22089006291026 0 0 0 0 107.05950815830147 179.53780414709763 0 179.53780414709763 223.15851110215954 0 0 0 0 163.68668798005092 64.454556069467799 0 64.454556069467799 25.571473621501355 0 0 0 0 -19.967282945454485 18.290255100028446 0 18.290255100028446 17.534539045597114 0 0 0 0 17.04098577061086 27.251655737549299 0 27.251655737549299 55.903700897812087 0 0 0 0 81.388337612428586 130.64891888026068 0 130.64891888026068 34.916027445404325 0 0 0 0 -24.445377692376496 94.869582299288595 0 94.869582299288595 23.018166328243751 0 0 0 0 7.2376245330815436 125.59241413448763 0 125.59241413448763 -0.32259377376612974 0 0 0 0 -31.285864876888809 64.558725039763885 0 64.558725039763885 26.841612779313436 0 0 0 0 -37.103390268517103 42.375187955086119 0 42.375187955086119 -1.2354998156610577 0 0 0 0 0.45526181611057837 61.068012669427844 0 61.068012669427844 16.145787249595742 0 0 0 0 -43.530605385720264 34.403161088393972 0 34.403161088393972 27.401880132660153 0 0 0 0 -74.448168920673197 52.913739922450986 0 52.913739922450986 39.927693375204399 0 0 0 0 -21.155145717128377 34.632678396413155 0 34.632678396413155 64.409160724396003 0 0 0 0 -96.653255833487492 111.26714666096814 0 111.26714666096814 70.445573474702542 0 0 0 0 -71.651160048466409 105.15758175057999 0 105.15758175057999 56.33200705065974 0 0 0 0 -65.437317732041038 83.253969628696552 0 83.253969628696552 -7.7661496446865286 0 0 0 0 -174.96185490017524 125.19618656607781 0 125.19618656607781 164.27765397878829 0 0 0 0 -204.56760152517018 212.92260555442203 0 212.92260555442203 -29.168846102373209 0 0 0 0 -154.73912348240265 202.48658857139526 0 202.48658857139526 -46.370178767800098 0 0 0 0 -250.40673462257837 95.937668415768712 0 95.937668415768712 14.292787164507899 0 0 0 0 -43.243594313360518 28.901464508136996 0 28.901464508136996 28.95463038746675 0 0 0 0 -2.385858761047345 0.53669056884984911 0 0.53669056884984911 30.441593161112678 0 0 0 0 -217.57380161936817 59.337280072094018 0 59.337280072094018 51.99263940298988 0 0 0 0 -139.42795368819498 200.03648241217161 0 200.03648241217161 -72.525951552230254 0 0 0 0 -116.57976685883477 163.54431759712315 0 163.54431759712315 -40.836572952772258 0 0 0 0 -93.931408795237076 223.44596269317844 0 223.44596269317844 -64.048745738582511 0 0 0 0 -61.570713495428208 217.35288536667213 0 217.35288536667213 -59.523542256167843 0 0 0 0 -108.24848410807317 237.97456228333613 0 237.97456228333613 -60.122961009002893 0 0 0 0 -54.099591657897122 94.808412389100539 0 94.808412389100539 -44.391488208904633 0 0 0 0 -107.03631235309877 238.71859628541279 0 238.71859628541279 -40.379663408326451 0 0 0 0 -133.42609575363167 180.62599766623316 0 180.62599766623316 -143.57654973515309 0 0 0 0 -45.048518424889608 84.783900861307416 0 84.783900861307416 27.322956922973361 0 0 0 0 -156.82191248622257 187.59427023293392 0 187.59427023293392 -4.8209826097663608 0 0 0 0 38.520859739364823 -13.666849277254187 0 -13.666849277254187 -129.93644709029195 0 0 0 0 -64.35831043879989 127.22510221010182 0 127.22510221010182 -80.142982748845483 0 0 0 0 1038.752241971757 17.902682059107974 0 17.902682059107974 -1322.6982140874338 0 0 0 0 -1.4022996438414452 26.523481221342166 0 26.523481221342166 -17.604369514346843 0 0 0 0 -888.32617062990903 514.31115334750075 0 514.31115334750075 579.48736855113748 0 0 0 0 14.394291583041195 141.29618784345803 0 141.29618784345803 -0.48280104614241282 0 0 0 0 -12.608881339020741 102.9924435800622 0 102.9924435800622 66.430531423076644 0 0 0 0 28.133253154431316 69.604691651326419 0 69.604691651326419 -22.34285095518392 0 0 0 0 15.447710095322691 133.1386341786565 0 133.1386341786565 -8.9477709981510998 0 0 0 0 11.23794265446486 143.32819564841338 0 143.32819564841338 6.6233041642608441 0 0 0 0 -20.884012228323627 102.45691322895898 0 102.45691322895898 -9.3961587348263897 0 0 0 0 -110.33442034952817 150.27863764938499 0 150.27863764938499 24.662897959940096 0 0 0 0 5.6340782722691074 124.03516753585427 0 124.03516753585427 9.0496778772794642 0 0 0 0 -1.7413498887214018 145.94372652428788 0 145.94372652428788 -26.754831472843222 0 0 0 0 19.812239242848591 358.3799171137407 0 358.3799171137407 154.76080821332482 0 0 0 0 -264.97209160253988 272.56764580649178 0 272.56764580649178 225.95356265566807 0 0 0 0 -78.706600463250652 255.22272197774146 0 255.22272197774146 126.43581750511657 0 0 0 0 -292.22151689240127 249.03175860973715 0 249.03175860973715 5.5482894722372293 0 0 0 0 -266.97879103300511 296.50523411591348 0 296.50523411591348 79.05760441016173 0 0 0 0 -421.34494375865324 356.07575929913583 0 356.07575929913583 152.79034152700297 0 0 0 0 -3.3527251613092801 79.54718128507551 0 79.54718128507551 -29.634725953039265 0 0 0 0 52.962352163391188 55.103473092131026 0 55.103473092131026 6.5078383610671153 0 0 0 0 -149.28750238964858 186.43516942986389 0 186.43516942986389 -53.601919875305612 0 0 0 0 143.3482497635996 -7.4687355775895412 0 -7.4687355775895412 277.45933158564731 0 0 0 0 136.92264537414303 98.086494198920263 0 98.086494198920263 131.24298094125697 0 0 0 0 216.36089251050726 -82.774611397406261 0 -82.774611397406261 161.06032776577922 0 0 0 0 10.393723727816678 9.8122276126112808 0 9.8122276126112808 8.6792782369484485 0 0 0 0 68.810309530701488 -177.14345315426544 0 -177.14345315426544 149.68564833023993 0 0 0 0 -2.3303658329724328 54.157480925293669 0 54.157480925293669 14.208896389179301 0 0 0 0 260.68067234703631 77.085508963747998 0 77.085508963747998 124.43975656307884 0 0 0 0 -694.7216825667565 606.39611695046915 0 606.39611695046915 -707.75372498406068 0 0 0 0 39.14831017241147 82.464891640318797 0 82.464891640318797 -28.122279726141471 0 0 0 0 29.668701538080697 -4.1193640477047495 0 -4.1193640477047495 -5.5590546358808979 0 0 0 0 -548.18538687954424 164.51991573598207 0 164.51991573598207 57.380387278022681 0 0 0 0 -690.22135058202548 657.84967792184034 0 657.84967792184034 -280.88430949747271 0 0 0 0 -242.61897889708052 661.74713330011582 0 661.74713330011582 -1146.7513147137724 0 0 0 0 -3561.2929706127179 1270.7627966827204 0 1270.7627966827204 -359.76253496964637 0 0 0 0 -859.84245722117703 561.52400418716115 0 561.52400418716115 -474.01359479405801 0 0 0 0 -1076.2120245966544 1616.6033988878125 0 1616.6033988878125 -1750.016453362412 0 0 0 0 58.226763063226826 900.36309627519222 0 900.36309627519222 -891.4087891852032 0 0 0 0 -681.422531004966 1263.5907975515365 0 1263.5907975515365 -1362.883189561544 0 0 0 0 114.56483569892589 783.02715872952103 0 783.02715872952103 -671.88603465678898 0 0 0 0 -680.58422128626262 1365.4454735119798 0 1365.4454735119798 -317.39997852812667 0 0 0 0 -487.5948584304133 1043.6145438189124 0 1043.6145438189124 218.23064537379832 0 0 0 0 188.42621989622785 -1671.8543920618226 0 -1671.8543920618226 939.3410308311577 0 0 0 0 168.73668943755911 22.890879708204011 0 22.890879708204011 -193.68342145904899 0 0 0 0 40.874807375228244 77.098349442731944 0 77.098349442731944 -56.235466042743212 0 0 0 0 -131.40654348439421 55.070171936764382 0 55.070171936764382 -41.364774408910307 0 0 0 0 35.195480103287309 -4.0805958790591603 0 -4.0805958790591603 -11.106160165236076 0 0 0 0 -81.907566377904004 208.52404784874489 0 208.52404784874489 -46.321544092934346 0 0 0 0 7.7466809788020328 141.85420811571021 0 141.85420811571021 -60.141378190106479 0 0 0 0 -29.240261651051696 211.17306306944374 0 211.17306306944374 -89.006414604824386 0 0 0 0 -72.228063812101027 162.11801503079914 0 162.11801503079914 -13.254096782700799 0 0 0 0 -62.75566924305167 216.33952099565067 0 216.33952099565067 -172.91762747097528 0 0 0 0 -63.899335455353139 194.54531142464839 0 194.54531142464839 -91.437924319921876 0 0 0 0 -83.746345097086305 227.94499690619114 0 227.94499690619114 -123.6272983597155 0 0 0 0 -134.01663830702455 273.92783617218629 0 273.92783617218629 -110.14894593773352 0 0 0 0 -0.21189939772011712 228.56411833727907 0 228.56411833727907 -206.17617557338963 0 0 0 0 -68.867551265244401 138.42091915076844 0 138.42091915076844 -205.4375666497217 0 0 0 0 2.0734793752490077 217.46692444015935 0 217.46692444015935 -242.42621886877168 0 0 0 0 48.577724798611598 150.64805780585448 0 150.64805780585448 -148.98216060949198 0 0 0 0 28.454637448885478 277.57588241170743 0 277.57588241170743 -124.61050646555668 0 0 0 0 175.38903420214774 352.35139802185586 0 352.35139802185586 51.075055042514578 0 0 0 0 60.225180022047425 319.34298748830952 0 319.34298748830952 166.22981147600512 0 0 0 0 -79.492769784206757 229.05162397721142 0 229.05162397721142 -1.6941601479920791 0 0 0 0 35.346750039956532 199.1858828299155 0 199.1858828299155 -68.529586457822006 0 0 0 0 249.76701320032589 166.15640747289581 0 166.15640747289581 -64.623910263297148 0 0 0 0 135.20264127088012 208.51656293038104 0 208.51656293038104 31.950214009542833 0 0 0 0 484.73082917701686 96.075822936632903 0 96.075822936632903 -30.062673082647962 0 0 0 0 -21.587561122449927 64.982841828051704 0 64.982841828051704 -58.885720834504752 0 0 0 0 4.5705037648154132 31.039616555402546 0 31.039616555402546 -4.5641001820854399 0 0 0 0 -5772.1448108943296 1903.4107035228517 0 1903.4107035228517 -3266.7611728078191 0 0 0 0 -7429.7542983457097 -403.10843646441936 0 -403.10843646441936 3841.3975039260404 0 0 0 0 180.71420561161358 -28.324794476196985 0 -28.324794476196985 -21.213393551792251 0 0 0 0 27.471455155871809 -14.511472984231659 0 -14.511472984231659 -17.149777670769254 0 0 0 0 309.91175053879851 -90.353363375492336 0 -90.353363375492336 -1085.1178634393364 0 0 0 0 -1160.5881175137911 1887.0598209448635 0 1887.0598209448635 -159.87189227790805 0 0 0 0 480.70141393825179 341.88668605418934 0 341.88668605418934 70.833194262493635 0 0 0 0 265.00282900419552 485.23581485252726 0 485.23581485252726 281.81220842907351 0 0 0 0 605.02739577426109 226.03709125529713 0 226.03709125529713 404.03108556162624 0 0 0 0 -3800.0354636208649 2481.1935158567048 0 2481.1935158567048 -122.49911502630857 0 0 0 0 5.4448265895365466 8.5023474971113444 0 8.5023474971113444 4.5156533803636023 0 0 0 0 2880.5722830082814 -109.55045500042615 0 -109.55045500042615 -973.73799724088167 0 0 0 0 -3088.4874962494941 623.46590281747194 0 623.46590281747194 385.23697923852887 0 0 0 0 75.234733010904165 1117.0621354799296 0 1117.0621354799296 -956.34576381072111 0 0 0 0 -1070.4092301126511 747.14514323218464 0 747.14514323218464 -84.685578831369639 0 0 0 0 707.02247424761299 -45.985861812996518 0 -45.985861812996518 -1284.2905275051453 0 0 0 0 -238.8271099885751 618.47980334983731 0 618.47980334983731 -1366.5163617013895 0 0 0 0 -1208.3387601300419 1751.39249807543 0 1751.39249807543 -1946.2575617982075 0 0 0 0 -3818.5673612437822 -1522.8355590779865 0 -1522.8355590779865 738.96557669393951 0 0 0 0 709.29241029846889 -206.56711435593752 0 -206.56711435593752 -39.914376297936542 0 0 0 0 -7.9631720437481022 12.378426061804646 0 12.378426061804646 -19.20255788696582 0 0 0 0 2715.2726173796109 746.64830588782206 0 746.64830588782206 -592.8307612544595 0 0 0 0 2257.573439456406 -249.38049091472203 0 -249.38049091472203 -635.09781018869398 0 0 0 0 2048.5245584616787 2125.5412931621104 0 2125.5412931621104 -710.47534435306807 0 0 0 0 -33.539166934447394 44.020486714664855 0 44.020486714664855 -41.794320329551141 0 0 0 0 -2420.7403178887616 -2119.8106258909538 0 -2119.8106258909538 -730.6410468480899 0 0 0 0 166.55333580868319 682.91578060980464 0 682.91578060980464 941.54924318254052 0 0 0 0 -42.722684053880357 54.323035422931412 0 54.323035422931412 -51.092237551751282 0 0 0 0 -635.33196420506556 991.39187707646374 0 991.39187707646374 351.70945445698453 0 0 0 0 -19.531154071252001 34.914161570502984 0 34.914161570502984 -33.473695007643727 0 0 0 0 -2071.1806911330204 387.29681789049937 0 387.29681789049937 -569.77386557589671 0 0 0 0 129.01713486071094 -309.04192611915278 0 -309.04192611915278 -241.58467731848214 0 0 0 0 -2148.2033237130527 281.89527529360566 0 281.89527529360566 404.34283577394672 0 0 0 0 3.9959631806597073 13.156049869428017 0 13.156049869428017 -21.285540001180152 0 0 0 0 -1200.6020692474267 -403.12482228035879 0 -403.12482228035879 541.93367456959095 0 0 0 0 -3808.4147177332634 -1341.030869096041 0 -1341.030869096041 -1137.8301694467664 0 0 0 0 -26.110552471244318 21.385605324053472 0 21.385605324053472 -18.119050997670158 0 0 0 0 387.21075081711751 1876.4309777861527 0 1876.4309777861527 -1302.3489461641439 0 0 0 0 778.18284067294007 748.29688387488022 0 748.29688387488022 -1045.1957922681468 0 0 0 0 -751.47784418662195 1421.6834459220336 0 1421.6834459220336 -1163.1819748776834 0 0 0 0 -2368.5350830726675 2774.9248172179869 0 2774.9248172179869 -1214.9130188333365 0 0 0 0 -1066.5989663770015 581.84446199108061 0 581.84446199108061 -574.57317353073449 0 0 0 0 -1265.7087725279198 456.53896182794779 0 456.53896182794779 -625.27164372472907 0 0 0 0 1613.8001437619241 -88.340667584176117 0 -88.340667584176117 381.85110331202668 0 0 0 0 1378.8109629343962 576.72307910436575 0 576.72307910436575 -585.84416519762453 0 0 0 0 588.02857712870173 40.761984070428298 0 40.761984070428298 -484.17270055350036 0 0 0 0 520.67637304960226 941.51801414128386 0 941.51801414128386 -240.32711274022586 0 0 0 0 1436.6981569648924 550.76006742181016 0 550.76006742181016 -545.28598524932022 0 0 0 0 1282.0654702421743 297.35475152124127 0 297.35475152124127 134.87322528400182 0 0 0 0 2804.7795431513869 492.18565459932324 0 492.18565459932324 -454.26600874506403 0 0 0 0 1488.4831262505058 626.25386250576889 0 626.25386250576889 -178.15310197812505 0 0 0 0 1112.9566015637392 521.73675067298063 0 521.73675067298063 31.048329269982787 0 0 0 0 460.06855308385275 711.24901958855844 0 711.24901958855844 -210.0391963443908 0 0 0 0 668.55918522720458 991.63781949656732 0 991.63781949656732 -108.52969850541012 0 0 0 0 61.962959829572355 965.25835999131959 0 965.25835999131959 184.36398353648838 0 0 0 0 491.89794396407888 840.28624452718759 0 840.28624452718759 207.31245809688699 0 0 0 0 561.14054588740692 678.41884572192976 0 678.41884572192976 411.59629344717177 0 0 0 0 779.91831605134212 720.17570093424547 0 720.17570093424547 48.59218091828734 0 0 0 0 -24.388371564636088 51.29127632084635 0 51.29127632084635 -65.447548632171333 0 0 0 0 -898.25693141754891 404.32636245658978 0 404.32636245658978 266.98583116839336 0 0 0 0 151.90734712700214 754.13320729252519 0 754.13320729252519 327.58488863461753 0 0 0 0 -626.96475319100136 528.72180593041412 0 528.72180593041412 -281.83254071751799 0 0 0 0 80.804734740544518 953.14471010322495 0 953.14471010322495 -122.76561932759432 0 0 0 0 63.023688790366577 1251.4316408872264 0 1251.4316408872264 -372.24901403614058 0 0 0 0 -463.47995575877576 179.73793862736784 0 179.73793862736784 -73.210074888709642 0 0 0 0 -1631.7811759787146 1458.0417214158588 0 1458.0417214158588 -486.98735050362666 0 0 0 0 -2812.3282521183282 -381.63477774259809 0 -381.63477774259809 -140.9816041139602 0 0 0 0 278.09745512170775 442.9695947548862 0 442.9695947548862 -981.3973488331103 0 0 0 0 -474.75602743633499 677.11905369825035 0 677.11905369825035 -491.11976579541806 0 0 0 0 390.55678701912984 521.75652962968888 0 521.75652962968888 -1225.8613918155352 0 0 0 0 -484.65929392862745 511.96751978002794 0 511.96751978002794 -1949.4755281820544 0 0 0 0 -1781.2874184213069 527.38784732744716 0 527.38784732744716 -837.55251680121728 0 0 0 0 -1235.536818067696 341.80587457081674 0 341.80587457081674 -878.55586110006698 0 0 0 0 -635.3570209134632 665.95416598435258 0 665.95416598435258 -1326.1358315146063 0 0 0 0 -174.43881988443172 -669.85080733737959 0 -669.85080733737959 -1446.4626760341271 0 0 0 0 -6.2341286794569086 -12.909070404245242 0 -12.909070404245242 -3.7523002418959095 0 0 0 0 -553.67913929306997 1080.7427798044037 0 1080.7427798044037 -1394.2714583418274 0 0 0 0 -183.677003751538 -138.37048637416956 0 -138.37048637416956 -407.60039639159277 0 0 0 0 13.419196417467901 -7.1888703303484363 0 -7.1888703303484363 -376.69102342551196 0 0 0 0 305.16018810740206 -364.9064593632138 0 -364.9064593632138 -1326.1064647612511 0 0 0 0 -235.90504353643701 -63.91750978721393 0 -63.91750978721393 -719.03684689605143 0 0 0 0 459.33291214593919 3.5593812694860389 0 3.5593812694860389 -779.95738361138137 0 0 0 0 1236.7456870228052 -433.2674678523581 0 -433.2674678523581 -711.61811989026319 0 0 0 0 2195.961397383282 756.44759928310123 0 756.44759928310123 -1143.9635726161068 0 0 0 0 0.38846100787419502 1.5308199756456702 0 1.5308199756456702 -8.3722836805162331 0 0 0 0 4010.2426721394149 -265.37247789342291 0 -265.37247789342291 -1063.6969641991855 0 0 0 0 -351.3932872453297 551.87689054510156 0 551.87689054510156 -507.9634304341962 0 0 0 0 356.84184597816784 923.33396798476679 0 923.33396798476679 -1138.6925117226574 0 0 0 0 854.79898615523416 120.51708405327372 0 120.51708405327372 -774.54394621593019 0 0 0 0 78.315192310823477 55.228607680026471 0 55.228607680026471 -649.07401175958148 0 0 0 0 96.445589241173366 299.44684106257591 0 299.44684106257591 -320.18709385740658 0 0 0 0 -181.32198252935268 610.29067220270008 0 610.29067220270008 -494.69506677823665 0 0 0 0 115.31433474797814 240.83236793900869 0 240.83236793900869 -153.77236707590782 0 0 0 0 200.10194248949119 208.59369048401277 0 208.59369048401277 -103.76105596019715 0 0 0 0 -23.87409035121334 144.69935768172019 0 144.69935768172019 -42.293866296996896 0 0 0 0 -225.50540441830526 445.41981662624016 0 445.41981662624016 674.19355577607541 0 0 0 0 -329.46145330266154 -189.5226522734456 0 -189.5226522734456 462.00639732961099 0 0 0 0 249.6624859992844 504.50956608342017 0 504.50956608342017 -365.91113125637366 0 0 0 0 -425.95505136241263 210.90244635020235 0 210.90244635020235 931.56742053585913 0 0 0 0 703.6866091946722 -459.03521311819077 0 -459.03521311819077 124.16062721953494 0 0 0 0 -24.135451185895363 36.698753084136115 0 36.698753084136115 -295.86840919547467 0 0 0 0 -35.375415742968698 144.72588880668962 0 144.72588880668962 -34.23496115756361 0 0 0 0 -132.03612470591543 -4.5976520471867843 0 -4.5976520471867843 -309.83396231656661 0 0 0 0 -18.492879225965332 28.231578680202574 0 28.231578680202574 -33.198407660146728 0 0 0 0 78.686670084702655 27.732024167748875 0 27.732024167748875 -368.32911624189001 0 0 0 0 -64.271897575159528 121.39057710553243 0 121.39057710553243 44.701539867730389 0 0 0 0 -173.74598587302171 0.37532468047356815 0 0.37532468047356815 206.99997024072218 0 0 0 0 -373.70442155213277 350.2205002928124 0 350.2205002928124 233.74871279493709 0 0 0 0 -650.26438829560107 401.6871295628921 0 401.6871295628921 238.59330364520429 0 0 0 0 1012.5648070448806 539.24014322168091 0 539.24014322168091 -1200.0635879266301 0 0 0 0 -1168.98274366436 -728.78320520016928 0 -728.78320520016928 601.85841087489644 0 0 0 0 -948.93589714819973 959.37635868924417 0 959.37635868924417 -519.1872927728532 0 0 0 0 118.97758669573523 131.4419356077251 0 131.4419356077251 -1930.3128095210332 0 0 0 0 -263.96921974547877 82.020431846604652 0 82.020431846604652 -338.78530657171768 0 0 0 0 -671.71895024422111 -11.847088381528181 0 -11.847088381528181 369.1155287152942 0 0 0 0 -12.535652468143923 11.977343487359825 0 11.977343487359825 -4.9944101242609529 0 0 0 0 165.76070212291961 30.521652297778019 0 30.521652297778019 -853.43401776702922 0 0 0 0 -43.761571454080041 21.147017468170993 0 21.147017468170993 -7.8253516127698699 0 0 0 0 -180.09151995992579 146.48624413100811 0 146.48624413100811 -79.612529093624289 0 0 0 0 -26.55650956313184 14.352707125382949 0 14.352707125382949 -458.77543498040723 0 0 0 0 27.566787072407692 64.388566055341926 0 64.388566055341926 49.796307523763623 0 0 0 0 -72.420157745697963 40.756928603483047 0 40.756928603483047 2.4582263713677062 0 0 0 0 -90.511866918805026 201.74294174104443 0 201.74294174104443 92.923044185788058 0 0 0 0 -27.589232675658423 100.75835910051592 0 100.75835910051592 -29.614696349573933 0 0 0 0 -107.67851948830503 139.90430650543658 0 139.90430650543658 279.58566034710157 0 0 0 0 -105.22399338256218 214.3388139649287 0 214.3388139649287 -45.420549696267472 0 0 0 0 -81.875237503874814 136.95427232924885 0 136.95427232924885 -45.154721321392572 0 0 0 0 38.600703781422339 41.849693733547539 0 41.849693733547539 51.988544483810614 0 0 0 0 -390.70742700787014 179.50702422084461 0 179.50702422084461 808.57088019685671 0 0 0 0 -267.17754158944444 424.48339766180175 0 424.48339766180175 -333.77717801663084 0 0 0 0 196.08354131750821 717.30384098886884 0 717.30384098886884 -201.15333789289616 0 0 0 0 176.39171581386472 787.87894934367466 0 787.87894934367466 -383.97360965565349 0 0 0 0 327.12059312465863 1428.2371693377336 0 1428.2371693377336 -581.99895048681265 0 0 0 0 1024.5843360104336 642.32370903431638 0 642.32370903431638 -392.5561848349721 0 0 0 0 1273.2377160294855 1321.0818655968751 0 1321.0818655968751 -584.79796510048891 0 0 0 0 -42.709255623405625 -878.95243158191965 0 -878.95243158191965 -426.36702492162112 0 0 0 0 35.562715585158685 65.536594032876252 0 65.536594032876252 46.76127036713752 0 0 0 0 -5327.0403657850693 1688.4789390683009 0 1688.4789390683009 2551.1658874528334 0 0 0 0 -2763.8413173243753 6546.1507097703261 0 6546.1507097703261 -4268.9645614071487 0 0 0 0 -7.1151538275867381 12.510178310158352 0 12.510178310158352 -25.759593132171133 0 0 0 0 403.87460255692713 -130.56077735589747 0 -130.56077735589747 -1444.6278118738974 0 0 0 0 -4953.9261746022239 -1045.9379647803908 0 -1045.9379647803908 670.89316671951929 0 0 0 0 -2246.8121675612638 1067.8700284353281 0 1067.8700284353281 -712.13768233985138 0 0 0 0 -117.05551403510617 174.24626556874682 0 174.24626556874682 -83.67874332843374 0 0 0 0 -140.68131025598268 188.30508717002704 0 188.30508717002704 -83.902345528231933 0 0 0 0 -56.969373957600268 62.345421492260023 0 62.345421492260023 -16.054509809699685 0 0 0 0 -139.82050163332315 183.42522724586161 0 183.42522724586161 -85.720984346192381 0 0 0 0 -159.88112041135901 122.03271690978363 0 122.03271690978363 45.045443967488609 0 0 0 0 -196.90627680683428 153.95305331603822 0 153.95305331603822 49.523791771071046 0 0 0 0 -198.03632485452908 160.92385690552646 0 160.92385690552646 6.8388379708085267 0 0 0 0 -439.42728937087668 183.78970331780329 0 183.78970331780329 93.774445378272503 0 0 0 0 -275.21445367250999 240.49292441660691 0 240.49292441660691 -26.908733859188942 0 0 0 0 -263.64482521286027 174.36382904694131 0 174.36382904694131 -92.887191508509204 0 0 0 0 -136.79805377075536 284.53706551510084 0 284.53706551510084 20.375702274453033 0 0 0 0 -90.618435342239536 228.40132301997858 0 228.40132301997858 -27.388440320802147 0 0 0 0 -42.430801921740851 27.629788906206151 0 27.629788906206151 9.2319023992528102 0 0 0 0 49.763205088544055 478.85812174369721 0 478.85812174369721 -567.0558088244743 0 0 0 0 -71.371196318556031 248.88173668050968 0 248.88173668050968 195.13990539829683 0 0 0 0 16.112029501650056 78.643022228790855 0 78.643022228790855 26.042077525296513 0 0 0 0 -88.679800432315034 36.826419919440745 0 36.826419919440745 17.085649153929594 0 0 0 0 -219.76776046849409 99.378698228862049 0 99.378698228862049 313.21881737047443 0 0 0 0 -158.16363568189263 264.21854687612722 0 264.21854687612722 -71.864008941789507 0 0 0 0 -21.988297045632862 -98.338537114261044 0 -98.338537114261044 149.85784402257559 0 0 0 0 -112.41040972484734 148.60761155025057 0 148.60761155025057 72.410350591523638 0 0 0 0 16.728013653421229 46.243332285454748 0 46.243332285454748 44.055953966733426 0 0 0 0 -247.11928196333974 160.57663407250493 0 160.57663407250493 164.77798030393024 0 0 0 0 -644.14673813025183 496.72070226917731 0 496.72070226917731 48.300991931024328 0 0 0 0 -482.51149859832276 -0.089869279647246003 0 -0.089869279647246003 117.50028526599635 0 0 0 0 -336.5193405509126 346.04550130667849 0 346.04550130667849 121.21927394024897 0 0 0 0 -346.72040625914815 276.02243903528324 0 276.02243903528324 -74.169351850054227 0 0 0 0 -358.4603417362523 64.76073545629697 0 64.76073545629697 265.92985663948821 0 0 0 0 459.04402175734867 202.70739170511115 0 202.70739170511115 91.208931558573568 0 0 0 0 -1153.3497090634519 315.63712617834335 0 315.63712617834335 80.872006143215913 0 0 0 0 -1265.644805811331 655.42332250100299 0 655.42332250100299 607.98711640150213 0 0 0 0 -1139.6700588134481 857.55562930457199 0 857.55562930457199 239.6984701736983 0 0 0 0 -781.13849455181844 949.05299098816067 0 949.05299098816067 -540.75400686370267 0 0 0 0 -930.91017031684169 900.08388599012324 0 900.08388599012324 243.05530956085022 0 0 0 0 -1343.1362271760554 1538.1784848676898 0 1538.1784848676898 -626.74131833297724 0 0 0 0 -114.86454294008611 124.33533879465958 0 124.33533879465958 96.437310055263652 0 0 0 0 -1744.7901603813243 960.34617302672905 0 960.34617302672905 573.98528487893782 0 0 0 0 -1105.8536994461056 276.34756893179724 0 276.34756893179724 869.83651621537501 0 0 0 0 982.27693579980769 491.87198933341824 0 491.87198933341824 -4534.7230330916645 0 0 0 0 -4186.1252527723773 -931.81252032902012 0 -931.81252032902012 4778.9529130757255 0 0 0 0 -78.216958229580229 51.054185983521052 0 51.054185983521052 13.999551502334842 0 0 0 0 -1037.4078069477255 -384.31107816666372 0 -384.31107816666372 328.44277719130787 0 0 0 0 -398.25731451620231 973.26572422485515 0 973.26572422485515 -1585.6429490020819 0 0 0 0 -36.649838426179372 2.5779924473721785 0 2.5779924473721785 -0.61533874673279954 0 0 0 0 56.717430159442301 209.54961553372777 0 209.54961553372777 -310.18745234228663 0 0 0 0 -1130.2720164434577 -151.47742207960619 0 -151.47742207960619 476.92063242366748 0 0 0 0 248.6437303527855 89.617870204821884 0 89.617870204821884 -379.36141979866079 0 0 0 0 -541.74985433582333 1426.0955255326999 0 1426.0955255326999 408.13176369350185 0 0 0 0 -98.567297056874253 34.317404551550396 0 34.317404551550396 27.333199222301857 0 0 0 0 -1043.5785128588795 -482.2822748921734 0 -482.2822748921734 -1386.3570920474958 0 0 0 0 -2830.5371273186356 -1453.1413423428171 0 -1453.1413423428171 -1142.1301036483728 0 0 0 0 240.28814348221931 538.71885115183341 0 538.71885115183341 -72.645090749572773 0 0 0 0 642.52648319789296 897.64463518707134 0 897.64463518707134 -171.09939191717058 0 0 0 0 -2452.2787728728727 25.261301756759167 0 25.261301756759167 243.70533507485015 0 0 0 0 -21.772369686167366 69.029882874877657 0 69.029882874877657 -57.307928658802396 0 0 0 0 374.53483660127677 491.94431965910462 0 491.94431965910462 -24.748977872632167 0 0 0 0 266.63922592729796 786.38373057817273 0 786.38373057817273 -472.93337141882603 0 0 0 0 -1025.3101086869283 107.1849545140567 0 107.1849545140567 58.121309345918235 0 0 0 0 -574.5128435890947 939.93024952323367 0 939.93024952323367 -38.836790680886224 0 0 0 0 4.5590459402570787 -5.212693263947159 0 -5.212693263947159 -12.443743251811664 0 0 0 0 1187.0097467035448 896.20643392817578 0 896.20643392817578 -187.6163136256755 0 0 0 0 501.03317713072465 706.66163041769778 0 706.66163041769778 502.57475545455236 0 0 0 0 95.988932378963682 97.432998939667243 0 97.432998939667243 -118.96005362050539 0 0 0 0 -101.2328366565489 710.65692631340244 0 710.65692631340244 29.642713972413731 0 0 0 0 330.83731797468499 123.91356971073947 0 123.91356971073947 -98.989252622744971 0 0 0 0 173.23842806083849 255.1031694014564 0 255.1031694014564 156.63661629533453 0 0 0 0 244.66130539176811 290.28781561681171 0 290.28781561681171 159.70131368814327 0 0 0 0 -62.856781390008109 179.17710729807186 0 179.17710729807186 417.37207755631789 0 0 0 0 64.582825799703357 87.903699445479518 0 87.903699445479518 -114.11566225578012 0 0 0 0 7.3775875499508174 34.451802380637474 0 34.451802380637474 17.845791016078621 0 0 0 0 191.83650010289421 230.38417554264379 0 230.38417554264379 82.585200480098138 0 0 0 0 169.55105965353141 283.88634863494735 0 283.88634863494735 194.68860687467895 0 0 0 0 242.66961301329138 282.8002139544551 0 282.8002139544551 110.97130015725998 0 0 0 0 160.13068597743404 263.81031991362761 0 263.81031991362761 152.26240680893898 0 0 0 0 -103.39791618259102 116.06749001222349 0 116.06749001222349 73.427480990533681 0 0 0 0 42.882608267097908 105.7816291894934 0 105.7816291894934 -124.27183074125293 0 0 0 0 263.95849926974188 336.46902192802463 0 336.46902192802463 245.69693188436213 0 0 0 0 -123.69669668999268 336.65081716178247 0 336.65081716178247 366.44158635663189 0 0 0 0 10.917001832500233 30.402222119113588 0 30.402222119113588 29.184980824596835 0 0 0 0 453.79659441274998 517.15118179102774 0 517.15118179102774 370.41725268648406 0 0 0 0 365.34092886660073 432.42816087593383 0 432.42816087593383 332.89419072848432 0 0 0 0 349.6939392061322 428.21773098431095 0 428.21773098431095 349.82514289809478 0 0 0 0 228.40405917320459 534.38332027340039 0 534.38332027340039 541.48093909668091 0 0 0 0 212.28854442710872 356.73215751907537 0 356.73215751907537 407.53706129455202 0 0 0 0 481.60931728311698 547.45536821644509 0 547.45536821644509 417.97361424463816 0 0 0 0 325.64366410599905 337.18622149959856 0 337.18622149959856 193.98297890320191 0 0 0 0 -187.04397512954893 578.41635017549152 0 578.41635017549152 180.35050534824404 0 0 0 0 553.10622656044143 269.60299002016018 0 269.60299002016018 -1560.048593181878 0 0 0 0 4.5244771786586853 3.9107711463875887 0 3.9107711463875887 -12.895371754596072 0 0 0 0 -324.37139690660842 223.93309943737381 0 223.93309943737381 -1046.2029394759538 0 0 0 0 -50.918697514629457 287.80621725656511 0 287.80621725656511 -1558.8996572608826 0 0 0 0 127.28404939483153 80.983229693688372 0 80.983229693688372 -1046.0747707255471 0 0 0 0 137.91163404920007 171.18473177723718 0 171.18473177723718 -825.73219240315848 0 0 0 0 -176.94884126658144 48.209387770374747 0 48.209387770374747 -924.85025421563 0 0 0 0 450.96847004364827 480.7188949508211 0 480.7188949508211 -1412.4255233462343 0 0 0 0 355.9243948757321 803.09030533051998 0 803.09030533051998 -482.12123263850845 0 0 0 0 81.419602377427509 784.60223474955183 0 784.60223474955183 -115.49435444217943 0 0 0 0 60.068711945190444 616.61793862314971 0 616.61793862314971 -383.81009580582895 0 0 0 0 18.316380110642058 510.86892942565009 0 510.86892942565009 -279.24747482432281 0 0 0 0 24.568059404133237 531.63342442318333 0 531.63342442318333 -411.79901579042689 0 0 0 0 -38.418194150086492 376.38306042619115 0 376.38306042619115 -356.03171660149928 0 0 0 0 83.473960839095525 353.88530206823634 0 353.88530206823634 -446.64201663040922 0 0 0 0 127.77676641734433 178.56693298798837 0 178.56693298798837 -828.31650259231969 0 0 0 0 269.39841204743425 569.50539700761283 0 569.50539700761283 -895.67789573057189 0 0 0 0 95.665078035701299 245.00385513780202 0 245.00385513780202 -710.64683579154553 0 0 0 0 15.929084332397906 40.052917667013389 0 40.052917667013389 -592.53931503773492 0 0 0 0 400.74586178269237 235.01928893444347 0 235.01928893444347 26.15126047384274 0 0 0 0 -36.722202403284598 64.34980922762854 0 64.34980922762854 -11.924492154734335 0 0 0 0 8.5406341530760983 185.16576194647587 0 185.16576194647587 -480.47525735127783 0 0 0 0 -65.441765796203981 245.51832996450048 0 245.51832996450048 -522.55583690559615 0 0 0 0 441.98456913235714 381.74051324688025 0 381.74051324688025 23.755810199612824 0 0 0 0 27.943084936763626 444.72825520098195 0 444.72825520098195 -11.806604200231959 0 0 0 0 -308.39018651693186 226.69502580220887 0 226.69502580220887 164.43342491647854 0 0 0 0 372.78709971765056 628.81925229006174 0 628.81925229006174 583.365047822419 0 0 0 0 -14.496002065613197 15.229662235701326 0 15.229662235701326 7.840485752318159 0 0 0 0 351.66239421293722 202.74275700225462 0 202.74275700225462 8.7846995617474022 0 0 0 0 178.9219195090518 297.33871504106025 0 297.33871504106025 230.03949119856406 0 0 0 0 379.23699147079606 224.5081771658206 0 224.5081771658206 23.782654456487762 0 0 0 0 -11.027142477409029 10.526181270849946 0 10.526181270849946 -1.2855649076858988 0 0 0 0 -292.5201916097576 202.92949215088629 0 202.92949215088629 127.06338261960082 0 0 0 0 -426.7909924283158 108.62969427682583 0 108.62969427682583 136.50178309966941 0 0 0 0 -557.00092175559257 190.77096102396263 0 190.77096102396263 298.40908474099342 0 0 0 0 159.15947972339927 153.17603679817285 0 153.17603679817285 148.72668477099796 0 0 0 0 -293.12670910965244 318.28646676875587 0 318.28646676875587 289.05399562997263 0 0 0 0 -86.853137983300257 199.89463499327576 0 199.89463499327576 107.13946771914016 0 0 0 0 -85.052482545637758 73.645000623897431 0 73.645000623897431 143.68821835672179 0 0 0 0 -59.912089537114468 44.17835130469274 0 44.17835130469274 -8.8609497915943649 0 0 0 0 262.68687071495697 387.32356510577358 0 387.32356510577358 207.60966754049514 0 0 0 0 -40.653424124233425 465.56793062044744 0 465.56793062044744 455.10559514482156 0 0 0 0 -44.151644976765567 55.582803417257971 0 55.582803417257971 -21.355623368531461 0 0 0 0 -423.42653476429405 315.89090364772346 0 315.89090364772346 703.91729913384006 0 0 0 0 -75.34238296278636 35.188686619096188 0 35.188686619096188 -1194.2280083880405 0 0 0 0 18.61070873416611 -114.58459185863649 0 -114.58459185863649 -964.25610913570245 0 0 0 0 12.103876082168426 -42.929697708123058 0 -42.929697708123058 -807.35375573010697 0 0 0 0 -967.33066893171053 -333.78041590434805 0 -333.78041590434805 345.4426244070346 0 0 0 0 511.27155464910902 117.6390414824582 0 117.6390414824582 47.73743426596775 0 0 0 0 -313.84435699455207 280.37606594818499 0 280.37606594818499 330.22655796279832 0 0 0 0 -382.33999088872224 389.56711507603904 0 389.56711507603904 380.7207231138018 0 0 0 0 -1210.5437170412479 119.44498681756431 0 119.44498681756431 1491.2710401085787 0 0 0 0 212.78772297731484 708.42214708265055 0 708.42214708265055 756.51531597626854 0 0 0 0 1596.8175011229469 872.7150716247379 0 872.7150716247379 -1917.0938199463999 0 0 0 0 -770.24004396068631 1708.8602379157528 0 1708.8602379157528 -35.578863709542929 0 0 0 0 -1359.4948329910403 1037.705994676362 0 1037.705994676362 793.05461774107107 0 0 0 0 307.57049762971656 15.074366089764396 0 15.074366089764396 770.4311521708496 0 0 0 0 -440.13957816455513 -381.43147712343125 0 -381.43147712343125 -8.8019914136202715 0 0 0 0 -12.863035302420315 13.184448459980075 0 13.184448459980075 -16.291796772047032 0 0 0 0 -63.291648300873931 128.76936444981675 0 128.76936444981675 80.278584047353434 0 0 0 0 -55.890252987119311 180.39954979308959 0 180.39954979308959 -43.425473471852456 0 0 0 0 -12.539697500531425 22.404719327670307 0 22.404719327670307 3.1249834817183313 0 0 0 0 -341.95882370779145 212.31299561238302 0 212.31299561238302 353.66286462943754 0 0 0 0 200.01567506072752 177.269567668729 0 177.269567668729 -78.844148434223825 0 0 0 0 193.56646415128489 236.86887052212114 0 236.86887052212114 55.950734263304184 0 0 0 0 -32.505692594028687 45.84092864975856 0 45.84092864975856 -5.6622855455959602 0 0 0 0 46.870340351641062 17.681580260288683 0 17.681580260288683 -148.0221839488986 0 0 0 0 -100.06935113150394 16.411576539947418 0 16.411576539947418 178.10056973610699 0 0 0 0 -9.7665399967468716 10.542731626161157 0 10.542731626161157 14.884116665072291 0 0 0 0 -47.507994977424005 62.362679617240502 0 62.362679617240502 -18.50980594229847 0 0 0 0 309.5091066576133 367.31058492587727 0 367.31058492587727 217.78357273420602 0 0 0 0 -98.220327082934091 -78.824321103900729 0 -78.824321103900729 163.11766080079724 0 0 0 0 978.96330780617427 -172.48963394831299 0 -172.48963394831299 171.48353571209873 0 0 0 0 -52.6602608589601 260.08635364268139 0 260.08635364268139 239.87892966398067 0 0 0 0 75.159516191692092 201.46901673552111 0 201.46901673552111 1144.0889619472891 0 0 0 0 76.61552864962141 -369.07863388330566 0 -369.07863388330566 -2797.5046116726098 0 0 0 0 -31.569305267229879 31.968705457349188 0 31.968705457349188 -12.814802485239607 0 0 0 0 -3.3831459210778121 194.43572812882394 0 194.43572812882394 1485.0102094705417 0 0 0 0 -475.67101236342569 889.69705075664388 0 889.69705075664388 -2307.4173565617202 0 0 0 0 -485.68700012969202 -144.21202309666046 0 -144.21202309666046 -2144.501985262852 0 0 0 0 -463.08916603826219 528.35107865987811 0 528.35107865987811 -1293.3768447144776 0 0 0 0 -333.39930950934649 195.05710956220719 0 195.05710956220719 -2184.8436505581931 0 0 0 0 -218.23737746058032 -250.77496990293821 0 -250.77496990293821 -1602.6780457436198 0 0 0 0 41.040372594346991 5.9957772415577892 0 5.9957772415577892 -2023.5911679013516 0 0 0 0 -172.30726887227502 0.36493286093491406 0 0.36493286093491406 -1213.5280518762684 0 0 0 0 209.50842353625922 -88.364225635877119 0 -88.364225635877119 -1202.3991774466413 0 0 0 0 167.18584709352581 -295.23339252605319 0 -295.23339252605319 -1759.4490090500067 0 0 0 0 -335.50873036248959 -567.21453848883971 0 -567.21453848883971 -1930.6353881338 0 0 0 0 -386.0030779610679 -137.10923727650118 0 -137.10923727650118 -1785.2665023432996 0 0 0 0 401.95587365585379 4.5518178961661491 0 4.5518178961661491 -2000.0173400211379 0 0 0 0 11.079226863279473 88.923103563094799 0 88.923103563094799 -1997.9067601574316 0 0 0 0 -43.542331543846274 48.349174900308753 0 48.349174900308753 -17.543882326923303 0 0 0 0 294.96213627100224 -79.345767214499247 0 -79.345767214499247 -2133.3748323965015 0 0 0 0 175.45138977924944 -145.64353758764855 0 -145.64353758764855 -1963.89048062042 0 0 0 0 229.34756349860982 103.51945828964779 0 103.51945828964779 -1485.5217245400954 0 0 0 0 593.97259129666782 -248.12896714133876 0 -248.12896714133876 -1309.0633675295717 0 0 0 0 537.73055369933718 953.1140062209688 0 953.1140062209688 119.82621873621144 0 0 0 0 19.951814606349217 82.566042602626112 0 82.566042602626112 182.03596375505003 0 0 0 0 0.6976200792569216 8.8208135759302593 0 8.8208135759302593 -16.527155511531372 0 0 0 0 515.70756586897096 204.03856482169346 0 204.03856482169346 -267.00569488748806 0 0 0 0 -318.6579291105736 345.32798101743538 0 345.32798101743538 -215.96152012719722 0 0 0 0 338.50988159836561 319.73544408694306 0 319.73544408694306 212.99626356150111 0 0 0 0 367.76361741371511 416.33824276311134 0 416.33824276311134 322.62998798006447 0 0 0 0 1.4355373486593521 4.2711228071406424 0 4.2711228071406424 -9.1673166520576856 0 0 0 0 367.42887373630583 393.2092811736336 0 393.2092811736336 -252.8371775097803 0 0 0 0 354.30079948989442 541.28280851111958 0 541.28280851111958 412.16625066137203 0 0 0 0 138.84944793293835 973.92243336542742 0 973.92243336542742 746.0163599237394 0 0 0 0 407.97614865734067 394.85096128521354 0 394.85096128521354 329.35132936687296 0 0 0 0 -844.12394348360249 58.048834925813935 0 58.048834925813935 178.97368017170174 0 0 0 0 -774.78921107234783 899.59757819730839 0 899.59757819730839 348.95605236320444 0 0 0 0 -542.12133467344029 207.81860594744717 0 207.81860594744717 -60.869786908217066 0 0 0 0 -895.66738002630882 671.49813436702334 0 671.49813436702334 92.397155875492444 0 0 0 0 -931.39279376425839 202.60874472883461 0 202.60874472883461 306.21615963718068 0 0 0 0 -1061.8940033321269 818.20053517001725 0 818.20053517001725 395.31433617273251 0 0 0 0 -1109.43556552066 722.88269144884634 0 722.88269144884634 979.157744645403 0 0 0 0 -1057.593687950146 693.63372561996539 0 693.63372561996539 375.66623496734974 0 0 0 0 -403.64333715906832 127.86349001145754 0 127.86349001145754 509.80382421302164 0 0 0 0 -906.8592610003252 730.73315391747656 0 730.73315391747656 531.00599848121055 0 0 0 0 -840.19713173151831 644.1151984200178 0 644.1151984200178 -94.684111343220138 0 0 0 0 -314.02442765702563 -3.2454070502895362 0 -3.2454070502895362 -512.42876643879208 0 0 0 0 -839.2258824435994 645.4491221203125 0 645.4491221203125 -135.27356975405564 0 0 0 0 -844.31941575233941 1062.6188190707353 0 1062.6188190707353 -178.20692272805718 0 0 0 0 -658.52839476126246 872.68507379456605 0 872.68507379456605 -823.08139215846131 0 0 0 0 -562.66858947223227 345.58560087754722 0 345.58560087754722 -887.15275333920363 0 0 0 0 -733.75382223000634 903.79241876689412 0 903.79241876689412 -716.54568714373136 0 0 0 0 -325.89701050128497 817.23556381370963 0 817.23556381370963 -2198.881307872638 0 0 0 0 -814.71535050200509 824.80804819655759 0 824.80804819655759 -685.77608627661539 0 0 0 0 -371.76499182070256 698.31102863613705 0 698.31102863613705 -545.55915988332629 0 0 0 0 -653.19275245614699 1183.3137765541578 0 1183.3137765541578 -587.38089075421271 0 0 0 0 -320.56717652564839 1266.2642892897518 0 1266.2642892897518 425.0529315010026 0 0 0 0 -453.02283351952792 344.45959615366337 0 344.45959615366337 1461.396335811447 0 0 0 0 -724.53372101404238 1312.9923669575928 0 1312.9923669575928 380.08508165229068 0 0 0 0 -286.93103083965252 1313.1102771107799 0 1313.1102771107799 1112.8618988919516 0 0 0 0 -881.87580065504881 662.91915037640501 0 662.91915037640501 403.17935681319614 0 0 0 0 -1335.8027250776067 172.7176439039431 0 172.7176439039431 306.90927553214715 0 0 0 0 -1301.2643956911634 567.93467965862078 0 567.93467965862078 1765.2300676805826 0 0 0 0 18.304903522899981 12.896565653253276 0 12.896565653253276 4.3920257550165474 0 0 0 0 -1838.4042402703199 -346.05612889800614 0 -346.05612889800614 800.44161737828472 0 0 0 0 488.90804575852235 818.36230570601765 0 818.36230570601765 1699.8232667030097 0 0 0 0 -396.7261168644909 418.17508612752863 0 418.17508612752863 2325.5813009530411 0 0 0 0 42.992795644298894 55.810667083672797 0 55.810667083672797 22.280632899535249 0 0 0 0 41.431508035202341 24.230689106575625 0 24.230689106575625 12.293759063037147 0 0 0 0 38.47583756048698 16.969514298696595 0 16.969514298696595 52.77904783656777 0 0 0 0 48.654428925161483 71.665356852237892 0 71.665356852237892 41.532595182385364 0 0 0 0 1.9648497424222455 6.7853810554646543 0 6.7853810554646543 13.083991894018016 0 0 0 0 -1402.7780499957153 248.01442869715356 0 248.01442869715356 404.96104118544645 0 0 0 0 -5.6095888539896164 29.023781363371711 0 29.023781363371711 87.596728228537785 0 0 0 0 -994.46970868659264 44.539522611918073 0 44.539522611918073 -80.788015279904357 0 0 0 0 -1541.7314649544423 -80.499376410414698 0 -80.499376410414698 91.809409481065813 0 0 0 0 21.638906139302009 46.586510528156396 0 46.586510528156396 64.845147657707429 0 0 0 0 16.132426663680235 32.146198035783073 0 32.146198035783073 22.387747795186897 0 0 0 0 -0.018779930236632936 51.02139032464811 0 51.02139032464811 14.569220937460841 0 0 0 0 4.5515429730294272 36.098959953379563 0 36.098959953379563 31.748373114894548 0 0 0 0 55.011252141877776 45.491554073706311 0 45.491554073706311 28.79535786392438 0 0 0 0 25.580727851891425 38.395951093322765 0 38.395951093322765 -51.112313649312455 0 0 0 0 12.153216647334148 5.7811878463196322 0 5.7811878463196322 6.8261034424693428 0 0 0 0 0.34191654842288699 1844.0215374100235 0 1844.0215374100235 1466.742119708184 0 0 0 0 -859.74958776927087 -286.24044789934214 0 -286.24044789934214 4932.3358669983118 0 0 0 0 -585.24907977135081 545.70106038221729 0 545.70106038221729 1292.9770292086687 0 0 0 0 224.15587710222462 769.90814137267807 0 769.90814137267807 1327.2963154789595 0 0 0 0 -103.68402273379616 1848.849776996818 0 1848.849776996818 -455.32211158826976 0 0 0 0 -226.66247830266366 1004.4200942675216 0 1004.4200942675216 -1218.0460305201541 0 0 0 0 70.211916484779067 262.74424072902519 0 262.74424072902519 -853.10938053098289 0 0 0 0 -1495.2097188936314 870.51545836412697 0 870.51545836412697 -1022.2821422482152 0 0 0 0 0.53803747359779663 873.17566546252783 0 873.17566546252783 -4530.1110291528785 0 0 0 0 -1478.8555604835419 1576.222597186762 0 1576.222597186762 -1583.9117611483307 0 0 0 0 -705.70161057554651 2299.5480348862548 0 2299.5480348862548 -3371.9728665859438 0 0 0 0 149.61351559861214 -1116.6897243643452 0 -1116.6897243643452 -2208.3533373989685 0 0 0 0 587.15947681796388 978.85052680174431 0 978.85052680174431 -4469.857829945583 0 0 0 0 -2.6416412834928167 6.7406014211751994 0 6.7406014211751994 -24.219967161660641 0 0 0 0 -531.87453684503998 2128.3935883936888 0 2128.3935883936888 -3030.9364307596261 0 0 0 0 50.325946576202114 1365.144167971855 0 1365.144167971855 -2213.3594797890364 0 0 0 0 -433.8457118361257 618.33033920604612 0 618.33033920604612 -2679.6734251191583 0 0 0 0 195.7589307698654 326.8907513389031 0 326.8907513389031 -4626.5647635874811 0 0 0 0 -477.78719622342032 1390.2328342413703 0 1390.2328342413703 -2420.8069296629633 0 0 0 0 -9.6741816702865435 12.247860166925591 0 12.247860166925591 -6.4163605833821489 0 0 0 0 -324.18519026821014 899.60789019603544 0 899.60789019603544 1405.5010336095111 0 0 0 0 2.7349278707503686 -2.3312137586662232 0 -2.3312137586662232 -1.3191426710182625 0 0 0 0 -293.0234712172969 61.657264501022837 0 61.657264501022837 46.342730578970077 0 0 0 0 -332.450682212424 1017.7794628134216 0 1017.7794628134216 1315.3787606358474 0 0 0 0 713.42423287013662 462.4511345742394 0 462.4511345742394 -3003.4638396263035 0 0 0 0 -380.06310804356326 1434.0250854208048 0 1434.0250854208048 -1189.7058511651994 0 0 0 0 -76.466767977341078 92.731853631728882 0 92.731853631728882 -851.40181659226982 0 0 0 0 -351.5403790040582 -123.74521710299086 0 -123.74521710299086 -165.94820327003981 0 0 0 0 -153.94923981733155 242.77584595980716 0 242.77584595980716 25.859901783077476 0 0 0 0 -135.96119141398231 80.693269935327407 0 80.693269935327407 -58.024502296391802 0 0 0 0 11.81150634601363 -38.247954178058535 0 -38.247954178058535 -25.317934070366846 0 0 0 0 -51.342120413610246 126.21162564166298 0 126.21162564166298 19.337058606753999 0 0 0 0 -94.686479977375711 63.120517934803502 0 63.120517934803502 91.937175836774259 0 0 0 0 -200.82685927438433 119.42817838370047 0 119.42817838370047 279.85410519324432 0 0 0 0 -27.817609487802656 57.042777357814735 0 57.042777357814735 -19.635157922150661 0 0 0 0 -8.7099594751497875 8.4337197021663428 0 8.4337197021663428 38.667723825052491 0 0 0 0 109.86056537415425 146.20253064187091 0 146.20253064187091 158.99616179775694 0 0 0 0 0.34921583668767653 -2.7726159721913461 0 -2.7726159721913461 -1.4549026819749002 0 0 0 0 35.619247073540464 20.585158339816189 0 20.585158339816189 -80.279033118283223 0 0 0 0 -991.61863602363155 17.0288299551612 0 17.0288299551612 472.27129557009903 0 0 0 0 -1.1863073632848682 549.88038617293932 0 549.88038617293932 -1646.5490368836126 0 0 0 0 402.15852751913189 320.18376050636289 0 320.18376050636289 -170.22704030311797 0 0 0 0 -6.1905920621984762 29.331579839305959 0 29.331579839305959 -53.186684140036633 0 0 0 0 -376.54665691947139 490.49024287430211 0 490.49024287430211 -155.06381701536884 0 0 0 0 80.191535203957756 128.35956552788411 0 128.35956552788411 -24.928069437803117 0 0 0 0 -84.682902620845923 155.01686631705661 0 155.01686631705661 205.91906996934995 0 0 0 0 -12.51939038001747 91.531355696808888 0 91.531355696808888 3.5271424036053816 0 0 0 0 242.74441425795499 415.34431127352946 0 415.34431127352946 3.9891576069730945 0 0 0 0 411.06673439048609 116.23819045312666 0 116.23819045312666 20.923832275220775 0 0 0 0 536.17266670892968 42.872910443218643 0 42.872910443218643 -294.79802608431055 0 0 0 0 -304.1353184821503 68.690188811766347 0 68.690188811766347 353.74213947956014 0 0 0 0 -19.051927308600455 89.115466347180103 0 89.115466347180103 10.13385871665254 0 0 0 0 75.874067545137223 41.71296259913197 0 41.71296259913197 -28.097470539963979 0 0 0 0 113.81267774442676 68.632593466860271 0 68.632593466860271 -14.209603185368906 0 0 0 0 59.163605952991929 43.15612758615498 0 43.15612758615498 -98.155783143851295 0 0 0 0 52.097197395247349 52.365758857962646 0 52.365758857962646 2.7069542643876048 0 0 0 0 575.69383313773869 177.82876316099555 0 177.82876316099555 -48.223772918419854 0 0 0 0 -4.5699436235087774 7.8561743805703657 0 7.8561743805703657 -13.175603703097522 0 0 0 0 66.245902194823429 -99.560573721355013 0 -99.560573721355013 -935.73514060704838 0 0 0 0 -2.9911980313567312 4.093304808009762 0 4.093304808009762 -4.0102085427128884 0 0 0 0 85.303700516858953 61.366956326703075 0 61.366956326703075 -93.802943986973787 0 0 0 0 94.716901782278001 118.39472616230614 0 118.39472616230614 -262.39156885162447 0 0 0 0 30.739431248475739 379.65316102031466 0 379.65316102031466 -220.94922998210677 0 0 0 0 18.938151438262139 267.67640469060279 0 267.67640469060279 9.2326279232365778 0 0 0 0 -182.07031106307113 1019.6921211293466 0 1019.6921211293466 -679.03257078415209 0 0 0 0 -54.676941485064162 442.57172331443326 0 442.57172331443326 55.759504929734248 0 0 0 0 -46.784878163291069 402.06500366385717 0 402.06500366385717 160.34442173974458 0 0 0 0 -100.34531188853725 472.31205639689506 0 472.31205639689506 242.42811114572032 0 0 0 0 -131.00231369900575 251.62238161382447 0 251.62238161382447 539.05568007361217 0 0 0 0 -122.14697415599585 262.20637213074588 0 262.20637213074588 216.38116192847883 0 0 0 0 -34.983160692063393 93.123736966135766 0 93.123736966135766 252.36573870974826 0 0 0 0 -96.862356005833135 36.543671733485098 0 36.543671733485098 500.26929461803957 0 0 0 0 -185.80144086433575 117.16658692613419 0 117.16658692613419 430.11277915922983 0 0 0 0 -432.61025823247473 30.599894132479676 0 30.599894132479676 652.97238815903984 0 0 0 0 -80.651714960683165 297.86376718042169 0 297.86376718042169 58.387468389439164 0 0 0 0 -80.632532434872701 269.14413677113771 0 269.14413677113771 212.11579242482912 0 0 0 0 -90.417458131734747 191.93768931692102 0 191.93768931692102 148.31566111925349 0 0 0 0 -73.945880699000554 128.96856891080097 0 128.96856891080097 320.15270770907591 0 0 0 0 -85.802052937353437 188.53850080868142 0 188.53850080868142 136.19603186722361 0 0 0 0 -76.51132128838799 174.12177788073859 0 174.12177788073859 39.162393312120003 0 0 0 0 -12.786977632639115 91.680731009293808 0 91.680731009293808 -7.5254437518693109 0 0 0 0 -73.903204163347255 170.86258528028156 0 170.86258528028156 27.75486463100242 0 0 0 0 -10.459858696807714 194.28816491890711 0 194.28816491890711 -6.7785468258916808 0 0 0 0 124.27903303249332 131.35352070960198 0 131.35352070960198 -67.225135299057001 0 0 0 0 295.56436644388145 167.22270664084317 0 167.22270664084317 -108.72439075522198 0 0 0 0 296.03234307214956 146.8078876309184 0 146.8078876309184 179.7616821536285 0 0 0 0 614.37641768187041 207.13130817320416 0 207.13130817320416 -55.492723698276677 0 0 0 0 320.91280356253253 227.29715071974897 0 227.29715071974897 -27.875543197863408 0 0 0 0 299.63906150091384 293.00469940974472 0 293.00469940974472 -172.69498265985476 0 0 0 0 202.24711033330732 16.771372744867222 0 16.771372744867222 14.100044243212324 0 0 0 0 3.2365144372388994 9.1458237586024609 0 9.1458237586024609 -3.1030723399940712 0 0 0 0 1197.7550220653516 297.06802299248511 0 297.06802299248511 -113.43349027474051 0 0 0 0 197.2136591100616 236.91309189732419 0 236.91309189732419 -23.546763942561483 0 0 0 0 1276.5840976272743 421.01297610255153 0 421.01297610255153 62.974228457616846 0 0 0 0 1398.7809437776195 488.28674880469225 0 488.28674880469225 -158.56897090816665 0 0 0 0 1260.1084536213525 303.05995785425785 0 303.05995785425785 -24.543792661948828 0 0 0 0 1240.1880630502583 463.7764265148835 0 463.7764265148835 109.68136074316863 0 0 0 0 1551.2416744192724 393.09391034825421 0 393.09391034825421 -1.4047831840198342 0 0 0 0 1151.0141058484287 416.81824604587018 0 416.81824604587018 127.16727518006155 0 0 0 0 1139.7718773963616 324.0704082966804 0 324.0704082966804 68.634757022142367 0 0 0 0 635.72568593599408 12.60011416783891 0 12.60011416783891 126.13885627244781 0 0 0 0 460.11502733709858 68.632020362318144 0 68.632020362318144 77.381770763837267 0 0 0 0 679.15333542634835 262.77268696167448 0 262.77268696167448 249.15954064444304 0 0 0 0 0.10345558430175483 3.2912669627362163 0 3.2912669627362163 3.6198545786640608 0 0 0 0 1199.5051129182752 363.8337660896932 0 363.8337660896932 40.745045642863261 0 0 0 0 1436.9887448180752 290.76044429167996 0 290.76044429167996 -19.788221688668273 0 0 0 0 1796.0100476705347 318.83975441883649 0 318.83975441883649 -107.84521047542421 0 0 0 0 1544.9704761767434 408.18861702234653 0 408.18861702234653 93.478927207404922 0 0 0 0 -1653.3081327641012 598.15599350486355 0 598.15599350486355 58.452666138286077 0 0 0 0 1.1455665656801639 96.913771449344466 0 96.913771449344466 12.677509231867575 0 0 0 0 0.73520443416800496 82.986827483666417 0 82.986827483666417 25.407883062613323 0 0 0 0 -2824.425742050902 486.74476143916945 0 486.74476143916945 153.85541926652513 0 0 0 0 2147.2056310183088 192.13138521232395 0 192.13138521232395 28.679888084432605 0 0 0 0 1659.3561439311397 280.51033979605927 0 280.51033979605927 152.56430864072809 0 0 0 0 1982.3298349248598 543.06631078446844 0 543.06631078446844 320.64533603203745 0 0 0 0 2654.2590045942557 560.54665288238903 0 560.54665288238903 72.649478896011715 0 0 0 0 9.4296794407577949 7.3179570204942994 0 7.3179570204942994 -38.517767138250427 0 0 0 0 1045.7253949488859 305.06845424153471 0 305.06845424153471 204.50161346154346 0 0 0 0 0.25295920188751331 13.577902380360076 0 13.577902380360076 38.894597990434264 0 0 0 0 71.745350035921803 221.00714589336485 0 221.00714589336485 10.812676108806045 0 0 0 0 893.39410617835961 210.33175682019623 0 210.33175682019623 -116.51703957111749 0 0 0 0 539.72167212041506 -38.121440108500792 0 -38.121440108500792 231.62166489809897 0 0 0 0 627.99749666728849 387.85898762321813 0 387.85898762321813 54.864466898986393 0 0 0 0 950.18051820601204 563.73665437587442 0 563.73665437587442 244.26330318857435 0 0 0 0 1871.1665830688141 743.22500776089555 0 743.22500776089555 140.7801025319859 0 0 0 0 1501.8906117368681 541.20905711905198 0 541.20905711905198 156.97718988264387 0 0 0 0 268.7407989056444 332.1470605069303 0 332.1470605069303 -176.21547973405904 0 0 0 0 10.938719474755331 -0.76755247411227145 0 -0.76755247411227145 -24.651844150076585 0 0 0 0 1979.8252406439674 533.72281995365665 0 533.72281995365665 313.17634370368069 0 0 0 0 -268.86630884459692 156.68065605399352 0 156.68065605399352 41.605988922325196 0 0 0 0 0.14292789950529899 6.7024040977027513 0 6.7024040977027513 19.957237314599965 0 0 0 0 120.75182700992218 -203.38125284816488 0 -203.38125284816488 203.66939452694351 0 0 0 0 1256.2363346194795 269.82872309859704 0 269.82872309859704 -104.21415569439705 0 0 0 0 420.7213614861347 280.38416191884608 0 280.38416191884608 461.27185132359227 0 0 0 0 0.64070713970494042 2.3093798874699152 0 2.3093798874699152 5.6245400953552149 0 0 0 0 -818.04762523044826 126.00119436900422 0 126.00119436900422 185.23028526387498 0 0 0 0 1457.2937056801575 -186.91126489290946 0 -186.91126489290946 -26.693540435670002 0 0 0 0 2062.292672401637 452.79655286593334 0 452.79655286593334 -510.47381451090769 0 0 0 0 101.45330875248237 105.52468898080406 0 105.52468898080406 -171.90269727681516 0 0 0 0 22.120137094658048 317.70633870042502 0 317.70633870042502 -19.785009783983696 0 0 0 0 196.44501294330075 132.47118671189855 0 132.47118671189855 -71.458496428916987 0 0 0 0 106.96156599783399 663.37030690435313 0 663.37030690435313 183.63464542615111 0 0 0 0 -176.05051979472279 601.22522732186474 0 601.22522732186474 178.79143681830465 0 0 0 0 -176.51857952733661 287.9030368086643 0 287.9030368086643 93.382825350745406 0 0 0 0 182.1546270415256 356.00549617871002 0 356.00549617871002 106.31185664004261 0 0 0 0 321.58865122968211 460.50334166766424 0 460.50334166766424 133.61850560210587 0 0 0 0 385.01099864520165 144.53918126180815 0 144.53918126180815 5.8773874478938524 0 0 0 0 548.18380504772745 516.91297616029988 0 516.91297616029988 204.00595961275394 0 0 0 0 304.10690444103238 391.2112576459549 0 391.2112576459549 166.18774655228481 0 0 0 0 516.82952036231836 364.05594276825286 0 364.05594276825286 232.30078812022111 0 0 0 0 -0.18311313973572396 567.4397554478237 0 567.4397554478237 212.47384064712969 0 0 0 0 156.33780122495227 523.8066804419359 0 523.8066804419359 215.27476663606285 0 0 0 0 219.92651189937169 555.43059502325195 0 555.43059502325195 205.53014356660424 0 0 0 0 139.53025565879307 577.44857062719893 0 577.44857062719893 52.278269328948227 0 0 0 0 113.87087878777129 401.0334162577492 0 401.0334162577492 134.91393139694264 0 0 0 0 265.00007314154163 692.77029623854105 0 692.77029623854105 156.92213870231353 0 0 0 0 570.78760326267673 616.05416520706785 0 616.05416520706785 -160.41579444376111 0 0 0 0 -2.7017452967740487 2.4488398377665561 0 2.4488398377665561 -2.179415004291684 0 0 0 0 696.35177249097103 -72.72373657836124 0 -72.72373657836124 -108.2870514556198 0 0 0 0 294.90467054313262 831.57368433399097 0 831.57368433399097 1263.0139145826179 0 0 0 0 -4704.2454749004391 484.95330860538525 0 484.95330860538525 -518.12881650154429 0 0 0 0 -4884.4363248644077 1341.0784687973319 0 1341.0784687973319 2126.0594986905053 0 0 0 0 0.57358676398835495 58.458681571634479 0 58.458681571634479 34.064494545906626 0 0 0 0 4849.9412811093507 1024.0476071648591 0 1024.0476071648591 113.37590748577804 0 0 0 0 274.66195745079995 223.49711553392626 0 223.49711553392626 -42.489695126278093 0 0 0 0 4756.5989846181183 468.68370530488755 0 468.68370530488755 1628.8374027465179 0 0 0 0 457.89982991049078 -549.58604861813774 0 -549.58604861813774 -69.945487915174454 0 0 0 0 8.0289201656114191 -1.1886101637396926 0 -1.1886101637396926 -8.0947764838859086 0 0 0 0 930.2466138244381 263.77568182189134 0 263.77568182189134 31.082293774939899 0 0 0 0 963.99879993924515 312.88390482692921 0 312.88390482692921 102.28224304495961 0 0 0 0 1096.9771801235038 -188.82894299145119 0 -188.82894299145119 39.295927087659948 0 0 0 0 2207.2511150821229 -914.77480568017927 0 -914.77480568017927 -236.51032835972728 0 0 0 0 -4353.6490886107822 2491.5158221152888 0 2491.5158221152888 -739.32398276049935 0 0 0 0 -2722.4547004703636 690.32613781566033 0 690.32613781566033 -3499.2288909275667 0 0 0 0 -1852.8506465408282 332.69762861805066 0 332.69762861805066 -338.9578825300996 0 0 0 0 -2686.7153092608823 1152.5833490538034 0 1152.5833490538034 -1142.4010344087583 0 0 0 0 -3973.6194250936824 1277.0392438554554 0 1277.0392438554554 2130.0835812321693 0 0 0 0 -6949.2562069500036 -426.52981733436172 0 -426.52981733436172 1050.1181160039923 0 0 0 0 7133.4098915700761 950.50385272823496 0 950.50385272823496 -1712.7656682766392 0 0 0 0 0.28976130267898348 15.36601060928805 0 15.36601060928805 18.296402260255221 0 0 0 0 -3790.9613425916177 -648.05575550893263 0 -648.05575550893263 96.367177544925653 0 0 0 0 -3394.2549172237559 -1067.217847721844 0 -1067.217847721844 -1281.929945012319 0 0 0 0 -3218.8872443041255 -1241.4782008698385 0 -1241.4782008698385 -2636.363331881048 0 0 0 0 5359.3856973319289 -1186.3082509504166 0 -1186.3082509504166 -1380.4541491510172 0 0 0 0 5897.3776360564798 85.857443341996259 0 85.857443341996259 -1047.69126716553 0 0 0 0 3701.8169403709308 1845.7302348054236 0 1845.7302348054236 550.50621915155352 0 0 0 0 4240.7433896392831 -1007.0578159736397 0 -1007.0578159736397 -540.03459817479597 0 0 0 0 3349.1307266127806 -1146.7586117832107 0 -1146.7586117832107 -249.07587098775412 0 0 0 0 3055.8615858807348 184.35378516773108 0 184.35378516773108 -27.816388920706231 0 0 0 0 1996.9675146246445 200.92617741471622 0 200.92617741471622 105.31726035470274 0 0 0 0 1952.0657678585339 -395.78426256270905 0 -395.78426256270905 88.849928191455547 0 0 0 0 1575.8585687385303 418.36518524562234 0 418.36518524562234 159.13282732266816 0 0 0 0 1047.6833096305563 186.06513686724793 0 186.06513686724793 163.11144432561559 0 0 0 0 1150.9471150681384 717.80833688709754 0 717.80833688709754 492.83731679961784 0 0 0 0 1979.8869994732049 185.49490908045118 0 185.49490908045118 210.83975403908335 0 0 0 0 1181.4581884644977 326.40833559558087 0 326.40833559558087 516.04241269730846 0 0 0 0 1754.1519722105841 641.23409882736814 0 641.23409882736814 393.20108438805801 0 0 0 0 4135.7641647781547 985.72271447887806 0 985.72271447887806 89.292557348060654 0 0 0 0 1751.7883538824681 378.73279594453925 0 378.73279594453925 243.18600550514384 0 0 0 0 1341.8629424401788 642.48608603092725 0 642.48608603092725 275.32936592855549 0 0 0 0 3665.8053288644787 3017.5827743404197 0 3017.5827743404197 1161.4574298272892 0 0 0 0 181.16534779766516 68.122506459485521 0 68.122506459485521 644.25969610388711 0 0 0 0 691.19565072436853 1034.1519600572956 0 1034.1519600572956 553.17812716695948 0 0 0 0 -5276.1634757222346 1547.3609195184727 0 1547.3609195184727 1145.9631852140301 0 0 0 0 -1424.9868403359433 1981.0484967702432 0 1981.0484967702432 12.06257003139217 0 0 0 0 -13.230023790390987 1508.3518692658436 0 1508.3518692658436 160.13260540004558 0 0 0 0 -3076.1432830014674 2224.1461917328925 0 2224.1461917328925 381.74578174980343 0 0 0 0 -28.877189736771584 17.881434554632257 0 17.881434554632257 -5.8639997351618653 0 0 0 0 -44.296859633166434 26.160555066937377 0 26.160555066937377 -27.321088812059315 0 0 0 0 346.04280534251029 380.14377195593261 0 380.14377195593261 -239.92151758505133 0 0 0 0 -6.8161787556825377 10.343383309000984 0 10.343383309000984 -8.9820902456960141 0 0 0 0 16.559909596699072 85.966345854936662 0 85.966345854936662 43.72551277904131 0 0 0 0 115.17980213587225 431.12983553640038 0 431.12983553640038 292.69072637885984 0 0 0 0 289.86730993125093 482.22405974415233 0 482.22405974415233 275.15690194860508 0 0 0 0 -17.800935268767716 284.6385780064229 0 284.6385780064229 410.56358420068864 0 0 0 0 1043.6356219281058 547.10848420307582 0 547.10848420307582 244.91551595002238 0 0 0 0 501.8784837740568 500.25335811968398 0 500.25335811968398 432.26087576681311 0 0 0 0 386.49152937403596 351.95568446791731 0 351.95568446791731 342.0457173787363 0 0 0 0 1004.0784721210512 454.2806219760314 0 454.2806219760314 315.26886700848991 0 0 0 0 665.42864896635729 288.99651007199282 0 288.99651007199282 370.03390047873108 0 0 0 0 790.87306792443451 581.69367632041758 0 581.69367632041758 558.50956236345519 0 0 0 0 406.66488221492909 513.68777930210854 0 513.68777930210854 506.13899300718913 0 0 0 0 342.01162776127785 636.22384649047672 0 636.22384649047672 350.59425432729768 0 0 0 0 589.30376500518469 418.4790946957437 0 418.4790946957437 206.637147605481 0 0 0 0 156.64152924789596 637.73503660345159 0 637.73503660345159 107.69987548080098 0 0 0 0 -23.604465730278207 303.41547093741974 0 303.41547093741974 372.21650333118305 0 0 0 0 -687.20944114078884 -201.42325355210778 0 -201.42325355210778 -10.967107182572363 0 0 0 0 0.16527928583217921 3.2146811382751963 0 3.2146811382751963 -3.4258950833069122 0 0 0 0 -6.4027700713374998 21.209945114782386 0 21.209945114782386 -10.780185297746357 0 0 0 0 -0.40356626124605732 7.9065558782187928 0 7.9065558782187928 -20.45790133391418 0 0 0 0 -8.5958607989850861 3.4540471223735949 0 3.4540471223735949 -29.269811749749351 0 0 0 0 349.71835135231322 -272.06030432412172 0 -272.06030432412172 48.195886283836444 0 0 0 0 -12.824757737307664 18.211129973271454 0 18.211129973271454 -12.977886405245954 0 0 0 0 -7.443637372170997 13.682401877229495 0 13.682401877229495 -22.647820365855296 0 0 0 0 -6.1785905484794057 15.449858805095573 0 15.449858805095573 -27.435176665461768 0 0 0 0 -9.717418793922711 17.635101363309573 0 17.635101363309573 -13.885720822037719 0 0 0 0 -14.236862317524356 25.406635747589462 0 25.406635747589462 -22.967524693891392 0 0 0 0 69.078477986669895 38.241725685370284 0 38.241725685370284 -109.38337479785332 0 0 0 0 16.138511259581719 85.447077997210727 0 85.447077997210727 -45.84802203457366 0 0 0 0 -12.276884104892932 22.375701151130478 0 22.375701151130478 -38.265333255931509 0 0 0 0 41.880767166418082 177.24190347951298 0 177.24190347951298 16.940590837421041 0 0 0 0 66.851151703493088 116.26311519169394 0 116.26311519169394 -113.07080017848716 0 0 0 0 6.9824087069646339 63.558718455995404 0 63.558718455995404 -50.756506787409307 0 0 0 0 25.935849739868516 4.0151673899534046 0 4.0151673899534046 -10.711842754143204 0 0 0 0 0.035807888806630217 92.143729359522581 0 92.143729359522581 159.28260346830211 0 0 0 0 -0.45155940453605581 103.4391586251154 0 103.4391586251154 -17.564173479426245 0 0 0 0 28.664197758720547 62.954665108103654 0 62.954665108103654 -4.5176687492216843 0 0 0 0 -137.80650499081844 14.129153973901339 0 14.129153973901339 7.7729700859090372 0 0 0 0 -15.319935692089729 54.917766445059833 0 54.917766445059833 -4.4045802891049846 0 0 0 0 -4.6147035862813368 44.689359162704612 0 44.689359162704612 -17.084153805684849 0 0 0 0 -312.08659060742093 -27.15232964633833 0 -27.15232964633833 59.520436468093976 0 0 0 0 11.451376756291893 62.277449297069552 0 62.277449297069552 -14.934069555278256 0 0 0 0 21.080119441594434 54.352366096081823 0 54.352366096081823 -12.192137760510377 0 0 0 0 -9.5430647375866542 30.282117142525891 0 30.282117142525891 -23.269763809286019 0 0 0 0 56.624270680404152 58.644857336485074 0 58.644857336485074 5.9958479541965062 0 0 0 0 39.482262782772239 38.354210098526359 0 38.354210098526359 6.9723933040131811 0 0 0 0 18.043509639378165 59.292569140214539 0 59.292569140214539 -14.595722933999824 0 0 0 0 -311.16938574365463 -101.56949847055739 0 -101.56949847055739 -276.87820931756869 0 0 0 0 398.57331549347043 434.71828462159829 0 434.71828462159829 62.547969120096241 0 0 0 0 -356.63265185906266 -156.34483987494241 0 -156.34483987494241 54.86137401424287 0 0 0 0 666.69520425877818 637.87389608062767 0 637.87389608062767 -139.8550027275196 0 0 0 0 293.9005445204748 -103.36848385805206 0 -103.36848385805206 -1.1828150715737138 0 0 0 0 167.64304974266997 -5.3566262615295273 0 -5.3566262615295273 -47.027071607815742 0 0 0 0 0.98242701612433336 14.596378837946261 0 14.596378837946261 -14.742377674452115 0 0 0 0 49.288286338203761 44.064176180989307 0 44.064176180989307 -0.8718332869675578 0 0 0 0 159.63282545016409 -11.256788735910959 0 -11.256788735910959 0.42261299370147754 0 0 0 0 10.008344597357791 -5.7065325621479133 0 -5.7065325621479133 -89.791712676076713 0 0 0 0 95.48795282291394 14.906210294881021 0 14.906210294881021 -9.3496085749975464 0 0 0 0 23.065879672935836 16.685234952397941 0 16.685234952397941 2.5560169009192322 0 0 0 0 43.516425432331744 -69.85201969983973 0 -69.85201969983973 6.7326005008512766 0 0 0 0 82.9664099549409 -136.0449987271204 0 -136.0449987271204 110.46509530879848 0 0 0 0 -10.012342333475146 2.9629330234866416 0 2.9629330234866416 -1.6368383878324266 0 0 0 0 -221.26604060836689 -85.543249103156995 0 -85.543249103156995 -47.411980975040933 0 0 0 0 1782.6558193196543 -80.014223932856112 0 -80.014223932856112 -1440.2911490790721 0 0 0 0 231.72560146365868 147.04905040922313 0 147.04905040922313 -250.48352763897128 0 0 0 0 -455.47574686487496 78.338841196949943 0 78.338841196949943 364.63170171850106 0 0 0 0 9.1429164988892353 -0.81028724605319269 0 -0.81028724605319269 -0.42590870041774664 0 0 0 0 -96.313018505912623 -4.013136872654286 0 -4.013136872654286 -3.1467552456742851 0 0 0 0 206.56747097713014 -121.25249524517767 0 -121.25249524517767 -304.73730236256961 0 0 0 0 -24.350243712232725 19.317567403927555 0 19.317567403927555 0.068244121928962898 0 0 0 0 -104.61744557047587 29.191367741500471 0 29.191367741500471 98.522682066984999 0 0 0 0 -392.88496889131784 -208.11066359556207 0 -208.11066359556207 -78.351730633909028 0 0 0 0 8.0067791652037954 13.958301789432262 0 13.958301789432262 20.850593392294712 0 0 0 0 -18.756836397638835 11.141617048835542 0 11.141617048835542 28.122403579647653 0 0 0 0 121.08424358350749 71.436849181154685 0 71.436849181154685 67.330200127498756 0 0 0 0 723.74825129882083 331.98462431785447 0 331.98462431785447 -56.253957733584684 0 0 0 0 -522.11970315219514 281.79250434559071 0 281.79250434559071 408.28485791293497 0 0 0 0 34.090272709021519 28.090404801750992 0 28.090404801750992 71.811686153130722 0 0 0 0 -149.56233759855968 614.8508273339794 0 614.8508273339794 215.68754809295933 0 0 0 0 21.703654401855587 11.951610753901324 0 11.951610753901324 9.563335549574191 0 0 0 0 -2199.7893789978989 -982.01993419721111 0 -982.01993419721111 -447.53755834083131 0 0 0 0 65.976379925023366 -10.493910988512312 0 -10.493910988512312 3.4091412210109411 0 0 0 0 4.6596492546688211 -1.0749813400672323 0 -1.0749813400672323 -0.48288993532403879 0 0 0 0 7.7547002333576103 -1.5921556343834524 0 -1.5921556343834524 9.323196191135608 0 0 0 0 66.434842854714816 -44.73250705399596 0 -44.73250705399596 83.58719289873261 0 0 0 0 7.0743342123303599 4.0871533830400253 0 4.0871533830400253 -1.295539434137666 0 0 0 0 94.264165293192491 78.986064353844995 0 78.986064353844995 154.07930649461196 0 0 0 0 126.99806735737366 -26.845629979819932 0 -26.845629979819932 -70.151920050197077 0 0 0 0 35.426598011719761 -35.148569931843667 0 -35.148569931843667 19.988700590234657 0 0 0 0 -41.122301911185787 -100.6060418515226 0 -100.6060418515226 9.5556902415046352 0 0 0 0 27.511118920963781 -12.217483340129547 0 -12.217483340129547 3.9376392938138451 0 0 0 0 165.51957948998825 -203.68786315918624 0 -203.68786315918624 135.73097403829888 0 0 0 0 0.6317518602797918 -12.192018600306753 0 -12.192018600306753 35.195067938297228 0 0 0 0 -1.9442097255689674 -4.6458849748004702 0 -4.6458849748004702 12.738431453710895 0 0 0 0 0.95682573196127407 1.4267985703950217 0 1.4267985703950217 22.706961952667498 0 0 0 0 -8.6412185361696174 -1.8647100646339823 0 -1.8647100646339823 17.321983052810538 0 0 0 0 2.7093514956245031 -15.197053080114397 0 -15.197053080114397 16.247607406023732 0 0 0 0 -2.2974070425044602 -5.8314826246669327 0 -5.8314826246669327 32.115479971844522 0 0 0 0 -10.41918195330436 -10.076805514530861 0 -10.076805514530861 46.309449479333125 0 0 0 0 6.4899209121995227 -36.692020940456587 0 -36.692020940456587 -31.39346921681863 0 0 0 0 -467.80385994371318 -227.56953085198984 0 -227.56953085198984 -50.141514152874151 0 0 0 0 -264.29055425604747 -183.4335181210372 0 -183.4335181210372 -48.168062068823929 0 0 0 0 -365.62467899083276 -381.45894805210992 0 -381.45894805210992 191.99051908301772 0 0 0 0 -416.11862724863022 -55.833002509965809 0 -55.833002509965809 120.37796761924983 0 0 0 0 -618.30921772868896 -116.58272058097691 0 -116.58272058097691 360.06405324191655 0 0 0 0 -181.90689841004951 131.13350836749783 0 131.13350836749783 428.4625188979735 0 0 0 0 -531.10346858788398 6.6194794615812498 0 6.6194794615812498 534.09136307351218 0 0 0 0 -242.9038613793382 -347.62894273904021 0 -347.62894273904021 179.45948027930353 0 0 0 0 -201.00399531366565 -479.28904297689587 0 -479.28904297689587 332.46801656413481 0 0 0 0 -471.93372297822134 -366.02004482335906 0 -366.02004482335906 285.25230929197278 0 0 0 0 -749.9355262089739 -75.079288281423942 0 -75.079288281423942 -58.944773377344973 0 0 0 0 1448.1370964111193 -830.36965233905721 0 -830.36965233905721 200.88921117231803 0 0 0 0 -817.59381210660968 -695.52446400176996 0 -695.52446400176996 1723.8811684912434 0 0 0 0 -1104.7141385241703 -699.67644563698013 0 -699.67644563698013 766.72751293277543 0 0 0 0 -1537.7661630270977 301.38182400962023 0 301.38182400962023 447.78187317129778 0 0 0 0 -2815.3152505430262 -697.14292196475071 0 -697.14292196475071 -193.02722276163513 0 0 0 0 -188.27741885547584 -58.537756806119432 0 -58.537756806119432 -495.36711489724604 0 0 0 0 -184.8410723852794 -781.1365719075975 0 -781.1365719075975 -2928.6105055392327 0 0 0 0 1838.6873687599436 -692.36074967055174 0 -692.36074967055174 -482.07106614732436 0 0 0 0 744.86623646751832 -719.82686563115749 0 -719.82686563115749 -713.186193376132 0 0 0 0 253.61983044761837 -264.38947549799241 0 -264.38947549799241 -237.49465235741809 0 0 0 0 111.53407281193358 -350.57263170420993 0 -350.57263170420993 51.009954293753253 0 0 0 0 111.74108229781268 -367.32985130519592 0 -367.32985130519592 -0.87597809373619384 0 0 0 0 65.366553993168054 -123.43205539432893 0 -123.43205539432893 101.44151075556147 0 0 0 0 -76.767714778070513 -90.837136573332828 0 -90.837136573332828 599.7307192775188 0 0 0 0 45.657291787298163 -156.51276313124254 0 -156.51276313124254 157.74317778096884 0 0 0 0 7.5678337596618803 -132.71391567094543 0 -132.71391567094543 143.25898177894123 0 0 0 0 3.8717215116921579 -51.887680632233241 0 -51.887680632233241 278.57321267249063 0 0 0 0 -23.389173991847201 -80.781598859877704 0 -80.781598859877704 367.90973654921982 0 0 0 0 -34.029377487007878 -19.945444057950226 0 -19.945444057950226 313.1476602370094 0 0 0 0 -103.34734922429197 11.863226257279166 0 11.863226257279166 1074.6361712774233 0 0 0 0 -87.283885122596985 32.871992157495697 0 32.871992157495697 359.32553217148961 0 0 0 0 75.447035777448036 260.24159141650307 0 260.24159141650307 487.63452815239725 0 0 0 0 1.3020505663519657 -3.2596046144431341 0 -3.2596046144431341 12.612045195956028 0 0 0 0 31.60975212125777 -809.49821881559183 0 -809.49821881559183 1309.2810556108161 0 0 0 0 -19.493303049384849 -566.84678770638857 0 -566.84678770638857 301.76421469749039 0 0 0 0 -1059.3689934270187 -346.57703400953142 0 -346.57703400953142 74.983617700061586 0 0 0 0 -22.849492144073309 26.6874849235206 0 26.6874849235206 -20.775637677672293 0 0 0 0 975.33046809792722 1342.4854167430403 0 1342.4854167430403 607.25538871939716 0 0 0 0 -47.225296731750859 676.54454282274401 0 676.54454282274401 141.90082443043502 0 0 0 0 300.1331491304154 315.96233422274963 0 315.96233422274963 432.82007274533134 0 0 0 0 -129.76559953134711 604.58622979832035 0 604.58622979832035 753.91804779062477 0 0 0 0 -53.113221013626571 368.28330375705718 0 368.28330375705718 516.41097535886001 0 0 0 0 -775.43304678954155 344.51445515392516 0 344.51445515392516 599.85152890629251 0 0 0 0 -809.02367630656954 360.69685230475989 0 360.69685230475989 -142.34251343521828 0 0 0 0 -3088.7667054782469 1749.4891870970805 0 1749.4891870970805 -937.23157790313235 0 0 0 0 399.09952486416296 665.14840165504938 0 665.14840165504938 -1706.4875506719109 0 0 0 0 -1017.4558321913173 739.53619243687353 0 739.53619243687353 144.71477901258913 0 0 0 0 365.37991346270064 724.36845756216462 0 724.36845756216462 -774.48920187413751 0 0 0 0 1010.64820980683 65.092631030005577 0 65.092631030005577 -160.07381299161352 0 0 0 0 -383.44355779058969 1474.8495252682242 0 1474.8495252682242 -928.27333125212681 0 0 0 0 870.88723354609101 630.3226762293416 0 630.3226762293416 -1765.5834819196423 0 0 0 0 1838.8485112352064 1419.417213305549 0 1419.417213305549 -958.91939262193773 0 0 0 0 -4.9279345304877324 8.0313143073632602 0 8.0313143073632602 -12.986904275968968 0 0 0 0 -80.036024360073498 245.56419660420579 0 245.56419660420579 -457.27926512045087 0 0 0 0 -172.28567628515157 206.51240786185735 0 206.51240786185735 -1776.6172704538403 0 0 0 0 213.67594498270773 628.23349207924912 0 628.23349207924912 -1765.2068707574649 0 0 0 0 534.47033983816073 365.25320441185977 0 365.25320441185977 -1569.9454833454438 0 0 0 0 234.35001359035232 190.38254740554476 0 190.38254740554476 -933.25229620880782 0 0 0 0 254.80183989614306 -120.97015523316441 0 -120.97015523316441 -713.36875579035404 0 0 0 0 -45.098895081870978 578.27120655307453 0 578.27120655307453 -1359.7819821436642 0 0 0 0 52.11657104621554 -500.07679500499216 0 -500.07679500499216 -1614.9200392008097 0 0 0 0 55.208250595853315 612.32927700791515 0 612.32927700791515 -1606.736436376912 0 0 0 0 534.19936987053416 344.25507879805082 0 344.25507879805082 -2278.7723730344878 0 0 0 0 -77.106847703272706 1366.5632899233115 0 1366.5632899233115 -4075.7635331823876 0 0 0 0 -5.2460207945307005 29.807061361944463 0 29.807061361944463 -46.409771207889861 0 0 0 0 -326.13616376631398 -438.92605301677577 0 -438.92605301677577 -576.25206060685014 0 0 0 0 -282.79169665905101 -887.3504199747249 0 -887.3504199747249 -2616.2409595349018 0 0 0 0 -35.441698194576979 45.774786962151268 0 45.774786962151268 1.5089628914638666 0 0 0 0 457.34799362714512 518.42480823154347 0 518.42480823154347 -67.24048944354945 0 0 0 0 7.8618120097206372 17.174992905679773 0 17.174992905679773 -17.048803763626744 0 0 0 0 -393.97688460471181 22.030427245794272 0 22.030427245794272 665.86748952182097 0 0 0 0 -154.48931647338759 468.93678907690264 0 468.93678907690264 164.06538656962402 0 0 0 0 -19.368863679912465 637.27544957241662 0 637.27544957241662 75.860816285512556 0 0 0 0 -38.75040757865645 62.14773666558267 0 62.14773666558267 16.865350453033898 0 0 0 0 -372.26789407712931 53.481789927842328 0 53.481789927842328 -131.53897774293728 0 0 0 0 -5.2417817022154907 63.691766494920394 0 63.691766494920394 -29.641641289336153 0 0 0 0 17.626032351665344 83.430203699159847 0 83.430203699159847 7.9937705069187359 0 0 0 0 -44.295736377142021 80.189634330270565 0 80.189634330270565 -9.4858409228527307 0 0 0 0 -84.827170930780994 64.242124506847176 0 64.242124506847176 25.98406223582424 0 0 0 0 -124.78097653783334 92.636288463211713 0 92.636288463211713 16.699003058010931 0 0 0 0 -9.5386039221062759 53.294377632352038 0 53.294377632352038 65.2906963004679 0 0 0 0 -4.4502325097455468 222.06787809746493 0 222.06787809746493 -463.28402522440592 0 0 0 0 -235.67663168582658 163.88755956713067 0 163.88755956713067 -131.28530310698261 0 0 0 0 -73.078748500724032 93.132735860413959 0 93.132735860413959 -7.4320541162101108 0 0 0 0 -66.285938545470657 73.245934136503095 0 73.245934136503095 -6.7602617635248521 0 0 0 0 -136.18952021721634 1222.6522280283407 0 1222.6522280283407 -1288.0519908790629 0 0 0 0 -553.34917205380043 1350.4270871593335 0 1350.4270871593335 -513.46252537914188 0 0 0 0 151.26429964684212 899.04936555822678 0 899.04936555822678 -130.99013300769207 0 0 0 0 127.79649448463533 776.10667270944577 0 776.10667270944577 -575.56048203915998 0 0 0 0 490.82395705753152 -88.361661951315 0 -88.361661951315 -257.71996097383817 0 0 0 0 414.35366628879274 -88.098233106540647 0 -88.098233106540647 -183.75469717049236 0 0 0 0 -34.671697713994945 550.71496865039444 0 550.71496865039444 -812.22198902714263 0 0 0 0 351.80668160222467 272.81106695028416 0 272.81106695028416 -1309.4527742520986 0 0 0 0 -883.39413915820478 2323.0874009353429 0 2323.0874009353429 -4055.9983400616393 0 0 0 0 -32.872578052685995 908.6853850296925 0 908.6853850296925 -1912.3297661656325 0 0 0 0 -3044.7601194808776 -11.735905307050416 0 -11.735905307050416 -57.792853826184 0 0 0 0 -2234.2508151287366 1340.1427753241405 0 1340.1427753241405 185.74171273423417 0 0 0 0 -3186.4234254937692 2365.1344236229343 0 2365.1344236229343 -917.63647020280769 0 0 0 0 -1225.8117069527725 2268.7946091765461 0 2268.7946091765461 -1737.0709467944375 0 0 0 0 -1062.6914221059706 928.97412010857806 0 928.97412010857806 157.47299979554555 0 0 0 0 -1265.1219900483902 1305.5673231969447 0 1305.5673231969447 -42.87615511309923 0 0 0 0 -924.25472797673137 976.18414189332907 0 976.18414189332907 48.733945235278952 0 0 0 0 -245.80873521009926 464.28470083295178 0 464.28470083295178 265.7906156826798 0 0 0 0 -1108.301424793015 863.32766788713252 0 863.32766788713252 209.14238906171158 0 0 0 0 -132.16349627284944 590.72035363580108 0 590.72035363580108 -58.045189597541309 0 0 0 0 -819.845593392507 972.33472097058439 0 972.33472097058439 -77.202934052787896 0 0 0 0 -900.34163046253525 1111.4185011663039 0 1111.4185011663039 -12.197034931914345 0 0 0 0 -716.48138167413708 1136.780839174563 0 1136.780839174563 -513.4660513713643 0 0 0 0 -1533.1388646119588 1914.2939587085943 0 1914.2939587085943 -1012.1537701755897 0 0 0 0 -1531.4863184267742 2408.3307175474902 0 2408.3307175474902 -2145.6184370351402 0 0 0 0 -487.8533973979612 1217.4015424533702 0 1217.4015424533702 -545.58633140393067 0 0 0 0 -486.50350618130324 1271.2351307481877 0 1271.2351307481877 -488.07048246227168 0 0 0 0 -795.48214008917421 546.82839367732413 0 546.82839367732413 1157.2734782242478 0 0 0 0 -557.98548583463707 -130.51405909304231 0 -130.51405909304231 1490.7497102678672 0 0 0 0 365.64659520167334 -690.35853954886989 0 -690.35853954886989 1191.8024250192248 0 0 0 0 -0.87334616604147186 3.983974174040636 0 3.983974174040636 3.1135833776370028 0 0 0 0 -1428.9425239571137 2131.040046674565 0 2131.040046674565 -2773.1175989771036 0 0 0 0 -2451.3494602976116 2621.6121096898059 0 2621.6121096898059 -2537.6841327441562 0 0 0 0 -2629.4225018555135 1663.1443434668849 0 1663.1443434668849 -2018.9631202207456 0 0 0 0 -1449.2448988982942 1336.537610442565 0 1336.537610442565 -2063.5668825367648 0 0 0 0 -1822.057737772644 1365.9209666687238 0 1365.9209666687238 -2043.2080172221247 0 0 0 0 -1255.2171797304181 1428.0831741695365 0 1428.0831741695365 -2198.1593865640398 0 0 0 0 -1759.1730675043946 1612.6779030308853 0 1612.6779030308853 -1904.5094847182154 0 0 0 0 -1612.025236034533 2264.422193652219 0 2264.422193652219 -2848.4929422698006 0 0 0 0 -1511.8412669622594 1992.1097639523091 0 1992.1097639523091 -2712.5359908740684 0 0 0 0 -2382.859947501478 2010.9211532674144 0 2010.9211532674144 -2223.3605099953056 0 0 0 0 -1494.4846096988476 1535.2747834692818 0 1535.2747834692818 -2209.9237281359574 0 0 0 0 -1535.0715514627373 1614.3894495662719 0 1614.3894495662719 -2262.0898218707098 0 0 0 0 -1106.3741079569809 1046.7590432391539 0 1046.7590432391539 -1837.0702005123858 0 0 0 0 -1233.8922627950997 1028.459008921024 0 1028.459008921024 -1648.4758978238024 0 0 0 0 -984.55885450019559 1011.1093796475793 0 1011.1093796475793 -1728.8378076386593 0 0 0 0 -1185.9972428505189 762.72247660074618 0 762.72247660074618 -847.34175488917117 0 0 0 0 -1257.06323215882 1102.0343960591658 0 1102.0343960591658 -1321.2404927416437 0 0 0 0 -894.91140921894839 594.56988210017471 0 594.56988210017471 -1130.8230525629815 0 0 0 0 -695.4846276624603 351.17097661013554 0 351.17097661013554 -341.87633172166989 0 0 0 0 -567.93964418060204 302.16942575384746 0 302.16942575384746 -858.14660177977123 0 0 0 0 -554.11620595197019 766.24224806347183 0 766.24224806347183 -1433.7404840712252 0 0 0 0 -801.42019119381075 753.28058901077929 0 753.28058901077929 -778.4466361217892 0 0 0 0 -1374.4824790498305 1024.6616089159381 0 1024.6616089159381 -1269.1563331860871 0 0 0 0 -1225.5906180628954 1544.9264007540933 0 1544.9264007540933 -1912.2448174577639 0 0 0 0 -401.9864480244396 828.06049253786932 0 828.06049253786932 -906.15328242815667 0 0 0 0 -152.9577229560382 426.94346431425947 0 426.94346431425947 -457.84285560297076 0 0 0 0 1.310349161416525 563.41873114509849 0 563.41873114509849 0.76660132551205606 0 0 0 0 2.7272532421834512 0.9240989176662282 0 0.9240989176662282 -4.6874249782453994 0 0 0 0 162.89245450716408 23.12811660589 0 23.12811660589 -221.92249615845992 0 0 0 0 198.56298933552898 -82.03430348080019 0 -82.03430348080019 -533.33181667801 0 0 0 0 176.73133446722204 -87.652923163251558 0 -87.652923163251558 -75.588353553529487 0 0 0 0 -372.88253520692888 181.45483557124339 0 181.45483557124339 26.919476219538865 0 0 0 0 1.076906949707805 -0.52981928570260095 0 -0.52981928570260095 -4.7845304816694645 0 0 0 0 207.4319561635275 -67.03678164004026 0 -67.03678164004026 -88.230846061769853 0 0 0 0 337.58229866996408 -140.03351151220522 0 -140.03351151220522 -132.55443756897546 0 0 0 0 -0.39485950409311954 -0.35372905839639657 0 -0.35372905839639657 -1.3292803261529151 0 0 0 0 -197.17970055787191 -175.38538811365646 0 -175.38538811365646 -83.628658567201455 0 0 0 0 -300.55006883237365 168.95106780865353 0 168.95106780865353 -36.586291863344172 0 0 0 0 -235.55975808233052 237.99650000773124 0 237.99650000773124 -327.61571450713086 0 0 0 0 -641.93797334276678 116.55312655726095 0 116.55312655726095 131.51274465679217 0 0 0 0 -895.93198501939332 480.03573722397186 0 480.03573722397186 -317.89380902677544 0 0 0 0 -433.53896109904599 249.79217267409899 0 249.79217267409899 -666.99065750287991 0 0 0 0 -1117.8032080330449 610.78925064529608 0 610.78925064529608 -633.47380751981063 0 0 0 0 -783.88147576913252 56.287179350901965 0 56.287179350901965 89.38785457081849 0 0 0 0 -575.77715885927319 562.92797212098162 0 562.92797212098162 -285.36179219010819 0 0 0 0 -55.108597460581223 43.671154248264429 0 43.671154248264429 4.3264477187135526 0 0 0 0 9.9975646346870803 18.205185533614426 0 18.205185533614426 29.582512073777323 0 0 0 0 -89.120899819465194 60.93305173515796 0 60.93305173515796 25.632261693877808 0 0 0 0 -58.743400552619505 54.956687051335223 0 54.956687051335223 -2.2727227993636916 0 0 0 0 -59.055491682804131 48.124499319504139 0 48.124499319504139 3.2399717872685869 0 0 0 0 -45.716147699007706 52.688690386549752 0 52.688690386549752 -3.0893640039412276 0 0 0 0 -50.911572965465894 43.617375584603906 0 43.617375584603906 -10.022333067241561 0 0 0 0 193.84354892465126 -94.001713908574629 0 -94.001713908574629 -18.697996374549348 0 0 0 0 6.2803076286333805 -2.0915003547167323 0 -2.0915003547167323 1.407764889024377 0 0 0 0 87.989825362456031 101.29854388479021 0 101.29854388479021 -21.74310425540898 0 0 0 0 -35.527452236273312 44.65200742357213 0 44.65200742357213 -22.811430775831674 0 0 0 0 805.66141928141587 48.036373597479269 0 48.036373597479269 -76.227603081655616 0 0 0 0 -32.15680840487525 41.771329592181388 0 41.771329592181388 -16.025940128125811 0 0 0 0 -8.7187520787047106 77.317991165607054 0 77.317991165607054 0.081749070654041134 0 0 0 0 632.54043656887006 221.5234506071979 0 221.5234506071979 -188.41115666802216 0 0 0 0 681.97168714717554 274.88143279644646 0 274.88143279644646 -288.38958601269769 0 0 0 0 151.75824647698209 137.21429534972515 0 137.21429534972515 -141.35974574004649 0 0 0 0 143.63976836588699 26.373030943368008 0 26.373030943368008 519.80418673538043 0 0 0 0 794.28850708511163 505.56563369984997 0 505.56563369984997 28.662231784554933 0 0 0 0 226.3671343251699 -212.72496249861911 0 -212.72496249861911 239.9251925698054 0 0 0 0 1188.2790394131189 283.67677539240981 0 283.67677539240981 275.59526259270933 0 0 0 0 574.27523826366814 -2.4443590075311477 0 -2.4443590075311477 116.34392453916985 0 0 0 0 356.20209341877853 -191.52899087447213 0 -191.52899087447213 -567.97621579436418 0 0 0 0 221.53221792430486 6.8938620627732803 0 6.8938620627732803 -169.86367444147004 0 0 0 0 95.369328074732039 -315.78166756128394 0 -315.78166756128394 -11.797356528358137 0 0 0 0 -553.17934524642078 -647.28210150977861 0 -647.28210150977861 -718.90367905437165 0 0 0 0 -139.44249670840509 -120.26802148234947 0 -120.26802148234947 300.56672367183819 0 0 0 0 268.12099319208937 732.26162454291534 0 732.26162454291534 1207.9447690875022 0 0 0 0 275.14053926165798 112.15952975366508 0 112.15952975366508 967.24112759327272 0 0 0 0 333.41895122286223 292.76782897843805 0 292.76782897843805 556.70623683958956 0 0 0 0 272.88348381076867 322.99948969399202 0 322.99948969399202 945.59158003632638 0 0 0 0 157.03691962830635 196.26851229999784 0 196.26851229999784 1191.356118542169 0 0 0 0 -50.12283809879591 35.253103541132077 0 35.253103541132077 -18.099150630590884 0 0 0 0 -41.63847087938052 32.543039008233094 0 32.543039008233094 -17.080482554632567 0 0 0 0 46.545416981629387 1004.8150296333647 0 1004.8150296333647 832.46789993794596 0 0 0 0 37.230256523030619 9.4250206614391772 0 9.4250206614391772 -21.85661441664935 0 0 0 0 492.55759002422565 465.7389974962266 0 465.7389974962266 624.59380401562976 0 0 0 0 406.37463822420978 584.07806583371917 0 584.07806583371917 1281.3063156715584 0 0 0 0 139.07922617286749 949.03228254667158 0 949.03228254667158 792.78146187534185 0 0 0 0 -136.54001701705783 454.01715986138015 0 454.01715986138015 136.39051309017304 0 0 0 0 -329.87735229639293 578.79576343575786 0 578.79576343575786 712.017393444954 0 0 0 0 -1269.9265188058489 727.64170815062676 0 727.64170815062676 75.834119458707846 0 0 0 0 -392.24214095903881 444.63232108952764 0 444.63232108952764 847.20234150056876 0 0 0 0 -337.02619615513322 1232.3475020941933 0 1232.3475020941933 829.3987980796669 0 0 0 0 -67.840981445163209 48.34808867489474 0 48.34808867489474 -30.828457279059403 0 0 0 0 1540.0557178908784 775.46615363818978 0 775.46615363818978 709.4058768491941 0 0 0 0 1163.0554869888074 418.94906384812407 0 418.94906384812407 -589.23570482400669 0 0 0 0 -353.83485321232001 584.77644430883447 0 584.77644430883447 254.90409528656605 0 0 0 0 -424.42411224044918 533.38888296784387 0 533.38888296784387 877.13659429595384 0 0 0 0 -16.619843816339159 15.367956234474043 0 15.367956234474043 -2.2232023113925412 0 0 0 0 -53.717943643918261 37.249988627663697 0 37.249988627663697 -7.1444300026078054 0 0 0 0 -5.4682626735991562 24.425295770204627 0 24.425295770204627 -7.4593708222051802 0 0 0 0 -155.38952078383591 310.01324129112891 0 310.01324129112891 4.5245858959115139 0 0 0 0 -95.485276977015019 53.490068905656472 0 53.490068905656472 23.502715848712342 0 0 0 0 -208.09687935750117 -110.36142010395633 0 -110.36142010395633 -371.98614390406988 0 0 0 0 -454.25707132809839 -9.228402544298433 0 -9.228402544298433 202.76134614389662 0 0 0 0 -15.591703085711188 3.9565390237261902 0 3.9565390237261902 -4.1063201429937166 0 0 0 0 589.68640704431164 436.59747509732233 0 436.59747509732233 -2422.8831437654194 0 0 0 0 -462.73568196178832 486.53816367635227 0 486.53816367635227 -259.59283511926878 0 0 0 0 -399.79535520052013 379.90772565041971 0 379.90772565041971 -85.68005830582706 0 0 0 0 145.08917939523963 204.66993024714384 0 204.66993024714384 -29.339899816943216 0 0 0 0 -22.748131374330114 430.68350057053073 0 430.68350057053073 -1301.9728393163327 0 0 0 0 151.17119794981772 12.276365682650805 0 12.276365682650805 -373.82673677639832 0 0 0 0 287.49798529160398 169.83295070310237 0 169.83295070310237 -343.46247201949086 0 0 0 0 364.17869309842536 451.59971390136661 0 451.59971390136661 -67.309860401753667 0 0 0 0 302.52732823324914 91.180302793251826 0 91.180302793251826 -95.87984307259012 0 0 0 0 172.67747445585337 136.66689734356248 0 136.66689734356248 135.15774220475942 0 0 0 0 592.80984845891544 573.29558510935885 0 573.29558510935885 137.55660374040872 0 0 0 0 390.37366676179408 624.77644624438904 0 624.77644624438904 850.4728581322961 0 0 0 0 266.09556235551554 73.561941420320863 0 73.561941420320863 -169.80543059156025 0 0 0 0 -334.52955154144911 99.551221632437773 0 99.551221632437773 194.50172477631804 0 0 0 0 -354.22101299100814 179.89204579947636 0 179.89204579947636 -28.364696168021055 0 0 0 0 19.906711617938655 23.32577608332452 0 23.32577608332452 32.605324942615169 0 0 0 0 132.74830307850061 -247.12936785965212 0 -247.12936785965212 303.27528767872178 0 0 0 0 141.30137059710978 23.924837183534692 0 23.924837183534692 -5.2676060111007246 0 0 0 0 127.74223632994108 791.6001561314913 0 791.6001561314913 509.73582975054762 0 0 0 0 -64.271221750448603 1060.5801936418359 0 1060.5801936418359 1202.9553064701695 0 0 0 0 -188.45919787036837 1451.074791251438 0 1451.074791251438 571.63803149073101 0 0 0 0 -298.56779350279612 523.91333341643883 0 523.91333341643883 198.86275588554963 0 0 0 0 -0.14262772203738905 0.49533331621182697 0 0.49533331621182697 0.44467024284473289 0 0 0 0 -396.72131670047747 90.69617261838431 0 90.69617261838431 1083.2837576534439 0 0 0 0 110.91582089116855 21.572218091837158 0 21.572218091837158 -61.217563046372021 0 0 0 0 148.94107956703374 140.59359237868154 0 140.59359237868154 151.27652188624677 0 0 0 0 372.92456008664158 164.33377881396359 0 164.33377881396359 -60.769992670916395 0 0 0 0 198.16377572786587 -68.561843458812859 0 -68.561843458812859 -167.90740294929674 0 0 0 0 445.45989222559001 501.22107149749627 0 501.22107149749627 207.57975443852069 0 0 0 0 225.70782069274355 229.30096506476298 0 229.30096506476298 94.812976196485579 0 0 0 0 318.46534572247765 362.30996035509452 0 362.30996035509452 223.87085904179651 0 0 0 0 87.489295637210034 414.92648936750822 0 414.92648936750822 339.9226303253281 0 0 0 0 476.32689233155543 649.20576080938054 0 649.20576080938054 421.76327671187983 0 0 0 0 348.67393709027965 506.46032934651998 0 506.46032934651998 463.01674860223739 0 0 0 0 611.43565290614788 649.93752041895732 0 649.93752041895732 448.87157757157632 0 0 0 0 334.52207830885891 353.42843706021222 0 353.42843706021222 382.30953234333811 0 0 0 0 579.70257111035971 576.66159332413099 0 576.66159332413099 320.79554553511935 0 0 0 0 494.66492640119031 698.72003007604167 0 698.72003007604167 833.33180131329937 0 0 0 0 459.67605693142468 686.22886712041327 0 686.22886712041327 890.36424523479218 0 0 0 0 651.65383143279178 655.2475795607761 0 655.2475795607761 827.41769952827326 0 0 0 0 745.48307970998576 974.54015804746632 0 974.54015804746632 985.19194141677463 0 0 0 0 403.61605037314439 942.52669875511947 0 942.52669875511947 1159.6046753323317 0 0 0 0 449.44703569840931 917.60399419779969 0 917.60399419779969 1107.5763348409819 0 0 0 0 494.58891760283586 564.26182236404884 0 564.26182236404884 1262.0726321446875 0 0 0 0 561.96100146808021 747.35172636288485 0 747.35172636288485 579.29452257550383 0 0 0 0 330.04670786640418 714.44904961924294 0 714.44904961924294 578.79677351854571 0 0 0 0 588.59146413745475 834.2775723722184 0 834.2775723722184 467.15191881863439 0 0 0 0 491.36674825897171 1140.2281206053822 0 1140.2281206053822 -144.39109599040512 0 0 0 0 610.07860154412447 880.99562993533868 0 880.99562993533868 548.31739292047951 0 0 0 0 512.86007103066368 568.15556552581438 0 568.15556552581438 332.81928124262686 0 0 0 0 376.6250031500349 1970.1220749155073 0 1970.1220749155073 1317.4940054339004 0 0 0 0 900.96013888080779 178.13505828629513 0 178.13505828629513 1372.2886482411968 0 0 0 0 1727.2074387714747 1491.3542741902302 0 1491.3542741902302 1011.1754641675088 0 0 0 0 415.92092266843429 1050.995148917551 0 1050.995148917551 2078.0100517801129 0 0 0 0 -3.6016149408665967 4.6789553612271746 0 4.6789553612271746 7.5540565564106013 0 0 0 0 -4.239848787109878 -0.55267132141661079 0 -0.55267132141661079 6.4810174940285599 0 0 0 0 255.7747334966989 780.08197585900962 0 780.08197585900962 2176.2589223884552 0 0 0 0 93.729989032364756 115.51905599464527 0 115.51905599464527 -48.521750398550125 0 0 0 0 -277.69650621651817 -382.95522581223031 0 -382.95522581223031 123.18406637718283 0 0 0 0 -1055.4821299805808 670.16717999284674 0 670.16717999284674 -468.65370447024657 0 0 0 0 -367.24175695063605 757.66900468252607 0 757.66900468252607 -793.15470221599207 0 0 0 0 -773.91478664441274 1190.8243473331736 0 1190.8243473331736 -875.06223120502636 0 0 0 0 -556.63076971955525 848.67575550030188 0 848.67575550030188 -585.51715734753088 0 0 0 0 -425.99981532429229 87.976298426806352 0 87.976298426806352 -236.17768680085237 0 0 0 0 -1794.3050783712752 1768.1928218613284 0 1768.1928218613284 -1169.2707619060629 0 0 0 0 -455.74001326142024 761.44324233567022 0 761.44324233567022 -2530.3512473023347 0 0 0 0 687.58030084462371 1345.5311274929472 0 1345.5311274929472 -3696.0420360070325 0 0 0 0 2303.8850201645982 1723.3144896087401 0 1723.3144896087401 -769.42644712956053 0 0 0 0 -14.897380781424857 16.7403657355012 0 16.7403657355012 -1.6749682258590168 0 0 0 0 -542.86245117785074 3851.527591507027 0 3851.527591507027 -1910.9233378556291 0 0 0 0 0.02461591622382997 1.8362036298631992 0 1.8362036298631992 -1.3331072518002429 0 0 0 0 -1962.4920412007705 552.11801461806681 0 552.11801461806681 -232.67822486561863 0 0 0 0 -185.06799268354371 61.918349528737281 0 61.918349528737281 -1299.2918516806535 0 0 0 0 -165.37947238664856 199.98595909733535 0 199.98595909733535 -413.10045963578352 0 0 0 0 -1797.2469494402176 628.35232308192258 0 628.35232308192258 -462.40166281236606 0 0 0 0 -406.3106094755567 279.91170455133033 0 279.91170455133033 -379.54896018003228 0 0 0 0 -512.7664634321518 428.89449177270217 0 428.89449177270217 109.45700183998815 0 0 0 0 -1142.0554172801021 1045.5278994299829 0 1045.5278994299829 -740.39490773490979 0 0 0 0 -1.5244124263012395 38.254764461156235 0 38.254764461156235 20.54643663744125 0 0 0 0 -105.64078817972404 -360.46163352711346 0 -360.46163352711346 434.29010702977939 0 0 0 0 -170.23466665423621 435.56569102202229 0 435.56569102202229 -285.29902285824755 0 0 0 0 285.44752561753194 -222.22528893618983 0 -222.22528893618983 -54.923959529127615 0 0 0 0 303.40527470510278 198.85404382279921 0 198.85404382279921 -307.4621434629164 0 0 0 0 -186.36137931171834 -238.17824605862734 0 -238.17824605862734 -169.28474165085208 0 0 0 0 -425.86065316112035 37.400820231799571 0 37.400820231799571 -16.032795399711176 0 0 0 0 52.883310504519613 1289.9858592875098 0 1289.9858592875098 1250.0053766492656 0 0 0 0 26.152876282490524 1014.2688534679016 0 1014.2688534679016 1625.8750999538279 0 0 0 0 19.779644054730397 1145.1827282826177 0 1145.1827282826177 1137.1182101607374 0 0 0 0 140.0168747265925 891.71796460149744 0 891.71796460149744 1250.7421209621207 0 0 0 0 449.65744448284386 268.6953043969188 0 268.6953043969188 1322.9939310938098 0 0 0 0 99.104983498706133 883.01564681301534 0 883.01564681301534 1256.1747512735492 0 0 0 0 576.85628227062625 -137.56939748067589 0 -137.56939748067589 2009.4254270905076 0 0 0 0 197.34509649896063 402.76801760485978 0 402.76801760485978 2250.618793694015 0 0 0 0 132.27206640281656 621.476776324713 0 621.476776324713 1946.7774428573757 0 0 0 0 287.07744379845099 670.13607799366946 0 670.13607799366946 1468.7409293424826 0 0 0 0 120.89305551038706 1092.7901235038807 0 1092.7901235038807 1437.5442370612418 0 0 0 0 55.957765724051569 791.411994215302 0 791.411994215302 2097.0176276361017 0 0 0 0 -53.381349804942147 958.03239241400843 0 958.03239241400843 2032.0460105814873 0 0 0 0 -30.182685038141713 39.39723575227282 0 39.39723575227282 3.7898709458135746 0 0 0 0 -492.72655356903851 824.5887432658842 0 824.5887432658842 4054.5208871832651 0 0 0 0 39.322693354639341 1052.8578787597417 0 1052.8578787597417 1800.3663516942343 0 0 0 0 -108.64776414223888 799.66427398439009 0 799.66427398439009 2420.5056632147071 0 0 0 0 -279.26512290013488 1005.3889196277996 0 1005.3889196277996 2386.839893317886 0 0 0 0 -228.66604821381043 974.57496951468056 0 974.57496951468056 2960.4860182481934 0 0 0 0 -48.796051525423536 675.20952934113302 0 675.20952934113302 2534.939700816667 0 0 0 0 -155.95591048023198 895.57794059065054 0 895.57794059065054 2335.9913418312753 0 0 0 0 174.65512201798811 307.75275524404196 0 307.75275524404196 2656.2037791357507 0 0 0 0 -366.43130689738609 642.91591461701319 0 642.91591461701319 3278.4164943619671 0 0 0 0 -109.56218121312122 -132.19388253610759 0 -132.19388253610759 3328.4514942602382 0 0 0 0 -266.35211534862174 816.56674818034048 0 816.56674818034048 2986.6309355986814 0 0 0 0 95.790185027974076 1272.940456360644 0 1272.940456360644 2467.0336884476451 0 0 0 0 -112.83748943022511 959.35374898939517 0 959.35374898939517 2549.7257753587946 0 0 0 0 -69.351812482528885 855.96904217379176 0 855.96904217379176 1847.5082554262008 0 0 0 0 -81.610896359701428 1230.0201292041613 0 1230.0201292041613 2046.1142980403019 0 0 0 0 -156.46134375264228 1190.1623370443986 0 1190.1623370443986 1734.4343943423228 0 0 0 0 -402.4502027877752 1086.7905040613105 0 1086.7905040613105 978.07670431062934 0 0 0 0 -54.252744060591795 1065.851135802375 0 1065.851135802375 979.16775574567146 0 0 0 0 -154.27827758263447 1211.4812039716116 0 1211.4812039716116 983.3141579889043 0 0 0 0 -487.21323026272876 1219.4913678230801 0 1219.4913678230801 983.23065202379644 0 0 0 0 -312.98133546925965 1327.9234962570736 0 1327.9234962570736 580.64046000428971 0 0 0 0 -377.19534848952026 1258.9712839025715 0 1258.9712839025715 1409.6151144313098 0 0 0 0 -49.865038409388944 1239.2150461954616 0 1239.2150461954616 1404.5810880568388 0 0 0 0 -286.19027489356085 1229.0547924613493 0 1229.0547924613493 1515.9750084404386 0 0 0 0 -156.38474301194947 925.05428249504712 0 925.05428249504712 1698.5705524639252 0 0 0 0 -251.29331129182538 1159.6957905716454 0 1159.6957905716454 1832.7927526741901 0 0 0 0 -28.586941946854495 1371.497406804071 0 1371.497406804071 1278.4260737877903 0 0 0 0 -151.80243624094146 1318.2414126020849 0 1318.2414126020849 1553.2582489258575 0 0 0 0 -262.24477719486458 1478.9802193420583 0 1478.9802193420583 917.81834942299429 0 0 0 0 -191.31282130568434 1359.6144411845821 0 1359.6144411845821 971.07358386329906 0 0 0 0 -527.32680303372035 1408.3831541469449 0 1408.3831541469449 967.72702755055457 0 0 0 0 -379.51324534602463 1388.2955586584942 0 1388.2955586584942 575.70853937361062 0 0 0 0 -555.56804306519916 1668.8750100525931 0 1668.8750100525931 796.71943490735976 0 0 0 0 -441.09089922599378 1506.1493031142786 0 1506.1493031142786 1283.1134134247186 0 0 0 0 -382.36562491711629 1767.2518362449905 0 1767.2518362449905 1076.8376222597926 0 0 0 0 -35.254132374146138 1840.2886256840056 0 1840.2886256840056 804.02476336626569 0 0 0 0 53.27558097941801 1655.3718870166767 0 1655.3718870166767 1105.5468708668204 0 0 0 0 -87.995392254379112 1528.0571165193858 0 1528.0571165193858 1002.7206919011078 0 0 0 0 -156.3586072775397 1907.7643434915894 0 1907.7643434915894 3282.8290389122876 0 0 0 0 -894.21174729822451 1040.5543379675378 0 1040.5543379675378 5539.4592888348543 0 0 0 0 -35.074057456913579 1107.6945036882087 0 1107.6945036882087 2748.487170802387 0 0 0 0 480.84379078393249 -113.16326500088962 0 -113.16326500088962 3512.1074508082743 0 0 0 0 281.82497605455865 1381.2717706177109 0 1381.2717706177109 3354.7626961662163 0 0 0 0 95.326324382534949 638.4996885071555 0 638.4996885071555 2545.2218086326102 0 0 0 0 1014.8319291126754 902.13836779907433 0 902.13836779907433 2618.6190636991432 0 0 0 0 291.01825565225226 422.73254787401407 0 422.73254787401407 1408.3705531730916 0 0 0 0 55.599210252592457 1147.7369904692364 0 1147.7369904692364 1868.3589156558432 0 0 0 0 -320.80673606647179 869.64596729520099 0 869.64596729520099 998.05662498677611 0 0 0 0 179.45409463503529 834.07949265665593 0 834.07949265665593 999.95447584588601 0 0 0 0 -427.26762414960831 645.54485220503182 0 645.54485220503182 1466.2857769272059 0 0 0 0 -136.76067872568819 950.57138995369303 0 950.57138995369303 1077.4836227120052 0 0 0 0 110.2774370235129 392.30324160151326 0 392.30324160151326 301.23399339844764 0 0 0 0 72.751351417493424 334.04127209247656 0 334.04127209247656 1635.6788686297537 0 0 0 0 -567.87109205013985 352.43210108901485 0 352.43210108901485 301.92866086076504 0 0 0 0 -164.19809954797165 830.42703713828655 0 830.42703713828655 -209.29317800943454 0 0 0 0 -558.09144788428966 408.41436377563468 0 408.41436377563468 -864.61590360165837 0 0 0 0 -480.08629038865183 868.09619075703222 0 868.09619075703222 -1200.3686707873162 0 0 0 0 -710.05985397259792 833.29329817336327 0 833.29329817336327 -638.14770875119848 0 0 0 0 -673.87385660797008 1201.2983019676467 0 1201.2983019676467 -1888.3930688225637 0 0 0 0 -905.21125039721665 944.65721479381591 0 944.65721479381591 -1169.042634038904 0 0 0 0 -1057.4082200170378 752.90584592024288 0 752.90584592024288 -861.66085788906548 0 0 0 0 -621.33693526186107 991.64534478010739 0 991.64534478010739 -1637.6250299025278 0 0 0 0 -592.75100990560895 1441.0782367881291 0 1441.0782367881291 -2171.5149901690515 0 0 0 0 -778.85123457043665 1194.5261588275275 0 1194.5261588275275 -1451.1782650889047 0 0 0 0 -432.50033830318716 904.79642841735586 0 904.79642841735586 -1432.7265567576908 0 0 0 0 -612.90158116687962 886.67026060605281 0 886.67026060605281 -921.88514342303188 0 0 0 0 -422.40675417483726 760.08746310305776 0 760.08746310305776 -1014.9414142402333 0 0 0 0 -472.6019896972266 1203.2297098811587 0 1203.2297098811587 -1438.7397874191017 0 0 0 0 -507.98002065437322 1018.4801743981932 0 1018.4801743981932 -370.89449128663819 0 0 0 0 -427.69173662070534 466.6379364255888 0 466.6379364255888 -528.04073760158849 0 0 0 0 -195.52704053558409 861.93330098125557 0 861.93330098125557 -924.36776182465235 0 0 0 0 -246.63032198845031 394.08915270152659 0 394.08915270152659 427.93061411313215 0 0 0 0 -222.88531542834971 659.10190154213285 0 659.10190154213285 -168.16585434434 0 0 0 0 -74.808882475581413 1035.3825137863644 0 1035.3825137863644 275.78743544307054 0 0 0 0 -473.85133706942725 1093.7610093594803 0 1093.7610093594803 272.16181151527314 0 0 0 0 -71.265936648647767 989.31165932229669 0 989.31165932229669 287.77602198715795 0 0 0 0 -251.69252598739695 1234.507032089027 0 1234.507032089027 479.74563045647301 0 0 0 0 -523.07725166551245 1026.2938840670386 0 1026.2938840670386 364.35429719206422 0 0 0 0 -411.59668202941248 1304.1910596928465 0 1304.1910596928465 196.11611092407657 0 0 0 0 -598.4668609174114 1250.4029450942935 0 1250.4029450942935 571.79153130769737 0 0 0 0 -713.1845679722901 1144.1683348086576 0 1144.1683348086576 143.17699845010225 0 0 0 0 -587.66120189742651 1259.1825618372925 0 1259.1825618372925 155.98433093602011 0 0 0 0 -447.90490476351988 1260.5928141753163 0 1260.5928141753163 -292.85838319709183 0 0 0 0 -679.91555024427362 1021.6152692749406 0 1021.6152692749406 -416.16286226944368 0 0 0 0 -622.56173551180655 1381.2481303078018 0 1381.2481303078018 -506.5954488801267 0 0 0 0 -662.58207613087143 1123.408579856663 0 1123.408579856663 -1030.9282472089474 0 0 0 0 -718.11014685768168 1367.3222735875424 0 1367.3222735875424 -946.19998405554611 0 0 0 0 -758.54702473610814 1249.5260696417645 0 1249.5260696417645 -620.1093100221093 0 0 0 0 -522.94578730935609 1014.8933492494222 0 1014.8933492494222 -907.2348890066246 0 0 0 0 -589.63467644572665 1173.6527815706395 0 1173.6527815706395 -815.83446905373478 0 0 0 0 -730.22922581807507 948.83306409886143 0 948.83306409886143 -387.14217328704763 0 0 0 0 -340.14483373166513 982.40994270682722 0 982.40994270682722 -384.27837188036756 0 0 0 0 -715.95209240035911 1650.2692697459806 0 1650.2692697459806 795.02912652393024 0 0 0 0 -682.87848741517519 1421.1019197024461 0 1421.1019197024461 614.23441440335228 0 0 0 0 -537.44460130302468 1721.0274818258179 0 1721.0274818258179 373.11312478983018 0 0 0 0 -545.55375351052498 1500.4670721806065 0 1500.4670721806065 188.91865290097667 0 0 0 0 -693.37192409056297 1433.1311402718511 0 1433.1311402718511 573.47956627408826 0 0 0 0 -587.89738867987398 1422.6192030130414 0 1422.6192030130414 90.792539239684629 0 0 0 0 -497.36240088610793 1299.0321101281227 0 1299.0321101281227 171.9337501122609 0 0 0 0 -740.55230895760178 1156.4654882566174 0 1156.4654882566174 -122.16226501248354 0 0 0 0 -660.72628221300329 1329.0367562778022 0 1329.0367562778022 -1038.983257087461 0 0 0 0 -764.23258718769648 1146.6520412376522 0 1146.6520412376522 -664.59891775094923 0 0 0 0 -858.52437689722865 1173.5187535746668 0 1173.5187535746668 -451.75893065933133 0 0 0 0 -807.50844317821611 1314.1019766340494 0 1314.1019766340494 182.5573061263421 0 0 0 0 -636.66811182934543 1408.8010575048338 0 1408.8010575048338 -400.50360903001183 0 0 0 0 -609.09144528581237 1586.584508750454 0 1586.584508750454 -100.73792605563074 0 0 0 0 -697.6455940595115 1304.9429984723085 0 1304.9429984723085 -399.27128248275068 0 0 0 0 -889.78722671266587 1001.8847137673351 0 1001.8847137673351 -853.02861170031292 0 0 0 0 -747.1460595813769 1431.2319911017833 0 1431.2319911017833 -494.88562696483297 0 0 0 0 -1171.6770864861828 1249.670465136222 0 1249.670465136222 8.8874058874200728 0 0 0 0 -899.92412566825806 1454.4384856907855 0 1454.4384856907855 336.89407219510571 0 0 0 0 -11.699302144058928 22.042744920890428 0 22.042744920890428 -0.38241519622898323 0 0 0 0 -489.52792971333838 1593.7149636729109 0 1593.7149636729109 -2763.4204276703977 0 0 0 0 -357.75905858766419 1014.7131187490595 0 1014.7131187490595 127.07376996566745 0 0 0 0 65.44945704733712 46.306012452551656 0 46.306012452551656 7.9021995737124904 0 0 0 0 -242.22467330913059 1132.4657614534381 0 1132.4657614534381 -3016.9353925911346 0 0 0 0 -876.69363640237134 366.19525637592869 0 366.19525637592869 -2364.1907832377237 0 0 0 0 -1321.3503506549096 657.25657667192763 0 657.25657667192763 -752.99833649872403 0 0 0 0 -659.83615430469217 901.29627760299627 0 901.29627760299627 -1701.6747652407785 0 0 0 0 -759.16889997199178 816.26042579116802 0 816.26042579116802 -1453.2297036518394 0 0 0 0 -794.75593374740129 1026.2404511004918 0 1026.2404511004918 -1318.9017636576018 0 0 0 0 -473.81510755842464 1110.2145948653633 0 1110.2145948653633 -2382.2916340556058 0 0 0 0 -462.04093294296763 1515.5047992449163 0 1515.5047992449163 -2295.226903954675 0 0 0 0 -552.37247499072691 1507.8937734239871 0 1507.8937734239871 -1999.9552053492371 0 0 0 0 -549.49582819624629 1157.4740140045546 0 1157.4740140045546 -1783.9324553562401 0 0 0 0 -514.42883687878202 1449.9467767629535 0 1449.9467767629535 -2115.8435164088614 0 0 0 0 -594.5044713816169 1358.9082034615335 0 1358.9082034615335 -1625.8390429458423 0 0 0 0 -722.10301036341116 1224.924633981444 0 1224.924633981444 -1036.2949243687574 0 0 0 0 -673.32800862909062 1361.394216467495 0 1361.394216467495 -1558.7230033038927 0 0 0 0 -813.4466538342167 1215.5207107866754 0 1215.5207107866754 -1061.1245556481776 0 0 0 0 -862.61578875069972 1520.1677764883461 0 1520.1677764883461 -1594.5907995454475 0 0 0 0 -756.39366753295326 1454.1245329499561 0 1454.1245329499561 -1886.1157100184555 0 0 0 0 -745.80598528137489 1438.1053970901357 0 1438.1053970901357 -2760.0626179298956 0 0 0 0 -735.57055302619119 1838.5352324187747 0 1838.5352324187747 -2455.3401212832432 0 0 0 0 -920.82513269175251 1173.8425811417244 0 1173.8425811417244 -1449.7758625898314 0 0 0 0 -561.6056757684928 999.46993454002245 0 999.46993454002245 -1403.1006231394131 0 0 0 0 -876.50709921984526 1179.0567372526993 0 1179.0567372526993 -978.00633230370045 0 0 0 0 -746.98758886977157 1294.1947417488489 0 1294.1947417488489 -1442.3773215139527 0 0 0 0 -878.78973434379441 1239.2112864839844 0 1239.2112864839844 -1028.0855640051361 0 0 0 0 -711.85595020028995 1281.4286741013048 0 1281.4286741013048 -1456.5550685193548 0 0 0 0 -824.20774203426117 1169.8759411797403 0 1169.8759411797403 -1550.1139356633062 0 0 0 0 -1005.7989361425571 1413.0421272338158 0 1413.0421272338158 -1442.9627513964981 0 0 0 0 -832.39470076419093 1148.5347339671989 0 1148.5347339671989 -2129.1878109893482 0 0 0 0 -1215.6634697027039 1420.4649519901395 0 1420.4649519901395 -1666.0814708114337 0 0 0 0 -924.57687975089357 1513.5662343297563 0 1513.5662343297563 -2196.5413303588102 0 0 0 0 -1041.9675466355839 1596.4639869413159 0 1596.4639869413159 -1891.5257937735651 0 0 0 0 -1778.3426957345509 1603.1966749681787 0 1603.1966749681787 -2195.8640631704725 0 0 0 0 -1453.4960321869949 822.48817410790321 0 822.48817410790321 -2899.6823774084387 0 0 0 0 -1295.5182593599893 1218.1954620818033 0 1218.1954620818033 -2118.295873686382 0 0 0 0 -775.895055664354 1250.1410206047158 0 1250.1410206047158 -3553.4892102790072 0 0 0 0 -756.05191351435496 1421.1880981298939 0 1421.1880981298939 -3085.8103248244461 0 0 0 0 -566.23675039722002 1228.2649578046385 0 1228.2649578046385 -2278.0806293795995 0 0 0 0 -757.3629918476945 1300.3655303817977 0 1300.3655303817977 -2126.7056288463832 0 0 0 0 -816.78371814882121 1554.0050123910971 0 1554.0050123910971 -2385.342599431061 0 0 0 0 -1160.0134275525197 1400.8815161421996 0 1400.8815161421996 -1643.2125039571961 0 0 0 0 -548.36239505842968 1535.1973669032632 0 1535.1973669032632 -4019.968521889672 0 0 0 0 -1998.3983507463709 2435.2148714899154 0 2435.2148714899154 -2393.0016306129592 0 0 0 0 -74.553810700945093 43.027691489883011 0 43.027691489883011 31.467588994925041 0 0 0 0 13.797453956418749 20.906173840299985 0 20.906173840299985 -0.0029452398356681897 0 0 0 0 -129.94806601382152 102.40200129688128 0 102.40200129688128 -75.614509038776305 0 0 0 0 492.33046953147368 -30.066431140510758 0 -30.066431140510758 18.229658635282476 0 0 0 0 260.48782869800038 -121.97397025813461 0 -121.97397025813461 60.219837616652057 0 0 0 0 622.56080936321905 -177.84127045916648 0 -177.84127045916648 40.862722005200339 0 0 0 0 470.03361633342593 28.946947586760871 0 28.946947586760871 187.75182914497418 0 0 0 0 637.92418177244554 59.430196425066242 0 59.430196425066242 -269.74644100031946 0 0 0 0 359.32607756160155 4.2054261933744783 0 4.2054261933744783 -28.555702730069243 0 0 0 0 -191.20755737324544 74.30728899243195 0 74.30728899243195 25.590559985688742 0 0 0 0 -15.052270598814301 94.630949404946989 0 94.630949404946989 -19.068958120213068 0 0 0 0 -130.01045816121768 49.618794960114428 0 49.618794960114428 9.0059624995883496 0 0 0 0 -105.65405385406848 40.312931266779742 0 40.312931266779742 18.516419165425759 0 0 0 0 -83.985596788770636 98.925442384235794 0 98.925442384235794 42.002909497052315 0 0 0 0 -47.537873509281781 69.771554283248406 0 69.771554283248406 131.53054430462362 0 0 0 0 -84.36628463022862 92.148710852755357 0 92.148710852755357 117.97400020110217 0 0 0 0 -56.500688250693202 82.605348588577726 0 82.605348588577726 19.572010312222119 0 0 0 0 -351.27791324799182 123.8169532336251 0 123.8169532336251 240.08733272219251 0 0 0 0 22.323685254406882 71.064025659383333 0 71.064025659383333 16.712415923389926 0 0 0 0 118.23146272344457 -55.364797993443062 0 -55.364797993443062 156.0625232290331 0 0 0 0 90.622713723583729 -3.9982092668360565 0 -3.9982092668360565 81.49198680047266 0 0 0 0 -33.726620328525314 88.874528068925429 0 88.874528068925429 155.07454645254256 0 0 0 0 7.158495554322144 9.4292727455085696 0 9.4292727455085696 289.40411497955211 0 0 0 0 -137.74999784777174 -155.72401522372093 0 -155.72401522372093 599.70627695840585 0 0 0 0 -2.5977582744179699 9.0353096037809735 0 9.0353096037809735 13.487429763864329 0 0 0 0 359.32964178727707 -10.952135898030974 0 -10.952135898030974 -304.7115150825739 0 0 0 0 70.330982596264221 -122.10068327651607 0 -122.10068327651607 307.16756544609962 0 0 0 0 -580.15173227873674 150.13866260702207 0 150.13866260702207 527.39088297692706 0 0 0 0 -1349.4455394177203 2630.8110522299849 0 2630.8110522299849 -3574.7651365045044 0 0 0 0 -8.7174394449884431 2.5220470741271583 0 2.5220470741271583 -0.40603076492343693 0 0 0 0 -827.129410814523 1968.242160601771 0 1968.242160601771 -3935.3953557847094 0 0 0 0 -1427.7214647604269 2028.4546063316066 0 2028.4546063316066 -2697.0684130495792 0 0 0 0 -1491.8497129720454 2233.0625866103614 0 2233.0625866103614 -2845.6195183221389 0 0 0 0 -1228.497258189469 1704.2341195777853 0 1704.2341195777853 -2735.7336367563539 0 0 0 0 -1203.2016184540407 1882.0749981224499 0 1882.0749981224499 -3098.1890324144988 0 0 0 0 -1327.3150851019163 1641.4527344955641 0 1641.4527344955641 -2321.5001519993493 0 0 0 0 -804.85309797921218 1306.6185226018952 0 1306.6185226018952 -3726.2524851456801 0 0 0 0 -1094.8896803093667 1279.071602915556 0 1279.071602915556 -2963.8230809798561 0 0 0 0 -908.8506722717575 1672.7570486567702 0 1672.7570486567702 -3567.6768413834743 0 0 0 0 -1057.1966071698407 1097.9090064242141 0 1097.9090064242141 -3408.6585103418738 0 0 0 0 -1276.6366526580969 1343.5226133795441 0 1343.5226133795441 -2308.7540922532135 0 0 0 0 -1047.3934857400309 1485.0018435620186 0 1485.0018435620186 -2865.3281003042807 0 0 0 0 -1190.5967930807601 1471.8456939194657 0 1471.8456939194657 -2328.1301931264352 0 0 0 0 -1082.1013607761852 1134.9990111590087 0 1134.9990111590087 -1986.1456225030729 0 0 0 0 -924.32935615874885 1427.9063833063574 0 1427.9063833063574 -2289.6674765095963 0 0 0 0 -1307.6668036908377 1362.7226158305534 0 1362.7226158305534 -1919.2879357868787 0 0 0 0 -1077.6660574415291 1327.3494089591077 0 1327.3494089591077 -2570.2519173904757 0 0 0 0 -1007.099373287936 968.8136013109322 0 968.8136013109322 -1295.9517707828918 0 0 0 0 -761.56304888587329 905.91789426449554 0 905.91789426449554 -1520.8390592395685 0 0 0 0 -973.11027040082263 863.62943203557961 0 863.62943203557961 -1538.8741903139585 0 0 0 0 -1128.0453953580873 1269.0957093472898 0 1269.0957093472898 -1742.0658847981795 0 0 0 0 -1042.312561629049 1507.762126594951 0 1507.762126594951 -2085.6688548243487 0 0 0 0 -6.2726425048356305 16.215713686460937 0 16.215713686460937 8.4185726661375018 0 0 0 0 -25.084979067492782 1.0492325254488328 0 1.0492325254488328 11.204445110071637 0 0 0 0 -763.00115057858056 1679.1631000982793 0 1679.1631000982793 -2691.0083572866215 0 0 0 0 -556.26600198300002 1129.9768759633671 0 1129.9768759633671 -1997.4053061853854 0 0 0 0 -768.16383229767962 1200.9071557887501 0 1200.9071557887501 -1877.6530540513902 0 0 0 0 -743.19652221636352 1493.2238076708954 0 1493.2238076708954 -2243.2444337551869 0 0 0 0 -772.87290076298814 1469.4686306151866 0 1469.4686306151866 -2258.6466421917917 0 0 0 0 -719.87559047733339 1268.6802892575765 0 1268.6802892575765 -2351.540110817094 0 0 0 0 -575.44044046994532 1535.1050588810208 0 1535.1050588810208 -2729.58249569999 0 0 0 0 -987.23175089653523 1644.2922384163219 0 1644.2922384163219 -2502.3456714438248 0 0 0 0 -1231.1863013808234 1412.2098883679951 0 1412.2098883679951 -2654.2715709647828 0 0 0 0 -685.54159179548151 1471.2686804167829 0 1471.2686804167829 -2473.2898629268175 0 0 0 0 1534.7155434716542 820.75172076791569 0 820.75172076791569 -359.2288752344507 0 0 0 0 0.9718979295088328 103.84621760020254 0 103.84621760020254 4.2625075623181132 0 0 0 0 -780.77943800294088 289.07553481627451 0 289.07553481627451 -581.67222754123418 0 0 0 0 781.21511965709851 592.04376113850913 0 592.04376113850913 -119.06175667503339 0 0 0 0 1404.3744202701052 388.46720509384886 0 388.46720509384886 -432.65072000900636 0 0 0 0 1576.3078680575509 494.78224141649025 0 494.78224141649025 -407.71277153108417 0 0 0 0 882.69476683458379 96.344697251938939 0 96.344697251938939 -160.78846586544751 0 0 0 0 872.10251480705119 -140.03499628769123 0 -140.03499628769123 -155.62243894040694 0 0 0 0 1480.3926841449047 -43.789668199743573 0 -43.789668199743573 -135.16425303191158 0 0 0 0 1107.627887017793 -534.61103114672596 0 -534.61103114672596 473.60935385675111 0 0 0 0 665.03922038658038 -105.77862488551727 0 -105.77862488551727 23.761536017784238 0 0 0 0 921.46770259537516 -200.29645493715907 0 -200.29645493715907 58.599962952799615 0 0 0 0 1566.4281541479122 442.87334202064517 0 442.87334202064517 -314.55533757954527 0 0 0 0 2158.5925484500458 747.28290217086624 0 747.28290217086624 -284.41271828370282 0 0 0 0 4375.013469604407 700.81957393948073 0 700.81957393948073 -283.73083037749257 0 0 0 0 30.157593913022357 15.737035092490892 0 15.737035092490892 9.2371088267836186 0 0 0 0 3009.6998016834623 -1228.8456902730009 0 -1228.8456902730009 299.60627137360666 0 0 0 0 404.98344957491099 -127.26449250053383 0 -127.26449250053383 674.64255179224347 0 0 0 0 -340.73544328089338 -1224.028041180235 0 -1224.028041180235 1432.4638179775093 0 0 0 0 571.93470158572745 -338.28175570859548 0 -338.28175570859548 863.20547470808015 0 0 0 0 949.91444147544735 -932.61153926047336 0 -932.61153926047336 258.04010048790587 0 0 0 0 2533.3012089278936 -717.83397127003514 0 -717.83397127003514 -34.779368173383773 0 0 0 0 -1251.9088492408409 551.84021688751182 0 551.84021688751182 -1267.851120561204 0 0 0 0 -958.33363395516358 1725.6745528258757 0 1725.6745528258757 347.32125216816439 0 0 0 0 510.24204131026272 2779.8485195795884 0 2779.8485195795884 723.83200184600423 0 0 0 0 -761.59209017110061 1791.2674783140035 0 1791.2674783140035 638.36785670346308 0 0 0 0 -401.57648654074001 2196.0617197409229 0 2196.0617197409229 945.93202773934536 0 0 0 0 4033.5682263338349 1469.432386640603 0 1469.432386640603 -250.55147140619874 0 0 0 0 960.3530114563564 1545.2726508447922 0 1545.2726508447922 2581.1524719504523 0 0 0 0 1422.1069287093487 -759.80946431336224 0 -759.80946431336224 978.45575021412424 0 0 0 0 806.59063380369957 853.1428505214883 0 853.1428505214883 105.12586350951688 0 0 0 0 -406.20798353696955 -944.1732834682366 0 -944.1732834682366 94.309201512115024 0 0 0 0 -812.29122342529536 399.65286254609555 0 399.65286254609555 795.14955873561917 0 0 0 0 -721.15058127578232 91.164729582395196 0 91.164729582395196 27.955842400976607 0 0 0 0 -0.22549149288664094 104.55207970980018 0 104.55207970980018 -4.3866892737691199 0 0 0 0 -1098.0134939749878 -429.15619236764428 0 -429.15619236764428 249.76751999499902 0 0 0 0 -1.0969779239436983 100.88651542995825 0 100.88651542995825 -31.102342930409058 0 0 0 0 -472.69943262032029 263.40776675096703 0 263.40776675096703 4.6052815369857854 0 0 0 0 -534.36620049341218 191.62911105291028 0 191.62911105291028 -43.451754015571169 0 0 0 0 828.23230145047273 39.293119080311953 0 39.293119080311953 -77.910143591147971 0 0 0 0 853.80065273856235 -402.9043964845232 0 -402.9043964845232 -265.12577887786938 0 0 0 0 -674.88146144227346 -230.70951139420299 0 -230.70951139420299 -518.79995721973683 0 0 0 0 -638.75200703977657 235.61228078891713 0 235.61228078891713 -523.78160817823664 0 0 0 0 -200.79319498992663 229.60269619262908 0 229.60269619262908 107.2172218645901 0 0 0 0 -195.03154562581312 412.63991615023451 0 412.63991615023451 -315.28343548109842 0 0 0 0 -241.73713173097713 309.94510336534586 0 309.94510336534586 -49.794760261087504 0 0 0 0 -135.48380482454013 242.35468917011349 0 242.35468917011349 -118.98385770491586 0 0 0 0 -249.53247883972654 119.73008373865287 0 119.73008373865287 -92.605723322760241 0 0 0 0 -324.42986692556588 134.8426858245075 0 134.8426858245075 -76.276931305774269 0 0 0 0 64.465380423325769 1707.4877855842233 0 1707.4877855842233 634.93707559336144 0 0 0 0 -73.470037383252929 2336.4096870591284 0 2336.4096870591284 914.48410728788986 0 0 0 0 844.8492664137375 2083.4793066764714 0 2083.4793066764714 652.5002184241439 0 0 0 0 1096.1272393566037 1365.1852289888634 0 1365.1852289888634 92.212115423171781 0 0 0 0 662.84417381035928 944.18441054495315 0 944.18441054495315 -209.11468978114408 0 0 0 0 1371.541808790902 726.16501943094772 0 726.16501943094772 -474.80176816493986 0 0 0 0 -5.2439726468978236 6.090388187835277 0 6.090388187835277 -2.9499824823403111 0 0 0 0 -162.09606458856069 105.9767831666295 0 105.9767831666295 237.78280749575242 0 0 0 0 813.62785017858005 36.26679974495255 0 36.26679974495255 -1293.1528119803515 0 0 0 0 271.50840840721503 -97.436912109805235 0 -97.436912109805235 -767.3943159499222 0 0 0 0 101.05098012254166 1081.7806448361498 0 1081.7806448361498 833.78058729335135 0 0 0 0 -22.744222410372608 10.522845115248737 0 10.522845115248737 7.38374089111809 0 0 0 0 -47.738502784959564 74.267178519476147 0 74.267178519476147 115.51511194861928 0 0 0 0 246.49991245909769 830.41554054699373 0 830.41554054699373 795.58913788240534 0 0 0 0 -215.59622561345532 585.92040205258127 0 585.92040205258127 197.49744427929397 0 0 0 0 196.71126845070467 1108.9535106422018 0 1108.9535106422018 840.80642075427022 0 0 0 0 86.545079317416821 1283.759753528595 0 1283.759753528595 617.67268232725064 0 0 0 0 102.08373514207051 120.67487355195499 0 120.67487355195499 -130.82849825318317 0 0 0 0 -104.36172039614394 69.538265571107331 0 69.538265571107331 253.22682780976902 0 0 0 0 103.37067967089024 -56.240238335494723 0 -56.240238335494723 91.235035772087031 0 0 0 0 -33.321340903130476 73.06558017727275 0 73.06558017727275 22.501821776910219 0 0 0 0 145.74301231772915 -114.72546759193119 0 -114.72546759193119 -114.63208962311319 0 0 0 0 5.287405482172197 28.014415377240788 0 28.014415377240788 25.20476483644493 0 0 0 0 55.035868774241862 122.96379524578549 0 122.96379524578549 -133.89322826017815 0 0 0 0 100.11053961155267 109.2312929335817 0 109.2312929335817 -263.85843326122563 0 0 0 0 116.14775329338954 14.123773446835003 0 14.123773446835003 -495.33003187681607 0 0 0 0 -248.54568010169896 150.31797890866119 0 150.31797890866119 20.437052700526692 0 0 0 0 -70.630963333323052 154.471106282449 0 154.471106282449 -46.950688349890697 0 0 0 0 -232.21988931938176 146.21272806061961 0 146.21272806061961 -52.252279850023115 0 0 0 0 5.157657444608831 102.63700133940029 0 102.63700133940029 -69.833752900738773 0 0 0 0 -260.95167298210436 189.11319255497074 0 189.11319255497074 -104.90489878729204 0 0 0 0 -144.37959950559525 124.83611123406081 0 124.83611123406081 40.409500850705626 0 0 0 0 -92.182991867768578 128.85998958816799 0 128.85998958816799 -50.446865030185108 0 0 0 0 -33.948328648087283 55.578523830434108 0 55.578523830434108 7.1305314155433734 0 0 0 0 -177.87807612026518 116.15561578962843 0 116.15561578962843 121.13890481419389 0 0 0 0 55.698984139337881 128.69005585555078 0 128.69005585555078 -98.694089156046175 0 0 0 0 -15.513222420881789 56.409198814031711 0 56.409198814031711 17.745046532385576 0 0 0 0 38.122709314622625 154.02808807523343 0 154.02808807523343 -110.26255240749083 0 0 0 0 -29.710585567424403 38.058863422259797 0 38.058863422259797 -15.348485097862294 0 0 0 0 -8.3995373569123331 263.14467767708811 0 263.14467767708811 104.65842700735629 0 0 0 0 -236.9651150708014 383.44033740464965 0 383.44033740464965 -295.94451513528657 0 0 0 0 -11.295144886651983 121.28499562282963 0 121.28499562282963 -43.937557202926627 0 0 0 0 -14.761538229583493 172.84430066113873 0 172.84430066113873 -79.341346829089161 0 0 0 0 -11.678037881763885 257.38132933362431 0 257.38132933362431 166.14906572524342 0 0 0 0 -267.18807180493604 327.16022412689563 0 327.16022412689563 137.93810880311867 0 0 0 0 179.27440919203218 31.689746389962238 0 31.689746389962238 -131.62286076671444 0 0 0 0 4.2789605181799217 26.966641790307307 0 26.966641790307307 -21.049280560275299 0 0 0 0 -219.79877800104441 200.41532311631818 0 200.41532311631818 131.84174607163004 0 0 0 0 -105.23073823314917 125.91989141476733 0 125.91989141476733 -8.3583085769205354 0 0 0 0 148.59617611272188 -80.945565931251622 0 -80.945565931251622 -264.2281918299559 0 0 0 0 -11.952067016387446 165.57717360241918 0 165.57717360241918 -67.372953335097918 0 0 0 0 90.38868257082504 193.50281698490312 0 193.50281698490312 -90.410907772856262 0 0 0 0 34.163276710929495 183.47124217582495 0 183.47124217582495 -52.79260240167514 0 0 0 0 58.332378799052094 165.56174793918035 0 165.56174793918035 -63.565119143964012 0 0 0 0 34.004687517734226 192.3587323221503 0 192.3587323221503 -72.461411147534818 0 0 0 0 44.038747504349885 189.83150857643341 0 189.83150857643341 -66.370274346569204 0 0 0 0 -10.442722864881944 186.65958749307401 0 186.65958749307401 -62.529155198362787 0 0 0 0 9.4191835964811617 169.48152005146221 0 169.48152005146221 -71.465174506832454 0 0 0 0 -50.928261258241946 263.28212847920804 0 263.28212847920804 107.07187505412003 0 0 0 0 -77.704424590570852 198.41717580001159 0 198.41717580001159 -183.28487874587032 0 0 0 0 22.112503167598334 167.69202645625046 0 167.69202645625046 -6.0474463606897189 0 0 0 0 -17.667280887217203 130.73605150499316 0 130.73605150499316 -22.903035462251637 0 0 0 0 -3.0251847271042109 14.569242215995088 0 14.569242215995088 -32.363343131133981 0 0 0 0 -22.486379871964019 88.99803341541255 0 88.99803341541255 -56.700329307123241 0 0 0 0 96.831243585544144 197.31800756502162 0 197.31800756502162 -43.312327238845228 0 0 0 0 -120.19335712778411 134.23985725407329 0 134.23985725407329 -113.93246066663778 0 0 0 0 93.793429664586256 119.71464696606563 0 119.71464696606563 125.59612433527946 0 0 0 0 -0.12096469146562445 122.00057579890205 0 122.00057579890205 -27.580887448156005 0 0 0 0 216.95462069677887 161.38828411928989 0 161.38828411928989 41.289109112789447 0 0 0 0 -32.410563896168071 114.95145306884579 0 114.95145306884579 -24.86679559119035 0 0 0 0 28.477203340710901 30.712465396597771 0 30.712465396597771 -6.1237948457960414 0 0 0 0 -41.364343949593604 62.163298246315208 0 62.163298246315208 -151.69246667637435 0 0 0 0 -28.505848632361449 123.91288547431577 0 123.91288547431577 -186.40051963326005 0 0 0 0 -59.83082748697052 -0.56973921970620722 0 -0.56973921970620722 -273.35429837039374 0 0 0 0 74.959415260701292 181.15601895219257 0 181.15601895219257 -155.02876123001971 0 0 0 0 64.576813482850412 201.82693363546207 0 201.82693363546207 -784.92120474867124 0 0 0 0 46.925956496455456 147.74052571314729 0 147.74052571314729 -173.63098146213542 0 0 0 0 -360.64109236095828 790.71085470675212 0 790.71085470675212 -327.20006200928401 0 0 0 0 116.41293324914295 139.05322399560055 0 139.05322399560055 -213.07195114500837 0 0 0 0 98.511479321003662 153.13193886319436 0 153.13193886319436 -167.50686136937748 0 0 0 0 131.50344814582786 104.44093967988078 0 104.44093967988078 21.489931199916782 0 0 0 0 112.61676993842411 230.70229598907008 0 230.70229598907008 -54.540200242483706 0 0 0 0 -135.92081112183223 313.09275903323055 0 313.09275903323055 621.10742569047443 0 0 0 0 -1.4052203817448969 1.7564121053414703 0 1.7564121053414703 -0.064078340249075771 0 0 0 0 248.58531766811393 39.00192930792457 0 39.00192930792457 -899.79338175630164 0 0 0 0 -478.66097220280062 770.85304142677592 0 770.85304142677592 110.50195624713621 0 0 0 0 -273.1206686973328 630.47406571440922 0 630.47406571440922 -177.1088193969872 0 0 0 0 -153.60803331800344 646.72235823968526 0 646.72235823968526 -39.710972298336287 0 0 0 0 -157.85026195696992 621.48520636119167 0 621.48520636119167 -187.40860202273416 0 0 0 0 -567.45562893522128 416.31928822991176 0 416.31928822991176 19.915886959344789 0 0 0 0 -30.169395940318893 85.278347375211382 0 85.278347375211382 -70.469827669818542 0 0 0 0 -358.79099855444747 389.25975582680258 0 389.25975582680258 -21.520657208413468 0 0 0 0 -189.63414083469161 230.12732690681514 0 230.12732690681514 13.526485818860237 0 0 0 0 -275.2670859463251 305.84929035590176 0 305.84929035590176 -33.025757519822946 0 0 0 0 -334.76543046627239 276.39680699027303 0 276.39680699027303 -164.35569682417554 0 0 0 0 -450.62963558072624 289.47393233959701 0 289.47393233959701 -96.652663336499245 0 0 0 0 -445.1223522697037 313.01332809376618 0 313.01332809376618 -10.170199976710137 0 0 0 0 -556.91419945053985 390.57368384682377 0 390.57368384682377 43.479725668905303 0 0 0 0 -468.51671850494131 370.90456190203258 0 370.90456190203258 -67.197323364565818 0 0 0 0 -199.36087246677198 259.78452557275159 0 259.78452557275159 -64.796298386412673 0 0 0 0 85.313136703219556 166.58499145070712 0 166.58499145070712 11.576046657457482 0 0 0 0 -232.26893006277442 222.86494414108165 0 222.86494414108165 98.894765172575717 0 0 0 0 -91.329023390392649 231.68010009765567 0 231.68010009765567 28.264578656911908 0 0 0 0 -240.25126298872988 166.88356571093118 0 166.88356571093118 1.6638584263127996 0 0 0 0 -161.6226389316962 141.99561884722789 0 141.99561884722789 -1.6082966895814934 0 0 0 0 -35.569580655782829 98.780513328281813 0 98.780513328281813 0.84015792289574165 0 0 0 0 -165.98445973769003 15.859215496686375 0 15.859215496686375 -148.82128018903313 0 0 0 0 -393.80481166643131 186.13220182878285 0 186.13220182878285 -33.893714142828685 0 0 0 0 -130.9651105604903 195.19503950635408 0 195.19503950635408 -69.391666487630573 0 0 0 0 136.68604975229391 221.28303626479465 0 221.28303626479465 -149.6695493964362 0 0 0 0 -210.74244789251316 -75.409201335976832 0 -75.409201335976832 -143.83257655611669 0 0 0 0 2.7779711584855704 123.02697840443943 0 123.02697840443943 -147.27643370352598 0 0 0 0 1.2360237419777693 97.838305507053221 0 97.838305507053221 -67.859544925475291 0 0 0 0 1.9435648095596669 99.082714211580097 0 99.082714211580097 -101.05882602059648 0 0 0 0 -374.54389966324288 300.21797574584707 0 300.21797574584707 141.52701242125477 0 0 0 0 287.07055040994601 97.611474317684042 0 97.611474317684042 -388.41169150042697 0 0 0 0 -222.51611256183241 -92.697302892964217 0 -92.697302892964217 -62.983767006553535 0 0 0 0 8.295951301773826 -0.95060266118227332 0 -0.95060266118227332 -0.99076758947478538 0 0 0 0 54.739979993835732 45.479101447534049 0 45.479101447534049 -56.46345601908979 0 0 0 0 11.459444120903839 32.145175051056114 0 32.145175051056114 -36.005023606749432 0 0 0 0 -177.48411438996939 91.13633713469585 0 91.13633713469585 -126.17941675556358 0 0 0 0 122.52896401906764 2.111008821233554 0 2.111008821233554 12.199034744524397 0 0 0 0 379.06702136259264 684.45329152211707 0 684.45329152211707 -261.79222086386289 0 0 0 0 4.6696972499235017 92.910996844440177 0 92.910996844440177 -89.337121249641783 0 0 0 0 29.888364441940212 30.900705054576974 0 30.900705054576974 -30.777695285563823 0 0 0 0 24.862003541148045 26.446091833447831 0 26.446091833447831 -47.734223191182565 0 0 0 0 -67.250715295503937 53.995819357342512 0 53.995819357342512 -19.239740621031842 0 0 0 0 30.729924190760357 55.339821826724801 0 55.339821826724801 -52.224988561240025 0 0 0 0 87.989128135404599 -4.7909283411620152 0 -4.7909283411620152 -39.412527967045747 0 0 0 0 -383.27978076326735 448.4925137975697 0 448.4925137975697 -109.46869098773823 0 0 0 0 -420.60544291970973 298.89009660078955 0 298.89009660078955 -187.32476945993039 0 0 0 0 -196.44145596402663 220.13629049193082 0 220.13629049193082 -145.37187943916797 0 0 0 0 -23.293271625384747 11.410075385155224 0 11.410075385155224 -7.84337933223199 0 0 0 0 -442.7367210618886 179.73023555957843 0 179.73023555957843 -236.40663835233136 0 0 0 0 -386.49455666100869 218.03736188848598 0 218.03736188848598 -290.18223305699939 0 0 0 0 -476.91768185262481 279.5230129442034 0 279.5230129442034 -88.359547037311131 0 0 0 0 -801.90460899159734 368.14061324738486 0 368.14061324738486 -50.593734269234119 0 0 0 0 -661.9381242879208 114.85617571133662 0 114.85617571133662 -233.45945580899206 0 0 0 0 -275.95798691459277 370.19528345227081 0 370.19528345227081 -470.82478235267172 0 0 0 0 -452.4987336887184 127.38801194688313 0 127.38801194688313 -412.53410021193122 0 0 0 0 -865.62150813849007 589.52162824139305 0 589.52162824139305 143.80511619193203 0 0 0 0 -73.419463947581477 44.958529205931313 0 44.958529205931313 -25.546532546467972 0 0 0 0 -783.60933979717811 290.20126057597918 0 290.20126057597918 862.30320033119642 0 0 0 0 -890.13871605406166 -427.92808519890968 0 -427.92808519890968 547.68873708603678 0 0 0 0 -697.89989813917782 -288.53134883044549 0 -288.53134883044549 80.726881917295941 0 0 0 0 -503.53289103007774 89.377140742921256 0 89.377140742921256 39.496243251633132 0 0 0 0 -400.56103019531656 -103.07052038942857 0 -103.07052038942857 -205.55730729738207 0 0 0 0 34.174623341707047 868.84341716851668 0 868.84341716851668 -358.22271022554196 0 0 0 0 -421.75983969819254 278.47838450885729 0 278.47838450885729 -660.99121213829494 0 0 0 0 2.2261539355789317 28.709196276211493 0 28.709196276211493 -92.344418072382524 0 0 0 0 0.10216868248192001 1.4213032034394431 0 1.4213032034394431 -1.6363462502949062 0 0 0 0 -83.607873500795108 -162.70465040105 0 -162.70465040105 -187.39719083995442 0 0 0 0 -645.92677700010972 88.854395298119925 0 88.854395298119925 -7.4443483851500787 0 0 0 0 -18.33658665639507 49.260268885665795 0 49.260268885665795 -50.435696712417212 0 0 0 0 -70.523208182698653 46.978082485185297 0 46.978082485185297 -28.582138969829671 0 0 0 0 -574.59167027625881 331.50868669908232 0 331.50868669908232 -269.4660569151747 0 0 0 0 -495.25228138221428 -6.8417659336137149 0 -6.8417659336137149 -301.20240227478644 0 0 0 0 115.23975534035708 208.68698051015963 0 208.68698051015963 -63.535866569184691 0 0 0 0 28.469516163291701 160.01880710129626 0 160.01880710129626 25.582331035344396 0 0 0 0 139.6929344524724 151.72345799771574 0 151.72345799771574 58.693750785620068 0 0 0 0 251.68777184033752 240.20286464865057 0 240.20286464865057 -13.144506030192133 0 0 0 0 307.94400531559768 189.16716161421209 0 189.16716161421209 33.042666279798141 0 0 0 0 237.09722770819462 73.721633979032049 0 73.721633979032049 -158.48286857920175 0 0 0 0 199.13753806967361 159.17798999901424 0 159.17798999901424 -173.75053216327797 0 0 0 0 179.76946216040415 118.56949578665808 0 118.56949578665808 -0.73427843813260552 0 0 0 0 174.01247520222023 117.77492646421888 0 117.77492646421888 -161.74062963982578 0 0 0 0 94.416558278506272 149.40528107699356 0 149.40528107699356 -66.112499184535409 0 0 0 0 68.143225718355097 201.05551363797713 0 201.05551363797713 -148.55450811197807 0 0 0 0 156.94027994608768 159.43463203408464 0 159.43463203408464 -260.34097744253813 0 0 0 0 50.821418570347305 210.5460448423546 0 210.5460448423546 -222.21777677148202 0 0 0 0 -69.110692471265793 294.31022479526291 0 294.31022479526291 -140.56920437707595 0 0 0 0 72.605016402643741 211.12192918371147 0 211.12192918371147 -225.75449288234813 0 0 0 0 -72.082695633653202 264.26447483959782 0 264.26447483959782 -88.108105435865582 0 0 0 0 48.890529360964138 291.33691465035372 0 291.33691465035372 -511.57399436288688 0 0 0 0 -184.24144876024366 431.39863234710356 0 431.39863234710356 -247.17556910123676 0 0 0 0 -188.98760218070311 445.61414297840747 0 445.61414297840747 -102.1676815860701 0 0 0 0 -276.95143546885993 424.44966354327607 0 424.44966354327607 -98.924014570293366 0 0 0 0 -557.67970304720075 470.72506168984546 0 470.72506168984546 101.0468769967265 0 0 0 0 -253.77432352107371 331.77079931625667 0 331.77079931625667 -3.6176069517387077 0 0 0 0 -366.20168935496622 284.18355156139296 0 284.18355156139296 128.69794309078134 0 0 0 0 -363.2225348918455 308.87675496681459 0 308.87675496681459 208.99928529406316 0 0 0 0 -5.8082987428642809 223.71636451147788 0 223.71636451147788 -69.828823115632986 0 0 0 0 -165.69689962683333 268.92701991739159 0 268.92701991739159 27.772421648674936 0 0 0 0 -165.46771974471631 245.75123459532915 0 245.75123459532915 50.402159235760337 0 0 0 0 -33.317801430632244 187.43656530231237 0 187.43656530231237 71.290408169690636 0 0 0 0 -206.05786759989246 230.29859656176041 0 230.29859656176041 146.57541453515296 0 0 0 0 -202.7590762362729 192.63516396390287 0 192.63516396390287 182.14168033437454 0 0 0 0 -55.920844344007492 219.77867889089248 0 219.77867889089248 155.96573841239297 0 0 0 0 -586.58645793391406 286.14384226593393 0 286.14384226593393 242.01641963500879 0 0 0 0 -423.72460113104898 202.3280169552454 0 202.3280169552454 226.0944291541382 0 0 0 0 -422.61330685480254 233.11020484546145 0 233.11020484546145 248.95542632786965 0 0 0 0 -633.3101789063403 251.34244189043966 0 251.34244189043966 271.82554888090817 0 0 0 0 -255.74465832339774 209.23385601642076 0 209.23385601642076 193.42999764790875 0 0 0 0 -431.78232706400377 121.07909646458575 0 121.07909646458575 235.25250496140507 0 0 0 0 -322.17131617949781 204.01606979787903 0 204.01606979787903 204.67104987364655 0 0 0 0 -229.73362796515721 155.38845507858059 0 155.38845507858059 249.778831313306 0 0 0 0 -312.14293558718782 163.25117339925782 0 163.25117339925782 258.50815684844565 0 0 0 0 -92.375770426253439 225.67041805428744 0 225.67041805428744 211.78899164166796 0 0 0 0 87.317732186391368 298.20716390764574 0 298.20716390764574 218.43732795837423 0 0 0 0 -87.338775366974005 208.32543501140754 0 208.32543501140754 268.37118226839812 0 0 0 0 62.717264298109512 355.055285981216 0 355.055285981216 354.89288573513477 0 0 0 0 106.8197864629692 267.12342424030066 0 267.12342424030066 299.97554299003968 0 0 0 0 154.52937527340873 366.21458224306116 0 366.21458224306116 429.43425870440842 0 0 0 0 196.94481042773259 119.33568922712584 0 119.33568922712584 399.02624987003219 0 0 0 0 45.566613153292565 303.22750961680867 0 303.22750961680867 289.83567628695164 0 0 0 0 -32.820712266697228 162.04657694471098 0 162.04657694471098 273.8265909152251 0 0 0 0 105.57943319067999 253.61347889972967 0 253.61347889972967 203.35519334927085 0 0 0 0 226.50172081039273 233.01377768851671 0 233.01377768851671 51.747773584936112 0 0 0 0 86.585794423408515 139.4607052184474 0 139.4607052184474 157.97510125346889 0 0 0 0 -12.927646257048764 236.72553021532076 0 236.72553021532076 74.027096808014903 0 0 0 0 340.48137671952281 276.05432303824637 0 276.05432303824637 177.46721954868553 0 0 0 0 198.95415833289917 235.37746031955976 0 235.37746031955976 211.71726490542642 0 0 0 0 146.9641925597025 245.2798137782811 0 245.2798137782811 662.38758369588322 0 0 0 0 485.64869188450712 108.41365975425742 0 108.41365975425742 369.42131788030383 0 0 0 0 435.90064109063451 454.41642666221151 0 454.41642666221151 226.33485500866664 0 0 0 0 -66.020479532954596 35.672592340939445 0 35.672592340939445 32.670836675024475 0 0 0 0 -13.76125633090218 12.833542892299 0 12.833542892299 -10.667955190258311 0 0 0 0 -55.809298838320508 40.846891230890208 0 40.846891230890208 -25.030304773222042 0 0 0 0 -88.593648144931876 52.201558022954487 0 52.201558022954487 57.954039252032089 0 0 0 0 -915.3511449257021 1375.1502926461417 0 1375.1502926461417 1020.5822293871388 0 0 0 0 -614.69460145467406 -188.0980924136461 0 -188.0980924136461 -16.815430317627033 0 0 0 0 -4.7879772158691516 4.7182079461369284 0 4.7182079461369284 -4.8718931588236103 0 0 0 0 318.49035470531089 204.61009770296369 0 204.61009770296369 -350.20322167192353 0 0 0 0 221.52982274191891 384.8633343862748 0 384.8633343862748 321.65725793466117 0 0 0 0 173.23247679780798 44.23180656108525 0 44.23180656108525 163.0694268117586 0 0 0 0 236.18729200824174 210.55175390930827 0 210.55175390930827 -137.90667453034257 0 0 0 0 145.63875375484713 144.60007115807821 0 144.60007115807821 -293.01857896209549 0 0 0 0 64.151461998266313 128.45562646802864 0 128.45562646802864 -173.94828169994798 0 0 0 0 211.26879999718039 402.144442186167 0 402.144442186167 -437.97999815122967 0 0 0 0 -423.39344955847446 565.21244702903277 0 565.21244702903277 -289.21672200813373 0 0 0 0 88.596836650329351 217.950729512213 0 217.950729512213 -138.48515543252142 0 0 0 0 -225.40342872531255 353.18557209718347 0 353.18557209718347 -178.65985424663268 0 0 0 0 96.96296437975252 -5.2161736077759997 0 -5.2161736077759997 -166.27162020887772 0 0 0 0 34.157871944542421 142.87740244949964 0 142.87740244949964 -127.26602838352846 0 0 0 0 155.786583549856 36.611015771013626 0 36.611015771013626 -220.23949484491459 0 0 0 0 127.67888109927208 71.524037670435064 0 71.524037670435064 -245.17323845833016 0 0 0 0 157.45825833326671 6.8057797248293355 0 6.8057797248293355 -293.79762248380575 0 0 0 0 192.87581179744484 94.769844018715958 0 94.769844018715958 -327.92947391149937 0 0 0 0 148.79660891232925 103.56563066322269 0 103.56563066322269 -230.80791817234785 0 0 0 0 228.54307675990822 110.22957385172776 0 110.22957385172776 -230.99721482238965 0 0 0 0 196.00188054799219 65.166230583374272 0 65.166230583374272 -198.53441687306076 0 0 0 0 132.27180810322716 170.74408242553181 0 170.74408242553181 -453.19874494659598 0 0 0 0 87.064566832830678 313.43599388899383 0 313.43599388899383 -903.58811805301229 0 0 0 0 112.58439613453083 161.00969551564776 0 161.00969551564776 -435.92925039530746 0 0 0 0 146.61744888292969 131.52068715408996 0 131.52068715408996 -410.40874341171002 0 0 0 0 160.77035079161396 3.1604822845110903 0 3.1604822845110903 -320.43356618912367 0 0 0 0 186.43911165654572 -38.843869241631182 0 -38.843869241631182 -518.2102220645902 0 0 0 0 135.1381823320844 -108.18981448285194 0 -108.18981448285194 -330.79144911335607 0 0 0 0 96.850962081058242 -145.89336438776809 0 -145.89336438776809 -705.8779073079786 0 0 0 0 152.29225766721447 -50.274379000797126 0 -50.274379000797126 -594.2812565821223 0 0 0 0 9.6233954393974273 -196.6453786594866 0 -196.6453786594866 -249.06362315414299 0 0 0 0 -1.9245875218475703 67.32682388019748 0 67.32682388019748 127.33285759795217 0 0 0 0 136.20264648511875 -86.200474940338609 0 -86.200474940338609 -187.77982307202183 0 0 0 0 -22.898702758621539 77.913434399802583 0 77.913434399802583 -53.962637486563693 0 0 0 0 137.09576032358746 -228.79237375274533 0 -228.79237375274533 -55.569486965425313 0 0 0 0 48.970136672314766 -186.33589586009839 0 -186.33589586009839 -51.495991220959695 0 0 0 0 238.60666389807739 -155.21516065367905 0 -155.21516065367905 -144.68310884854873 0 0 0 0 108.90174021518396 -106.86056462402485 0 -106.86056462402485 -229.86489814370725 0 0 0 0 -0.63984000646451022 -123.29045684225275 0 -123.29045684225275 109.93201733000751 0 0 0 0 86.442227995117719 -14.753433683035837 0 -14.753433683035837 -124.86937449401739 0 0 0 0 122.47137707807997 -81.37686108705384 0 -81.37686108705384 -305.13359349894017 0 0 0 0 -98.350908807562519 144.63103578487903 0 144.63103578487903 322.0936704674383 0 0 0 0 -10.415706572697795 19.012391524764734 0 19.012391524764734 141.95511887222349 0 0 0 0 -112.30048473002898 -22.86555772024974 0 -22.86555772024974 226.59343665610186 0 0 0 0 -3.8976684540311908 43.818374536566637 0 43.818374536566637 161.35186317303669 0 0 0 0 -162.79074298607156 30.770233253256038 0 30.770233253256038 182.97710284705101 0 0 0 0 -106.8171613621198 20.973261694369057 0 20.973261694369057 156.17141744589549 0 0 0 0 3.7060122494359931 10.413852594680211 0 10.413852594680211 24.357430291604079 0 0 0 0 -132.60030605389784 -80.438171954943442 0 -80.438171954943442 70.820631141468766 0 0 0 0 -528.62836064500289 343.98816622930735 0 343.98816622930735 85.966388819331769 0 0 0 0 -361.58379301022796 256.64710162872143 0 256.64710162872143 35.172595538067981 0 0 0 0 -28.482600795905391 81.785453094267012 0 81.785453094267012 -66.922968631315797 0 0 0 0 -35.411138094732905 138.55259769326221 0 138.55259769326221 17.754916543894069 0 0 0 0 -245.6766949827188 408.35775367627218 0 408.35775367627218 546.4812683284556 0 0 0 0 -378.12408172299729 189.51052214549316 0 189.51052214549316 289.37339327999484 0 0 0 0 -31.424892118742648 84.566785355769369 0 84.566785355769369 -67.295055572742413 0 0 0 0 -551.77791644839817 771.99930155276058 0 771.99930155276058 488.29315174728561 0 0 0 0 -462.64898326153343 640.71712192034875 0 640.71712192034875 -103.45934460084891 0 0 0 0 -325.91715551422749 526.68821180335954 0 526.68821180335954 -33.680400246851605 0 0 0 0 -558.51923747333058 321.61263985235746 0 321.61263985235746 194.40768227833291 0 0 0 0 -1634.552812754875 349.07674853688388 0 349.07674853688388 277.0879716803783 0 0 0 0 -814.11083628347205 1214.3902858413667 0 1214.3902858413667 -1030.3848340772256 0 0 0 0 -62.093624250626817 76.716601119221139 0 76.716601119221139 108.4506206912497 0 0 0 0 -3.9829911397828255 71.300429056601615 0 71.300429056601615 64.44919623943747 0 0 0 0 -390.80875087461754 -147.11995149603624 0 -147.11995149603624 46.04737205511492 0 0 0 0 -13.330697031633463 -22.818819625068386 0 -22.818819625068386 -85.422498360011332 0 0 0 0 -705.29938335822771 1233.8211654010779 0 1233.8211654010779 -1426.6428145804718 0 0 0 0 -16.116383665868383 5.3611934007799142 0 5.3611934007799142 -3.0223171660047172 0 0 0 0 -815.98208979070296 -348.51563464958406 0 -348.51563464958406 -15.998114007291178 0 0 0 0 -207.51535337921905 -34.871983952023555 0 -34.871983952023555 58.226761161896775 0 0 0 0 -41.822491261943327 15.609334889654274 0 15.609334889654274 6.1402773962442261 0 0 0 0 -219.11941465714335 32.45394605810543 0 32.45394605810543 163.61272111201515 0 0 0 0 89.11266271272325 -47.025283803417096 0 -47.025283803417096 9.9435961789690737 0 0 0 0 412.70826656601275 464.18864413362917 0 464.18864413362917 498.45243368089086 0 0 0 0 -4.7858797129124468 23.41841019323466 0 23.41841019323466 20.472493990840889 0 0 0 0 -6.0320078009952596 11.649681355635643 0 11.649681355635643 13.654661216557258 0 0 0 0 -21.138632111118572 5.5081271479629947 0 5.5081271479629947 27.287878076418977 0 0 0 0 -7.8937002437305637 19.242598719153648 0 19.242598719153648 20.400385704771907 0 0 0 0 0.15098489850061014 38.596707164282634 0 38.596707164282634 18.741573832326594 0 0 0 0 -4.5852564471173309 36.048003353259766 0 36.048003353259766 45.802561339511598 0 0 0 0 -25.536323023483419 53.126089441950171 0 53.126089441950171 43.25369028987916 0 0 0 0 -3.3993727771789963 61.753922243516627 0 61.753922243516627 37.540663020998181 0 0 0 0 -29.930097619351208 23.970682568797017 0 23.970682568797017 4.5865622619798714 0 0 0 0 63.117928920561098 76.952652859601585 0 76.952652859601585 -8.9592123258307765 0 0 0 0 448.66736498718819 696.69048071373982 0 696.69048071373982 921.67495980504737 0 0 0 0 17.651287194913493 5.8681443703713896 0 5.8681443703713896 1.3918517169825435 0 0 0 0 375.65638685549311 819.68304620537515 0 819.68304620537515 1321.848455710111 0 0 0 0 607.39067474855437 906.5071308324691 0 906.5071308324691 1123.0860294555259 0 0 0 0 416.11835028904716 1007.9088950156715 0 1007.9088950156715 1357.1026686595687 0 0 0 0 994.89468719872821 1095.2304916144913 0 1095.2304916144913 1139.4859802178062 0 0 0 0 539.84811302504022 1351.2061362440209 0 1351.2061362440209 2438.0302025493656 0 0 0 0 582.80911646515779 608.40899498578801 0 608.40899498578801 1297.8300979689884 0 0 0 0 680.89075030909589 918.05582199283162 0 918.05582199283162 1247.0876083374262 0 0 0 0 4.7069291599721055 -1.783077727100892 0 -1.783077727100892 2.0871899896671096 0 0 0 0 551.31488888230706 280.24881088351867 0 280.24881088351867 -8.103637388547213 0 0 0 0 49.056408244941849 18.711063042990645 0 18.711063042990645 -100.07801169668937 0 0 0 0 282.62583632364112 415.66924937244403 0 415.66924937244403 363.77897042126096 0 0 0 0 122.33913493701039 -132.59558271086394 0 -132.59558271086394 66.512509974745626 0 0 0 0 -33.16030654963744 28.228489293854601 0 28.228489293854601 4.1230770822357101 0 0 0 0 527.73788306241477 342.51171967123992 0 342.51171967123992 384.98438282459028 0 0 0 0 7.3004610419259279 4.2578438042257538 0 4.2578438042257538 -10.301602414547425 0 0 0 0 417.42661755745939 220.31117616194388 0 220.31117616194388 40.072072837776432 0 0 0 0 527.66959051677986 342.45157253189245 0 342.45157253189245 65.445660007218976 0 0 0 0 27.004585459908412 42.772646545305179 0 42.772646545305179 141.88280141217547 0 0 0 0 -0.79691769898768428 37.133447847263028 0 37.133447847263028 -45.132647263956045 0 0 0 0 -289.68796927000585 328.99540356509533 0 328.99540356509533 627.07466099716839 0 0 0 0 -66.019405105871556 -35.441195372768561 0 -35.441195372768561 204.95143411980825 0 0 0 0 -109.28678119580081 19.06444573164481 0 19.06444573164481 146.69748010692274 0 0 0 0 -8.0708171315859758 19.531028519901721 0 19.531028519901721 147.68414924614945 0 0 0 0 -8.8248241006804164 54.702264633626328 0 54.702264633626328 37.854691779237328 0 0 0 0 -29.162997768929827 53.890127267091444 0 53.890127267091444 -10.755578272493736 0 0 0 0 -91.605423045726184 142.54494712340011 0 142.54494712340011 325.87270346248988 0 0 0 0 41.671051286641159 94.66784779572663 0 94.66784779572663 29.183176794766041 0 0 0 0 -6.5640504823968513 49.136601084827817 0 49.136601084827817 51.539300257529248 0 0 0 0 -262.26965805332657 803.67932394357013 0 803.67932394357013 271.5927198321624 0 0 0 0 -179.596121944076 646.02481054678174 0 646.02481054678174 493.38587710512002 0 0 0 0 -13.026400025009934 112.08283847737675 0 112.08283847737675 294.2359157506819 0 0 0 0 -23.444932421556587 63.307547030761725 0 63.307547030761725 72.977948676143569 0 0 0 0 151.63965210384777 -226.65782920220136 0 -226.65782920220136 942.35034119586271 0 0 0 0 0.83820692991139367 988.71771051113319 0 988.71771051113319 1142.6007590987492 0 0 0 0 1280.3940372984944 1434.7568267079132 0 1434.7568267079132 1585.0743860519951 0 0 0 0 735.05735456806724 876.46634792135228 0 876.46634792135228 50.799932516270019 0 0 0 0 7.8318238009198069 9.1003664246790308 0 9.1003664246790308 11.073193887827465 0 0 0 0 92.553557799808459 -411.18499090667729 0 -411.18499090667729 1845.942376818959 0 0 0 0 376.94009391552026 1121.8099998435619 0 1121.8099998435619 1917.8294082342727 0 0 0 0 470.69432456537834 857.98640393933329 0 857.98640393933329 827.19217546273103 0 0 0 0 657.94552847493105 135.50471578820179 0 135.50471578820179 1462.3584571850888 0 0 0 0 613.39592370886021 585.91764869054259 0 585.91764869054259 625.78685556172059 0 0 0 0 472.96421839949471 292.32243989764356 0 292.32243989764356 464.07435234488548 0 0 0 0 788.1330217194045 404.00314786503986 0 404.00314786503986 176.01784773633699 0 0 0 0 467.17330954959834 249.90114990632173 0 249.90114990632173 -34.240025842242176 0 0 0 0 203.89690225461527 440.08103609665704 0 440.08103609665704 173.79672331955339 0 0 0 0 423.06461287898492 669.94764914926054 0 669.94764914926054 93.693715181485459 0 0 0 0 149.43903479536675 748.041511080688 0 748.041511080688 275.43557725654682 0 0 0 0 271.93075605132799 877.37545821284584 0 877.37545821284584 117.48001533835486 0 0 0 0 671.29676165765704 981.41975016767969 0 981.41975016767969 363.41277452846771 0 0 0 0 338.46641280771655 615.31487227111575 0 615.31487227111575 874.27798308351157 0 0 0 0 173.86643146611095 768.21431277846023 0 768.21431277846023 417.26752066829795 0 0 0 0 454.74002165233105 882.38652743864168 0 882.38652743864168 389.36726220461424 0 0 0 0 -4.1082567697376362 1017.4813646017792 0 1017.4813646017792 399.12026909112319 0 0 0 0 155.56540202786528 1084.733100830701 0 1084.733100830701 171.44297202669259 0 0 0 0 20.946941672336834 1023.7369526469774 0 1023.7369526469774 112.70417595860363 0 0 0 0 -69.978815505812236 1115.2924936562158 0 1115.2924936562158 130.89796957928138 0 0 0 0 -95.149870417117199 1090.3029150495895 0 1090.3029150495895 55.96865010610054 0 0 0 0 -222.96840229820009 978.54440141252599 0 978.54440141252599 102.24118607116543 0 0 0 0 -110.29166054183952 1093.7956980339732 0 1093.7956980339732 206.73231634358672 0 0 0 0 -210.40510512756009 876.60285369175472 0 876.60285369175472 266.94591144686456 0 0 0 0 -4.1112758346243936 1060.9601063303571 0 1060.9601063303571 398.5004067435475 0 0 0 0 137.73109437284074 1078.4311871534865 0 1078.4311871534865 -292.68667122126863 0 0 0 0 2.8104714351848088 1090.2092022904981 0 1090.2092022904981 -274.49674530683842 0 0 0 0 -0.64910212932954892 1083.4977257606461 0 1083.4977257606461 -133.19995514099719 0 0 0 0 -5.1244393142915214 1109.8669127108587 0 1109.8669127108587 -142.81167084688059 0 0 0 0 -55.662217095907181 1098.7391911350114 0 1098.7391911350114 2.6835934742121026 0 0 0 0 -73.469497623598727 1085.3597139783033 0 1085.3597139783033 -3.9684940107545117 0 0 0 0 -61.108925172802628 1075.8121248052466 0 1075.8121248052466 -68.038417873372964 0 0 0 0 -43.505561686267598 1090.0616349972124 0 1090.0616349972124 -47.759265149616112 0 0 0 0 -43.527836632558319 1133.3383177346659 0 1133.3383177346659 -60.940000486771169 0 0 0 0 42.585099146428547 953.82822691247111 0 953.82822691247111 -24.227094395151653 0 0 0 0 -296.48950833783601 968.48816989230181 0 968.48816989230181 -15.463350684713077 0 0 0 0 -11.79545837664773 1124.7864816524125 0 1124.7864816524125 -22.539239961522981 0 0 0 0 -92.642694642054266 1043.7510160981983 0 1043.7510160981983 178.77637940493332 0 0 0 0 -69.034470243786927 1019.8457513037974 0 1019.8457513037974 -211.74897606223385 0 0 0 0 -155.55232413010526 953.13752614626355 0 953.13752614626355 -478.72334833715649 0 0 0 0 -101.25934897358093 1166.172857285379 0 1166.172857285379 -116.9538270494013 0 0 0 0 -198.51928938546189 1092.9920707647652 0 1092.9920707647652 -244.43638637450749 0 0 0 0 -249.32040886658069 1156.8684509724262 0 1156.8684509724262 -311.50644678344543 0 0 0 0 -240.00418825626184 714.6881876495745 0 714.6881876495745 -150.41838175145676 0 0 0 0 -651.10082909654375 1098.1742760555662 0 1098.1742760555662 -439.13263307024499 0 0 0 0 -407.51856614187636 1062.7572222436647 0 1062.7572222436647 -92.118116537589231 0 0 0 0 -35.109080787216953 990.17528760154528 0 990.17528760154528 145.63869053539838 0 0 0 0 -57.569197496950437 597.20636022208555 0 597.20636022208555 108.72838669404518 0 0 0 0 -319.34147507486341 763.0708048842971 0 763.0708048842971 12.766256932389297 0 0 0 0 -61.453352086025916 153.82910856566104 0 153.82910856566104 130.86577771594602 0 0 0 0 -6.8145527392564986 10.725825771299675 0 10.725825771299675 -22.23975254715792 0 0 0 0 -816.82494612155915 469.30382531768419 0 469.30382531768419 28.426241648136056 0 0 0 0 -1926.7171521552482 738.77710643306546 0 738.77710643306546 1264.7687279723505 0 0 0 0 -1548.843258357716 368.67872484467625 0 368.67872484467625 -827.91083658969364 0 0 0 0 -695.95174779977788 959.5865002030896 0 959.5865002030896 -1297.4205698500446 0 0 0 0 -387.55650462210906 684.4834516230585 0 684.4834516230585 -1219.8332651441669 0 0 0 0 -92.421987130765046 968.38885211164961 0 968.38885211164961 -957.98464773900196 0 0 0 0 -532.18184201337954 1033.9800795583246 0 1033.9800795583246 -459.36131433017727 0 0 0 0 -265.30017048712034 491.01741506026156 0 491.01741506026156 -846.19209510511882 0 0 0 0 -108.69052237311553 758.87743587534897 0 758.87743587534897 -568.26394603537119 0 0 0 0 212.61822843406088 710.8504216092482 0 710.8504216092482 -156.63956408241938 0 0 0 0 212.22583446397766 732.46631267645171 0 732.46631267645171 -710.47206054686831 0 0 0 0 -95.667184972508039 903.16193904471038 0 903.16193904471038 -357.6160637762805 0 0 0 0 89.517096764440794 1057.3065265446658 0 1057.3065265446658 -499.49327901354991 0 0 0 0 138.8652899431745 930.48674992101314 0 930.48674992101314 -194.21555529395846 0 0 0 0 91.222339467487473 535.5829317737589 0 535.5829317737589 -2073.2292558875529 0 0 0 0 153.16245003130098 742.34736850516492 0 742.34736850516492 -1896.1851432679687 0 0 0 0 -5.5079611560500723 7.3885545437378113 0 7.3885545437378113 -6.9760520341089176 0 0 0 0 -109.66270889746374 639.24712387636282 0 639.24712387636282 -1936.6288730930501 0 0 0 0 400.42122486575317 598.20659184337273 0 598.20659184337273 -2071.2433168341795 0 0 0 0 27.375214630890696 741.7857169580675 0 741.7857169580675 -1963.1653442064435 0 0 0 0 -143.35546607535071 -513.20928737989743 0 -513.20928737989743 -1706.6891771993505 0 0 0 0 58.320813604103023 408.93850194448896 0 408.93850194448896 -583.12331595650176 0 0 0 0 -832.14690064066417 93.70414640087256 0 93.70414640087256 460.64705653145211 0 0 0 0 2.3928955346382281 -30.639618155768403 0 -30.639618155768403 -627.03106401517289 0 0 0 0 40.931411900870444 -207.24344227096299 0 -207.24344227096299 -621.48096746093915 0 0 0 0 -1202.9610721053468 -501.11729332396862 0 -501.11729332396862 -36.64360394814139 0 0 0 0 -220.99644836138395 448.97471665850026 0 448.97471665850026 429.92896152196045 0 0 0 0 -71.393728992861725 -56.981773333893216 0 -56.981773333893216 59.109509920956043 0 0 0 0 -17.5612369407201 19.218522984181092 0 19.218522984181092 17.944303306957849 0 0 0 0 -128.12121131311505 -186.06699558294713 0 -186.06699558294713 -102.42194768094123 0 0 0 0 -111.4435517333186 20.260791646807775 0 20.260791646807775 170.4717457325205 0 0 0 0 512.96872733704913 459.72017089778456 0 459.72017089778456 -205.03170805932314 0 0 0 0 -593.38788676563127 967.85772882637684 0 967.85772882637684 -437.42412993128528 0 0 0 0 319.22498130721942 100.55719024602513 0 100.55719024602513 -113.17270827070206 0 0 0 0 -17.934213605309751 36.132307028619792 0 36.132307028619792 -48.539474939419364 0 0 0 0 336.1340564946513 218.36901801895328 0 218.36901801895328 -8.2843963329478356 0 0 0 0 439.54490612737936 -524.51333720691036 0 -524.51333720691036 -1022.9146444887219 0 0 0 0 -75.37807951322435 -663.61791539958381 0 -663.61791539958381 -491.77014143037013 0 0 0 0 1049.3317128882045 254.51272555240939 0 254.51272555240939 -2082.4274118806024 0 0 0 0 701.86341829433513 809.5875002224584 0 809.5875002224584 97.996431597157425 0 0 0 0 305.24648686463115 -959.85411634263619 0 -959.85411634263619 -1357.1166811798321 0 0 0 0 -18.488276216976914 23.67799305775668 0 23.67799305775668 -20.528556296343517 0 0 0 0 708.84775477633866 250.65203337456114 0 250.65203337456114 -124.98669240985328 0 0 0 0 339.89052111296769 968.1110700747231 0 968.1110700747231 53.273985866042494 0 0 0 0 -38.782050933477876 749.2981211434344 0 749.2981211434344 -434.21187375465161 0 0 0 0 -347.38601696848127 217.93105709685187 0 217.93105709685187 129.4313848401107 0 0 0 0 -7.3138640913033157 12.047259014267006 0 12.047259014267006 -11.69421836517607 0 0 0 0 -278.3309236008572 40.902205546492041 0 40.902205546492041 735.1994003439977 0 0 0 0 -512.0884720781396 1104.1176748425642 0 1104.1176748425642 773.95372820331249 0 0 0 0 -631.20856359008758 515.51860562877846 0 515.51860562877846 979.92926273703779 0 0 0 0 -514.41992525846581 655.19232271245346 0 655.19232271245346 216.51962037332123 0 0 0 0 -380.95149903637139 757.78427867046412 0 757.78427867046412 -583.47357041307259 0 0 0 0 -515.78185102849238 1177.1905245078306 0 1177.1905245078306 -646.89594797638711 0 0 0 0 -633.9315417776852 562.57916815970384 0 562.57916815970384 187.1127170690088 0 0 0 0 -571.77149004619423 445.92167318415159 0 445.92167318415159 337.46203818850336 0 0 0 0 -601.20941119451163 336.90565416595928 0 336.90565416595928 344.22836468509513 0 0 0 0 -713.72344467405492 276.24783962306537 0 276.24783962306537 314.23134362511337 0 0 0 0 -633.72636277791753 472.25776203825808 0 472.25776203825808 345.99979617110876 0 0 0 0 -588.90354076177209 283.93569032004962 0 283.93569032004962 227.82284106123552 0 0 0 0 -870.72462002458269 392.76838622838113 0 392.76838622838113 260.96594330363223 0 0 0 0 -708.83281294178596 369.38052122467343 0 369.38052122467343 -41.668339461393771 0 0 0 0 -779.95815019263455 707.99444475678001 0 707.99444475678001 -270.87132019388082 0 0 0 0 -670.67915373899632 836.69861673720516 0 836.69861673720516 -1176.2874701639957 0 0 0 0 -581.87917738061878 568.74252382975646 0 568.74252382975646 -400.8565972737415 0 0 0 0 -1457.4981686596766 833.61284901116596 0 833.61284901116596 -18.323772481490778 0 0 0 0 -1048.3283368146731 278.41447698324919 0 278.41447698324919 -88.560747984738555 0 0 0 0 -1490.2028996817317 2298.7699652347892 0 2298.7699652347892 -1842.2044378213759 0 0 0 0 -310.70751029090025 342.06708462273309 0 342.06708462273309 -3877.3663600068649 0 0 0 0 -2477.2301935564792 -4.2873444984543312 0 -4.2873444984543312 -2235.3674222877235 0 0 0 0 87.790827729853845 498.79817033094514 0 498.79817033094514 -1614.2949583520603 0 0 0 0 -191.9815142284906 832.09827027339543 0 832.09827027339543 -2011.2451639448773 0 0 0 0 -75.72127466695747 941.95351566571389 0 941.95351566571389 -1606.8894849790449 0 0 0 0 175.22081850738687 363.00870707083959 0 363.00870707083959 -592.32475668967527 0 0 0 0 494.45570325924564 644.79798502300036 0 644.79798502300036 -1631.2094505743225 0 0 0 0 357.80720853992534 158.07346407928344 0 158.07346407928344 -369.49017463316159 0 0 0 0 155.59833655989314 708.33188868656362 0 708.33188868656362 -1329.7287493013428 0 0 0 0 332.77187822712585 679.6155755864711 0 679.6155755864711 -1633.0217906135583 0 0 0 0 385.51229451912695 652.48302075649008 0 652.48302075649008 -1898.1657138584051 0 0 0 0 184.48976450754708 235.27341552339203 0 235.27341552339203 -1129.1641517675052 0 0 0 0 196.3868581812095 349.34711705226141 0 349.34711705226141 -1386.0751049003593 0 0 0 0 158.14445381500991 51.685331172027873 0 51.685331172027873 -513.55776286687524 0 0 0 0 -16.738202431423133 489.89767714276877 0 489.89767714276877 -598.61276610695131 0 0 0 0 -391.68251925804725 -11.382310858283745 0 -11.382310858283745 -616.95229434382236 0 0 0 0 -230.82701563888622 380.00299102164718 0 380.00299102164718 -660.49112909000542 0 0 0 0 -656.50701745518734 552.83933211666817 0 552.83933211666817 -1148.3532228006152 0 0 0 0 -800.07402812954274 -234.28436923719096 0 -234.28436923719096 -1220.660697456522 0 0 0 0 -807.42630599854419 200.86749620739283 0 200.86749620739283 -1353.021722832018 0 0 0 0 -763.65930542999376 -22.45330685481531 0 -22.45330685481531 -2286.1219581587138 0 0 0 0 54.532309312489815 42.698678110726178 0 42.698678110726178 -2341.1096167524283 0 0 0 0 97.662278125748344 237.6787152314937 0 237.6787152314937 -1475.1028152979889 0 0 0 0 213.35220455226045 0.46555570225791598 0 0.46555570225791598 -895.52460738868831 0 0 0 0 166.84028456186934 -96.378671676950944 0 -96.378671676950944 -1047.5443088413449 0 0 0 0 229.19352539012471 391.8256164087079 0 391.8256164087079 -404.45497714150406 0 0 0 0 162.91531886224311 186.10046551208188 0 186.10046551208188 -911.57533212408453 0 0 0 0 -146.76161455448073 131.59115392717013 0 131.59115392717013 -1687.6283887271056 0 0 0 0 -141.50102838674866 250.55310049549735 0 250.55310049549735 -802.95248571310003 0 0 0 0 -176.92103817017414 -205.55954541827487 0 -205.55954541827487 -809.0084530520362 0 0 0 0 -236.32984843184022 223.19140135721318 0 223.19140135721318 -844.91876570800378 0 0 0 0 -1355.6094073542372 -93.243873237128355 0 -93.243873237128355 -926.71004457277195 0 0 0 0 406.93331107048243 364.27866886270954 0 364.27866886270954 -2562.9463366446398 0 0 0 0 -9.8961481466844674 11.857556145278149 0 11.857556145278149 -11.199563022202781 0 0 0 0 169.77357816147651 656.12900809336679 0 656.12900809336679 -1236.7156721184729 0 0 0 0 -966.16447482972944 1427.3422920905487 0 1427.3422920905487 -1732.4233817829663 0 0 0 0 -500.86108934603544 779.5676683202073 0 779.5676683202073 -895.5662494411954 0 0 0 0 37.760343515918521 215.19216948600183 0 215.19216948600183 -494.30788282160574 0 0 0 0 -11.262566465065902 395.01862168837033 0 395.01862168837033 -282.46825877808806 0 0 0 0 -208.91684969964263 -141.4777154204512 0 -141.4777154204512 -90.587541316946044 0 0 0 0 19.291327927243401 230.94446085151503 0 230.94446085151503 -396.1349293660387 0 0 0 0 -484.26604151799597 -47.95697392821701 0 -47.95697392821701 -534.48830702107443 0 0 0 0 -235.97691222142748 39.0341080617236 0 39.0341080617236 -156.64796337815642 0 0 0 0 -148.29613166829949 -61.526675635928768 0 -61.526675635928768 247.46955685358807 0 0 0 0 46.212701521209965 -48.84232529241126 0 -48.84232529241126 -174.35795654431195 0 0 0 0 26.901185391019681 57.935353716737154 0 57.935353716737154 -266.76646417214806 0 0 0 0 160.63734923963784 183.16783199850033 0 183.16783199850033 -266.21778479628119 0 0 0 0 47.727345054976468 -58.945338398019885 0 -58.945338398019885 260.84912970323057 0 0 0 0 -7.9903769190392211 3.4856031832533851 0 3.4856031832533851 26.360222232530198 0 0 0 0 21.412040122530016 5.6534845435598982 0 5.6534845435598982 -590.79579055607974 0 0 0 0 41.231615239779785 -80.603630613622954 0 -80.603630613622954 -579.45019218020389 0 0 0 0 139.6449526669312 -33.797726525541293 0 -33.797726525541293 -902.2774945082565 0 0 0 0 27.416821898932042 43.724208462638927 0 43.724208462638927 35.412756936056269 0 0 0 0 357.81676632031304 313.78304134547216 0 313.78304134547216 -322.47266918304376 0 0 0 0 35.385800011099491 56.591621974788723 0 56.591621974788723 -29.242735034815269 0 0 0 0 12.382370430532319 43.459763872585427 0 43.459763872585427 296.92442965623559 0 0 0 0 -99.477263666857652 304.59443860827105 0 304.59443860827105 -73.458236981037771 0 0 0 0 43.040424408279804 69.52442580125583 0 69.52442580125583 38.54953148423337 0 0 0 0 -36.627807747872836 88.430960983172994 0 88.430960983172994 29.487680782768134 0 0 0 0 -54.142001236901706 65.114075096975284 0 65.114075096975284 20.84122397180181 0 0 0 0 23.783446168992668 79.087702828488545 0 79.087702828488545 147.75882897918927 0 0 0 0 19.404555383109255 38.793713058490539 0 38.793713058490539 -45.637367777875625 0 0 0 0 29.95577456089346 132.27325421254227 0 132.27325421254227 54.226835765159521 0 0 0 0 9.3500069876317582 137.13934550034918 0 137.13934550034918 -73.001912578892501 0 0 0 0 32.868893358519898 71.648386660988194 0 71.648386660988194 -40.818171013619981 0 0 0 0 -47.854144877619547 138.55998610441748 0 138.55998610441748 -51.989087119542091 0 0 0 0 -44.95447251985297 121.29076614228688 0 121.29076614228688 13.068775236752117 0 0 0 0 -161.11382305886036 158.2923574628544 0 158.2923574628544 379.44903422602511 0 0 0 0 -36.660201959334302 82.064099852949823 0 82.064099852949823 16.23290982001501 0 0 0 0 -48.754356336180535 128.94515522652 0 128.94515522652 48.227958484494593 0 0 0 0 -75.542144058999838 100.59584912817445 0 100.59584912817445 132.51260164848645 0 0 0 0 -43.623089003425775 122.1106211424667 0 122.1106211424667 55.026533865107922 0 0 0 0 -95.584262627420685 170.82524249297421 0 170.82524249297421 81.076489615330502 0 0 0 0 -3.1397542546110344 203.2679727128052 0 203.2679727128052 -171.9096853908195 0 0 0 0 35.475831532612574 99.002138685038517 0 99.002138685038517 12.0568958575127 0 0 0 0 -855.89885766778752 75.441665502152318 0 75.441665502152318 161.26253641603398 0 0 0 0 50.063472029153409 66.096186205625315 0 66.096186205625315 89.775675890268275 0 0 0 0 -44.874475598920981 178.3890021629777 0 178.3890021629777 9.912531714879151 0 0 0 0 -493.36168591195747 -193.87873377760843 0 -193.87873377760843 87.079806033074419 0 0 0 0 50.823123789365837 64.231822477115173 0 64.231822477115173 85.006347162888005 0 0 0 0 103.48421523878642 -20.586012073646998 0 -20.586012073646998 590.85580498655327 0 0 0 0 956.51592206092027 1544.1359671934188 0 1544.1359671934188 -396.56921948390664 0 0 0 0 9.2690663681485006 10.697304720386938 0 10.697304720386938 16.475396060711205 0 0 0 0 -31.756833058323537 157.43444170685325 0 157.43444170685325 22.379705476157142 0 0 0 0 2458.3987039719941 -1519.7272243353073 0 -1519.7272243353073 -314.59580127504887 0 0 0 0 -464.55583570450835 -675.69379009805562 0 -675.69379009805562 146.26392319634033 0 0 0 0 803.29447338017781 277.93789235665463 0 277.93789235665463 -257.58228478621459 0 0 0 0 271.31664267116867 399.11223866420914 0 399.11223866420914 -61.347247531026369 0 0 0 0 1070.9266504428051 949.85800816780102 0 949.85800816780102 138.7427492053248 0 0 0 0 165.40770260083082 498.30528324874467 0 498.30528324874467 905.32166473368125 0 0 0 0 156.71531492529448 388.74200471420136 0 388.74200471420136 138.99425542540848 0 0 0 0 129.65542674987228 408.31087067304179 0 408.31087067304179 155.98049307244946 0 0 0 0 250.08514387257947 602.50107481720443 0 602.50107481720443 -121.65859179521794 0 0 0 0 168.48652496533759 450.67988021683414 0 450.67988021683414 -244.0260390665353 0 0 0 0 79.979235661172424 509.09992101859825 0 509.09992101859825 -130.27159663208295 0 0 0 0 -3.9382774878758937 141.75049881484301 0 141.75049881484301 49.740463930465921 0 0 0 0 122.4535399422457 466.52592806727262 0 466.52592806727262 -190.74115418599104 0 0 0 0 16.27260857768124 -95.145574083857355 0 -95.145574083857355 127.69209736341145 0 0 0 0 102.74845627660397 -102.74048257236427 0 -102.74048257236427 265.17167162318947 0 0 0 0 3.1624698577434174 202.30013739626702 0 202.30013739626702 147.62442393135279 0 0 0 0 5.1630153853620868 167.23353972574114 0 167.23353972574114 556.71363328941516 0 0 0 0 111.95953801990618 -92.566250516058062 0 -92.566250516058062 49.7007302447455 0 0 0 0 -65.54525837120309 -37.412290621476131 0 -37.412290621476131 102.93067224262631 0 0 0 0 58.605448668109602 -40.969493538781535 0 -40.969493538781535 33.684950337948976 0 0 0 0 -9.1056159876661695 70.370125634874057 0 70.370125634874057 145.91243803994439 0 0 0 0 -64.252475930610672 88.100437839519145 0 88.100437839519145 147.39322957904733 0 0 0 0 11.542312645173297 106.69903685085592 0 106.69903685085592 176.89730965554918 0 0 0 0 -71.007176010991472 11.011077203438091 0 11.011077203438091 49.202806598362088 0 0 0 0 -437.90703438717173 432.4736624993966 0 432.4736624993966 85.254255407689925 0 0 0 0 -710.70159421540393 96.175740232687531 0 96.175740232687531 -305.43644649984162 0 0 0 0 -11.10010204749798 97.059783041596177 0 97.059783041596177 11.792552686686296 0 0 0 0 144.86589485079458 68.197933831594128 0 68.197933831594128 -618.22994345031657 0 0 0 0 -18.456498800398549 72.41291145249852 0 72.41291145249852 149.31274215650592 0 0 0 0 -172.87627352118398 76.510698028868319 0 76.510698028868319 155.33473344644517 0 0 0 0 -24.190642104876368 84.879575080402816 0 84.879575080402816 18.489887425758724 0 0 0 0 -58.082620565564866 101.17286189265724 0 101.17286189265724 123.68688704193482 0 0 0 0 -33.626004156204054 85.718968617370464 0 85.718968617370464 18.08627478943929 0 0 0 0 -145.69239009428202 135.98223250131559 0 135.98223250131559 312.94077473247307 0 0 0 0 -77.734087231918238 79.549523115347256 0 79.549523115347256 140.29755334237416 0 0 0 0 -25.409053827989737 62.225723970412218 0 62.225723970412218 134.6511799768632 0 0 0 0 -57.564963088578224 94.822829400152841 0 94.822829400152841 114.89433350377658 0 0 0 0 1.7540599612802907 97.48845386497851 0 97.48845386497851 161.84466078288824 0 0 0 0 63.674615551848547 126.4823250395275 0 126.4823250395275 135.24924273394572 0 0 0 0 -1.682558051036267 53.345299902432998 0 53.345299902432998 117.68477795014041 0 0 0 0 -71.06952605040351 68.884520270265057 0 68.884520270265057 126.03875165322097 0 0 0 0 -66.815737536308006 15.55629477531329 0 15.55629477531329 122.83351414141362 0 0 0 0 61.882280342713784 48.091514905332588 0 48.091514905332588 104.96160465439607 0 0 0 0 -93.020289731953198 169.35875948085413 0 169.35875948085413 75.814547908114037 0 0 0 0 -175.4444796918433 144.94291987465112 0 144.94291987465112 123.50358345079439 0 0 0 0 -137.4636727667621 32.531777849864739 0 32.531777849864739 160.86713709606556 0 0 0 0 -202.17380206201051 58.611427935495158 0 58.611427935495158 114.63452774645884 0 0 0 0 -314.50551797466323 252.99933200752275 0 252.99933200752275 69.122559273567276 0 0 0 0 7.9801240228588348 11.105879717391105 0 11.105879717391105 6.7096029190549018 0 0 0 0 27.974927349334394 124.18729029851238 0 124.18729029851238 -239.74692337271699 0 0 0 0 37.461673700829124 72.75311204902755 0 72.75311204902755 -8.2662139761814615 0 0 0 0 -16.333215538406876 106.00616547983009 0 106.00616547983009 76.601259897601267 0 0 0 0 -0.74296684455839568 115.26858969715977 0 115.26858969715977 -21.815782111982116 0 0 0 0 47.876419848618042 52.769012309601408 0 52.769012309601408 43.992292261605058 0 0 0 0 -6.3250798899662186 122.92429723293753 0 122.92429723293753 78.626763275373378 0 0 0 0 -59.9861439878364 11.1822773194625 0 11.1822773194625 31.350671331899747 0 0 0 0 -17.353514438799039 76.466674073104059 0 76.466674073104059 117.54076676940895 0 0 0 0 -45.44619574076205 129.56723339200289 0 129.56723339200289 99.278323807680863 0 0 0 0 -40.779523238492402 151.44387719041697 0 151.44387719041697 34.060931939417969 0 0 0 0 -101.34611664637123 188.94084801660938 0 188.94084801660938 27.709310520432155 0 0 0 0 -95.635305433101166 133.38053637381381 0 133.38053637381381 63.005270542821563 0 0 0 0 -38.703203716580902 100.99753564946877 0 100.99753564946877 58.984458406918748 0 0 0 0 70.496969478275787 121.88390055160562 0 121.88390055160562 57.157723145326599 0 0 0 0 53.466272690093319 162.7001702459529 0 162.7001702459529 38.929211056798522 0 0 0 0 -1.0391121676238981 112.02536205846627 0 112.02536205846627 110.38296326446289 0 0 0 0 43.750420563814259 186.74818073871575 0 186.74818073871575 234.58551040934981 0 0 0 0 -12.645574698369273 141.7272973273939 0 141.7272973273939 121.36334309316589 0 0 0 0 -65.086370678845924 87.498487526157987 0 87.498487526157987 204.96391024256445 0 0 0 0 -26.375817381807792 99.945042070372438 0 99.945042070372438 190.70895015232963 0 0 0 0 -25.87775643625568 21.615490762275144 0 21.615490762275144 -0.63142444736493886 0 0 0 0 4.596181794991935 55.018866115313358 0 55.018866115313358 248.97009034362418 0 0 0 0 -317.57434420114078 -133.10800693424972 0 -133.10800693424972 -409.93891303225246 0 0 0 0 -35.015676221623536 60.945538448777612 0 60.945538448777612 -48.58189499552681 0 0 0 0 413.31294471647016 1188.3230767598288 0 1188.3230767598288 -1301.2490623426502 0 0 0 0 -492.30819295879502 814.9782911298787 0 814.9782911298787 57.783064157829358 0 0 0 0 -133.16097098244063 275.80965397566433 0 275.80965397566433 -916.2705521312746 0 0 0 0 621.46938487141051 784.93306020576347 0 784.93306020576347 -2638.0364971164017 0 0 0 0 -4.6956741775874207 4.3859835137784415 0 4.3859835137784415 -0.20500430313659734 0 0 0 0 -31.902200500633626 136.84676187616424 0 136.84676187616424 636.60562842676336 0 0 0 0 -6.062438667009701 218.08732147226692 0 218.08732147226692 -933.64089893815435 0 0 0 0 125.98540759157504 435.82792176380099 0 435.82792176380099 -860.62185631103785 0 0 0 0 28.62420297690187 19.946346322562022 0 19.946346322562022 39.514526811219184 0 0 0 0 120.12046655395534 126.11049104599806 0 126.11049104599806 78.791132102276606 0 0 0 0 136.00125824955103 313.7089587143837 0 313.7089587143837 316.7742730953687 0 0 0 0 68.313604008955735 144.28150139432728 0 144.28150139432728 63.946933134553547 0 0 0 0 75.78993204615108 133.61939842598804 0 133.61939842598804 78.70780876227218 0 0 0 0 -48.122850740380883 50.695049697649011 0 50.695049697649011 -49.197472399596819 0 0 0 0 102.30904722521518 221.26151273519645 0 221.26151273519645 77.17104894977183 0 0 0 0 -112.6106649882795 74.269568086916479 0 74.269568086916479 8.5292172086483333 0 0 0 0 -339.90593780609197 68.834314658481162 0 68.834314658481162 -57.076167051811353 0 0 0 0 -78.377412042726064 186.9231839175809 0 186.9231839175809 -8.0568716693705937 0 0 0 0 -1254.7901430953789 648.67974469620822 0 648.67974469620822 -248.47635598499983 0 0 0 0 -46.599565962636099 50.523417012133706 0 50.523417012133706 -53.590653847644859 0 0 0 0 82.183527107019472 1091.1422994780733 0 1091.1422994780733 -671.03095373163524 0 0 0 0 -288.33280449685117 912.33100334907067 0 912.33100334907067 -499.42322115250681 0 0 0 0 -267.21279256582784 1090.3603452470561 0 1090.3603452470561 -474.47657904856169 0 0 0 0 -209.71852023953033 740.07634554456126 0 740.07634554456126 -325.18944082505914 0 0 0 0 -372.59757840049133 945.28318784599105 0 945.28318784599105 -524.71072575568542 0 0 0 0 901.43966849196295 423.83399573820498 0 423.83399573820498 -333.44432684533626 0 0 0 0 -251.11487656270037 826.94421691470052 0 826.94421691470052 -689.83300355664687 0 0 0 0 -665.81634915297036 993.22001866241771 0 993.22001866241771 -754.02970479008218 0 0 0 0 -257.60961862152158 1149.9268904676683 0 1149.9268904676683 -755.57681846217019 0 0 0 0 -157.99076058685023 1073.1879093313764 0 1073.1879093313764 -870.17811914530466 0 0 0 0 -189.42316134979774 1064.4417531470172 0 1064.4417531470172 -671.33391995637794 0 0 0 0 -261.15024614593494 905.25218818291614 0 905.25218818291614 -969.15937278085039 0 0 0 0 -81.836308825586457 1065.3882329564367 0 1065.3882329564367 -1086.5185141732218 0 0 0 0 -356.31242217031831 1100.0718339814193 0 1100.0718339814193 -861.46405717189191 0 0 0 0 -294.26286352640454 1006.1221226850121 0 1006.1221226850121 -1132.5580912667501 0 0 0 0 -1160.8280920751449 308.08178943303392 0 308.08178943303392 -1323.5879753826594 0 0 0 0 -399.72483203294178 843.55059226537924 0 843.55059226537924 -1358.5085478360561 0 0 0 0 -739.82302429943229 815.7149202619039 0 815.7149202619039 -1073.7925917379835 0 0 0 0 -1005.9477305614309 1009.9972581129241 0 1009.9972581129241 -1090.7748385071172 0 0 0 0 -697.51899459822744 1104.6777832741573 0 1104.6777832741573 -1334.156463560008 0 0 0 0 -2440.0865232415672 -232.89168672269443 0 -232.89168672269443 3577.1589185746852 0 0 0 0 4.7933613480529544 20.50970114387512 0 20.50970114387512 -19.617116806462661 0 0 0 0 -45.513848170980054 627.36683997357613 0 627.36683997357613 -1740.5462745743498 0 0 0 0 -277.43773527992016 980.85060622388119 0 980.85060622388119 -1319.8665361095336 0 0 0 0 150.5475811984943 244.20158698929299 0 244.20158698929299 -1063.5258731770446 0 0 0 0 -7.5658411634212825 945.65467539212841 0 945.65467539212841 -1162.997342744362 0 0 0 0 -632.74781671177334 464.8293923674064 0 464.8293923674064 -860.98274138938723 0 0 0 0 69.635234796262694 468.48988170772805 0 468.48988170772805 -863.3193657999509 0 0 0 0 -50.940452063361008 51.304414484083622 0 51.304414484083622 -49.786242132704842 0 0 0 0 -2098.6119032444913 2231.5885871037899 0 2231.5885871037899 -2987.4205769018445 0 0 0 0 -679.88315284730197 245.93553781130322 0 245.93553781130322 -1588.0462825654395 0 0 0 0 -3553.2271840440881 2273.2507985807315 0 2273.2507985807315 88.773174588437541 0 0 0 0 -1096.3755994322855 1648.8485127483655 0 1648.8485127483655 -2610.4257713275874 0 0 0 0 -646.06658003614939 720.39609820972146 0 720.39609820972146 -766.65811929383199 0 0 0 0 24.504684949042712 362.5150895691404 0 362.5150895691404 -1356.4264463296349 0 0 0 0 -570.42783894997956 367.4627678425677 0 367.4627678425677 86.043517349069589 0 0 0 0 -1046.199511504914 1088.857271125642 0 1088.857271125642 -942.95916771992779 0 0 0 0 -1433.5039867376672 746.87522916102171 0 746.87522916102171 -388.23921451273782 0 0 0 0 -1187.9007041294317 278.7361009939923 0 278.7361009939923 312.87507173869562 0 0 0 0 -749.23420234381774 588.57964267794887 0 588.57964267794887 -704.83329188812058 0 0 0 0 -596.4471244893175 961.64819828356121 0 961.64819828356121 -824.68053202387091 0 0 0 0 -837.59247964379756 1087.2797450593862 0 1087.2797450593862 -848.48757868985558 0 0 0 0 -758.63086471363567 1639.1890054586929 0 1639.1890054586929 -572.86927876797563 0 0 0 0 -619.70510518653828 1159.0130009864824 0 1159.0130009864824 -2475.2849932132158 0 0 0 0 -65.384012260765758 57.16581698527915 0 57.16581698527915 -34.704277586728793 0 0 0 0 -112.56370617149878 -50.238753846861073 0 -50.238753846861073 309.75188232772052 0 0 0 0 -1.2576225819429965 -303.08353616412205 0 -303.08353616412205 -60.116128561079677 0 0 0 0 555.92375478486065 2579.2318832318851 0 2579.2318832318851 -477.34596716918168 0 0 0 0 -17.831826590506736 11.779120447396195 0 11.779120447396195 -5.5560522680373197 0 0 0 0 -3173.2082163720042 3353.3726008820522 0 3353.3726008820522 -158.43283817145857 0 0 0 0 1029.5494197843873 -1102.5338970098819 0 -1102.5338970098819 456.86574469758489 0 0 0 0 -1084.1259373597568 364.71204647896957 0 364.71204647896957 -516.83190399849263 0 0 0 0 -755.61093047005124 684.05558003509236 0 684.05558003509236 -1618.0509753794613 0 0 0 0 -342.3567947956908 -270.47860050501185 0 -270.47860050501185 -801.39517014351441 0 0 0 0 -842.31106820153741 1153.2904276034226 0 1153.2904276034226 -1312.7645956198248 0 0 0 0 1141.099316373271 -626.33821709125186 0 -626.33821709125186 -747.18890982364246 0 0 0 0 -0.34731412907149917 4.6022551216642995 0 4.6022551216642995 -30.404003015237407 0 0 0 0 -1422.3101482612419 956.83246031924136 0 956.83246031924136 -656.75596287680673 0 0 0 0 5.1590299947860103 4.2492935945350325 0 4.2492935945350325 -17.828509165507739 0 0 0 0 1539.775030025985 -521.72555411349731 0 -521.72555411349731 -1117.9353364892304 0 0 0 0 -443.5704044141894 127.2353474115298 0 127.2353474115298 -294.14376807952067 0 0 0 0 1718.5838209025169 -1274.1335390098393 0 -1274.1335390098393 -21.492778708723108 0 0 0 0 1584.1541399575326 -410.18012996112884 0 -410.18012996112884 -1212.7239446793537 0 0 0 0 -528.97740887138934 903.67660181007523 0 903.67660181007523 -102.48716715884075 0 0 0 0 -616.56479715511159 -2.9690730675283703 0 -2.9690730675283703 143.76491418234218 0 0 0 0 -9.4892091159954362 -118.7932941029203 0 -118.7932941029203 -589.86180893870187 0 0 0 0 -508.67615882896644 -169.08702480151624 0 -169.08702480151624 -238.96896437379837 0 0 0 0 -488.75855189347931 56.695615351323795 0 56.695615351323795 -9.5570753922293079 0 0 0 0 1450.1164501557796 766.68447606600057 0 766.68447606600057 -645.90465543404571 0 0 0 0 -4.4525967666745174 18.557819022573412 0 18.557819022573412 -72.50401344216624 0 0 0 0 -1004.3929147824056 -618.56473856410958 0 -618.56473856410958 -1745.7361538505284 0 0 0 0 -766.36318396925526 541.43188306810498 0 541.43188306810498 -1473.6891716364917 0 0 0 0 -889.75760195651674 -86.56236615054695 0 -86.56236615054695 -370.67092682550719 0 0 0 0 -504.80256443466283 -206.37012076563815 0 -206.37012076563815 -279.45231114007765 0 0 0 0 -671.6153161210168 -391.98387517708034 0 -391.98387517708034 -468.54477707237675 0 0 0 0 -549.47435405589204 -257.64560521666135 0 -257.64560521666135 -338.19226875443564 0 0 0 0 -2156.5801343752846 501.24515289429291 0 501.24515289429291 -332.59347988045192 0 0 0 0 412.11118446215733 560.67150213306741 0 560.67150213306741 -336.58112601149332 0 0 0 0 -149.95746801018322 366.40393170130119 0 366.40393170130119 -222.47234208486043 0 0 0 0 -568.30118565328394 1551.4058452281988 0 1551.4058452281988 -3141.6924902405372 0 0 0 0 514.99127015950216 -1176.4255951051273 0 -1176.4255951051273 -4891.6672522687295 0 0 0 0 248.97468103875872 -671.53851095506616 0 -671.53851095506616 -2651.9939378096005 0 0 0 0 1045.2365086487735 230.65177765784756 0 230.65177765784756 -3523.1326925781686 0 0 0 0 824.9897121793224 283.90798468381035 0 283.90798468381035 -2073.2223067037994 0 0 0 0 -139.60446447679351 -428.17314802092733 0 -428.17314802092733 615.69548882630625 0 0 0 0 1089.5401971293822 300.60565499710583 0 300.60565499710583 -2081.4245854744368 0 0 0 0 246.28358572396246 949.98693931112939 0 949.98693931112939 -2143.4302227867738 0 0 0 0 958.68918113061409 -433.87913388881134 0 -433.87913388881134 -701.54766367666889 0 0 0 0 420.60475254712037 443.37421655249636 0 443.37421655249636 -1382.2980424740235 0 0 0 0 463.05318184068892 671.7551347078188 0 671.7551347078188 303.15833931804809 0 0 0 0 37.351615570285958 44.403530942940051 0 44.403530942940051 -7.6437995788655826 0 0 0 0 -23.053159548574278 17.35939654885199 0 17.35939654885199 -8.5555127584740944 0 0 0 0 -13.778778890902956 24.307114495699537 0 24.307114495699537 -24.256585302535711 0 0 0 0 142.99438551815547 485.35781583900098 0 485.35781583900098 617.85518662235336 0 0 0 0 211.63831816000311 597.02926840967848 0 597.02926840967848 516.50851623775088 0 0 0 0 230.72412614549103 421.33702648426697 0 421.33702648426697 269.89083753962768 0 0 0 0 139.77850989987928 429.1163011193712 0 429.1163011193712 287.27345778243762 0 0 0 0 389.80357314315916 477.36027173336333 0 477.36027173336333 139.26136033787043 0 0 0 0 -371.92758094589954 174.12247987066803 0 174.12247987066803 85.00159520390298 0 0 0 0 -688.28627793608939 45.163367701587049 0 45.163367701587049 232.71189617455821 0 0 0 0 -356.05741858935289 64.453491334279533 0 64.453491334279533 194.14569156078505 0 0 0 0 -28.882951170940942 246.84471857760218 0 246.84471857760218 146.70668947440572 0 0 0 0 198.77223853698524 308.29681325030106 0 308.29681325030106 87.235718822112176 0 0 0 0 -32.945879549333767 156.81080184338498 0 156.81080184338498 118.48603111735429 0 0 0 0 231.19516919327725 332.36400875092659 0 332.36400875092659 134.68207309905847 0 0 0 0 -46.41501719065127 276.72182413490373 0 276.72182413490373 245.93550947507902 0 0 0 0 36.463496596938057 195.33977025817148 0 195.33977025817148 98.34543209586991 0 0 0 0 833.42822765623714 465.45968564807845 0 465.45968564807845 -29.374093841237482 0 0 0 0 500.94661683540107 238.89410564494028 0 238.89410564494028 -37.071306892496068 0 0 0 0 345.05522206147725 523.06623647200468 0 523.06623647200468 160.38134322268888 0 0 0 0 -309.08871658900171 75.438721195358085 0 75.438721195358085 247.38529480824945 0 0 0 0 991.56492786718445 -6.0914364660275169 0 -6.0914364660275169 -15.024194977115258 0 0 0 0 607.154270492254 -380.14033402083442 0 -380.14033402083442 402.48973236577876 0 0 0 0 57.798819543404534 -43.57931307664694 0 -43.57931307664694 -7.4731446992373094 0 0 0 0 304.77841983072176 77.498958691186999 0 77.498958691186999 -67.078988479246618 0 0 0 0 252.08843605012225 210.53887078305706 0 210.53887078305706 43.613565295760054 0 0 0 0 -1026.4724790542314 636.28889187976165 0 636.28889187976165 -332.61109093016421 0 0 0 0 -1192.8680784365133 609.12457102134067 0 609.12457102134067 109.05869224679918 0 0 0 0 -668.19636960324351 -276.74633092067234 0 -276.74633092067234 706.54709803234437 0 0 0 0 -1179.9822280604567 221.09823176772625 0 221.09823176772625 377.11757641624718 0 0 0 0 -1454.1352036599674 402.7582575679553 0 402.7582575679553 650.22444014452049 0 0 0 0 -2627.0687546681438 1262.731935348118 0 1262.731935348118 440.81501341960393 0 0 0 0 -7.6687522061374054 15.046684581120971 0 15.046684581120971 -13.167663761277851 0 0 0 0 -21.94743479996032 -838.04690287646372 0 -838.04690287646372 -6652.7865821489104 0 0 0 0 -279.21917123707499 -1394.0483612387761 0 -1394.0483612387761 -2985.5584334848245 0 0 0 0 -458.11535681251485 -1152.5214499375797 0 -1152.5214499375797 -2079.9653722211078 0 0 0 0 -151.99149678590038 -456.83782686013728 0 -456.83782686013728 695.1026687369158 0 0 0 0 -48.224336059591224 806.58214609512652 0 806.58214609512652 -4202.9450645849247 0 0 0 0 144.29809235143648 -384.00905850334493 0 -384.00905850334493 -4516.8452397049259 0 0 0 0 -1286.6914242370094 653.93524563893516 0 653.93524563893516 -2477.8606029295843 0 0 0 0 -1951.2678979899756 2017.9279892663544 0 2017.9279892663544 -4787.0389993371609 0 0 0 0 742.17517409343509 10.154941179389425 0 10.154941179389425 -2644.5053507275297 0 0 0 0 661.20356170643208 197.66664465024223 0 197.66664465024223 -2155.3713185365341 0 0 0 0 -109.43013494553111 -235.87288227611862 0 -235.87288227611862 -1306.6086956616709 0 0 0 0 431.01318474155295 -113.93733067538415 0 -113.93733067538415 -2139.8616886878553 0 0 0 0 481.18360353209187 -280.79979978903248 0 -280.79979978903248 -2619.7263518970285 0 0 0 0 326.41000495140179 155.71457619692228 0 155.71457619692228 -2431.3829134983098 0 0 0 0 193.08650812227162 -652.81949647612601 0 -652.81949647612601 -3052.9281040341593 0 0 0 0 -51.578323547470973 716.58854498641449 0 716.58854498641449 -3260.3878732691101 0 0 0 0 662.72833453879593 102.53678380270139 0 102.53678380270139 -2856.1443923444167 0 0 0 0 654.2768017471526 -56.565688132395735 0 -56.565688132395735 -2661.0777194845687 0 0 0 0 80.609222391094136 247.47567953333419 0 247.47567953333419 -1040.1226251089392 0 0 0 0 75.79120904040883 528.6037900386782 0 528.6037900386782 -2480.7420727899153 0 0 0 0 -668.01616344257673 813.64080455341173 0 813.64080455341173 -2483.5867414622753 0 0 0 0 -663.99928655139865 490.82073895327267 0 490.82073895327267 -1394.9316857661615 0 0 0 0 -1840.2829400761475 166.64179456273268 0 166.64179456273268 -1253.2630867830885 0 0 0 0 -992.9907429885078 168.97486630634012 0 168.97486630634012 -171.53700135004328 0 0 0 0 -26.04538197114675 48.170140483175253 0 48.170140483175253 -61.264498500744608 0 0 0 0 160.13612362924979 387.08438449268215 0 387.08438449268215 -1385.5398994395721 0 0 0 0 59.495561866307526 857.270834112373 0 857.270834112373 -1082.8951724229773 0 0 0 0 891.88005546216664 1665.4788956803095 0 1665.4788956803095 199.04854536024686 0 0 0 0 547.82101268069709 14.176804571216053 0 14.176804571216053 -244.90123003758345 0 0 0 0 -58.588640392728848 610.85679516878008 0 610.85679516878008 -815.44122179786609 0 0 0 0 -10.030645791288677 19.630171216581687 0 19.630171216581687 -26.511577660472412 0 0 0 0 -701.15352493087948 1275.6410591856229 0 1275.6410591856229 1700.9406641515016 0 0 0 0 414.87928851515426 -327.14349325714466 0 -327.14349325714466 -1954.0834658344611 0 0 0 0 -2589.5964907269372 1116.1139021503041 0 1116.1139021503041 -109.27317708482951 0 0 0 0 -3.567224019827222 11.109742051977378 0 11.109742051977378 -17.013025750525657 0 0 0 0 -2255.1927682374189 844.64780216939744 0 844.64780216939744 47.742245684625232 0 0 0 0 -2079.0109175237594 318.30357946448567 0 318.30357946448567 276.60919147320055 0 0 0 0 0.68524180077656638 -85.823269114456707 0 -85.823269114456707 159.79369069952372 0 0 0 0 -2034.9510820949217 862.71785992624791 0 862.71785992624791 -167.10712764392883 0 0 0 0 -3047.0174765885458 632.35118210772271 0 632.35118210772271 -83.127505334770831 0 0 0 0 -489.05987467832165 -590.26823278140728 0 -590.26823278140728 91.472594491948257 0 0 0 0 -3149.8584081452573 908.35957240509742 0 908.35957240509742 -751.55898314004298 0 0 0 0 -2243.8029566890909 844.51083604657833 0 844.51083604657833 -475.10915668690723 0 0 0 0 -100.38018381703296 22.05874660417976 0 22.05874660417976 -78.809199748444371 0 0 0 0 -1918.7226659042353 950.29543177017058 0 950.29543177017058 -488.72050234909693 0 0 0 0 -52.153253001539269 22.017528213234982 0 22.017528213234982 -19.542192065695417 0 0 0 0 -3.1874155016210395 16.906998215703538 0 16.906998215703538 -18.501801080946677 0 0 0 0 0.52601052839250428 8.3737625766779047 0 8.3737625766779047 -5.4367634222251411 0 0 0 0 -1728.9183485426183 490.62478075328545 0 490.62478075328545 201.07938520153402 0 0 0 0 -1750.6833125144476 1136.1292927798931 0 1136.1292927798931 -1210.3862759537442 0 0 0 0 343.71331186121097 1097.0984671382321 0 1097.0984671382321 -815.8624745827583 0 0 0 0 935.83924218083848 -178.53078719269251 0 -178.53078719269251 -294.80706417314468 0 0 0 0 1346.0700019125652 -274.44081841042862 0 -274.44081841042862 242.37008032612357 0 0 0 0 3334.0013846776565 122.59821801702492 0 122.59821801702492 -379.46567716265781 0 0 0 0 1.5474258107861818 6.8076686572557605 0 6.8076686572557605 8.1696598580676323 0 0 0 0 571.19600367499515 -30.701645594937872 0 -30.701645594937872 242.04680912037657 0 0 0 0 976.49958288812195 488.54372742543273 0 488.54372742543273 536.96697409888293 0 0 0 0 441.70198448037263 -77.657958581254206 0 -77.657958581254206 68.291418844237342 0 0 0 0 821.02732042220305 -178.63220345123773 0 -178.63220345123773 -94.000784760184615 0 0 0 0 921.7982980657107 31.407754596211817 0 31.407754596211817 -340.56607119602268 0 0 0 0 -2.5465746871756352 17.343427771041547 0 17.343427771041547 -46.527234925015065 0 0 0 0 705.78541026383755 131.21682744040299 0 131.21682744040299 -263.96408149377748 0 0 0 0 32.785050655344094 665.30391179326398 0 665.30391179326398 -556.1822122282465 0 0 0 0 458.07325850510097 -187.657299121709 0 -187.657299121709 -224.73736487251881 0 0 0 0 770.61602466131444 -174.80793442679715 0 -174.80793442679715 -380.03466603092238 0 0 0 0 880.6854587539201 127.62339013462497 0 127.62339013462497 -246.59189725950273 0 0 0 0 -354.7383845030854 -286.82184650029103 0 -286.82184650029103 38.360139697385421 0 0 0 0 -60.147997210398898 528.35730330115439 0 528.35730330115439 -514.19731854843485 0 0 0 0 -781.52723752707243 -95.746211233899885 0 -95.746211233899885 -406.04945839474385 0 0 0 0 905.40226237791649 561.13369554246492 0 561.13369554246492 -165.74184865095594 0 0 0 0 2.2549733286577975 1925.4856144602818 0 1925.4856144602818 -706.17159409551095 0 0 0 0 -3446.4446756527614 982.1943585509016 0 982.1943585509016 173.54491451986178 0 0 0 0 -3179.0305134245282 1315.9831215351969 0 1315.9831215351969 8.9864649165792798 0 0 0 0 -0.27662799679945138 11.361953454671038 0 11.361953454671038 -7.7003535351171166 0 0 0 0 -1351.2622754051918 1493.7253761159523 0 1493.7253761159523 -928.60264975400423 0 0 0 0 -886.27078284110758 750.29055493109263 0 750.29055493109263 -522.00723790675602 0 0 0 0 -245.93768450256903 617.42731234902112 0 617.42731234902112 -812.77977853846369 0 0 0 0 0.69615640514530241 142.76817346936878 0 142.76817346936878 131.50062994215659 0 0 0 0 -6.6799669784625166 -1.0973936331781999 0 -1.0973936331781999 3.7372987220406415 0 0 0 0 123.2479924881045 -78.012529548340353 0 -78.012529548340353 -12.153847703557403 0 0 0 0 -6.3303876615359513 1.1186755797654513 0 1.1186755797654513 -6.9508580060658289 0 0 0 0 88.775745863167685 56.189140378177854 0 56.189140378177854 -5.4641317322530085 0 0 0 0 57.934152176458156 71.617043442144677 0 71.617043442144677 85.777371931973903 0 0 0 0 176.55842511114315 93.770102319794205 0 93.770102319794205 51.253489059157801 0 0 0 0 91.83260756538948 143.0946127504485 0 143.0946127504485 109.04167682492698 0 0 0 0 165.71341912011849 173.15595802165717 0 173.15595802165717 84.961871666553634 0 0 0 0 -5.5655172020406098 1.2525976895013855 0 1.2525976895013855 5.6844956146887995 0 0 0 0 23.405689667299157 33.420760981858393 0 33.420760981858393 49.014682112489709 0 0 0 0 0.045933363444677369 27.771001828213816 0 27.771001828213816 47.894639257488961 0 0 0 0 73.174061264289776 74.960609441212455 0 74.960609441212455 108.40374766422428 0 0 0 0 96.937413086285233 168.22195767756602 0 168.22195767756602 107.07622783638362 0 0 0 0 10.992560070531908 39.87537980699355 0 39.87537980699355 61.009377404429188 0 0 0 0 31.288755795587349 63.113784554001256 0 63.113784554001256 59.188284309116852 0 0 0 0 -7.2240536519535681 0.48072688544010589 0 0.48072688544010589 5.7265852445471621 0 0 0 0 0.0035804563622503808 42.308061513121238 0 42.308061513121238 51.968393509690486 0 0 0 0 -1.0534708683553617 39.139761385403744 0 39.139761385403744 109.08529629480245 0 0 0 0 30.087846299342118 78.398612454467468 0 78.398612454467468 124.86875795969581 0 0 0 0 -57.933150222641416 89.876970630058622 0 89.876970630058622 87.310509920656841 0 0 0 0 -9.2161787946802196 56.128088240895522 0 56.128088240895522 133.48638582689094 0 0 0 0 -793.82998252153232 465.40442175006217 0 465.40442175006217 544.32451664886685 0 0 0 0 2.1596693424526876 37.724441587147851 0 37.724441587147851 -1.6724863887436072 0 0 0 0 919.4543371120817 610.79526498323321 0 610.79526498323321 -261.59807838330016 0 0 0 0 -1720.8316629105539 1623.8577501075379 0 1623.8577501075379 1382.0833812431083 0 0 0 0 -286.42177564592566 178.09844970081031 0 178.09844970081031 231.80635086084476 0 0 0 0 -113.98048438539263 38.423938546938189 0 38.423938546938189 45.855041115153654 0 0 0 0 33.058921701303916 100.95916641438271 0 100.95916641438271 92.255032065682826 0 0 0 0 -9.1244279751153812 12.791822585381908 0 12.791822585381908 2.7985084686080555 0 0 0 0 903.79882913449546 -349.67737674040836 0 -349.67737674040836 -1733.790219478331 0 0 0 0 -25.516752403855662 63.034333117694189 0 63.034333117694189 -16.570403074805469 0 0 0 0 -6.5036329012510805 25.425005185723478 0 25.425005185723478 -62.638854931644644 0 0 0 0 1141.5620727378991 185.20327266053937 0 185.20327266053937 -311.7438598592671 0 0 0 0 384.56253541688056 732.65059049217962 0 732.65059049217962 1117.2412044575176 0 0 0 0 9.6122025735936631 11.195395184550279 0 11.195395184550279 10.896033368696834 0 0 0 0 -752.65200995630585 717.03934076424048 0 717.03934076424048 -557.69678995147115 0 0 0 0 1066.5662349863851 -32.586516922430746 0 -32.586516922430746 -333.05708555540878 0 0 0 0 -442.44646700005978 1014.1028217805397 0 1014.1028217805397 190.15884133987129 0 0 0 0 -478.26320368819324 594.34886718455209 0 594.34886718455209 28.708816959318938 0 0 0 0 -949.6529916084146 489.83338652011093 0 489.83338652011093 74.674886792578036 0 0 0 0 -912.51772744723712 824.13211926206714 0 824.13211926206714 134.11103283659031 0 0 0 0 -585.56191311441944 642.28263315016738 0 642.28263315016738 44.658208716552963 0 0 0 0 -762.68182814144529 543.47998174726672 0 543.47998174726672 56.895723866162371 0 0 0 0 -715.69398242924944 498.86617458497858 0 498.86617458497858 55.257762351437123 0 0 0 0 166.15631323432899 874.19632338193333 0 874.19632338193333 -60.618824172855511 0 0 0 0 30.659781141381245 60.043338099445464 0 60.043338099445464 101.01139296776091 0 0 0 0 -118.69855441663822 395.23294334037746 0 395.23294334037746 -649.42274545258988 0 0 0 0 -372.83776085509453 821.21495981710905 0 821.21495981710905 209.75762840024481 0 0 0 0 -245.91718533908715 775.9871653413793 0 775.9871653413793 -1050.4071736986498 0 0 0 0 -3.9898628434217471 7.8847381621947576 0 7.8847381621947576 -0.75333576522913681 0 0 0 0 -1029.7385000843205 1024.6991179631932 0 1024.6991179631932 -21.382675806547923 0 0 0 0 23.428881713696114 110.06720449595187 0 110.06720449595187 -111.44472167635232 0 0 0 0 -947.16989628510782 513.4980778282661 0 513.4980778282661 1487.2700670948861 0 0 0 0 633.64461152574222 261.72333987848469 0 261.72333987848469 36.393473230324162 0 0 0 0 62.991709478985285 144.18787276794683 0 144.18787276794683 22.226588937002816 0 0 0 0 24.532681571008595 107.54343898276073 0 107.54343898276073 -124.41495295266802 0 0 0 0 -558.70856969260058 871.45307311121451 0 871.45307311121451 1041.247073131537 0 0 0 0 -720.09376290129148 48.994352003626773 0 48.994352003626773 103.1288624712015 0 0 0 0 -307.66237441291742 639.69670036399475 0 639.69670036399475 418.0769901054291 0 0 0 0 29.474816554941867 109.25107453008037 0 109.25107453008037 -125.46342877795541 0 0 0 0 -151.07572613280354 655.78180882551987 0 655.78180882551987 41.366795377842209 0 0 0 0 109.97526258087601 409.30505132763574 0 409.30505132763574 -57.834020667878576 0 0 0 0 -86.658205548999831 364.96620123938192 0 364.96620123938192 272.90370946224357 0 0 0 0 30.233537313550187 239.48559961797082 0 239.48559961797082 -598.77216788433725 0 0 0 0 4.6290395986870863 292.28686801899312 0 292.28686801899312 177.12569950669058 0 0 0 0 -123.82009449246107 667.68870113752564 0 667.68870113752564 308.45179185518646 0 0 0 0 74.308331939297204 24.001481739510382 0 24.001481739510382 407.5966201584306 0 0 0 0 289.27755547492416 390.73862688290319 0 390.73862688290319 243.18775764740349 0 0 0 0 -8.12137012806852 12.602832199379456 0 12.602832199379456 -1.227704733328018 0 0 0 0 -4.7733161622309126 528.09564347365813 0 528.09564347365813 453.95619630265355 0 0 0 0 -0.4233283816586777 2.6720919840842896 0 2.6720919840842896 4.5610332774433715 0 0 0 0 167.86103820518474 564.63799692541033 0 564.63799692541033 -4.7912341351839132 0 0 0 0 -830.43189098594303 1056.6388342932423 0 1056.6388342932423 -131.61769854951126 0 0 0 0 -506.8184463246871 236.42939163769188 0 236.42939163769188 -4.7090586842386983 0 0 0 0 -416.52414376242086 476.72584244153404 0 476.72584244153404 267.53381870215162 0 0 0 0 12.50975818191398 6.813844944077573 0 6.813844944077573 1.3730988606144905 0 0 0 0 -689.48908650872181 799.7168815136356 0 799.7168815136356 -696.47788992198912 0 0 0 0 -341.27013865028857 562.26891538291602 0 562.26891538291602 -670.5099794198668 0 0 0 0 -128.75489144452149 318.73391302886921 0 318.73391302886921 -361.78360477264778 0 0 0 0 125.64199230246595 137.89085602698469 0 137.89085602698469 -310.15660023243618 0 0 0 0 943.43586702221364 -68.927129843397779 0 -68.927129843397779 -222.91762415242192 0 0 0 0 -68.313696016739414 388.40274018398668 0 388.40274018398668 -290.52960648070075 0 0 0 0 -246.57423583546188 405.70060478568121 0 405.70060478568121 -275.70313926250674 0 0 0 0 -709.47518449604104 617.25576155132694 0 617.25576155132694 -153.81528596928001 0 0 0 0 26.301422154159923 30.025937888603465 0 30.025937888603465 28.649419079179552 0 0 0 0 -716.71956109069288 404.73269012153287 0 404.73269012153287 -377.26815609293408 0 0 0 0 -717.46144298453873 891.88668631508881 0 891.88668631508881 -488.63357974741029 0 0 0 0 21.359692136931699 373.1614692574276 0 373.1614692574276 -506.49069878444425 0 0 0 0 -423.2795472786238 622.1730175509183 0 622.1730175509183 -487.52331956291516 0 0 0 0 33.61121069911087 40.061383559351384 0 40.061383559351384 41.454402978775107 0 0 0 0 -604.55021249917627 870.75256488271043 0 870.75256488271043 41.875089721765107 0 0 0 0 763.95048569235951 52.34538007064566 0 52.34538007064566 -445.72694567940925 0 0 0 0 -690.97771268786164 296.70716905782683 0 296.70716905782683 146.23296132886026 0 0 0 0 -638.93416329441243 285.24543923215606 0 285.24543923215606 65.44503297295023 0 0 0 0 -597.5100345092651 237.48180867821065 0 237.48180867821065 117.1103257292707 0 0 0 0 43.378854673673573 43.320086764530913 0 43.320086764530913 45.535066599851945 0 0 0 0 -616.23352168881684 303.26589929201327 0 303.26589929201327 22.276549217000138 0 0 0 0 -169.95907443764736 371.73801727769751 0 371.73801727769751 -404.73513405108315 0 0 0 0 -148.98220489776577 315.61558705878815 0 315.61558705878815 -269.89064697848517 0 0 0 0 -60.587030489958124 346.96953282498271 0 346.96953282498271 -403.07036027716094 0 0 0 0 -107.52113151951198 373.92648777467457 0 373.92648777467457 -372.36153401200136 0 0 0 0 -84.710389883999596 332.6825819848309 0 332.6825819848309 -387.73105055380665 0 0 0 0 -66.045480982070188 25.050788130014894 0 25.050788130014894 2.6818032639189937 0 0 0 0 -233.8056835566822 304.18982859997413 0 304.18982859997413 -384.29318513815406 0 0 0 0 -154.51355044991942 368.25436589182755 0 368.25436589182755 -447.60819257935145 0 0 0 0 -142.43355700395477 267.06533691848017 0 267.06533691848017 -412.77938533009547 0 0 0 0 -298.42930331842217 252.81802172839707 0 252.81802172839707 -234.10107347691883 0 0 0 0 -312.33668991671948 599.54410439910498 0 599.54410439910498 -592.30014350501006 0 0 0 0 -91.65366161452954 113.66422372669894 0 113.66422372669894 -10.449228099267145 0 0 0 0 415.89409786446777 159.53988286702042 0 159.53988286702042 -319.35838848539788 0 0 0 0 -575.11782199928712 843.16260847765079 0 843.16260847765079 -613.18307951456154 0 0 0 0 1.4233328835141208 2.6627249161495286 0 2.6627249161495286 -4.611014102384047 0 0 0 0 89.245527345381561 533.3090134580998 0 533.3090134580998 -472.96089457724156 0 0 0 0 -11.478028050798457 442.04413990874309 0 442.04413990874309 -421.5107969958317 0 0 0 0 -254.11618582405208 479.39471127565412 0 479.39471127565412 -439.48205005842192 0 0 0 0 -182.91235434698683 582.47184322287376 0 582.47184322287376 -481.1073048651524 0 0 0 0 -422.22330613953818 637.5117352314046 0 637.5117352314046 -412.02813944123773 0 0 0 0 -134.48402879173227 546.49622612659005 0 546.49622612659005 -382.00426760182017 0 0 0 0 -189.94890508588651 426.87113668612074 0 426.87113668612074 -249.63344894560578 0 0 0 0 -240.34595598153828 375.64876726505099 0 375.64876726505099 -284.08845952149568 0 0 0 0 -84.81810366892023 319.86619827033428 0 319.86619827033428 -379.07762853626264 0 0 0 0 -1.3516411949240137 383.22879803458636 0 383.22879803458636 -418.45095744948048 0 0 0 0 8.0144890418596333 465.31698985909316 0 465.31698985909316 -349.20201467988227 0 0 0 0 -24.728601991540927 384.68993385286012 0 384.68993385286012 -454.08193850599855 0 0 0 0 -11.012423509033397 348.31995021016155 0 348.31995021016155 -372.64237908562427 0 0 0 0 -16.913564366780065 180.74322309182236 0 180.74322309182236 -115.30329924319085 0 0 0 0 1.7034154662578658 71.239131708086916 0 71.239131708086916 -1.9443355538769538 0 0 0 0 136.23123447703256 37.578025996262113 0 37.578025996262113 -150.43818366963023 0 0 0 0 47.903783200934384 83.685401426664214 0 83.685401426664214 19.902752901234948 0 0 0 0 -114.18287585979851 306.28881539121721 0 306.28881539121721 -361.3731390166904 0 0 0 0 131.69810494258854 221.56622918289486 0 221.56622918289486 0.24995272354635745 0 0 0 0 105.64906046076794 464.10447407250285 0 464.10447407250285 -910.29334097944229 0 0 0 0 -115.77624312281841 391.61015804419185 0 391.61015804419185 -545.24725356523413 0 0 0 0 -188.6534451211628 207.84583661508623 0 207.84583661508623 -486.10691698001028 0 0 0 0 -69.441972523239883 119.63310470592042 0 119.63310470592042 -9.2267541409969454 0 0 0 0 -74.905664255517848 107.90608165642658 0 107.90608165642658 -17.730374532754084 0 0 0 0 -365.24553386541083 383.59462379018805 0 383.59462379018805 -485.76210980967244 0 0 0 0 -35.610869798975386 28.951474261557394 0 28.951474261557394 3.3975197655895784 0 0 0 0 -434.07522701039852 554.32976493274691 0 554.32976493274691 -461.66943486720993 0 0 0 0 -15.251998226211299 44.040598750291508 0 44.040598750291508 14.160409487398617 0 0 0 0 -165.1447496485489 635.25241957732942 0 635.25241957732942 -1010.347732431037 0 0 0 0 -141.99293360413867 178.34265328418041 0 178.34265328418041 252.62263188958605 0 0 0 0 -643.4115137392364 583.76288975210264 0 583.76288975210264 -627.83823233949806 0 0 0 0 -381.7560655636953 295.96525508074137 0 295.96525508074137 209.55006387575122 0 0 0 0 -110.43218726571649 113.77875291172313 0 113.77875291172313 356.42028619046323 0 0 0 0 2.2993183407525066 173.40386039608711 0 173.40386039608711 123.5303094523133 0 0 0 0 -134.74444402891095 105.82900425626849 0 105.82900425626849 225.75775641627843 0 0 0 0 -105.5329498629726 171.34124559697739 0 171.34124559697739 205.29757911858178 0 0 0 0 -104.14926450718357 122.77700626494264 0 122.77700626494264 72.971170374840369 0 0 0 0 -51.860605094179391 329.66690513544489 0 329.66690513544489 189.04971742668567 0 0 0 0 -48.416966437012888 413.9570529411576 0 413.9570529411576 488.61145489323826 0 0 0 0 -360.65090957985376 257.85499360952781 0 257.85499360952781 1341.7725678016723 0 0 0 0 -3.6367882991738725 7.6304649434380707 0 7.6304649434380707 -0.82740536244064344 0 0 0 0 104.85557070359937 495.49840576015413 0 495.49840576015413 -980.8158755879922 0 0 0 0 -48.056012805056525 1054.5101953664198 0 1054.5101953664198 -252.34668321647769 0 0 0 0 131.52850543762906 153.78016236651092 0 153.78016236651092 65.002281540204422 0 0 0 0 -189.69669303105911 422.53388927442256 0 422.53388927442256 31.7142317504331 0 0 0 0 552.44724175173724 216.45936388960422 0 216.45936388960422 85.365797821810702 0 0 0 0 231.29788379080128 141.28986821732906 0 141.28986821732906 346.3697775896253 0 0 0 0 4.1955984795414736 -6.0700442606621152 0 -6.0700442606621152 -7.3589069543445191 0 0 0 0 364.46922973012261 57.049803917250756 0 57.049803917250756 29.536200649177772 0 0 0 0 610.06241185351973 787.373208525667 0 787.373208525667 -145.20326670171926 0 0 0 0 -719.46899041680444 316.4848284949112 0 316.4848284949112 27.144961622852861 0 0 0 0 356.79777497440045 230.0304582735148 0 230.0304582735148 89.314266786141161 0 0 0 0 -105.89466346025549 119.08758673814272 0 119.08758673814272 72.868669836792094 0 0 0 0 222.0173264904297 189.55365615601022 0 189.55365615601022 125.95476231487555 0 0 0 0 181.96682808411424 207.37972044106209 0 207.37972044106209 118.1953685983608 0 0 0 0 250.85526438883971 220.42928525749448 0 220.42928525749448 129.04234317250848 0 0 0 0 188.74799216452448 188.72907761825263 0 188.72907761825263 116.19233426574465 0 0 0 0 96.444301982293837 354.02678404070502 0 354.02678404070502 -3.9957427015069698 0 0 0 0 270.7877513278836 257.11893588798421 0 257.11893588798421 103.56522024572223 0 0 0 0 -105.28982673642665 118.07945970469714 0 118.07945970469714 69.879932426016296 0 0 0 0 231.35828713652154 194.32853608381538 0 194.32853608381538 1.9629761907108332 0 0 0 0 110.24067022318923 188.21120513500955 0 188.21120513500955 119.26860337967514 0 0 0 0 183.57779727701927 167.43637607140818 0 167.43637607140818 7.5692672751210921 0 0 0 0 119.04808821375991 109.32274077023703 0 109.32274077023703 28.271242482063826 0 0 0 0 185.18094405631564 94.712521489722349 0 94.712521489722349 -66.980353891160291 0 0 0 0 206.77734345679346 102.19312938123221 0 102.19312938123221 -3.205968429281711 0 0 0 0 152.95648891399833 32.76548042497825 0 32.76548042497825 -83.041916565678548 0 0 0 0 155.92751495260745 23.160515896408469 0 23.160515896408469 -76.385176657980992 0 0 0 0 229.27877416847332 36.267166740799439 0 36.267166740799439 -78.733602503023576 0 0 0 0 7.8919745093524067 20.299103841613309 0 20.299103841613309 -36.546297038811787 0 0 0 0 -994.63985561255686 270.77418474047045 0 270.77418474047045 24.994969246909022 0 0 0 0 -714.52748632919474 99.298248644851242 0 99.298248644851242 -22.14892901321582 0 0 0 0 -450.12874013829332 115.15872616247714 0 115.15872616247714 -78.109756088648282 0 0 0 0 -424.64635098290455 449.37163344822329 0 449.37163344822329 -41.456972409843729 0 0 0 0 6.2721474758725222 18.73117971194543 0 18.73117971194543 -6.419472516526902 0 0 0 0 -731.53475569237321 452.08417411363064 0 452.08417411363064 31.609224890038604 0 0 0 0 -772.11482377687571 322.57338359001005 0 322.57338359001005 -87.125085581774329 0 0 0 0 -3.6734829298277951 10.424236970722028 0 10.424236970722028 -20.013212675083203 0 0 0 0 -1798.5978999010504 243.37283286682032 0 243.37283286682032 119.62290589641634 0 0 0 0 235.42502253978455 189.08178314676661 0 189.08178314676661 61.620626979430654 0 0 0 0 206.61679701747926 86.670749351287668 0 86.670749351287668 15.947535498722573 0 0 0 0 395.09939709196624 180.91126994653769 0 180.91126994653769 56.727064130549479 0 0 0 0 253.29287867298262 195.69081163006558 0 195.69081163006558 90.456287603878081 0 0 0 0 -1.9156435843596089 3.4695208201394863 0 3.4695208201394863 -6.0678231089435286 0 0 0 0 -3014.3622805380587 440.06282416513216 0 440.06282416513216 200.25058460539003 0 0 0 0 818.58554536030897 323.50867555222044 0 323.50867555222044 15.981170209190168 0 0 0 0 93.645507224020548 224.72005439419263 0 224.72005439419263 166.54872521814286 0 0 0 0 -333.21808726580639 889.01407834556721 0 889.01407834556721 -254.97183814413984 0 0 0 0 -454.44128753508267 285.70048003629745 0 285.70048003629745 568.52368340660905 0 0 0 0 -450.73986403880554 388.20058225366301 0 388.20058225366301 -244.66670654886548 0 0 0 0 -961.18453050284006 142.2759295428632 0 142.2759295428632 123.2552494611773 0 0 0 0 -1044.7244328080451 695.89108892613604 0 695.89108892613604 -395.76745898012814 0 0 0 0 -1210.1846730192447 675.93516426885253 0 675.93516426885253 189.75604962919169 0 0 0 0 -1134.9610426817198 356.98801796377484 0 356.98801796377484 -232.60515903915802 0 0 0 0 -559.79613339804928 687.2457448276291 0 687.2457448276291 366.43831173385115 0 0 0 0 -531.77723225023374 568.90579322326494 0 568.90579322326494 -38.557594200538006 0 0 0 0 -240.60192360255314 941.98942456307486 0 941.98942456307486 153.33152706859983 0 0 0 0 -462.13243477229844 805.73736831884889 0 805.73736831884889 125.38630158145315 0 0 0 0 -500.04421750017354 871.98766496956705 0 871.98766496956705 16.72570655810614 0 0 0 0 -817.81943409945234 345.30251445319118 0 345.30251445319118 -52.458334584269323 0 0 0 0 -846.08258937916389 676.25433976471425 0 676.25433976471425 71.616110751125234 0 0 0 0 -347.44360210256855 766.68853913374915 0 766.68853913374915 2.7494808676074172 0 0 0 0 -345.71074620667514 773.27460346114412 0 773.27460346114412 -19.876143656074419 0 0 0 0 -538.78549816978557 572.34589756148307 0 572.34589756148307 2.8614354461096809 0 0 0 0 -450.84393691450532 441.21063705527922 0 441.21063705527922 -43.846145809395239 0 0 0 0 -203.16916132318875 966.34858320034982 0 966.34858320034982 22.831051368124463 0 0 0 0 -300.58239318138658 944.86918938222516 0 944.86918938222516 39.693754129686567 0 0 0 0 -122.25927972658246 1050.0430466126782 0 1050.0430466126782 5.3273481654468924 0 0 0 0 -113.34975105070953 970.91732207878567 0 970.91732207878567 -25.359072701867262 0 0 0 0 -175.97503023062745 927.54913564155504 0 927.54913564155504 -53.578667693815078 0 0 0 0 36.213234281516634 949.27731042166852 0 949.27731042166852 -57.795101157971658 0 0 0 0 -70.861077419860521 870.321803700288 0 870.321803700288 -109.20238822737156 0 0 0 0 17.583692219479417 1071.5993386150149 0 1071.5993386150149 -78.334985405957923 0 0 0 0 -20.542158424344962 998.52886589545051 0 998.52886589545051 -95.439018194025266 0 0 0 0 74.774480661173584 981.5550377351683 0 981.5550377351683 -147.73564303327294 0 0 0 0 228.88781790356006 832.66914191182332 0 832.66914191182332 -104.68609085329808 0 0 0 0 273.31608652217255 929.26018311668849 0 929.26018311668849 -168.07671662650682 0 0 0 0 212.29448512727686 909.48752608720315 0 909.48752608720315 -123.59732809237903 0 0 0 0 293.3450719184948 558.44135482012098 0 558.44135482012098 -63.498148138314718 0 0 0 0 447.8773797354952 684.91866475700954 0 684.91866475700954 -131.35371745042903 0 0 0 0 93.444766432437518 713.46110893907894 0 713.46110893907894 -91.64632988635276 0 0 0 0 86.238001052974141 731.73917171557696 0 731.73917171557696 -117.97302512818533 0 0 0 0 445.09555200816249 452.80807138851378 0 452.80807138851378 -81.907239070467767 0 0 0 0 55.014536206392222 464.49508241138392 0 464.49508241138392 -81.421786129190878 0 0 0 0 110.49632446279429 506.14703935650186 0 506.14703935650186 -58.203816719324095 0 0 0 0 -133.15601863562915 548.54199252833496 0 548.54199252833496 -58.015815246726561 0 0 0 0 59.117649559237179 723.22736671527673 0 723.22736671527673 -58.00194035039749 0 0 0 0 -99.59105939847359 819.38288518332229 0 819.38288518332229 -24.903659353891271 0 0 0 0 -195.69331991056242 753.89850049613233 0 753.89850049613233 -52.496523922945926 0 0 0 0 -356.9503383593692 604.04200217134348 0 604.04200217134348 7.3179707025683456 0 0 0 0 -115.02675413980069 569.13511145705252 0 569.13511145705252 -36.049923955921258 0 0 0 0 27.251644870115801 -8.2393510821284224 0 -8.2393510821284224 -81.714814502532306 0 0 0 0 47.760723312298069 42.492437682643867 0 42.492437682643867 -97.024365922365178 0 0 0 0 13.061694833246658 47.491156437140184 0 47.491156437140184 23.585915015752875 0 0 0 0 137.64352331426562 93.01958048553297 0 93.01958048553297 279.13655380986165 0 0 0 0 -61.960659364358435 254.73916283444669 0 254.73916283444669 -10.120177379700181 0 0 0 0 -228.23606551129251 163.7191608894027 0 163.7191608894027 -67.580920433196297 0 0 0 0 -251.22918613976071 410.87160651463637 0 410.87160651463637 -47.117688859420014 0 0 0 0 125.6980850146756 -11.286219864088707 0 -11.286219864088707 -48.87019098518067 0 0 0 0 -295.50406573548389 409.54588300811156 0 409.54588300811156 -18.796609154131147 0 0 0 0 -80.847142365775653 221.0285020892079 0 221.0285020892079 -69.671750770809012 0 0 0 0 -142.66159345882261 357.48136126406825 0 357.48136126406825 -21.801025774722802 0 0 0 0 -110.74530096100352 380.93777843511634 0 380.93777843511634 -17.763906157237216 0 0 0 0 56.185169839584717 49.383528812912921 0 49.383528812912921 5.6587556107788419 0 0 0 0 129.92954297990946 73.280760941116569 0 73.280760941116569 -177.29198299840982 0 0 0 0 110.26659498638764 54.919217917289643 0 54.919217917289643 -65.860987275557591 0 0 0 0 128.17138722928939 57.233365242100263 0 57.233365242100263 -120.67514385419781 0 0 0 0 93.828543859548518 10.69458525536902 0 10.69458525536902 -78.851714055277625 0 0 0 0 70.833397479982523 72.030789210340117 0 72.030789210340117 -123.26774812780445 0 0 0 0 -138.53526081552627 136.30180309431671 0 136.30180309431671 -32.219022798090009 0 0 0 0 -30.125217134889681 140.96972727751563 0 140.96972727751563 -89.944902576298773 0 0 0 0 2.1275320103116755 8.8090965248215838 0 8.8090965248215838 6.6844235332441428 0 0 0 0 415.16424783478578 42.185150266959681 0 42.185150266959681 -535.76110098856589 0 0 0 0 -58.007081678173563 238.97194146087713 0 238.97194146087713 52.737862357891572 0 0 0 0 110.26617654060828 324.65621446139266 0 324.65621446139266 -17.650535423133988 0 0 0 0 185.72727408373612 244.06823216673365 0 244.06823216673365 748.94794277947585 0 0 0 0 0.33910774180816361 -0.44395616138726268 0 -0.44395616138726268 -4.0736788517828622 0 0 0 0 674.07659236253676 29.203012136975303 0 29.203012136975303 7.6604841406733613 0 0 0 0 186.73504470971966 140.40776343038669 0 140.40776343038669 63.327728122429107 0 0 0 0 1062.9337627366076 182.32850395629248 0 182.32850395629248 -118.06854447627848 0 0 0 0 -226.70294809678671 327.86887802596721 0 327.86887802596721 560.4728440447434 0 0 0 0 12.253087273652984 35.389969600978191 0 35.389969600978191 12.874914630897834 0 0 0 0 -230.83079919463489 70.460526394879707 0 70.460526394879707 -32.190575286418607 0 0 0 0 -683.06579450670688 237.35409605534733 0 237.35409605534733 -41.521017944302457 0 0 0 0 -1219.9268847929416 548.08343063456778 0 548.08343063456778 -82.456489458592841 0 0 0 0 -0.23923321132107134 -1.128866141174484 0 -1.128866141174484 -0.49166957980258985 0 0 0 0 -553.77038662695122 865.69136833153971 0 865.69136833153971 -657.21701302893052 0 0 0 0 874.96206541938591 192.4998731212545 0 192.4998731212545 -673.21551464907316 0 0 0 0 -948.59713306234335 684.71698164896225 0 684.71698164896225 -157.44563331169047 0 0 0 0 1586.3928796412365 -113.33368196024458 0 -113.33368196024458 150.19338941702972 0 0 0 0 1264.1476919157358 749.01202730663863 0 749.01202730663863 -68.477412137537613 0 0 0 0 563.56838562887424 821.44661388919849 0 821.44661388919849 -309.49758365161597 0 0 0 0 779.68496179056092 443.94762825516227 0 443.94762825516227 -90.978817385905131 0 0 0 0 506.40417659727336 699.80537219048574 0 699.80537219048574 -178.07509291533643 0 0 0 0 400.84078266321012 987.44537020782445 0 987.44537020782445 -427.7914521141538 0 0 0 0 704.23834503419494 850.55393784471562 0 850.55393784471562 -166.61138901271988 0 0 0 0 892.74360640781379 361.04240348971962 0 361.04240348971962 -75.070718574439525 0 0 0 0 696.5692678189007 524.47010858265276 0 524.47010858265276 -172.49209734536271 0 0 0 0 864.64840016547532 375.24803587858696 0 375.24803587858696 35.333030944972961 0 0 0 0 6.2653789990436053 1272.0130976785786 0 1272.0130976785786 -1737.7585108875683 0 0 0 0 2.886000488807035 5.2685770701420296 0 5.2685770701420296 -4.7767922608454683 0 0 0 0 4801.2506195166461 -783.99193055341675 0 -783.99193055341675 -2498.7817876854679 0 0 0 0 1565.0127484537952 174.03113233079785 0 174.03113233079785 -1604.396862797852 0 0 0 0 2396.7665314391197 -1461.1239708385601 0 -1461.1239708385601 1609.9269062997701 0 0 0 0 380.35525399373728 -216.35400040604509 0 -216.35400040604509 -626.17237935361482 0 0 0 0 617.78484184094123 -355.20208233245467 0 -355.20208233245467 77.205089723509445 0 0 0 0 513.8550964333408 67.479797704778321 0 67.479797704778321 -1050.8566672084307 0 0 0 0 754.90179242894374 639.46319866479462 0 639.46319866479462 81.738502944856009 0 0 0 0 439.96564035022311 184.86739995309108 0 184.86739995309108 -225.96571719234544 0 0 0 0 1275.8117569044553 202.51268965839336 0 202.51268965839336 54.71243841881369 0 0 0 0 2777.23632935969 228.92836323395932 0 228.92836323395932 -287.17430435875212 0 0 0 0 1806.2414414259765 946.02926994499285 0 946.02926994499285 498.74559665357083 0 0 0 0 -1055.0391510387926 872.69685445992218 0 872.69685445992218 -232.77437708269281 0 0 0 0 9.8491175782949831 25.639287534027261 0 25.639287534027261 -3.6557206479243405 0 0 0 0 -399.67982679222769 514.42975703651246 0 514.42975703651246 -367.88176632232353 0 0 0 0 -659.34631648187496 874.16058740804328 0 874.16058740804328 -693.19756251325452 0 0 0 0 -296.1246995373549 625.81551829908767 0 625.81551829908767 -509.95034097419557 0 0 0 0 -175.64818853716497 509.59154402578497 0 509.59154402578497 -587.65889171801973 0 0 0 0 -211.68321167094837 559.55334447601399 0 559.55334447601399 -102.62348740357811 0 0 0 0 -319.54066693885397 370.34197264154682 0 370.34197264154682 -366.72745743225914 0 0 0 0 -3120.0678598503982 1847.5846435523044 0 1847.5846435523044 -454.25531213812792 0 0 0 0 -335.13498511615762 524.47004834961626 0 524.47004834961626 -696.25004475910623 0 0 0 0 -3.1399086872367405 3.6441186221651236 0 3.6441186221651236 13.084511434569691 0 0 0 0 -1444.7437867351982 1506.5864048658659 0 1506.5864048658659 -1446.0074537696782 0 0 0 0 817.07767957636133 -164.53323313672945 0 -164.53323313672945 -113.08145015937043 0 0 0 0 349.4739559269874 485.95050544231344 0 485.95050544231344 -102.41287711508994 0 0 0 0 339.71352511373334 385.46890637138949 0 385.46890637138949 -498.81903434176456 0 0 0 0 -884.60252224294527 827.45384650201595 0 827.45384650201595 -309.60807139599638 0 0 0 0 95.037748157546616 175.3501717825298 0 175.3501717825298 31.055701482684952 0 0 0 0 -88.846265042848245 106.56741049675202 0 106.56741049675202 -94.798019473313616 0 0 0 0 28.714137239234745 28.665191337225622 0 28.665191337225622 -32.336098260085848 0 0 0 0 252.39808756126149 80.439332098015257 0 80.439332098015257 -421.21378692832695 0 0 0 0 153.95146518784895 632.78580628717464 0 632.78580628717464 -520.64926466077304 0 0 0 0 35.764854630484479 528.02459152807842 0 528.02459152807842 -241.54863253510121 0 0 0 0 78.749065184487364 178.56504502255052 0 178.56504502255052 56.579362347155907 0 0 0 0 4687.768095421221 -328.95935959775784 0 -328.95935959775784 -198.5841973741226 0 0 0 0 345.6789905421756 -78.851787245454034 0 -78.851787245454034 -880.91994951360903 0 0 0 0 -1.99190013608046 -5.9916395147900801 0 -5.9916395147900801 -4.5907184807130506 0 0 0 0 49.267528867683723 157.7955777700281 0 157.7955777700281 167.4203010943711 0 0 0 0 78.477137281588512 28.118510181189777 0 28.118510181189777 -593.68655945466526 0 0 0 0 -123.55888700771175 306.78164804528569 0 306.78164804528569 -885.39863898213662 0 0 0 0 92.81044848653255 -66.563466557670381 0 -66.563466557670381 -555.99191970636821 0 0 0 0 233.81136169899764 0.10660129331881762 0 0.10660129331881762 -294.94724366633091 0 0 0 0 5.9101735522763192 111.46004210796491 0 111.46004210796491 -348.31049123375851 0 0 0 0 3.7609768653943121 4.1878415535451481 0 4.1878415535451481 -49.360279314813894 0 0 0 0 93.62323302263394 -69.249774770156364 0 -69.249774770156364 -106.99822322941327 0 0 0 0 19.326244273989175 117.36222833970534 0 117.36222833970534 53.525291195903506 0 0 0 0 -27.51164243560379 134.08838445746005 0 134.08838445746005 41.266820967866806 0 0 0 0 40.107773823934338 101.22530732681398 0 101.22530732681398 3.9839549208133214 0 0 0 0 33.994056690149591 109.68208694969508 0 109.68208694969508 -31.292534742657153 0 0 0 0 53.600226755958687 139.39829744840094 0 139.39829744840094 16.645755155400138 0 0 0 0 73.960327036380477 202.0390656028394 0 202.0390656028394 211.81091840042791 0 0 0 0 190.41245600763068 174.76480662661925 0 174.76480662661925 215.09278309565343 0 0 0 0 221.7845565892203 104.25340851199871 0 104.25340851199871 276.48151513312041 0 0 0 0 -87.669749692653568 112.65327978585083 0 112.65327978585083 148.91613207217597 0 0 0 0 -5.4570962388899886 25.972134468747953 0 25.972134468747953 2.6548266290486708 0 0 0 0 37.050050913296445 156.80362192521051 0 156.80362192521051 132.88357640696631 0 0 0 0 -0.051206703094067052 -22.809231521823676 0 -22.809231521823676 28.087187241719221 0 0 0 0 40.479564859342645 16.97142426505161 0 16.97142426505161 49.270059372851392 0 0 0 0 21.406338271175628 -9.0469111806596629 0 -9.0469111806596629 31.63402706492343 0 0 0 0 -74.382027022744296 -72.077790044852009 0 -72.077790044852009 -107.1467550098314 0 0 0 0 -53.107754471853696 27.780654039388537 0 27.780654039388537 27.716398596385261 0 0 0 0 23.556599326904688 -72.662493842399272 0 -72.662493842399272 -510.1083287836118 0 0 0 0 -145.7539198656832 41.186117722472773 0 41.186117722472773 111.38893257522432 0 0 0 0 -100.81164483686734 509.04439978924347 0 509.04439978924347 -836.48659001071792 0 0 0 0 19.849483927656365 206.76010793497881 0 206.76010793497881 -355.57650915460545 0 0 0 0 -30.742392963664315 208.5859693270977 0 208.5859693270977 -711.85452577633259 0 0 0 0 -43.592786493260064 356.7174847410206 0 356.7174847410206 -270.45474832234322 0 0 0 0 100.86979793387582 455.76891993881873 0 455.76891993881873 -688.96395072844462 0 0 0 0 -467.89249974324775 708.98539807807538 0 708.98539807807538 -786.86432133767812 0 0 0 0 -2.7747827187585585 5.5829866968142738 0 5.5829866968142738 -12.40670641846026 0 0 0 0 -225.6680463189623 699.00317904258918 0 699.00317904258918 -873.97242326344713 0 0 0 0 -660.98210209250283 759.18194252880994 0 759.18194252880994 126.25259620620636 0 0 0 0 -612.2359321697777 117.19065307983055 0 117.19065307983055 303.02171885763528 0 0 0 0 -45.908588526915992 253.97044162290695 0 253.97044162290695 331.10508516337359 0 0 0 0 143.87468212053864 279.99389875030465 0 279.99389875030465 95.771330383460736 0 0 0 0 499.65258900339541 125.14951962699706 0 125.14951962699706 130.60374714857608 0 0 0 0 439.95617507215684 827.11932100231934 0 827.11932100231934 -1144.4753358428716 0 0 0 0 -522.06290679497033 379.56656920932073 0 379.56656920932073 1134.4261520639848 0 0 0 0 -442.13184042482317 739.28226808553518 0 739.28226808553518 1142.4024119156675 0 0 0 0 -398.31679162877845 274.48394076694967 0 274.48394076694967 547.32216947703273 0 0 0 0 -272.2436516037269 673.09035253494221 0 673.09035253494221 504.44760805198348 0 0 0 0 277.17328670098505 98.338253010537301 0 98.338253010537301 -933.57382137799868 0 0 0 0 -2.1328150935206622 9.9969467761890485 0 9.9969467761890485 -6.3710554617119897 0 0 0 0 289.07692629727535 7.7529709576265304 0 7.7529709576265304 -323.81315441340121 0 0 0 0 -273.85014130227501 572.67061214093701 0 572.67061214093701 305.98511577760655 0 0 0 0 184.71089706485873 730.6897701226244 0 730.6897701226244 54.604525137372548 0 0 0 0 -6.9490028569828155 16.036687710668517 0 16.036687710668517 -9.7803461034214365 0 0 0 0 355.49843151003734 406.24805089618894 0 406.24805089618894 -182.428636452707 0 0 0 0 -88.597182005585637 60.711855147354072 0 60.711855147354072 640.76820719683019 0 0 0 0 223.99699105411128 401.38800112275931 0 401.38800112275931 -1135.3682934949356 0 0 0 0 31.265212318699923 950.4267839484819 0 950.4267839484819 -761.47017556146602 0 0 0 0 300.03849159400124 615.43110967082612 0 615.43110967082612 -968.10394637251738 0 0 0 0 240.49031198627199 427.17604892489544 0 427.17604892489544 -412.98038414039911 0 0 0 0 334.74859747462324 591.13338093299535 0 591.13338093299535 -999.28549175296212 0 0 0 0 -425.36156479180499 437.68739863562223 0 437.68739863562223 -938.44744974981586 0 0 0 0 -109.21862165936909 546.20721072426386 0 546.20721072426386 -456.55319494167634 0 0 0 0 97.229081627097912 510.3486369537859 0 510.3486369537859 -727.58328382730542 0 0 0 0 270.48776894813636 657.48611493167118 0 657.48611493167118 -857.38974800818687 0 0 0 0 49.077535636897665 581.27392439623691 0 581.27392439623691 -579.59140615857905 0 0 0 0 285.81023747671861 396.16291712953534 0 396.16291712953534 -953.76424868567665 0 0 0 0 277.96842291139546 529.18281919140099 0 529.18281919140099 -1731.1722225079866 0 0 0 0 -293.3244276241312 847.24865928077634 0 847.24865928077634 -862.0417720157202 0 0 0 0 -278.3541681055649 330.95897630445688 0 330.95897630445688 870.78988491113705 0 0 0 0 -1.67031724154225 9.6491710033461828 0 9.6491710033461828 -6.9111042452610434 0 0 0 0 488.49558253488067 323.11610454038237 0 323.11610454038237 -346.30846271170594 0 0 0 0 -198.84007055364782 460.56210581852065 0 460.56210581852065 -353.2653831376806 0 0 0 0 -297.9269461670192 636.22822070078109 0 636.22822070078109 -164.85101956993549 0 0 0 0 -188.44387502731843 151.72381090185445 0 151.72381090185445 -137.98001929692691 0 0 0 0 145.31253520289465 330.83865976090965 0 330.83865976090965 -486.78719213562727 0 0 0 0 37.551702898635995 358.40103391037883 0 358.40103391037883 -143.26126645462864 0 0 0 0 -75.912975908453689 162.66927783007677 0 162.66927783007677 41.352618521844789 0 0 0 0 109.49403866555076 319.44931725200877 0 319.44931725200877 -383.96540592816018 0 0 0 0 43.046818908653222 204.39243969290146 0 204.39243969290146 -195.54336769981091 0 0 0 0 123.44454902336656 111.4828923928297 0 111.4828923928297 5.3855538034343766 0 0 0 0 -105.89633441565093 287.09784656351803 0 287.09784656351803 410.83296274544045 0 0 0 0 -0.1942971643325393 22.258693660841736 0 22.258693660841736 2.0085831909086771 0 0 0 0 17.502378401376319 34.744342825246576 0 34.744342825246576 -71.853572374709472 0 0 0 0 110.10909563872761 188.64169864135869 0 188.64169864135869 33.461911814216805 0 0 0 0 373.61718418990495 358.53424227614414 0 358.53424227614414 -279.36128028596795 0 0 0 0 281.72022758769162 180.77330712737967 0 180.77330712737967 -539.74811916105682 0 0 0 0 -73.94781877121568 252.99858698601565 0 252.99858698601565 -213.42104753319109 0 0 0 0 -90.64922878149082 234.09123872839882 0 234.09123872839882 155.11874848325897 0 0 0 0 110.78912038274575 566.52064258621249 0 566.52064258621249 -0.96216037947942823 0 0 0 0 9.7079268790694186 322.55416971310751 0 322.55416971310751 -236.85206299134734 0 0 0 0 153.02431340154726 440.59478313609725 0 440.59478313609725 -399.78309103463835 0 0 0 0 242.69567559905045 308.9528473581413 0 308.9528473581413 -244.79890412085661 0 0 0 0 -62.885904541151831 393.81281675689934 0 393.81281675689934 -139.78916023583588 0 0 0 0 -14.932751213840675 421.52880503164033 0 421.52880503164033 -373.61345041327513 0 0 0 0 -9.9908784821818699 429.6275492795121 0 429.6275492795121 -539.08750439868163 0 0 0 0 -200.44937403171207 537.46990508941235 0 537.46990508941235 -336.95901806144593 0 0 0 0 -16.768906683821115 451.96636077251242 0 451.96636077251242 -382.94217992107406 0 0 0 0 25.708698757607635 471.75943198133791 0 471.75943198133791 -482.03639922940056 0 0 0 0 -7.5753171504184138 364.19670922620207 0 364.19670922620207 -310.00115333108988 0 0 0 0 -43.493110072478885 399.05830891533606 0 399.05830891533606 -289.68551816411491 0 0 0 0 80.030919130738766 393.7046135514438 0 393.7046135514438 -244.36446017108028 0 0 0 0 -71.324736092850799 185.71722978698017 0 185.71722978698017 8.4118676625366788 0 0 0 0 53.059593675518045 66.907905280632804 0 66.907905280632804 -33.619779361346446 0 0 0 0 53.866838673276362 82.918993840254487 0 82.918993840254487 34.308084200957509 0 0 0 0 -143.37188546275866 301.98879406157539 0 301.98879406157539 -98.245006420733262 0 0 0 0 12.465358144414495 177.7463775083047 0 177.7463775083047 -145.09251927796504 0 0 0 0 -132.10441791168705 105.30425678869869 0 105.30425678869869 280.88975798343017 0 0 0 0 -42.276111706829397 151.59373666932515 0 151.59373666932515 45.967641554561851 0 0 0 0 -15.599846612429246 121.78636160455062 0 121.78636160455062 54.679426741450243 0 0 0 0 -23.106571352298488 95.954004693807292 0 95.954004693807292 25.643713735978963 0 0 0 0 0.87649998274002883 66.93594750464456 0 66.93594750464456 29.90331714371041 0 0 0 0 8.4852166642701263 60.160609388848599 0 60.160609388848599 54.790548902659708 0 0 0 0 -60.157146057814145 126.69065788149157 0 126.69065788149157 -5.0677417386949628 0 0 0 0 -116.5911276336119 123.05749168017428 0 123.05749168017428 -232.34667946374611 0 0 0 0 -161.90755128261844 178.00371403307963 0 178.00371403307963 50.342607722122921 0 0 0 0 -182.45340320636024 11.750115656977187 0 11.750115656977187 -17.325733702426078 0 0 0 0 -546.90879233524902 189.96671227353727 0 189.96671227353727 32.327718295027807 0 0 0 0 -618.12669318861299 115.2355749831413 0 115.2355749831413 300.79931681624294 0 0 0 0 -700.66481889713759 255.49394563492069 0 255.49394563492069 198.90142597559316 0 0 0 0 -699.06024428419187 240.56180901290645 0 240.56180901290645 140.21847311693637 0 0 0 0 375.87108859451837 440.7267659118661 0 440.7267659118661 -232.76264812068985 0 0 0 0 318.15984919556649 -722.83904230863482 0 -722.83904230863482 -982.17866742965998 0 0 0 0 -626.75923865384539 968.06073033068424 0 968.06073033068424 -407.55270152360026 0 0 0 0 -16.216018918178634 1.516119032749657 0 1.516119032749657 -0.35847751465256295 0 0 0 0 -507.42092834626965 -355.48460941907069 0 -355.48460941907069 244.41251099437795 0 0 0 0 -1568.36756108806 165.89136370818233 0 165.89136370818233 325.76824407717504 0 0 0 0 -404.78849168977467 1236.8450725150524 0 1236.8450725150524 -1560.1827381612029 0 0 0 0 664.72383293128223 -150.6134564209533 0 -150.6134564209533 -119.6588501376209 0 0 0 0 -577.17813136428595 -426.09419557093497 0 -426.09419557093497 1246.9434693592411 0 0 0 0 -907.28105469196453 -962.34400996360455 0 -962.34400996360455 510.43979632391347 0 0 0 0 -128.0336415031544 132.1650458814737 0 132.1650458814737 27.125600714594306 0 0 0 0 -331.89995904377429 293.95168391722837 0 293.95168391722837 -1180.0187512150369 0 0 0 0 -91.679072199796792 301.34847440458543 0 301.34847440458543 -1431.4661700784345 0 0 0 0 -184.5093762036413 192.9972988829395 0 192.9972988829395 -1188.3325358342263 0 0 0 0 -156.17507779358129 459.77579790745949 0 459.77579790745949 -938.44849837892434 0 0 0 0 -122.82303129272668 136.1843682802249 0 136.1843682802249 29.046778733962775 0 0 0 0 -266.59527130132119 425.52098970887891 0 425.52098970887891 -689.99833517341176 0 0 0 0 -203.3024247637295 342.22525314953236 0 342.22525314953236 -490.63857472961536 0 0 0 0 -741.81685780009138 566.13407219446162 0 566.13407219446162 431.26034894600889 0 0 0 0 -51.883604593655548 9.434806763698532 0 9.434806763698532 12.837379631389958 0 0 0 0 70.296261698822491 913.0854419054067 0 913.0854419054067 -1352.7018752000877 0 0 0 0 -297.44996885833098 -415.14179882370081 0 -415.14179882370081 1134.9466547484863 0 0 0 0 168.3380237471938 445.42783112360121 0 445.42783112360121 -838.40757337388641 0 0 0 0 55.122098906314932 178.79207542238873 0 178.79207542238873 -265.81569651691825 0 0 0 0 46.630312200308538 88.476060588281712 0 88.476060588281712 35.788854332808768 0 0 0 0 117.37043397359957 -11.811560872019982 0 -11.811560872019982 -601.35824688237335 0 0 0 0 -836.01163419045042 776.84074442133715 0 776.84074442133715 -910.20152720768237 0 0 0 0 -10.07220677157909 8.9301857171941492 0 8.9301857171941492 6.1614955437524372 0 0 0 0 128.16967403507442 335.21471609661967 0 335.21471609661967 -533.36272023961646 0 0 0 0 -101.91386372132473 141.66009903301838 0 141.66009903301838 28.920246297502562 0 0 0 0 -744.10312224764493 558.48181453011421 0 558.48181453011421 720.4244659275837 0 0 0 0 -212.88255276538257 316.23368345299241 0 316.23368345299241 -553.95614115451644 0 0 0 0 -188.70003628200357 535.90539511929092 0 535.90539511929092 -457.64985674637137 0 0 0 0 -182.41449977490993 508.28839821145812 0 508.28839821145812 -543.12152505882477 0 0 0 0 -247.1877640394523 630.79289992545455 0 630.79289992545455 -611.59040276732412 0 0 0 0 -466.62526024129693 321.94845220068783 0 321.94845220068783 -519.25431783370732 0 0 0 0 -58.490257970945095 378.90498702729383 0 378.90498702729383 -891.07393797247641 0 0 0 0 15.343775844477932 280.37623919463658 0 280.37623919463658 -520.62298655392078 0 0 0 0 -77.398231174865941 297.23638574768302 0 297.23638574768302 -429.77373363971128 0 0 0 0 57.378552717724233 45.743599612724211 0 45.743599612724211 -344.85879257588385 0 0 0 0 117.4479551519762 242.45345222250035 0 242.45345222250035 -601.45611312527035 0 0 0 0 -74.402429578025476 207.34046161536389 0 207.34046161536389 -276.97434985454311 0 0 0 0 525.0989405298169 107.90801284415284 0 107.90801284415284 -347.32075298347627 0 0 0 0 -0.090962838017730974 117.36224351398414 0 117.36224351398414 -389.30968736197974 0 0 0 0 8.2901552080306971 -2.9673530132182293 0 -2.9673530132182293 -0.21740403176494283 0 0 0 0 9.1926017090486312 7.7571577040011945 0 7.7571577040011945 -3.6443962717342515 0 0 0 0 -42.703132013441063 150.68849822867924 0 150.68849822867924 -364.99862561016926 0 0 0 0 -4.4774653606873471 117.52952252207615 0 117.52952252207615 256.0914801962499 0 0 0 0 29.852510986718698 173.24350272052834 0 173.24350272052834 -115.75468164791528 0 0 0 0 37.029977719706949 131.67857035771885 0 131.67857035771885 57.21528032651986 0 0 0 0 42.776592859852826 118.33149619495089 0 118.33149619495089 -389.83021868404467 0 0 0 0 23.091165065387031 138.51048226694547 0 138.51048226694547 -334.53444225534622 0 0 0 0 20.529092576784024 118.435360557698 0 118.435360557698 -279.5200062677759 0 0 0 0 79.05118379171472 148.96298373726313 0 148.96298373726313 -358.64525759810931 0 0 0 0 12.199044170789421 167.94510691051255 0 167.94510691051255 -363.96265985473292 0 0 0 0 190.2212050765811 -36.060140521825815 0 -36.060140521825815 -59.839742415118963 0 0 0 0 44.060419734960306 198.50939952998306 0 198.50939952998306 -201.43090603606834 0 0 0 0 102.81190700059233 233.94559212745662 0 233.94559212745662 -200.73944028592086 0 0 0 0 0.2541855292438413 306.28597275198445 0 306.28597275198445 -393.26587297445803 0 0 0 0 74.113387014833279 306.02640502015129 0 306.02640502015129 -306.67532446383848 0 0 0 0 87.123647704254836 262.94563900329376 0 262.94563900329376 -168.54278187031741 0 0 0 0 -153.66868089025957 367.79851264799072 0 367.79851264799072 -253.39346652537643 0 0 0 0 -127.38718231963867 369.70774966860336 0 369.70774966860336 -425.42657931116992 0 0 0 0 -147.58736928626604 550.58826976645105 0 550.58826976645105 -616.53353450106806 0 0 0 0 -37.870973373806919 343.00896346612717 0 343.00896346612717 -145.72775230259867 0 0 0 0 -0.59829818329308182 405.04415251582395 0 405.04415251582395 -60.574632257339545 0 0 0 0 -0.044461947429226711 347.86289157706778 0 347.86289157706778 -437.6567685220507 0 0 0 0 21.563108088856097 420.49372309827595 0 420.49372309827595 -202.99480920331553 0 0 0 0 -214.83421287959936 385.16655692866698 0 385.16655692866698 -343.51007817301434 0 0 0 0 -45.339349033107283 605.90904696828511 0 605.90904696828511 -729.02493768201384 0 0 0 0 -118.40873113067937 260.2320280646818 0 260.2320280646818 73.012701202969765 0 0 0 0 -98.309236295917799 300.87657957433476 0 300.87657957433476 -1274.393859109492 0 0 0 0 -15.702725175246997 27.906374781028205 0 27.906374781028205 -5.4564890563175936 0 0 0 0 -35.556499126687413 144.50512194580369 0 144.50512194580369 -336.07590944723779 0 0 0 0 -12.729757996663853 8.9976848425059188 0 8.9976848425059188 0.31161390684349044 0 0 0 0 -22.731790353311226 168.802141303604 0 168.802141303604 -427.79102949867956 0 0 0 0 -269.87687693734188 226.60333818220533 0 226.60333818220533 -59.460009817907121 0 0 0 0 -335.82163824903546 233.32697492382113 0 233.32697492382113 -315.60885793500347 0 0 0 0 -216.79377463104902 44.225226740265498 0 44.225226740265498 -194.0827053480316 0 0 0 0 -83.003878368763253 157.7988612564659 0 157.7988612564659 -128.55541560385609 0 0 0 0 -105.67450966010801 135.20529713350697 0 135.20529713350697 -150.67928653256968 0 0 0 0 -77.565091269963887 321.55309704440879 0 321.55309704440879 -47.06036752689397 0 0 0 0 82.879853867008933 48.564079624935403 0 48.564079624935403 -150.13370394171216 0 0 0 0 -116.20014748902759 31.248587684749509 0 31.248587684749509 -110.78442966315197 0 0 0 0 -69.572416387760313 191.87023474520538 0 191.87023474520538 -222.75121292802942 0 0 0 0 -17.634318357042503 90.798091153323185 0 90.798091153323185 -35.129419175194926 0 0 0 0 41.847313620703062 43.701104913539893 0 43.701104913539893 -199.06194156160927 0 0 0 0 -3.054729465751393 -6.3295599617842981 0 -6.3295599617842981 -11.036394213853157 0 0 0 0 -574.3717593801266 230.8535977679494 0 230.8535977679494 -42.038508959900355 0 0 0 0 274.50017975727678 -65.203540387243265 0 -65.203540387243265 -44.2209480332167 0 0 0 0 13.163169156585354 -20.6212334332522 0 -20.6212334332522 19.763045745254203 0 0 0 0 22.444652676364058 220.01295617933647 0 220.01295617933647 -136.99558367076679 0 0 0 0 154.5287360457005 108.77471555919328 0 108.77471555919328 -124.94087098171349 0 0 0 0 214.39085881895153 83.546440607271506 0 83.546440607271506 -108.84675828347463 0 0 0 0 -3.2911391816551827 -2.1645870846497246 0 -2.1645870846497246 -1.2788118775430348 0 0 0 0 -639.94790068685143 822.96222418737216 0 822.96222418737216 -423.24069105435046 0 0 0 0 596.44442604924552 117.03300931404374 0 117.03300931404374 -535.83937463784241 0 0 0 0 588.02546094918216 -379.32617002100596 0 -379.32617002100596 32.819405497360322 0 0 0 0 118.61312411572726 62.46504908650968 0 62.46504908650968 19.589033629308688 0 0 0 0 196.88074416083691 62.16131990807844 0 62.16131990807844 -399.04757707248791 0 0 0 0 -525.57352995507244 174.84025986460711 0 174.84025986460711 20.592255071649561 0 0 0 0 48.79442659386217 40.536925074104659 0 40.536925074104659 -38.487303435193041 0 0 0 0 -161.89918734796811 -252.95354991832573 0 -252.95354991832573 39.65475532386472 0 0 0 0 170.96938083632267 -75.151321998433559 0 -75.151321998433559 128.8272337410599 0 0 0 0 -83.234637007903075 -159.65087080093508 0 -159.65087080093508 236.43162961494818 0 0 0 0 476.82814799183689 393.41867564609856 0 393.41867564609856 -827.94514908836572 0 0 0 0 0.12854578318806631 2.8181366996882957 0 2.8181366996882957 -7.4459114717602688 0 0 0 0 -0.23297467303927988 21.898488868748245 0 21.898488868748245 -50.852672725195589 0 0 0 0 -99.609974184451858 174.96391849611609 0 174.96391849611609 -278.54127953978605 0 0 0 0 -269.41436383975088 -79.08614641668828 0 -79.08614641668828 3.9930536043684697 0 0 0 0 315.09672045704792 40.108278201470966 0 40.108278201470966 -147.36620408645103 0 0 0 0 38.190542886208277 -118.18792603906331 0 -118.18792603906331 135.80147855710675 0 0 0 0 62.478532568449737 5.9019585228443248 0 5.9019585228443248 -97.743216001312248 0 0 0 0 211.10110952728428 -177.97293327331136 0 -177.97293327331136 -30.052621775445004 0 0 0 0 40.995182389701483 28.913345313395382 0 28.913345313395382 -62.44208331920251 0 0 0 0 -13.78617965382 23.064917124480417 0 23.064917124480417 -45.702988813867705 0 0 0 0 -0.62924700361862662 4.636807749856473 0 4.636807749856473 -22.432686652832842 0 0 0 0 21.652211592911044 -77.257862790233048 0 -77.257862790233048 37.800476325377531 0 0 0 0 0.033342188733513467 6.9162572999885015 0 6.9162572999885015 -29.003945310592826 0 0 0 0 192.24340704886708 68.273774678564223 0 68.273774678564223 -7.3933124250906985 0 0 0 0 12.222808550432092 488.50700970699836 0 488.50700970699836 -343.47723982027674 0 0 0 0 44.745534655812662 -78.765452875348274 0 -78.765452875348274 -120.42948074388551 0 0 0 0 -11.746897495357132 -8.0690270199825136 0 -8.0690270199825136 -24.243625121495825 0 0 0 0 146.39387191805145 193.7877954392643 0 193.7877954392643 -332.38756471131637 0 0 0 0 30.519134221879654 31.126650746081737 0 31.126650746081737 -85.405697364021705 0 0 0 0 -24.647572447254788 527.74267645814689 0 527.74267645814689 -275.7877922297921 0 0 0 0 -424.4654361292487 -31.91314786602743 0 -31.91314786602743 -196.17956807222799 0 0 0 0 7.9518596046982566 -2.6750272806129942 0 -2.6750272806129942 -56.787483728534426 0 0 0 0 145.92461405554786 -87.615969134047191 0 -87.615969134047191 -41.738698558205215 0 0 0 0 10.658336596507496 -7.145625880001603 0 -7.145625880001603 -37.366894164890482 0 0 0 0 0.017981941360631026 16.045274976177097 0 16.045274976177097 -91.19847883714101 0 0 0 0 1.7743055934552103 23.149400321301073 0 23.149400321301073 -72.934739182412159 0 0 0 0 24.992704518606104 25.473134227468819 0 25.473134227468819 -92.531490588478533 0 0 0 0 -136.57241501793033 250.68255172984209 0 250.68255172984209 -44.85591989938257 0 0 0 0 -25.730967911467417 22.651614905348652 0 22.651614905348652 -1.4427819141214115 0 0 0 0 -23.773310540471869 37.22477161476138 0 37.22477161476138 -41.46440487800902 0 0 0 0 -48.175634375966183 52.695412499052054 0 52.695412499052054 -57.559264664130751 0 0 0 0 -5.1831090547654526 46.099826083737895 0 46.099826083737895 -63.761029279593913 0 0 0 0 -17.600451096631616 68.496207907357814 0 68.496207907357814 -44.813122286081011 0 0 0 0 -23.228133139316924 53.398114774556234 0 53.398114774556234 -43.823358290654141 0 0 0 0 -43.697953489678071 35.07301266701478 0 35.07301266701478 -16.215151537744802 0 0 0 0 9.992912202138541 21.039002618919312 0 21.039002618919312 -50.48164362332318 0 0 0 0 8.1169847848590848 16.388419250786797 0 16.388419250786797 -59.265217134344482 0 0 0 0 11.068749662023038 22.920985869015567 0 22.920985869015567 -48.317480385710951 0 0 0 0 -84.491341478191316 59.750173931766767 0 59.750173931766767 -1.6450370216625743 0 0 0 0 -57.83050542123965 54.890476259140996 0 54.890476259140996 -52.998265179525333 0 0 0 0 -8.1234811729365219 20.310723550361672 0 20.310723550361672 -48.267003407303505 0 0 0 0 -0.07710537250386551 28.721007796280901 0 28.721007796280901 -35.196246554885875 0 0 0 0 -84.383219347073464 80.38866931146049 0 80.38866931146049 20.12955163983861 0 0 0 0 -17.178670527006034 66.841012544380646 0 66.841012544380646 -113.90859580421966 0 0 0 0 -3.1131914827691887 41.141054463613671 0 41.141054463613671 -45.949357089254448 0 0 0 0 -10.284431938255295 16.314488876052451 0 16.314488876052451 -12.783839455284749 0 0 0 0 -115.85616369161289 111.93724794505033 0 111.93724794505033 -91.709474914066959 0 0 0 0 -93.413508175581228 54.343700672652631 0 54.343700672652631 -39.788588207040448 0 0 0 0 -91.927438891725615 65.033817143063061 0 65.033817143063061 7.8786920579150319 0 0 0 0 -34.787406857206463 45.803659537825553 0 45.803659537825553 -58.536130669126642 0 0 0 0 -70.92701375298202 91.906357576604933 0 91.906357576604933 -44.9788939167629 0 0 0 0 -0.36557317962115121 5.8910555754690677 0 5.8910555754690677 -8.8115052564561438 0 0 0 0 -31.490264394495171 94.863967571978719 0 94.863967571978719 -136.64633534436507 0 0 0 0 -253.2340380300011 122.1920751884827 0 122.1920751884827 92.159701733391557 0 0 0 0 8.0593132847500897 48.565309660823488 0 48.565309660823488 -18.149841890133558 0 0 0 0 -45.723387994112272 198.24968116601303 0 198.24968116601303 64.371759617846692 0 0 0 0 -21.741983916798972 46.52257398620867 0 46.52257398620867 10.298202164333929 0 0 0 0 11.71691351258778 51.66558123849245 0 51.66558123849245 -268.82895449339412 0 0 0 0 -112.03082282799005 280.21015259887645 0 280.21015259887645 -280.11963718262996 0 0 0 0 -48.588556091621285 72.877593383571366 0 72.877593383571366 -55.961637110245647 0 0 0 0 -17.483728713006712 113.8342836170923 0 113.8342836170923 -90.608862712282644 0 0 0 0 4.8176834973724922 31.253969594095963 0 31.253969594095963 -81.511497169716051 0 0 0 0 -423.24751284738886 190.93825795964221 0 190.93825795964221 240.9530402214441 0 0 0 0 -343.60214700328652 -82.381572616410267 0 -82.381572616410267 268.81840588360501 0 0 0 0 -101.61238634146866 348.47304690771125 0 348.47304690771125 -1591.7023790522362 0 0 0 0 175.96820554416627 471.9575941592193 0 471.9575941592193 -1071.5532629108711 0 0 0 0 -16.563782146979328 102.16234278628372 0 102.16234278628372 -94.619449741418634 0 0 0 0 -100.74348236939176 19.895672682757493 0 19.895672682757493 16.286459424616609 0 0 0 0 69.487667137640528 946.40822573615878 0 946.40822573615878 33.477017637909739 0 0 0 0 -637.12479179620277 19.682558175802114 0 19.682558175802114 794.04373047192348 0 0 0 0 736.86016466948786 1518.1617965767546 0 1518.1617965767546 -921.75238649526727 0 0 0 0 -28.758334318750158 35.00640160864134 0 35.00640160864134 85.409676488635796 0 0 0 0 -5.6559061296384243 35.326695025157107 0 35.326695025157107 1.2238048470252849 0 0 0 0 -2236.0327055433299 -861.9440017118759 0 -861.9440017118759 699.60761586367153 0 0 0 0 -1980.5320981961559 993.96339611322765 0 993.96339611322765 1475.8105952672868 0 0 0 0 -2190.8684538714197 926.13561324096531 0 926.13561324096531 1846.2538781659096 0 0 0 0 -93.660422927845502 2328.2578047326824 0 2328.2578047326824 -1167.1227972766937 0 0 0 0 -0.21733462215905774 -6.6866941036478806 0 -6.6866941036478806 -14.023116442168885 0 0 0 0 -137.69348551979056 -469.44125227132463 0 -469.44125227132463 615.2226813120451 0 0 0 0 210.23640649043955 -111.05568054445757 0 -111.05568054445757 29.038266238305368 0 0 0 0 -1724.0035990604811 712.40749669709476 0 712.40749669709476 144.17307479178999 0 0 0 0 212.94454363416298 753.44002664735308 0 753.44002664735308 -2082.5801730833591 0 0 0 0 133.00781579441536 763.63706203359925 0 763.63706203359925 493.0247248490632 0 0 0 0 4.2119069966210709 9.6878058272486669 0 9.6878058272486669 33.785887947801541 0 0 0 0 2750.0597563060583 198.21437160062851 0 198.21437160062851 -688.9381891494304 0 0 0 0 338.50797168415738 893.81336307634774 0 893.81336307634774 141.9763915813528 0 0 0 0 325.2704678578375 820.39231896281672 0 820.39231896281672 -251.59424433988897 0 0 0 0 -1952.6246166000201 1168.5816978344228 0 1168.5816978344228 -80.428930037705868 0 0 0 0 -2112.8740257626923 189.36456399499912 0 189.36456399499912 -361.37800924408657 0 0 0 0 -1441.1997821048135 547.76808503527354 0 547.76808503527354 -243.00018168279348 0 0 0 0 0.046209385298425332 27.889808816635195 0 27.889808816635195 -27.178424873316544 0 0 0 0 -15.812928308244537 7.1715997514862693 0 7.1715997514862693 -8.2747472755717695 0 0 0 0 -635.81508558097994 193.00728018410882 0 193.00728018410882 -893.50720230573643 0 0 0 0 -94.164448271258152 39.319748692621943 0 39.319748692621943 3.9056566466824734 0 0 0 0 -113.91229179459333 28.890412184216984 0 28.890412184216984 26.33740846348519 0 0 0 0 -46.144024413492843 4.2660858189560145 0 4.2660858189560145 -20.871735944457598 0 0 0 0 -8.1244299967606253 10.568551846971701 0 10.568551846971701 -13.576410803849328 0 0 0 0 0.12297456010769992 31.830852170615316 0 31.830852170615316 -20.149621231538532 0 0 0 0 -2.2429064798872744 37.203796360042844 0 37.203796360042844 -0.40189548250415896 0 0 0 0 -71.119094575886265 4.7806720810694969 0 4.7806720810694969 -65.721651291940361 0 0 0 0 -0.18702983510794666 33.922118565392992 0 33.922118565392992 -25.450755952202599 0 0 0 0 -4.3185319328185869 31.559587406965875 0 31.559587406965875 -26.259552608906233 0 0 0 0 -1563.0777712087947 1030.034144947258 0 1030.034144947258 -256.90349778234668 0 0 0 0 -36.118605142729166 -22.017235595870574 0 -22.017235595870574 -20.295384122104139 0 0 0 0 -162.0657867960399 -69.694518511598289 0 -69.694518511598289 112.56632612124668 0 0 0 0 133.83270920059294 480.83361304265418 0 480.83361304265418 496.36209451522154 0 0 0 0 1.2275508285895949 1186.4436238516694 0 1186.4436238516694 2037.0438391865755 0 0 0 0 -392.65577032064903 230.03930978400604 0 230.03930978400604 1558.0887907018114 0 0 0 0 -437.1831313092116 432.46974414255237 0 432.46974414255237 999.77441096820985 0 0 0 0 -316.70640141953481 393.70245369838085 0 393.70245369838085 627.95211851246495 0 0 0 0 -209.52280471901031 670.26842649011041 0 670.26842649011041 -71.183182144581224 0 0 0 0 -529.90711281009135 361.52450931711792 0 361.52450931711792 623.6377514697233 0 0 0 0 -239.44996891231858 487.36789702350507 0 487.36789702350507 483.11220764347672 0 0 0 0 -108.14053540772147 900.71798964510526 0 900.71798964510526 788.36668989670579 0 0 0 0 -8.2753042225376703 828.02871800096182 0 828.02871800096182 -268.90602325243526 0 0 0 0 -344.39153887581779 571.23005582013866 0 571.23005582013866 -117.94033032853622 0 0 0 0 47.924138886475703 744.74415837065681 0 744.74415837065681 -1161.3519146001636 0 0 0 0 23.89800510443456 860.70828677969257 0 860.70828677969257 -261.61359301271841 0 0 0 0 182.05812766193412 896.21270344850564 0 896.21270344850564 -969.17372607179277 0 0 0 0 -151.24212271676515 549.3136741875569 0 549.3136741875569 528.46962862663713 0 0 0 0 0.049804226859123446 1200.6179992626094 0 1200.6179992626094 -76.384272143441194 0 0 0 0 52.170987111443537 694.71022424473449 0 694.71022424473449 -806.53460647536849 0 0 0 0 -125.03268786889385 802.78497495297779 0 802.78497495297779 -813.95254839669406 0 0 0 0 -0.47909383865771815 1160.3673524455007 0 1160.3673524455007 -1571.1708805529124 0 0 0 0 -66.360565286951896 1036.5968457721056 0 1036.5968457721056 -1014.0115749941178 0 0 0 0 178.63113075037836 681.52140208389028 0 681.52140208389028 -1613.9640622720326 0 0 0 0 160.87565638394153 290.49841058237598 0 290.49841058237598 -932.07730118517065 0 0 0 0 209.67761225170398 51.976926289826224 0 51.976926289826224 -3166.1025949023096 0 0 0 0 -6.808817338895949 2.3600359471960246 0 2.3600359471960246 -3.2572410252198551 0 0 0 0 0.24124724028637848 117.79759975018271 0 117.79759975018271 -295.08130039281968 0 0 0 0 -295.52713147393661 194.00602251394594 0 194.00602251394594 629.30272401923139 0 0 0 0 -7.5836878670884857 14.643865483881868 0 14.643865483881868 -5.756615055275887 0 0 0 0 70.579005303123267 196.00523489018087 0 196.00523489018087 -1030.9284415516158 0 0 0 0 144.57787052883941 565.45919535088615 0 565.45919535088615 241.10096791379328 0 0 0 0 239.78261761255271 592.99745492103102 0 592.99745492103102 -306.21645600565535 0 0 0 0 53.120763349637855 -241.70644738631745 0 -241.70644738631745 -388.9399162921909 0 0 0 0 318.66025297394663 182.53905602727173 0 182.53905602727173 -607.18384455019259 0 0 0 0 177.65088609149097 -41.163543400121853 0 -41.163543400121853 -237.01850922112499 0 0 0 0 202.53716485327459 -85.635263594180287 0 -85.635263594180287 -28.642735757668561 0 0 0 0 112.53466795413442 -23.149633036267858 0 -23.149633036267858 -8.8188682424903959 0 0 0 0 145.5935636657814 78.240876157651655 0 78.240876157651655 -133.91138367745589 0 0 0 0 16.255157977359431 -13.489363432105193 0 -13.489363432105193 -3.0338179592328345 0 0 0 0 355.23057800070092 -68.987292313811849 0 -68.987292313811849 -107.59752763611323 0 0 0 0 244.02628741483204 113.79865109142338 0 113.79865109142338 171.803732619519 0 0 0 0 314.22021463082638 65.382957509777043 0 65.382957509777043 42.02235835857573 0 0 0 0 27.616643556244412 49.25748458563298 0 49.25748458563298 -18.531038134447613 0 0 0 0 86.836107373383129 97.613314511592762 0 97.613314511592762 -635.00997808128886 0 0 0 0 83.200057983864099 324.28659228108882 0 324.28659228108882 -592.83047786795942 0 0 0 0 -4.93571115002851 63.140501255686104 0 63.140501255686104 -235.49443058762699 0 0 0 0 11.559090152033605 120.97186172033253 0 120.97186172033253 -147.24688786209299 0 0 0 0 184.52873022420681 36.287491474555281 0 36.287491474555281 -231.06509792305587 0 0 0 0 18.58278709690785 291.80956150582642 0 291.80956150582642 16.395139419561019 0 0 0 0 -19.439043019461678 522.03741906551295 0 522.03741906551295 -402.90183396403881 0 0 0 0 46.536064996093046 407.66131256617518 0 407.66131256617518 -527.78011387475999 0 0 0 0 113.3311101742147 565.20285376766697 0 565.20285376766697 -961.08304968535958 0 0 0 0 153.17469822796556 720.38152045362585 0 720.38152045362585 -818.67583950207336 0 0 0 0 -110.79734085814562 941.12190209519031 0 941.12190209519031 -1002.7828833809108 0 0 0 0 -296.02628602510231 593.20355659132656 0 593.20355659132656 -585.2028579753387 0 0 0 0 -2.0758855448947742 -2.165876530808589 0 -2.165876530808589 -14.852578427753031 0 0 0 0 -313.90237702892045 -437.88018394316896 0 -437.88018394316896 -322.88956594748743 0 0 0 0 -49.461053213395644 -125.72755420062458 0 -125.72755420062458 -118.01458665892642 0 0 0 0 116.42009334936449 72.116087855733724 0 72.116087855733724 17.273690489889944 0 0 0 0 117.87350531110133 -20.228209009872444 0 -20.228209009872444 -300.94932924243039 0 0 0 0 17.508376374639539 5.8209406612369321 0 5.8209406612369321 -46.36897646167256 0 0 0 0 -56.003816169686615 518.15661011006159 0 518.15661011006159 -619.81105520629353 0 0 0 0 -449.27973499373184 455.83967392095656 0 455.83967392095656 -335.89554323059565 0 0 0 0 85.400242077710573 548.58530127631093 0 548.58530127631093 -347.5451693754876 0 0 0 0 3.2299582044361159 74.863495361394598 0 74.863495361394598 -116.50649962507305 0 0 0 0 194.74572122111567 47.461205580897513 0 47.461205580897513 -109.53228192940878 0 0 0 0 38.492574394499954 42.596331079728941 0 42.596331079728941 4.6984253048045161 0 0 0 0 -5.0578312207190947 16.26226870129932 0 16.26226870129932 3.4120820138054739 0 0 0 0 228.5779079789063 154.4867432401079 0 154.4867432401079 84.91353276494192 0 0 0 0 23.159499488654546 134.75209580329101 0 134.75209580329101 -6.6914296222676057 0 0 0 0 55.813130428068689 72.807271365507404 0 72.807271365507404 52.402144251878781 0 0 0 0 32.435201798639582 29.604228155914541 0 29.604228155914541 13.750333116291472 0 0 0 0 29.829240982915508 41.17405435431283 0 41.17405435431283 13.425794161787053 0 0 0 0 26.304842084442498 -0.18904795910202665 0 -0.18904795910202665 -85.192772034661175 0 0 0 0 81.120621084177401 23.777316787236487 0 23.777316787236487 19.319028266159876 0 0 0 0 55.767499101043839 14.492194283425732 0 14.492194283425732 1.1030749261989286 0 0 0 0 55.273375646797717 13.587475274678923 0 13.587475274678923 -8.7602826913145577 0 0 0 0 37.161742034601048 13.335127212791122 0 13.335127212791122 -16.479318583558779 0 0 0 0 91.485914140392651 20.381549777035815 0 20.381549777035815 -8.2744134954536719 0 0 0 0 148.37062848471214 24.572817838470201 0 24.572817838470201 62.758782814518781 0 0 0 0 163.38986475756974 80.478928346703469 0 80.478928346703469 -111.28040032452554 0 0 0 0 282.30471501107968 37.080753092363011 0 37.080753092363011 -297.46444665627496 0 0 0 0 3.2797580272308551 33.094896440186858 0 33.094896440186858 15.731169727921952 0 0 0 0 -107.33358590462012 -109.18130881131947 0 -109.18130881131947 248.96669423949788 0 0 0 0 8.8543494585256326 10.505593230138317 0 10.505593230138317 9.3260587732234512 0 0 0 0 345.06210462376475 -163.91374131722114 0 -163.91374131722114 93.906640753230022 0 0 0 0 790.96067404063069 176.92831127075624 0 176.92831127075624 -118.9325624385383 0 0 0 0 976.38566951709799 899.01687591915106 0 899.01687591915106 -304.50542128628513 0 0 0 0 567.01123033218028 36.1877364900065 0 36.1877364900065 -1174.7574620674422 0 0 0 0 163.9055937918352 78.009209631798484 0 78.009209631798484 21.891021083880148 0 0 0 0 10.269066335473326 -198.96399248687158 0 -198.96399248687158 -257.82485565042589 0 0 0 0 482.71141287402133 138.75697894966288 0 138.75697894966288 -420.72630328573359 0 0 0 0 568.94467356045789 -577.0033055966851 0 -577.0033055966851 -266.78951703356142 0 0 0 0 2329.8631328322372 829.24697293061763 0 829.24697293061763 -147.60714962759812 0 0 0 0 0.48288713669586514 1.4468202787773521 0 1.4468202787773521 12.673413934586506 0 0 0 0 182.77685347531224 375.64845873056402 0 375.64845873056402 806.25972613274644 0 0 0 0 451.05538044351852 454.04742596351571 0 454.04742596351571 361.59323019610019 0 0 0 0 508.02576042041983 657.20020050377843 0 657.20020050377843 -157.39940459663922 0 0 0 0 274.37223428461584 -238.1783521237121 0 -238.1783521237121 -1082.8103729905852 0 0 0 0 -358.77189226678456 1335.616354232734 0 1335.616354232734 -686.12643483212014 0 0 0 0 -406.54114469364868 269.78800764488551 0 269.78800764488551 -1406.2075727417141 0 0 0 0 -1286.2336319016176 1386.9674506079027 0 1386.9674506079027 -1156.7093659014499 0 0 0 0 -1447.1367326949112 717.07259624303697 0 717.07259624303697 159.74045581025712 0 0 0 0 -506.74366858438589 1167.5975618996163 0 1167.5975618996163 135.58388037257464 0 0 0 0 -361.8333674314199 638.53521599960368 0 638.53521599960368 136.08836738676837 0 0 0 0 -632.3357477405516 802.0779097240229 0 802.0779097240229 487.52379234958789 0 0 0 0 -429.34555606904905 548.39858017332153 0 548.39858017332153 922.93837753258413 0 0 0 0 -171.1436804489058 561.9734270436893 0 561.9734270436893 579.44936761242207 0 0 0 0 -365.21813993797696 835.34613843368788 0 835.34613843368788 499.33472640134278 0 0 0 0 -192.48573773786484 950.31900800957374 0 950.31900800957374 417.97528211702593 0 0 0 0 -80.685973253974225 895.12882544448075 0 895.12882544448075 344.84571932726794 0 0 0 0 -325.25905451644212 821.85927951527992 0 821.85927951527992 333.20032208222256 0 0 0 0 -246.49503051163629 490.46232091000275 0 490.46232091000275 469.14018295497226 0 0 0 0 -777.93248784370371 619.41188654102734 0 619.41188654102734 486.40853803135542 0 0 0 0 -105.06814533154829 77.973622603560216 0 77.973622603560216 220.93422999452741 0 0 0 0 189.0019156220369 908.18162018265866 0 908.18162018265866 277.51687564580425 0 0 0 0 0.25736739757660132 4.4127549527360088 0 4.4127549527360088 39.683073678017195 0 0 0 0 972.0586063908886 535.67518606975409 0 535.67518606975409 243.54221826833964 0 0 0 0 201.6398069022398 752.36113883805956 0 752.36113883805956 364.66406722659303 0 0 0 0 71.237316670489236 -147.94366004311223 0 -147.94366004311223 -236.17604522616602 0 0 0 0 605.59574850659737 614.05347174852795 0 614.05347174852795 -69.569729948358145 0 0 0 0 -84.726098733038185 59.255355942757546 0 59.255355942757546 12.692437797605407 0 0 0 0 105.34691814992038 235.74671797984911 0 235.74671797984911 253.05133457103511 0 0 0 0 -428.22512195431045 199.75750872980279 0 199.75750872980279 8.4415442553108733 0 0 0 0 2.5906875066976909 1.6187101444329386 0 1.6187101444329386 -8.9481759470889415 0 0 0 0 -360.67073979432462 267.72736041338794 0 267.72736041338794 -313.63678297762817 0 0 0 0 -433.93613764436304 232.50011894565432 0 232.50011894565432 -107.89109124449897 0 0 0 0 -568.96260491013527 47.803702945588157 0 47.803702945588157 284.69679170293966 0 0 0 0 -67.783954382932279 -138.00910841565928 0 -138.00910841565928 -77.048131111092516 0 0 0 0 286.42250470531872 241.47437783765781 0 241.47437783765781 158.72271659404942 0 0 0 0 578.14717602706514 185.61552088049939 0 185.61552088049939 43.514805246551987 0 0 0 0 -163.90451288828626 758.44614183128579 0 758.44614183128579 521.71576245038887 0 0 0 0 31.459019167269275 67.868253228773511 0 67.868253228773511 -63.173756342339402 0 0 0 0 -625.73332632119127 562.84731248371008 0 562.84731248371008 580.72025108171511 0 0 0 0 573.27858987278887 247.56298578804126 0 247.56298578804126 -500.10324307298288 0 0 0 0 -150.29558324578102 99.025532047307934 0 99.025532047307934 75.995709556453221 0 0 0 0 -46.51862464279111 156.06417234863329 0 156.06417234863329 86.46367146621742 0 0 0 0 -169.61355321023439 -6.2097283890179824 0 -6.2097283890179824 42.349421426250046 0 0 0 0 -29.706660120241565 65.982319441687537 0 65.982319441687537 -26.65958550505934 0 0 0 0 -20.668186742259422 35.474361164597212 0 35.474361164597212 19.160894108124921 0 0 0 0 136.50296351365978 336.27438320072542 0 336.27438320072542 374.30299171492516 0 0 0 0 104.56386642178404 311.97454656014452 0 311.97454656014452 358.55740031434107 0 0 0 0 78.904538805916673 202.4254347114329 0 202.4254347114329 395.41297429346014 0 0 0 0 -25.216939083959602 31.159409214714032 0 31.159409214714032 -9.0760268503829025 0 0 0 0 3.2513069682537719 13.617942909736335 0 13.617942909736335 6.5838491191096296 0 0 0 0 16.780376650393009 71.501225198153406 0 71.501225198153406 52.954840240210615 0 0 0 0 3.8523802504396372 48.36217373852196 0 48.36217373852196 48.144385505234823 0 0 0 0 100.53024218167411 208.01437686941063 0 208.01437686941063 376.38423277076799 0 0 0 0 64.159573970686324 127.52533163552289 0 127.52533163552289 52.355282446776982 0 0 0 0 2.1463265247766685 65.366391580738764 0 65.366391580738764 54.991160589939682 0 0 0 0 37.262568628138979 48.272994917795586 0 48.272994917795586 34.927884994103806 0 0 0 0 39.936051295956361 51.877568397440314 0 51.877568397440314 21.151544048973136 0 0 0 0 117.32091193410452 243.80421385446971 0 243.80421385446971 173.19146076129982 0 0 0 0 72.702083202195354 109.43551076539006 0 109.43551076539006 53.267693153902655 0 0 0 0 -28.099605412185326 80.413421905082089 0 80.413421905082089 -4.722618068681129 0 0 0 0 310.59386198333232 67.983043025611551 0 67.983043025611551 -24.679345548574929 0 0 0 0 135.76769639982376 218.87104192050174 0 218.87104192050174 79.721211299125571 0 0 0 0 364.07615848691421 246.39320581826905 0 246.39320581826905 19.483731559157604 0 0 0 0 135.93171289641242 148.61063105462387 0 148.61063105462387 47.727510766171662 0 0 0 0 43.373131247135461 272.46710510645062 0 272.46710510645062 -46.620970556992688 0 0 0 0 159.15373446897138 19.215448226197623 0 19.215448226197623 -148.99244814034319 0 0 0 0 159.14031998158316 84.579382330324734 0 84.579382330324734 -45.534072202106472 0 0 0 0 88.418938535498455 2.3387318405148108 0 2.3387318405148108 -10.346888075582683 0 0 0 0 -13.317700072511798 -46.638380079311901 0 -46.638380079311901 206.78548890189268 0 0 0 0 96.452689585625194 88.437105892720865 0 88.437105892720865 64.981729833816644 0 0 0 0 77.153314886878746 66.463603010030141 0 66.463603010030141 11.705152646843914 0 0 0 0 143.33851278576185 -6.3751035277091432 0 -6.3751035277091432 80.564648612518795 0 0 0 0 81.462061030382756 133.20625639891659 0 133.20625639891659 95.691457744798754 0 0 0 0 129.40571861438366 211.19822943056352 0 211.19822943056352 -180.96308467088966 0 0 0 0 144.65329086483689 192.51787058678747 0 192.51787058678747 -158.45822001254419 0 0 0 0 256.94204265499138 189.29451820188115 0 189.29451820188115 69.709357552754227 0 0 0 0 6.5651860722006177 53.007439974501388 0 53.007439974501388 -29.336395368508761 0 0 0 0 18.078448299536831 376.5561754162336 0 376.5561754162336 -169.01914393364677 0 0 0 0 46.111331795327715 442.40046342390269 0 442.40046342390269 -18.472597649611998 0 0 0 0 294.36006993145566 542.85801872746379 0 542.85801872746379 230.52252261514877 0 0 0 0 259.82645129693265 297.58028464148811 0 297.58028464148811 124.92811120991246 0 0 0 0 8.1184682222665288 215.40258279902628 0 215.40258279902628 239.32624790641421 0 0 0 0 -91.925503395498424 73.779934029847752 0 73.779934029847752 68.544896905222231 0 0 0 0 -152.77414171169221 126.12777009737692 0 126.12777009737692 831.57892703537073 0 0 0 0 -12.169348057293462 15.9553068586265 0 15.9553068586265 19.061646895261049 0 0 0 0 -5.9850423714378849 526.2084556218615 0 526.2084556218615 336.75412316722213 0 0 0 0 92.373108072089963 85.468464030258474 0 85.468464030258474 -12.05491297635308 0 0 0 0 -98.144928658235585 25.37826742719335 0 25.37826742719335 38.151310414243198 0 0 0 0 -115.48428127524676 -2.3594332165084779 0 -2.3594332165084779 51.11327334467569 0 0 0 0 159.06783448692295 25.181679283399717 0 25.181679283399717 22.842258298092929 0 0 0 0 19.037504868095425 23.382491787431348 0 23.382491787431348 -5.2609897791051594 0 0 0 0 -366.57025808980688 250.57373998180265 0 250.57373998180265 -113.32968934194651 0 0 0 0 -89.825881350931013 59.967917448622757 0 59.967917448622757 -67.897388880966901 0 0 0 0 -1219.5505082377786 163.3741998499172 0 163.3741998499172 916.41785915078071 0 0 0 0 -1.3333344186248723 263.9028059579141 0 263.9028059579141 578.36797838841449 0 0 0 0 353.19189488195116 1025.1071891750325 0 1025.1071891750325 -39.282397920833318 0 0 0 0 -87.180806890770327 127.08789072066429 0 127.08789072066429 -57.872359426030016 0 0 0 0 501.85074800575967 654.12345663145243 0 654.12345663145243 -1151.0695486153563 0 0 0 0 139.00527280899405 9.1089986062797834 0 9.1089986062797834 -3.2577445294518839 0 0 0 0 187.51336101423078 82.356257994657426 0 82.356257994657426 22.837336074218271 0 0 0 0 70.882147657393944 -194.62313335631188 0 -194.62313335631188 -350.31332294931781 0 0 0 0 -372.35366393801814 -371.93756522312833 0 -371.93756522312833 924.28965057971072 0 0 0 0 510.59137732919771 694.35285829693748 0 694.35285829693748 510.88793078277376 0 0 0 0 54.015251581222401 242.48130591108929 0 242.48130591108929 69.005198513521464 0 0 0 0 49.757513048811234 290.35741429269547 0 290.35741429269547 -246.80016024476208 0 0 0 0 156.24601075950068 310.17713951814085 0 310.17713951814085 -252.41515755999717 0 0 0 0 151.44111554478877 538.53443931862421 0 538.53443931862421 -600.02697948547211 0 0 0 0 142.29704547376605 308.80183505658351 0 308.80183505658351 -357.87254758523341 0 0 0 0 393.35133850408602 475.2237179258027 0 475.2237179258027 -247.65681159353699 0 0 0 0 190.62688526686543 453.91807793179851 0 453.91807793179851 -1092.6481314337725 0 0 0 0 177.81018708992633 98.623671302477305 0 98.623671302477305 -751.80586129840231 0 0 0 0 165.59141013658154 379.06017260002 0 379.06017260002 -646.70326539441885 0 0 0 0 211.35412948596058 311.57657979398937 0 311.57657979398937 -744.76451030067983 0 0 0 0 119.80086046247743 75.069628801960789 0 75.069628801960789 -298.39961384556227 0 0 0 0 126.50760677538346 187.47406524352118 0 187.47406524352118 -626.19212569037336 0 0 0 0 25.774632410906634 -67.353884761461813 0 -67.353884761461813 -233.39445601994521 0 0 0 0 205.36648344995047 138.16936094110133 0 138.16936094110133 -79.295907792533399 0 0 0 0 140.60346306510621 154.88904439442942 0 154.88904439442942 -202.12038196832873 0 0 0 0 51.858984262071317 31.971657432899519 0 31.971657432899519 81.726636612133007 0 0 0 0 -131.22525674002827 371.44513627726701 0 371.44513627726701 281.30933617606934 0 0 0 0 184.29291512265831 98.265275576011931 0 98.265275576011931 24.380554838181098 0 0 0 0 158.74100543830718 371.36348251195886 0 371.36348251195886 -141.94265733742213 0 0 0 0 350.78747870097595 93.632519930323724 0 93.632519930323724 416.11855745018693 0 0 0 0 226.36094188235438 482.95456799348176 0 482.95456799348176 754.53586897256901 0 0 0 0 -15.289951608349043 44.149204628571738 0 44.149204628571738 22.923282823461335 0 0 0 0 -105.48192358907977 68.609652173357432 0 68.609652173357432 67.557435592134539 0 0 0 0 218.9275633727375 424.2531819568685 0 424.2531819568685 392.71403533301782 0 0 0 0 -14.024148184078172 13.869786731350999 0 13.869786731350999 -19.216716522304296 0 0 0 0 -561.17431907217542 -336.95241500133125 0 -336.95241500133125 456.76556400203845 0 0 0 0 -551.1838277020579 343.00208009686321 0 343.00208009686321 388.35245039209258 0 0 0 0 322.58450686512515 -111.26129041457898 0 -111.26129041457898 489.25329191682977 0 0 0 0 94.331397152665886 -125.43691751951701 0 -125.43691751951701 -754.59338167900569 0 0 0 0 1347.7726027140161 -172.4751408926968 0 -172.4751408926968 352.71371752704727 0 0 0 0 131.36936120822793 1087.2745393158548 0 1087.2745393158548 870.97351049929603 0 0 0 0 -41.09895130219229 125.69677169949136 0 125.69677169949136 -35.851317704567919 0 0 0 0 -403.04900551243918 73.36459691177879 0 73.36459691177879 792.63080939060092 0 0 0 0 -166.08162922549127 725.04846495460515 0 725.04846495460515 278.30903802928515 0 0 0 0 -367.11313035943749 461.05958713164 0 461.05958713164 -257.2500995798473 0 0 0 0 -1173.7989471928595 275.41750333791424 0 275.41750333791424 284.49900355475256 0 0 0 0 746.57685254953685 26.345856804618961 0 26.345856804618961 85.323349395999685 0 0 0 0 -1.6102921938930024 2.709316919617109 0 2.709316919617109 -5.575441772502586 0 0 0 0 914.5135669891024 487.99520104913972 0 487.99520104913972 220.6420987144611 0 0 0 0 571.34785434445075 925.83595050633448 0 925.83595050633448 48.583407850350341 0 0 0 0 172.1467100456648 289.66971507505332 0 289.66971507505332 -11.829672376785311 0 0 0 0 -1056.9475865702552 -715.3376920419978 0 -715.3376920419978 -84.55482206470333 0 0 0 0 15.60488525752163 34.288117122964678 0 34.288117122964678 -21.51926269116052 0 0 0 0 -91.537721740438428 137.59545809529482 0 137.59545809529482 151.18873718286341 0 0 0 0 154.32646954414668 -274.84687245206442 0 -274.84687245206442 -1113.4933413808467 0 0 0 0 -1176.0374960107911 748.63203014043575 0 748.63203014043575 -357.86141341649636 0 0 0 0 -1142.8423273461376 583.31603179290687 0 583.31603179290687 456.88295463292525 0 0 0 0 -2.5783372049466209 4.612472119911601 0 4.612472119911601 -18.587811720558506 0 0 0 0 -873.89596055390973 1083.9619526370743 0 1083.9619526370743 -1055.783862340817 0 0 0 0 -868.46505607663983 16.071759931707362 0 16.071759931707362 -1129.4060655237263 0 0 0 0 33.272070398379583 611.53436344560032 0 611.53436344560032 -1729.3120392335913 0 0 0 0 248.02071503580373 926.38976286901743 0 926.38976286901743 -1005.9374535360039 0 0 0 0 220.49184124238309 669.57929804225205 0 669.57929804225205 -575.63801476245862 0 0 0 0 221.85205612456411 605.65884882407045 0 605.65884882407045 -1241.8165420844452 0 0 0 0 -57.617211080869311 1044.486430443234 0 1044.486430443234 -1789.6485632279291 0 0 0 0 47.222665275174222 738.41954726629774 0 738.41954726629774 -901.18458314848249 0 0 0 0 441.44184140452126 684.23970618632302 0 684.23970618632302 -923.11566286868765 0 0 0 0 343.55490530405768 994.47202269027093 0 994.47202269027093 -835.74856441555312 0 0 0 0 247.82792496852926 886.93932733702241 0 886.93932733702241 -917.7026737464621 0 0 0 0 571.28427191528317 682.19429156935803 0 682.19429156935803 -619.32532205007738 0 0 0 0 453.36844337292132 986.46679529304674 0 986.46679529304674 -254.25655999945593 0 0 0 0 -50.663398238684749 976.12592849101202 0 976.12592849101202 -404.46147638365073 0 0 0 0 -113.33299753195752 193.69929063477321 0 193.69929063477321 -41.271120223187609 0 0 0 0 298.08979213569546 497.64279198385339 0 497.64279198385339 121.60011035311618 0 0 0 0 163.19769417525094 28.827613418143301 0 28.827613418143301 1435.7635547963873 0 0 0 0 791.55744696150941 732.39862834781525 0 732.39862834781525 208.74173339997287 0 0 0 0 721.50353743073356 -618.7888484522482 0 -618.7888484522482 -970.68273577932268 0 0 0 0 199.37705105507484 179.37640686381201 0 179.37640686381201 745.6839114734903 0 0 0 0 228.44106415253555 1006.0215556385592 0 1006.0215556385592 1177.921162387458 0 0 0 0 58.504376900181256 1.6933935959130935 0 1.6933935959130935 -6.3891396204636521 0 0 0 0 118.11374651379447 801.2243380246191 0 801.2243380246191 -232.5115799462219 0 0 0 0 -6.8746784481553576 5.985391606190646 0 5.985391606190646 13.527969702615678 0 0 0 0 825.05857015398215 429.70008267131925 0 429.70008267131925 -93.270770429495315 0 0 0 0 268.2030366811814 678.98464211133251 0 678.98464211133251 684.65578663766792 0 0 0 0 739.83527852082625 705.6065315128435 0 705.6065315128435 -216.94405061517318 0 0 0 0 400.37027488113381 300.17517811270955 0 300.17517811270955 732.40009741709218 0 0 0 0 356.79447594559315 -557.5461423323286 0 -557.5461423323286 -1332.088126165967 0 0 0 0 -273.00664062608848 -224.44067149158946 0 -224.44067149158946 -200.41594327469966 0 0 0 0 -199.96764918477857 1418.0023846756158 0 1418.0023846756158 2349.7364342322762 0 0 0 0 19.007747954879477 0.16119783614865923 0 0.16119783614865923 -1.2798501969944027 0 0 0 0 513.85458917304641 -321.26797949599859 0 -321.26797949599859 -1819.1460392958616 0 0 0 0 1226.8167839984526 1115.8780819278181 0 1115.8780819278181 445.22212646329717 0 0 0 0 -41.118161207748926 -73.099758142176142 0 -73.099758142176142 -1149.153157538618 0 0 0 0 -104.39700175900362 -128.6714903490938 0 -128.6714903490938 133.59354114055168 0 0 0 0 1034.8821331921936 -425.04314847396563 0 -425.04314847396563 676.33279881314957 0 0 0 0 -114.07274774773396 226.01755013559887 0 226.01755013559887 618.34065684868983 0 0 0 0 -654.82877769891638 883.16734160819033 0 883.16734160819033 1303.074264685165 0 0 0 0 -115.22470056040038 873.89936083275279 0 873.89936083275279 -894.27795994741609 0 0 0 0 -166.23602791910525 554.2430747669714 0 554.2430747669714 335.27075086687546 0 0 0 0 -81.850990292965434 678.84026233140321 0 678.84026233140321 -57.378581461933209 0 0 0 0 126.5575911604974 219.9507817972044 0 219.9507817972044 -825.07543580862693 0 0 0 0 149.47469077270944 137.34049843947287 0 137.34049843947287 -576.41390958955162 0 0 0 0 145.88483837986132 210.571663286275 0 210.571663286275 -386.70045272860443 0 0 0 0 72.806931673287181 612.54227654739225 0 612.54227654739225 -626.65247564256424 0 0 0 0 -543.57181906982441 233.37428514777275 0 233.37428514777275 -121.23533184555708 0 0 0 0 -502.45625893931538 115.17326326249713 0 115.17326326249713 26.096644550998462 0 0 0 0 1.6967450488300528 -71.450429638149217 0 -71.450429638149217 13.451103452156531 0 0 0 0 0.62727676960639656 -46.538802837589174 0 -46.538802837589174 -404.77339629415656 0 0 0 0 8.1053638287725676 15.768777258053149 0 15.768777258053149 2.8591635488356815 0 0 0 0 84.939165653195232 -27.186537741683424 0 -27.186537741683424 -251.15623262344161 0 0 0 0 28.817021797847701 212.89255429907644 0 212.89255429907644 -370.60165641695494 0 0 0 0 103.55553442248493 -85.562187023766455 0 -85.562187023766455 -474.50165083975298 0 0 0 0 -139.24271355924429 418.3937932763838 0 418.3937932763838 -1294.3892520060763 0 0 0 0 48.21280304089305 -97.542994183575502 0 -97.542994183575502 99.293428468721686 0 0 0 0 -379.10285914179985 396.25708911183756 0 396.25708911183756 -470.01926850209861 0 0 0 0 349.99240108024969 112.82672191934034 0 112.82672191934034 379.50564503553323 0 0 0 0 483.59443118560011 260.9267359746591 0 260.9267359746591 -461.21617195522413 0 0 0 0 15.892643779994813 6.3213051928678397 0 6.3213051928678397 2.8653926258175204 0 0 0 0 887.30124283611076 570.15099510076107 0 570.15099510076107 -557.29837525272865 0 0 0 0 725.99708142119925 -296.27448399713467 0 -296.27448399713467 -542.84361587668536 0 0 0 0 1594.8240417550842 1226.9908048970537 0 1226.9908048970537 133.48564029608679 0 0 0 0 -389.98796817679249 336.99347228145052 0 336.99347228145052 191.53709629120931 0 0 0 0 36.103528866100248 23.001091594622295 0 23.001091594622295 9.5986442162223682 0 0 0 0 135.95983000539127 160.12766215088777 0 160.12766215088777 258.83267245674506 0 0 0 0 -418.63718098187746 254.638304463042 0 254.638304463042 -22.731207883742172 0 0 0 0 52.231424092722591 23.613884930469794 0 23.613884930469794 313.04627483928925 0 0 0 0 102.0815755109943 181.24340969232435 0 181.24340969232435 365.60647323532612 0 0 0 0 48.680450885934988 169.87290245341137 0 169.87290245341137 376.12658169663337 0 0 0 0 -48.096770350195584 325.74818721115298 0 325.74818721115298 569.5103295122899 0 0 0 0 37.343886756425491 106.67894768108818 0 106.67894768108818 622.78167505279998 0 0 0 0 30.908038860623492 363.05112209137587 0 363.05112209137587 415.35952517090482 0 0 0 0 -60.785814726965327 160.1425029825914 0 160.1425029825914 1965.6512100617547 0 0 0 0 -41.255991686746711 17.098316397059534 0 17.098316397059534 674.27324171905639 0 0 0 0 -94.006101515900809 333.43798216843788 0 333.43798216843788 1070.1957638582971 0 0 0 0 346.00033006961166 695.21302236530755 0 695.21302236530755 474.61519570353266 0 0 0 0 964.6763600402337 1090.534641935672 0 1090.534641935672 962.19337995900423 0 0 0 0 359.88276315812254 341.69127571833087 0 341.69127571833087 142.99724389918265 0 0 0 0 1197.3822049762239 -196.54949282426969 0 -196.54949282426969 -108.93945578177227 0 0 0 0 189.42162863831618 -650.66517966237006 0 -650.66517966237006 285.8651972214866 0 0 0 0 -707.36016655043932 -485.6950294439157 0 -485.6950294439157 412.0634336425137 0 0 0 0 -16.303039287717262 39.565702167536273 0 39.565702167536273 -26.904714129604088 0 0 0 0 -58.898967820501639 58.141996063061015 0 58.141996063061015 -15.321992143988609 0 0 0 0 -343.84161139682692 321.58477645617495 0 321.58477645617495 -229.52207391169213 0 0 0 0 14.648613322070446 9.8915536004393374 0 9.8915536004393374 -7.7700909574099057 0 0 0 0 -363.00713823887054 638.58876527720713 0 638.58876527720713 755.26957484901504 0 0 0 0 1.8410076028714855 -1.7541702881903518 0 -1.7541702881903518 1.3634126598196019 0 0 0 0 421.58752029732568 1469.7465024606499 0 1469.7465024606499 2128.1807044465095 0 0 0 0 1757.4460151901003 45.177089486162004 0 45.177089486162004 -2659.4379448999971 0 0 0 0 235.49646346780355 -25.55838747753296 0 -25.55838747753296 -524.0244904125866 0 0 0 0 137.38219530637434 58.877652188355569 0 58.877652188355569 -593.39535024078214 0 0 0 0 -119.86740550768445 -65.444217458571075 0 -65.444217458571075 -428.68441993056331 0 0 0 0 -1.5242867286870023 85.789029039427987 0 85.789029039427987 -137.87615405653196 0 0 0 0 36.813449748326093 116.26688253758766 0 116.26688253758766 -555.76897994540923 0 0 0 0 14.656515094116912 106.8492153582265 0 106.8492153582265 -245.20507985929726 0 0 0 0 -9.6577980471227747 37.583907539402723 0 37.583907539402723 -87.626823268522344 0 0 0 0 147.42776227795548 172.17079585776082 0 172.17079585776082 -425.64595228974213 0 0 0 0 44.631282822718276 -66.97718013715712 0 -66.97718013715712 -716.99209069818608 0 0 0 0 -20.460564757659995 35.432099338464695 0 35.432099338464695 -10.433299789357193 0 0 0 0 -15.286119635447903 64.104380271017362 0 64.104380271017362 8.9388707421749132 0 0 0 0 -3.2075173850712986 13.295866528177271 0 13.295866528177271 -17.872241928212304 0 0 0 0 -124.72113058388641 97.816148093625088 0 97.816148093625088 -63.402033700724132 0 0 0 0 265.55315476971737 -237.82994960759243 0 -237.82994960759243 -631.09622900146496 0 0 0 0 283.54654994407611 446.25069754366268 0 446.25069754366268 -35.546604314033175 0 0 0 0 45.998908314664732 355.90095785980157 0 355.90095785980157 150.04014415113488 0 0 0 0 12.923984581328114 142.75216948661546 0 142.75216948661546 -212.90079136114218 0 0 0 0 4.0881729719694704 340.94623445255274 0 340.94623445255274 245.26616870969883 0 0 0 0 125.15660364285577 409.76108842399844 0 409.76108842399844 436.53738013163093 0 0 0 0 112.82665547866782 557.1886803470552 0 557.1886803470552 218.37469035666436 0 0 0 0 5.8941646851308178 493.17028225846298 0 493.17028225846298 196.8333909409921 0 0 0 0 231.24516703281552 377.89620095806458 0 377.89620095806458 -299.32835622460698 0 0 0 0 -366.47648827533703 53.104245008107682 0 53.104245008107682 -303.42924598699028 0 0 0 0 -57.137387377719278 134.31746919054422 0 134.31746919054422 -548.67436291565537 0 0 0 0 -38.370339323897497 19.144961060126661 0 19.144961060126661 -638.07666005560895 0 0 0 0 80.800546349200886 -153.6147078233771 0 -153.6147078233771 -1089.9315757773657 0 0 0 0 -2.6740617214451277 -0.1724702861073979 0 -0.1724702861073979 -0.39815029992541895 0 0 0 0 53.98309052787954 185.08938454289455 0 185.08938454289455 -758.09269694733666 0 0 0 0 30.713802013866371 20.436048526564264 0 20.436048526564264 -561.33311422959378 0 0 0 0 126.70768168546783 176.84506745251929 0 176.84506745251929 -346.99859028079663 0 0 0 0 -25.667092667677935 173.15309734127004 0 173.15309734127004 -340.53016820887569 0 0 0 0 38.210828010254772 172.71945036301622 0 172.71945036301622 -338.98617116571404 0 0 0 0 33.975786469009108 47.573112821416089 0 47.573112821416089 -519.92153468896868 0 0 0 0 144.97685498697683 2.5061737935757264 0 2.5061737935757264 -239.84224013978383 0 0 0 0 -44.46479989841464 -17.457110537856352 0 -17.457110537856352 -32.49848876777105 0 0 0 0 144.97685498703504 2.5061737935175188 0 2.5061737935175188 -239.84224013984203 0 0 0 0 144.97685498694773 2.5061737935466226 0 2.5061737935466226 -239.8422401396092 0 0 0 0 9.5396210108265223 300.80110464831887 0 300.80110464831887 -183.12477061856771 0 0 0 0 -160.92127265769523 172.06403975086869 0 172.06403975086869 136.34738987748278 0 0 0 0 44.816310702810711 61.152771620312109 0 61.152771620312109 -1.1598042102211679 0 0 0 0 -5.2778258537291549 141.05400533569627 0 141.05400533569627 -555.36927737023507 0 0 0 0 7.199986764753703 247.15013692615321 0 247.15013692615321 -186.69030372027191 0 0 0 0 67.328129253786756 92.124308806087356 0 92.124308806087356 16.598987619105174 0 0 0 0 35.506448337400798 98.72921737976867 0 98.72921737976867 63.013060048862826 0 0 0 0 68.638038167050581 76.127381019841778 0 76.127381019841778 76.897872738685692 0 0 0 0 52.620373894969816 124.49597185495077 0 124.49597185495077 80.660289109473524 0 0 0 0 -12.641317278342171 27.027934224074258 0 27.027934224074258 -5.0101913824692588 0 0 0 0 27.313168642042513 79.960295333946704 0 79.960295333946704 47.529734983259971 0 0 0 0 31.987184683537635 102.15049867139169 0 102.15049867139169 86.878084106487222 0 0 0 0 41.162627946934663 85.743907824886264 0 85.743907824886264 55.069802989251912 0 0 0 0 73.137698648337391 113.1097217988281 0 113.1097217988281 57.237177448650073 0 0 0 0 67.635882436079555 0.0034088101456291042 0 0.0034088101456291042 15.51527568140591 0 0 0 0 -75.479898838728332 53.064890258716332 0 53.064890258716332 -7.984927913203137 0 0 0 0 8.8704626489571723 70.815482952781466 0 70.815482952781466 5.1891821488061396 0 0 0 0 170.22383862090646 -1.5870544355566381 0 -1.5870544355566381 95.449763964919839 0 0 0 0 19.624448339936265 79.791824892088044 0 79.791824892088044 -21.90375886447606 0 0 0 0 20.560168410767801 48.102936289578793 0 48.102936289578793 11.876412048004568 0 0 0 0 -0.51869889727208829 59.336593796876173 0 59.336593796876173 1.0733354248350793 0 0 0 0 61.8650755090639 226.76093982251768 0 226.76093982251768 -374.73633468175831 0 0 0 0 -9.3838982216499076 41.454548718622377 0 41.454548718622377 -77.673929949619151 0 0 0 0 1.6985893461479691 11.104927625038755 0 11.104927625038755 21.252290325253199 0 0 0 0 183.46702030190499 249.08678748147213 0 249.08678748147213 -291.06625296827406 0 0 0 0 58.20332595371292 129.5568054274554 0 129.5568054274554 181.20684794035333 0 0 0 0 135.52137942920672 307.62149683247844 0 307.62149683247844 -285.98057934053941 0 0 0 0 60.563782527609874 67.009519326828013 0 67.009519326828013 -130.93364609385026 0 0 0 0 23.908257625516853 -12.215778280558879 0 -12.215778280558879 -236.20062479456828 0 0 0 0 -4.4633806254361446 24.435539627433869 0 24.435539627433869 -20.642957245313028 0 0 0 0 -22.96914946808829 245.05024839295947 0 245.05024839295947 -8.6996103448935287 0 0 0 0 -59.377815053954691 56.320613323206999 0 56.320613323206999 280.59392620876315 0 0 0 0 -47.850435001499136 42.899056348702288 0 42.899056348702288 -24.043836838594871 0 0 0 0 300.53839045327913 246.53786297884653 0 246.53786297884653 21.992265415232396 0 0 0 0 56.800294259257356 49.29333095634604 0 49.29333095634604 21.676845503023401 0 0 0 0 -69.266110568694785 92.950311445772968 0 92.950311445772968 -30.194118579704082 0 0 0 0 68.262363085348625 68.92154087916424 0 68.92154087916424 -43.13897575752344 0 0 0 0 11.706464772842793 6.1139645105190823 0 6.1139645105190823 0.60878153845976613 0 0 0 0 94.291817162840744 47.25624767577392 0 47.25624767577392 -35.310495293466374 0 0 0 0 109.43016445294779 71.844227170247905 0 71.844227170247905 -65.380073833366623 0 0 0 0 -113.00981218425295 103.34157627355307 0 103.34157627355307 22.258905616181437 0 0 0 0 31.246974999696249 78.199071408747841 0 78.199071408747841 -23.887076376471668 0 0 0 0 -24.231662411271827 140.09134768365766 0 140.09134768365766 -92.925212753203141 0 0 0 0 89.389394881975022 96.426739376081969 0 96.426739376081969 -93.647693381761201 0 0 0 0 15.153374637142406 72.204324885020469 0 72.204324885020469 -89.337433342967415 0 0 0 0 34.48153814082616 118.91660011241038 0 118.91660011241038 -116.51634462855873 0 0 0 0 54.30438798655814 67.341303793218685 0 67.341303793218685 -131.85385117800615 0 0 0 0 52.398763412085827 94.651893469592324 0 94.651893469592324 -230.10599135956727 0 0 0 0 19.209213614771215 71.34192687821087 0 71.34192687821087 -36.754028283496154 0 0 0 0 32.813822590351265 16.32615722556784 0 16.32615722556784 -73.618568113335641 0 0 0 0 20.256110808458629 52.78621118749939 0 52.78621118749939 -25.37280667894899 0 0 0 0 107.73676750793675 49.847703717146942 0 49.847703717146942 -59.129987497086404 0 0 0 0 0.63861312607525633 3.1294234611857235 0 3.1294234611857235 -1.6325188700520812 0 0 0 0 27.960953574394807 72.055221009606612 0 72.055221009606612 -0.099152467159501032 0 0 0 0 13.802241536017391 51.274208535629441 0 51.274208535629441 -30.314266584100551 0 0 0 0 35.620104272631579 56.810219153987418 0 56.810219153987418 7.9643145595910028 0 0 0 0 37.510424861754473 73.272555581957477 0 73.272555581957477 12.018569505220512 0 0 0 0 0.77056835728581063 79.148252668193891 0 79.148252668193891 0.0061673318427569413 0 0 0 0 -39.415015149788815 82.291785025183344 0 82.291785025183344 28.508994059680845 0 0 0 0 78.192291030805791 63.998482223585597 0 63.998482223585597 -52.904313944120076 0 0 0 0 26.760229083349486 49.219550250675354 0 49.219550250675354 -32.162176313160188 0 0 0 0 -15.270708385593025 57.771027756556578 0 57.771027756556578 37.437527995323762 0 0 0 0 33.127653091292814 46.349718875568215 0 46.349718875568215 -26.721959914210515 0 0 0 0 74.854675573202258 77.31227819562173 0 77.31227819562173 -82.605511826346628 0 0 0 0 64.630257793414785 -6.1333590132180689 0 -6.1333590132180689 -174.15586265669845 0 0 0 0 75.288031400288673 75.054420674365247 0 75.054420674365247 -171.02945184751297 0 0 0 0 8.025984155997719 17.120971402662917 0 17.120971402662917 -9.8972736167165181 0 0 0 0 2.9830354240439192 53.02299547088478 0 53.02299547088478 -147.67162471276242 0 0 0 0 119.33704982615018 41.87796444905689 0 41.87796444905689 -95.49997115287988 0 0 0 0 110.52555289617158 64.083037518736091 0 64.083037518736091 -146.37114490001113 0 0 0 0 75.325177065766184 39.736989395692945 0 39.736989395692945 -136.58959549705469 0 0 0 0 36.226365549024194 175.39273038058309 0 175.39273038058309 -150.52126672882332 0 0 0 0 51.668636864807922 23.572756493071211 0 23.572756493071211 -79.051045187952695 0 0 0 0 -43.573230148860603 116.60876994653518 0 116.60876994653518 31.32834843971068 0 0 0 0 -35.747829736879794 115.59738585037121 0 115.59738585037121 -47.190452154485683 0 0 0 0 -64.871275989775313 180.5807614500809 0 180.5807614500809 -61.084178011602489 0 0 0 0 88.166234078271373 70.702536140779557 0 70.702536140779557 -74.331290782312863 0 0 0 0 -8.1203366787376581 54.46427044000302 0 54.46427044000302 40.988704058923759 0 0 0 0 50.685389813574147 142.23445666905172 0 142.23445666905172 134.10254006438481 0 0 0 0 -10.880100228206857 10.596501702141182 0 10.596501702141182 -12.653397123057971 0 0 0 0 67.744005709719204 113.34261827228329 0 113.34261827228329 60.983379916055128 0 0 0 0 38.557561546651414 112.69439669483108 0 112.69439669483108 167.9242145481694 0 0 0 0 38.383216718415497 89.880070342114777 0 89.880070342114777 -60.274429961049464 0 0 0 0 49.432784172604443 142.07147265778622 0 142.07147265778622 60.060717103246134 0 0 0 0 -2.0811265262100846 4.1914930742301095 0 4.1914930742301095 -4.8182717632874983 0 0 0 0 -57.190321428352036 69.560692642080539 0 69.560692642080539 149.14591056696372 0 0 0 0 -115.69260727317305 161.36030523215595 0 161.36030523215595 657.79901460779365 0 0 0 0 107.30014027869765 -172.82435839034588 0 -172.82435839034588 -484.50102282701118 0 0 0 0 54.413354004529538 131.39207524996164 0 131.39207524996164 -13.371355647483142 0 0 0 0 41.906964857402272 -254.54318509118093 0 -254.54318509118093 -1051.3549682131852 0 0 0 0 20.685663104411887 63.643283035314539 0 63.643283035314539 7.4309540763107407 0 0 0 0 -8.8529407127066406 475.64460538232197 0 475.64460538232197 244.61308233223099 0 0 0 0 47.217868722969968 52.236030183348788 0 52.236030183348788 -32.75271788731925 0 0 0 0 10.802962065208703 97.37721460920875 0 97.37721460920875 -0.010629218435497023 0 0 0 0 40.02945502307557 77.91640606270812 0 77.91640606270812 -25.768086121177475 0 0 0 0 29.325761401960335 88.266079887111118 0 88.266079887111118 -7.2470453417627141 0 0 0 0 4.0977586280233425 31.142962963054799 0 31.142962963054799 -11.78992001454651 0 0 0 0 44.160087134267087 67.373040801699972 0 67.373040801699972 -0.014880159185850061 0 0 0 0 -9.8085125220241025 27.752652915252838 0 27.752652915252838 0.10936683442560025 0 0 0 0 -50.682383571460377 67.341654898627894 0 67.341654898627894 2.4939875536947511 0 0 0 0 -1.8785031976230471 -0.19765596988503376 0 -0.19765596988503376 21.087792445301289 0 0 0 0 -10.0380409694626 73.21249873272609 0 73.21249873272609 11.762740482226945 0 0 0 0 -44.851609523062791 49.287896894313889 0 49.287896894313889 -9.3497311575765139 0 0 0 0 -23.228428499107395 74.660295620287798 0 74.660295620287798 19.754418154945597 0 0 0 0 -92.95378363202326 81.891233913367614 0 81.891233913367614 19.722009349497966 0 0 0 0 -36.990262634879855 85.194025246197725 0 85.194025246197725 1.7707567062025191 0 0 0 0 -55.527923163521336 114.6623238294269 0 114.6623238294269 18.355109078525857 0 0 0 0 1.5322125888148079 63.513740256512108 0 63.513740256512108 -3.3548918541824264 0 0 0 0 97.188399578117242 201.95076764429541 0 201.95076764429541 67.569912561302772 0 0 0 0 -98.182933005446102 154.52633079187945 0 154.52633079187945 85.946685852060909 0 0 0 0 3.2395167957870967 63.311603898162602 0 63.311603898162602 -48.772167400081855 0 0 0 0 -58.219337416408905 57.846416589646033 0 57.846416589646033 -22.888033205894033 0 0 0 0 -91.195736666588346 338.24225826877228 0 338.24225826877228 31.727193560393061 0 0 0 0 58.85216808932455 -33.161796031117774 0 -33.161796031117774 -121.71788529818878 0 0 0 0 -487.71791715930158 -23.740678678663244 0 -23.740678678663244 3.5549543783708941 0 0 0 0 -149.45650524864323 247.93451227698824 0 247.93451227698824 -84.10256284289062 0 0 0 0 -846.86276932799956 12.834019874855585 0 12.834019874855585 246.12498685828177 0 0 0 0 -421.04614972090349 149.33732862427132 0 149.33732862427132 -466.64567805849947 0 0 0 0 10.655693421978299 45.175126140675303 0 45.175126140675303 9.3774259063187699 0 0 0 0 -44.77023669690243 259.83304373322608 0 259.83304373322608 -121.11952146784461 0 0 0 0 -427.62567528901855 143.67176383873448 0 143.67176383873448 -8.65121704525518 0 0 0 0 -325.23237771249842 -387.12566035907366 0 -387.12566035907366 -249.29248261911562 0 0 0 0 1345.8935852952709 767.10683171025448 0 767.10683171025448 -305.31956910116423 0 0 0 0 -3.3818930682363941 6.5238711112581882 0 6.5238711112581882 -3.6361234410043153 0 0 0 0 -1468.9737383060201 -134.8443905242566 0 -134.8443905242566 397.84173586964607 0 0 0 0 -907.7001250484027 866.83919643867921 0 866.83919643867921 -10.485661169426749 0 0 0 0 48.112504607186452 127.8802624522736 0 127.8802624522736 59.773701391199552 0 0 0 0 6.5893615721724927 59.133426819222223 0 59.133426819222223 -68.33178363776824 0 0 0 0 211.43871339602629 -10.417135553503613 0 -10.417135553503613 -6.5352365477301646 0 0 0 0 8.3327991551777814 219.87617073558795 0 219.87617073558795 34.455716565513285 0 0 0 0 29.091137657909428 89.922860054165739 0 89.922860054165739 3.1323383921110803 0 0 0 0 194.03989029439981 108.76987296964217 0 108.76987296964217 -130.43069698008185 0 0 0 0 32.143561620323453 115.76176941193989 0 115.76176941193989 40.106308685790282 0 0 0 0 57.854620505895582 78.901799720733834 0 78.901799720733834 -46.959283000367577 0 0 0 0 77.378029573865888 66.391863647963078 0 66.391863647963078 -10.804525544500777 0 0 0 0 56.362439117612666 106.03383183777623 0 106.03383183777623 24.366252419757075 0 0 0 0 -0.70085487469600594 48.254873515602455 0 48.254873515602455 -6.1322709970142455 0 0 0 0 68.194940721841704 77.500081331148976 0 77.500081331148976 -22.400842930568615 0 0 0 0 54.107980891538318 110.80423037645232 0 110.80423037645232 63.905096426795353 0 0 0 0 2.1899985022559179 12.559495295269791 0 12.559495295269791 12.024273017418039 0 0 0 0 43.931991779399084 56.960949265614062 0 56.960949265614062 -22.985576476347227 0 0 0 0 223.09007181681227 -169.73835656259325 0 -169.73835656259325 -420.59323310613399 0 0 0 0 30.25867274749362 55.421408061944931 0 55.421408061944931 115.90651272315881 0 0 0 0 67.365824443317251 217.69491504448524 0 217.69491504448524 6.4234162202847074 0 0 0 0 157.40940305200638 245.91520772380318 0 245.91520772380318 -6.9561604595510289 0 0 0 0 78.359298814160866 264.29548109454481 0 264.29548109454481 20.666558348049875 0 0 0 0 -0.86029008818923103 1.9991144925719269 0 1.9991144925719269 -1.796323868980096 0 0 0 0 917.61888913523217 673.99044291489918 0 673.99044291489918 -16.813295044543338 0 0 0 0 -740.356226901029 -120.79940994214121 0 -120.79940994214121 113.61904703827895 0 0 0 0 537.01390441551484 125.53900859993882 0 125.53900859993882 -117.73029668113304 0 0 0 0 341.78863537410507 380.7632155456522 0 380.7632155456522 -411.54144035291392 0 0 0 0 -5.8290564802350673 4.757805246523148 0 4.757805246523148 -1.2887801021351493 0 0 0 0 532.85164729852841 648.40457638462613 0 648.40457638462613 309.8444043341442 0 0 0 0 127.64726171993243 453.96452830840281 0 453.96452830840281 386.99737334805832 0 0 0 0 -170.28660076402593 53.643283617275301 0 53.643283617275301 -0.38421467209991533 0 0 0 0 -117.77742614798868 93.579196112910495 0 93.579196112910495 54.937210969369801 0 0 0 0 -161.62771992636181 283.01869774373768 0 283.01869774373768 141.46614555569249 0 0 0 0 99.707635688828304 287.27437045780243 0 287.27437045780243 312.36527262616437 0 0 0 0 144.93379405402811 157.6246442947886 0 157.6246442947886 123.76309612218756 0 0 0 0 -42.208326029183809 -9.700654731143004 0 -9.700654731143004 334.24131154146744 0 0 0 0 -11.653887125738379 49.987258149898395 0 49.987258149898395 -55.21708721375208 0 0 0 0 -104.24715081369504 1176.6770873379719 0 1176.6770873379719 500.09417484568257 0 0 0 0 1230.9147035570495 505.50961518149415 0 505.50961518149415 132.81158343411516 0 0 0 0 -31.500811470003384 -6.850344693401837 0 -6.850344693401837 5.0890337213845669 0 0 0 0 61.891815780021716 136.83340526508982 0 136.83340526508982 306.35850811528508 0 0 0 0 263.32310399017297 165.91203356639016 0 165.91203356639016 262.54299744975287 0 0 0 0 230.15122471435461 281.81399942515418 0 281.81399942515418 219.05122336486238 0 0 0 0 313.49967285065213 42.105741012695944 0 42.105741012695944 190.49440603679977 0 0 0 0 -54.719087998615578 208.45207487297012 0 208.45207487297012 521.09831135219429 0 0 0 0 35.385411810887831 4.3370062697652259 0 4.3370062697652259 -10.194707959661173 0 0 0 0 280.56444718301645 123.53881724449457 0 123.53881724449457 326.13878266396932 0 0 0 0 590.80079940950964 395.61941845953697 0 395.61941845953697 119.157535954997 0 0 0 0 226.32057021919172 247.48329224990448 0 247.48329224990448 320.1887089671709 0 0 0 0 362.93990177189698 -45.764433845208259 0 -45.764433845208259 -26.857660112727899 0 0 0 0 303.18312655610498 215.49515974143287 0 215.49515974143287 162.64569837902673 0 0 0 0 238.40330436598742 165.50311872371822 0 165.50311872371822 162.73494076996576 0 0 0 0 248.51792489594663 395.35771327903785 0 395.35771327903785 107.341426014842 0 0 0 0 92.639158704143483 321.327715853462 0 321.327715853462 141.40566192661936 0 0 0 0 85.067069628566969 205.41773952898802 0 205.41773952898802 235.92027997941477 0 0 0 0 475.28474194105365 824.64461266878061 0 824.64461266878061 280.40572137988056 0 0 0 0 -345.80031766660977 65.694935473991791 0 65.694935473991791 156.3791970866514 0 0 0 0 -215.52259124469856 501.60785094726089 0 501.60785094726089 152.45511262322543 0 0 0 0 96.113097827037564 -259.11868072635116 0 -259.11868072635116 -122.92692704696674 0 0 0 0 -377.10893934757769 504.77135529190127 0 504.77135529190127 17.730118573235814 0 0 0 0 70.682510050581186 99.388713455751713 0 99.388713455751713 -65.527036977124226 0 0 0 0 20.797253425042342 116.87663084133735 0 116.87663084133735 53.189174227642468 0 0 0 0 -1807.9422643499565 -410.71294758123986 0 -410.71294758123986 830.92774294766423 0 0 0 0 -14.263082932998998 14.645324157173199 0 14.645324157173199 4.200946629675002 0 0 0 0 -1650.3912670451391 -545.10497084297822 0 -545.10497084297822 916.56870381560293 0 0 0 0 -22.104693575500278 39.271077187775518 0 39.271077187775518 -447.09423166995475 0 0 0 0 591.40132956820889 474.34895885908918 0 474.34895885908918 -147.21805021190085 0 0 0 0 -5.8758275972222265 15.35790102119671 0 15.35790102119671 3.9138784680008598 0 0 0 0 279.42691191221093 259.0175045840333 0 259.0175045840333 119.91808262141421 0 0 0 0 472.00543288639165 389.75581632224203 0 389.75581632224203 20.382580485966173 0 0 0 0 -9.4628722000023942 12.921772430906913 0 12.921772430906913 72.489796115231456 0 0 0 0 288.48933195741847 -567.89841097035242 0 -567.89841097035242 -1479.2588206661167 0 0 0 0 -17.790329765582783 1.8053298847836601 0 1.8053298847836601 1.3556359372136626 0 0 0 0 -324.14130434760591 916.32526238016726 0 916.32526238016726 210.70118853542954 0 0 0 0 -473.76475722351461 927.94077371226012 0 927.94077371226012 293.58826277920161 0 0 0 0 -53.315479306213092 704.85385665929061 0 704.85385665929061 135.49048640317778 0 0 0 0 -144.07166835170938 859.86936866062752 0 859.86936866062752 220.61117696520523 0 0 0 0 259.91352483839728 416.943572096352 0 416.943572096352 375.65368212991598 0 0 0 0 -110.88974861328643 660.69600558802722 0 660.69600558802722 586.49945819056302 0 0 0 0 -185.99801016242418 278.99318668894193 0 278.99318668894193 1275.6519300904183 0 0 0 0 -129.09718090294336 401.8090219270598 0 401.8090219270598 903.91241578184417 0 0 0 0 -62.771234335610643 507.94958297331323 0 507.94958297331323 547.92834883167234 0 0 0 0 -35.520192102830038 6.3865505746425981 0 6.3865505746425981 -0.63447661844404024 0 0 0 0 709.67328225701931 585.65846748273179 0 585.65846748273179 -601.78943331529808 0 0 0 0 -103.58107619153452 -495.38505522207561 0 -495.38505522207561 -718.85266728344686 0 0 0 0 -1217.6426465575059 -416.88037449838885 0 -416.88037449838885 136.09314129297854 0 0 0 0 201.686365316109 67.951361804867702 0 67.951361804867702 -48.510987825589837 0 0 0 0 30.288202362462471 -175.34844843197061 0 -175.34844843197061 -18.736672058075783 0 0 0 0 -204.96531856458751 -1.0315349034499377 0 -1.0315349034499377 239.58752899790125 0 0 0 0 -647.85988340602489 -251.96398510107247 0 -251.96398510107247 120.76318876718869 0 0 0 0 -340.98551415884867 297.2340380846581 0 297.2340380846581 364.44003850154695 0 0 0 0 100.88359184633009 310.8102476328786 0 310.8102476328786 288.68809883639915 0 0 0 0 -429.85617249881034 390.45077675589528 0 390.45077675589528 291.59251909269369 0 0 0 0 145.52347920072498 590.57786795262655 0 590.57786795262655 -530.54535430720716 0 0 0 0 -1397.8251438653024 173.45820121457473 0 173.45820121457473 279.72666685463628 0 0 0 0 -558.47892979028984 792.55582049270743 0 792.55582049270743 -137.89993214624701 0 0 0 0 1156.2215873752721 163.85186333714955 0 163.85186333714955 -125.0475701255782 0 0 0 0 377.17328546365025 286.23416709531739 0 286.23416709531739 -166.44788447313476 0 0 0 0 86.960778675449546 226.22205491000204 0 226.22205491000204 87.646011651377194 0 0 0 0 598.91114381403895 620.39143460019841 0 620.39143460019841 -194.30141523236489 0 0 0 0 439.27797296631616 109.91166862788668 0 109.91166862788668 410.16248431429267 0 0 0 0 221.70408014336135 469.49408954611863 0 469.49408954611863 87.667953186390804 0 0 0 0 62.248500898887869 383.26270049592131 0 383.26270049592131 407.69569592122991 0 0 0 0 428.06765900788014 390.66401907496765 0 390.66401907496765 167.24641332846659 0 0 0 0 -625.32141164915811 54.154057059804472 0 54.154057059804472 44.415343118758756 0 0 0 0 -4.0087413383331523 12.676529396103831 0 12.676529396103831 -14.500966259327868 0 0 0 0 203.83813239820302 117.62850335078838 0 117.62850335078838 55.153321940859314 0 0 0 0 -266.37775615413557 118.10536147587845 0 118.10536147587845 183.3410935823631 0 0 0 0 -109.10155531286728 317.04694521645433 0 317.04694521645433 313.49319830819877 0 0 0 0 -86.618825296303839 185.02104610444803 0 185.02104610444803 13.746966062521096 0 0 0 0 -50.774851649559423 173.37879169689404 0 173.37879169689404 6.422956709866412 0 0 0 0 -109.67976399685722 151.00787726181443 0 151.00787726181443 38.209568179838243 0 0 0 0 -224.59494122838078 110.36751203444146 0 110.36751203444146 136.27621193397499 0 0 0 0 -31.822490776677853 29.86566367371509 0 29.86566367371509 -17.797260977622216 0 0 0 0 -67.033192074726685 114.4676547817362 0 114.4676547817362 68.800456932018278 0 0 0 0 -71.59952467399421 43.802399318615031 0 43.802399318615031 -5.9287087909095817 0 0 0 0 -20.083096694434062 63.887564707896672 0 63.887564707896672 42.946015807672666 0 0 0 0 -38.994891342716073 110.37170662690733 0 110.37170662690733 49.800721154519124 0 0 0 0 -173.90049737756584 52.445954299293589 0 52.445954299293589 124.84686421826996 0 0 0 0 -4091.4337850200973 1024.6912653019681 0 1024.6912653019681 -155.90466221833776 0 0 0 0 -68.12260075840743 27.833602289869702 0 27.833602289869702 77.310975260844771 0 0 0 0 -38.660018246235268 67.254591599412379 0 67.254591599412379 -31.845500314317178 0 0 0 0 -25.058288676657412 9.6853970022678055 0 9.6853970022678055 27.042683714349835 0 0 0 0 -10.454764491958358 8.6731787428549296 0 8.6731787428549296 -1.510249678030732 0 0 0 0 -3956.4066815266633 2476.5118159187405 0 2476.5118159187405 -1385.4754341238295 0 0 0 0 -5226.3825419126588 1967.9691436019202 0 1967.9691436019202 1.9715637379995314 0 0 0 0 -50.58298894038785 72.252745036171063 0 72.252745036171063 42.681715425627772 0 0 0 0 -21.363410411004054 27.440110210351349 0 27.440110210351349 52.63154048645049 0 0 0 0 0.027304608447593637 145.36316724869175 0 145.36316724869175 0.028080725081963465 0 0 0 0 -124.29242249322124 37.624776065698825 0 37.624776065698825 38.602942048251862 0 0 0 0 -3174.1850502361922 2549.1664362788833 0 2549.1664362788833 -928.47657830163371 0 0 0 0 -2636.4046198999567 3293.9137059231944 0 3293.9137059231944 -0.66264339847839437 0 0 0 0 -3136.2384023113409 2461.4795171809528 0 2461.4795171809528 -1255.7103764869244 0 0 0 0 -3207.9356702530931 2832.1034530652469 0 2832.1034530652469 -680.54442255556933 0 0 0 0 -3133.1418490054057 2783.0124982080451 0 2783.0124982080451 -1011.4182544159921 0 0 0 0 -2588.4032770653166 3640.9208721384257 0 3640.9208721384257 -2141.4463071617938 0 0 0 0 -2617.5471630307729 2986.2077117071167 0 2986.2077117071167 -2209.9637292312955 0 0 0 0 -211.31928633899952 17.475869400928786 0 17.475869400928786 230.57882724201772 0 0 0 0 -41.422970080289133 26.351757559536509 0 26.351757559536509 79.045951468281146 0 0 0 0 -2339.3743032187558 2658.315075309456 0 2658.315075309456 -2933.643554005248 0 0 0 0 -7.05790565215284 2130.8816445951343 0 2130.8816445951343 491.23448223719606 0 0 0 0 -3569.4389829968859 4237.142248301956 0 4237.142248301956 -3194.3898352139367 0 0 0 0 -450.42309899639804 3270.0472229784573 0 3270.0472229784573 -3137.9587222800328 0 0 0 0 194.04190503648715 1019.4693896137906 0 1019.4693896137906 -5334.0712967457657 0 0 0 0 -2843.1847329311277 2951.1326961252707 0 2951.1326961252707 1728.4010302265524 0 0 0 0 -8.9316937622066916 14.457669030294738 0 14.457669030294738 -17.163417652062265 0 0 0 0 -2041.0435082645854 4537.3461272538989 0 4537.3461272538989 -3405.865659497842 0 0 0 0 -2691.1659847890551 2275.548159717684 0 2275.548159717684 -3349.1671857461624 0 0 0 0 -2634.2471950318941 3407.4801658260667 0 3407.4801658260667 -232.45560530928196 0 0 0 0 -1574.8528183498856 2446.9972633589859 0 2446.9972633589859 -442.13764624502255 0 0 0 0 1523.1267857617349 1269.0096944174584 0 1269.0096944174584 296.84753341039323 0 0 0 0 1629.372860882635 1533.6061183322381 0 1533.6061183322381 327.44691046397202 0 0 0 0 1476.168459586901 2863.0974523979748 0 2863.0974523979748 0.43841108144260943 0 0 0 0 -1697.5400006811542 2148.1987646283742 0 2148.1987646283742 1149.8396819721966 0 0 0 0 945.55504078492231 939.91880586056504 0 939.91880586056504 50.788838078296976 0 0 0 0 -9845.9240750623867 5262.6911628717498 0 5262.6911628717498 141.9574453089642 0 0 0 0 -10.924642619758629 17.74402548841006 0 17.74402548841006 -9.0996254383539394 0 0 0 0 4262.5973747116659 801.19124434219702 0 801.19124434219702 -248.87763176640146 0 0 0 0 -18.880290307599353 68.358873346558539 0 68.358873346558539 0.092080184868981285 0 0 0 0 -4.1795499856144147 12.203441007522201 0 12.203441007522201 7.1912083569087599 0 0 0 0 -101.74224099001731 164.73705195468938 0 164.73705195468938 -92.450173237826675 0 0 0 0 -5.4283317287743671 18.067300526379483 0 18.067300526379483 16.896520574153044 0 0 0 0 -18.827210859301658 40.239466195660938 0 40.239466195660938 -30.928971131008495 0 0 0 0 -129.45471572911265 580.45805505794124 0 580.45805505794124 321.8272712144244 0 0 0 0 -186.27330418571364 3959.431216552839 0 3959.431216552839 -1882.8372572834851 0 0 0 0 2017.2665530788436 2627.2301826416769 0 2627.2301826416769 -3770.5694210317597 0 0 0 0 3.5633757116447669 3415.7217425031049 0 3415.7217425031049 -5764.2078894692968 0 0 0 0 -741.38758148404304 2560.0016215499782 0 2560.0016215499782 -3759.9247771828195 0 0 0 0 474.47189275201526 960.58602228315431 0 960.58602228315431 -9590.6375621543266 0 0 0 0 -11.617718312717329 8.2574568248371349 0 8.2574568248371349 -10.868655285449265 0 0 0 0 -309.18711058908957 1165.193534078986 0 1165.193534078986 -3594.9602727983438 0 0 0 0 -33.739708601359325 26.666938840320995 0 26.666938840320995 8.303541238520495 0 0 0 0 362.63874861599834 1128.1093214631346 0 1128.1093214631346 -4383.5298195558717 0 0 0 0 -68.509280155354645 2436.3395749829215 0 2436.3395749829215 -4819.3831676384434 0 0 0 0 -2121.2055156983843 3289.1064536138001 0 3289.1064536138001 -3012.8288106239779 0 0 0 0 -59.943689702412939 2704.98189405418 0 2704.98189405418 -3078.8109926964826 0 0 0 0 -20.717464785027119 30.627113876963108 0 30.627113876963108 70.135845984234891 0 0 0 0 -2081.6426775297878 2616.6624711950644 0 2616.6624711950644 -2927.8150034177197 0 0 0 0 103.42183696798747 -1.9803936407406582 0 -1.9803936407406582 125.81633044447517 0 0 0 0 45.375044268002966 94.573506982153049 0 94.573506982153049 107.05035211587528 0 0 0 0 -641.58289493212942 1727.7149746042851 0 1727.7149746042851 -3284.4646726795036 0 0 0 0 -9.9360676197318298 40.045604185535581 0 40.045604185535581 57.149218630339817 0 0 0 0 -35.717779687273264 7.1950267655135178 0 7.1950267655135178 12.055465051322983 0 0 0 0 -14.549450416991021 -93.961416423946503 0 -93.961416423946503 1004.9209985521047 0 0 0 0 -107.34454071323034 79.856819764672309 0 79.856819764672309 1096.8973129437654 0 0 0 0 -194.91675354712061 26.282679097115761 0 26.282679097115761 1120.7141734445759 0 0 0 0 -141.98619581239473 -70.395819925113756 0 -70.395819925113756 1254.8601009991835 0 0 0 0 -243.74022256737226 -184.52807785442928 0 -184.52807785442928 1252.5666231142677 0 0 0 0 -0.036580755491741002 70.291580458208045 0 70.291580458208045 -35.392424914534786 0 0 0 0 7.174783453269356 3.683782990550128 0 3.683782990550128 6.6160870618791137 0 0 0 0 200.22694759623846 -1099.839015145044 0 -1099.839015145044 3044.6217113607599 0 0 0 0 -19.622554004432725 19.107831227468026 0 19.107831227468026 -9.6219426601310261 0 0 0 0 -0.044588796532480046 81.815109697876323 0 81.815109697876323 92.056168241062551 0 0 0 0 5.0024274661384425 19.95222183580637 0 19.95222183580637 16.29466389287154 0 0 0 0 5.3123378998898261 -281.41536725871902 0 -281.41536725871902 1264.2147365181881 0 0 0 0 -19.622554004396079 83.351366092058015 0 83.351366092058015 29.521495285858691 0 0 0 0 -704.01536193111497 -510.20828692233772 0 -510.20828692233772 365.81156696545077 0 0 0 0 -29.994001455745092 -2.4073058759531705 0 -2.4073058759531705 -354.5758527166181 0 0 0 0 121.89914834749834 -236.81543788716954 0 -236.81543788716954 -264.79678458771741 0 0 0 0 188.09296518843985 -238.38351896923268 0 -238.38351896923268 -266.81988353654015 0 0 0 0 712.03808652219595 -81.628273749694927 0 -81.628273749694927 -353.54722349069198 0 0 0 0 252.95330076542177 -343.29850010538576 0 -343.29850010538576 -366.9659733583394 0 0 0 0 452.14159101036785 410.10278791774181 0 410.10278791774181 -145.40415343966743 0 0 0 0 304.57754894457139 288.46394903242253 0 288.46394903242253 -565.18031759986479 0 0 0 0 203.35917208388582 234.26942536170827 0 234.26942536170827 5.3489166829822352 0 0 0 0 233.56967256429834 364.34831435178057 0 364.34831435178057 9.0564784921298269 0 0 0 0 -82.219297425560256 167.38192300899391 0 167.38192300899391 -108.36096187469957 0 0 0 0 259.59057310874681 147.07069709662755 0 147.07069709662755 -471.79873417402268 0 0 0 0 95.650069027271456 141.81828233043416 0 141.81828233043416 21.255324568905053 0 0 0 0 -125.07025026621523 282.88695993524743 0 282.88695993524743 162.23737201372205 0 0 0 0 95.234441284356535 85.700433205638319 0 85.700433205638319 74.146529348836026 0 0 0 0 16.355371090690948 21.171740644009191 0 21.171740644009191 24.816884974538709 0 0 0 0 167.69721266122906 -311.03668142778042 0 -311.03668142778042 -179.33353297288704 0 0 0 0 11.237527316284964 -4.939158007194095 0 -4.939158007194095 -2.9288227013183246 0 0 0 0 -165.68135061183966 -38.735267591640877 0 -38.735267591640877 700.82942661142442 0 0 0 0 460.76185209342293 396.64257063371042 0 396.64257063371042 -78.802094590690103 0 0 0 0 -179.80804524589257 -197.50648136902601 0 -197.50648136902601 512.50001948321369 0 0 0 0 -192.26566057306445 490.52518289182626 0 490.52518289182626 580.23425881115691 0 0 0 0 -171.10561436989519 448.75342671270482 0 448.75342671270482 22.65012489714718 0 0 0 0 -282.79637951645054 492.53894532792037 0 492.53894532792037 -593.29862034437247 0 0 0 0 51.325934012416141 44.631428713602048 0 44.631428713602048 28.612013150056043 0 0 0 0 -19.908923122191233 18.909432532287312 0 18.909432532287312 21.891537304838863 0 0 0 0 -169.89416262943996 -195.93803660610411 0 -195.93803660610411 -16.858424605146865 0 0 0 0 -323.93238292971273 581.62773840801674 0 581.62773840801674 -443.72877237576176 0 0 0 0 -175.14865364808975 283.53541850741021 0 283.53541850741021 -383.95959275012137 0 0 0 0 -228.48868674529456 506.01765842671011 0 506.01765842671011 -483.1945441661519 0 0 0 0 -325.71028901222235 293.74043015384814 0 293.74043015384814 -377.91195297615377 0 0 0 0 51.223106825092913 37.934488416207842 0 37.934488416207842 25.538883058819579 0 0 0 0 524.97288481856231 -24.856321330302308 0 -24.856321330302308 -319.25735178930336 0 0 0 0 -313.53292612915175 552.01813239484545 0 552.01813239484545 -324.90414767840412 0 0 0 0 -212.9096994283027 371.60156102097244 0 371.60156102097244 -191.84832475663279 0 0 0 0 -181.88125749591018 440.92482953620492 0 440.92482953620492 -339.96534708698164 0 0 0 0 -154.8564966413287 461.52799437806243 0 461.52799437806243 -324.28571967623429 0 0 0 0 -207.47909763819189 184.65648395776225 0 184.65648395776225 30.873552547956933 0 0 0 0 -186.30549975429858 415.54903920510696 0 415.54903920510696 -108.25528212853533 0 0 0 0 -394.97881833540987 369.87769790477978 0 369.87769790477978 -219.49545458142529 0 0 0 0 -101.56563307394936 321.32432381412946 0 321.32432381412946 -249.0317078612461 0 0 0 0 108.86655806862973 78.273980947558798 0 78.273980947558798 4.7947523907595269 0 0 0 0 -26.651191555981313 233.91729046814726 0 233.91729046814726 -62.201733214460546 0 0 0 0 46.947860988540924 69.383814555090794 0 69.383814555090794 -96.525368447350047 0 0 0 0 -205.02648962093735 473.13184462003119 0 473.13184462003119 -258.2578687184141 0 0 0 0 -126.82160528501481 430.86647577909753 0 430.86647577909753 -249.28637626819545 0 0 0 0 38.88530680261465 222.5896418843331 0 222.5896418843331 -226.9827795126148 0 0 0 0 -34.941141939499175 414.7765427544 0 414.7765427544 -393.04800486256136 0 0 0 0 182.9911642461193 55.130762442946434 0 55.130762442946434 -130.62870834530622 0 0 0 0 364.47286957761207 711.23849731986411 0 711.23849731986411 -899.44543257146142 0 0 0 0 -472.33210675853661 64.504150632543315 0 64.504150632543315 -46.33216991747031 0 0 0 0 -955.58368584676282 855.97573248183471 0 855.97573248183471 -374.9708377722709 0 0 0 0 -1281.3654179877376 111.00375154404901 0 111.00375154404901 -141.57870768319117 0 0 0 0 -400.87458229126423 158.81204164247902 0 158.81204164247902 -659.97695140661381 0 0 0 0 -531.65971092789005 195.75342800149519 0 195.75342800149519 -145.91312834079145 0 0 0 0 -693.9052999479245 137.2971253728756 0 137.2971253728756 20.484795325988671 0 0 0 0 -777.86570392836802 348.28009564901004 0 348.28009564901004 -141.81828636697901 0 0 0 0 -210.5656266441074 648.03051283892273 0 648.03051283892273 -328.74802215967793 0 0 0 0 -199.20289820496691 329.38945840326778 0 329.38945840326778 -172.77412579435622 0 0 0 0 37.850991473510682 23.959842378301744 0 23.959842378301744 12.526100244618306 0 0 0 0 -247.46612253041894 432.06547942163888 0 432.06547942163888 -297.18236881413031 0 0 0 0 1822.8486303472469 677.48462209695572 0 677.48462209695572 -307.70889875985631 0 0 0 0 1880.1235008108342 -284.31079893241986 0 -284.31079893241986 -371.69178876222668 0 0 0 0 168.2099847149475 -1827.0119561314568 0 -1827.0119561314568 326.34574541184702 0 0 0 0 16.977876837806321 160.31124114018166 0 160.31124114018166 324.70783180856961 0 0 0 0 155.99601871992172 341.0793443909206 0 341.0793443909206 424.62701457525691 0 0 0 0 -21.172134336012682 220.094849209534 0 220.094849209534 291.24358177950489 0 0 0 0 955.59829422161374 686.21473083394085 0 686.21473083394085 268.8422278490616 0 0 0 0 7.4216895263146725 157.83838927913166 0 157.83838927913166 223.75008954002988 0 0 0 0 530.68158435133955 -78.91577896290255 0 -78.91577896290255 365.07354931696318 0 0 0 0 120.94796979923967 -44.795600805327922 0 -44.795600805327922 81.348107395155239 0 0 0 0 16.486051493396019 6.0554683304906689 0 6.0554683304906689 -0.66904722227610591 0 0 0 0 23.715224475576367 8.2976491508626964 0 8.2976491508626964 3.3166483753487626 0 0 0 0 -118.45442357995489 496.51536182136624 0 496.51536182136624 -269.39460683712969 0 0 0 0 23.631736465721133 -82.649629320105305 0 -82.649629320105305 -13.831917128147325 0 0 0 0 -691.26645986694712 -1391.9718265944684 0 -1391.9718265944684 -141.15889985528338 0 0 0 0 -95.023253548120238 3.7221778241437278 0 3.7221778241437278 173.60186750651337 0 0 0 0 -56.890643868345023 160.76558767985262 0 160.76558767985262 -35.563283894862252 0 0 0 0 1.2539214614716014 20.906389421358895 0 20.906389421358895 13.151040454010342 0 0 0 0 33.78458577874153 73.622562898279284 0 73.622562898279284 -127.2742875269214 0 0 0 0 104.38699188567261 150.62898063216562 0 150.62898063216562 -46.01941646108753 0 0 0 0 -258.15014623078162 91.700614124855747 0 91.700614124855747 -49.172271156247007 0 0 0 0 89.364713303864477 53.111223118122837 0 53.111223118122837 5.1628502032330061 0 0 0 0 -275.72699747900498 377.09568883570682 0 377.09568883570682 -147.24255291535519 0 0 0 0 2.5780315607532884 3.3818724373907116 0 3.3818724373907116 6.7877539593358733 0 0 0 0 129.46190766498103 204.95820712289424 0 204.95820712289424 65.617311161884572 0 0 0 0 187.64304834702398 5.84760663023917 0 5.84760663023917 33.436305184499361 0 0 0 0 -8.8903450369254529 261.60341819556197 0 261.60341819556197 93.04279658687301 0 0 0 0 105.67312055921411 259.4997040212329 0 259.4997040212329 -35.208628194668563 0 0 0 0 73.446655751746221 153.67573987563082 0 153.67573987563082 214.62442487136286 0 0 0 0 24.202604940342098 145.08876421288005 0 145.08876421288005 233.04392741722404 0 0 0 0 290.62986226596331 123.37345915614424 0 123.37345915614424 -36.054489820991876 0 0 0 0 92.225062124354736 185.60864079726889 0 185.60864079726889 -84.945717224512919 0 0 0 0 0.57906471135141757 37.137137586975228 0 37.137137586975228 -32.094834218057827 0 0 0 0 258.65748999335483 84.591310158608394 0 84.591310158608394 -33.810070616134908 0 0 0 0 235.79274937258015 110.45635821730684 0 110.45635821730684 -10.899800301616779 0 0 0 0 227.63943443734752 123.90679118612024 0 123.90679118612024 22.23725328274304 0 0 0 0 8.2504512304749369 59.445209667337622 0 59.445209667337622 18.504503016592935 0 0 0 0 25.306524913793055 10.794590831791197 0 10.794590831791197 2.6784874178022733 0 0 0 0 32.200046207096378 54.362197345918887 0 54.362197345918887 19.178054351539203 0 0 0 0 75.061886046551081 61.802630998947279 0 61.802630998947279 -213.88644545842544 0 0 0 0 43.708906527594081 169.86244401558361 0 169.86244401558361 -21.750239953558776 0 0 0 0 -61.737315175565527 -77.100387593171035 0 -77.100387593171035 -24.350906519568525 0 0 0 0 163.81866513239856 123.12258198163272 0 123.12258198163272 -32.874711885539 0 0 0 0 146.50161001535162 9.5121005982073257 0 9.5121005982073257 -1.1807454658119241 0 0 0 0 21.530578556658746 39.531937482954078 0 39.531937482954078 -13.595389874849729 0 0 0 0 173.43152185446343 55.065880846843356 0 55.065880846843356 37.799578558828216 0 0 0 0 61.016958674132184 108.62354510223668 0 108.62354510223668 32.177290379127953 0 0 0 0 203.97868393007229 99.662821848760359 0 99.662821848760359 -49.12454783442081 0 0 0 0 69.598922999955192 53.475862083618381 0 53.475862083618381 -30.569313532685769 0 0 0 0 87.155402760588913 53.310374595203029 0 53.310374595203029 102.24345068950606 0 0 0 0 70.911754067725269 11.826990685462079 0 11.826990685462079 90.927055420586839 0 0 0 0 183.10994802822825 110.15929456827871 0 110.15929456827871 -3.0671103802305879 0 0 0 0 105.88438671639051 197.76258539234186 0 197.76258539234186 226.90267211335595 0 0 0 0 6.8465772506270355 -11.486507880585862 0 -11.486507880585862 -29.720918642749623 0 0 0 0 190.92650861926086 61.767996333121118 0 61.767996333121118 -77.573324709734152 0 0 0 0 9.0364926798723531 5.9103464697590198 0 5.9103464697590198 -17.013535899086719 0 0 0 0 -8.6537318787943605 180.83066701933467 0 180.83066701933467 -73.528073920009774 0 0 0 0 -11.926018865982769 70.594515761818911 0 70.594515761818911 -104.83347484335172 0 0 0 0 -15.258451636011159 104.94887107786963 0 104.94887107786963 8.068373477057321 0 0 0 0 26.419543073398813 89.676216086308415 0 89.676216086308415 -42.610069503105862 0 0 0 0 48.868512779944993 100.36220643730724 0 100.36220643730724 -7.4275340936076191 0 0 0 0 62.615145308722276 79.39262450064416 0 79.39262450064416 -43.734638819238171 0 0 0 0 60.43578958375258 96.976918974131067 0 96.976918974131067 -25.71017876880137 0 0 0 0 64.236316653156095 69.304779706231557 0 69.304779706231557 22.087648640887835 0 0 0 0 31.151871704583755 52.391515637544217 0 52.391515637544217 -16.700316772330552 0 0 0 0 70.485722329639955 56.074810519441286 0 56.074810519441286 11.523506902836715 0 0 0 0 841.28288239275571 686.78793207963463 0 686.78793207963463 -907.77856458944734 0 0 0 0 -116.30512959011784 459.73547022209004 0 459.73547022209004 -105.86875220393995 0 0 0 0 -1702.3095037421663 301.12873946101172 0 301.12873946101172 455.16282932797913 0 0 0 0 104.89823120689834 51.176925133940784 0 51.176925133940784 6.1749735247247202 0 0 0 0 -21.032077594256407 142.30518348959595 0 142.30518348959595 55.817775177405565 0 0 0 0 4.3023213241926612 49.473486600680758 0 49.473486600680758 16.200474494034395 0 0 0 0 74.309736775554484 86.630166298011318 0 86.630166298011318 -47.914680825574123 0 0 0 0 82.864604809783486 141.05430428038017 0 141.05430428038017 -6.6714136376976967 0 0 0 0 88.328124140149157 151.28277215223352 0 151.28277215223352 12.47536333109565 0 0 0 0 143.62197302009008 163.99307874484293 0 163.99307874484293 -1.8472558617831965 0 0 0 0 73.644471168448263 186.02612855891959 0 186.02612855891959 5.994713072788727 0 0 0 0 147.526485801136 234.061999513091 0 234.061999513091 32.762216219693073 0 0 0 0 74.621103258607036 168.10918785393585 0 168.10918785393585 49.795612903486472 0 0 0 0 17.911043440806679 113.95616726348635 0 113.95616726348635 -50.322842956476961 0 0 0 0 -18.123616193809163 74.127083542798772 0 74.127083542798772 -52.36275802774594 0 0 0 0 50.59289996715961 88.58996668029431 0 88.58996668029431 -47.030485835181025 0 0 0 0 157.66494675772628 168.11977586545618 0 168.11977586545618 -57.447598539780302 0 0 0 0 143.45707826399303 185.73533334530293 0 185.73533334530293 -73.77063450627611 0 0 0 0 201.52823224308668 206.86234417011292 0 206.86234417011292 -34.088461809245928 0 0 0 0 204.95645601395086 95.933715830678352 0 95.933715830678352 -53.620650671451585 0 0 0 0 78.687354946559935 63.058972971666662 0 63.058972971666662 -6.9836484682418813 0 0 0 0 407.11486223300381 -25.420397035142287 0 -25.420397035142287 -34.490659970848355 0 0 0 0 147.98137280002993 232.950626596652 0 232.950626596652 -43.361121918424033 0 0 0 0 493.90022297029191 377.60165513438051 0 377.60165513438051 6.5668285164574627 0 0 0 0 -144.19780696079397 456.32996266293412 0 456.32996266293412 373.03951759865595 0 0 0 0 -362.9585807070689 727.46541025416082 0 727.46541025416082 -338.61392771161235 0 0 0 0 -4.4405943954868974 15.20454552485765 0 15.20454552485765 2.4543727785651583 0 0 0 0 -205.49855368508724 1028.3886065095721 0 1028.3886065095721 -340.17741055744409 0 0 0 0 -13.822072600643423 136.20808715779572 0 136.20808715779572 50.213857518639998 0 0 0 0 -3.6563772350273211 232.39340096855813 0 232.39340096855813 137.33687485940754 0 0 0 0 -58.176911531947553 134.74728502739254 0 134.74728502739254 47.537659791225451 0 0 0 0 -7.5037457275466295 119.61582298507346 0 119.61582298507346 38.636664323799778 0 0 0 0 0.62339314327255124 136.8096030426168 0 136.8096030426168 40.772457508381194 0 0 0 0 -46.385752319758765 45.177598048730616 0 45.177598048730616 -47.512180769216968 0 0 0 0 107.73668822629043 170.59547664241109 0 170.59547664241109 69.719907089759545 0 0 0 0 105.27590344711507 147.50847587722683 0 147.50847587722683 18.40897200613108 0 0 0 0 26.880580021708738 124.72478416104059 0 124.72478416104059 38.500324704476384 0 0 0 0 5.3916683612769702 150.8930132631358 0 150.8930132631358 61.429501246464497 0 0 0 0 43.175587798066772 130.85596572511895 0 130.85596572511895 53.73269437313138 0 0 0 0 40.117518403007125 138.74236233622287 0 138.74236233622287 52.638539553721785 0 0 0 0 66.915858070345223 76.944947506589884 0 76.944947506589884 68.898954065216287 0 0 0 0 42.586314887234039 138.33327232629381 0 138.33327232629381 22.497995655183331 0 0 0 0 -20.179507748437118 68.55052486355271 0 68.55052486355271 113.93942539057753 0 0 0 0 1.4484615566893808 16.482122487854213 0 16.482122487854213 92.997900019134249 0 0 0 0 99.621533305438788 325.3658951604084 0 325.3658951604084 -92.729846179423475 0 0 0 0 -46.994536743995923 -135.31176552082616 0 -135.31176552082616 -137.88157244181457 0 0 0 0 509.15651125849399 -64.421059258726018 0 -64.421059258726018 -129.38856473703345 0 0 0 0 -11.294864568122149 27.840447971047539 0 27.840447971047539 43.807647975993035 0 0 0 0 5.9038320614761233 97.592647092664265 0 97.592647092664265 128.760701816238 0 0 0 0 32.941119400044172 82.258536663039223 0 82.258536663039223 108.6135194795996 0 0 0 0 -42.285719481599699 103.35327288294502 0 103.35327288294502 128.57296415436895 0 0 0 0 -24.626127204068325 150.42819383996539 0 150.42819383996539 28.433698866372652 0 0 0 0 -29.411102318797745 60.233634921685734 0 60.233634921685734 -22.091096810166931 0 0 0 0 43.790511043171136 138.08027089068855 0 138.08027089068855 52.350854790834092 0 0 0 0 27.788067937857704 177.85851007894962 0 177.85851007894962 18.048521004195209 0 0 0 0 28.817992020020029 186.13615355406364 0 186.13615355406364 42.820002474647481 0 0 0 0 37.760270188468439 175.78160769388705 0 175.78160769388705 -1.651970307182637 0 0 0 0 0.79008532831721823 133.02496515655366 0 133.02496515655366 45.825465080168215 0 0 0 0 0.26627884315149686 149.77116647644073 0 149.77116647644073 -43.068888618974597 0 0 0 0 -63.835010552591484 193.39649909080435 0 193.39649909080435 30.610429525266227 0 0 0 0 18.161634024294472 154.90469929912069 0 154.90469929912069 -148.30183015795774 0 0 0 0 -97.725359629464947 138.34712844546448 0 138.34712844546448 91.727880608799751 0 0 0 0 10.775803131514635 19.054852200601033 0 19.054852200601033 23.925990308595175 0 0 0 0 19.678037137080537 125.6199400088517 0 125.6199400088517 -23.346890540491586 0 0 0 0 -0.84643966704265949 189.85447313774785 0 189.85447313774785 82.559465119942615 0 0 0 0 33.438967075248094 78.213194697628978 0 78.213194697628978 94.883326904748401 0 0 0 0 -279.58300364720264 433.97919859503054 0 433.97919859503054 469.62622893710795 0 0 0 0 22.629138084065744 144.89256610197481 0 144.89256610197481 -44.220712667523912 0 0 0 0 -34.681101174151237 61.667521691078463 0 61.667521691078463 -18.621917314382387 0 0 0 0 -5.8081540680650505 145.89429495134027 0 145.89429495134027 62.288362197497918 0 0 0 0 54.561062512918511 51.603061295834159 0 51.603061295834159 30.292869778513278 0 0 0 0 -50.163581731617342 134.46267920748141 0 134.46267920748141 112.77629226672434 0 0 0 0 -4.218572925985427 174.08977005662018 0 174.08977005662018 -71.103687583767169 0 0 0 0 -255.0634870485178 42.406615077426977 0 42.406615077426977 90.521539507841226 0 0 0 0 -172.41008679606603 290.45817272322893 0 290.45817272322893 -74.68350817839746 0 0 0 0 -13.92135941224933 70.463348978506474 0 70.463348978506474 90.975350923246879 0 0 0 0 -50.692568435447299 74.038428611172378 0 74.038428611172378 -32.417321121688701 0 0 0 0 -146.42145475952339 205.52492101135249 0 205.52492101135249 186.29565793402435 0 0 0 0 366.19929450596101 -244.35165767791477 0 -244.35165767791477 -434.71794482917903 0 0 0 0 93.904133453096634 68.05681158309423 0 68.05681158309423 -24.35483895476608 0 0 0 0 -327.28630217042519 791.0268382184513 0 791.0268382184513 211.76897228851522 0 0 0 0 246.63074329433584 -404.459578032227 0 -404.459578032227 -406.94059995100542 0 0 0 0 -580.69369881979219 22.194374478029204 0 22.194374478029204 -34.151630448628566 0 0 0 0 -585.86152406601468 1122.2237147135456 0 1122.2237147135456 -771.73218326664937 0 0 0 0 -223.34568564348382 287.09804175779891 0 287.09804175779891 -434.02615632582456 0 0 0 0 -308.14526615532191 308.58482482741965 0 308.58482482741965 -436.43054517379096 0 0 0 0 -10.300510014634256 -0.21246855521894759 0 -0.21246855521894759 161.62823091000996 0 0 0 0 10.893116906409837 15.622814928450694 0 15.622814928450694 17.170098926513361 0 0 0 0 -71.533430445377235 37.236465516914905 0 37.236465516914905 160.46347399465571 0 0 0 0 -36.579634293328354 67.477555130375549 0 67.477555130375549 147.89194531796966 0 0 0 0 -37.505741929615169 85.849701936541351 0 85.849701936541351 164.40421906125266 0 0 0 0 7.4310675610325401 4.7119609329581209 0 4.7119609329581209 2.3545729042019161 0 0 0 0 12.804269307560844 -167.30250620478182 0 -167.30250620478182 573.74118615990301 0 0 0 0 278.09005077316397 946.88363205545465 0 946.88363205545465 -813.65526928281179 0 0 0 0 -166.91969000078097 1223.0172361360019 0 1223.0172361360019 -846.69431972711027 0 0 0 0 178.87309873582853 1076.19306351665 0 1076.19306351665 -784.45742704778968 0 0 0 0 -290.76988781526597 978.70243076201587 0 978.70243076201587 -631.96711928948935 0 0 0 0 160.70067951908277 846.39440255191585 0 846.39440255191585 -867.03034968012798 0 0 0 0 91.742785216410994 735.53373588628892 0 735.53373588628892 -455.99805383382045 0 0 0 0 135.16757700632388 725.24541982627943 0 725.24541982627943 -487.139896616427 0 0 0 0 -383.62266797022312 494.48268026571168 0 494.48268026571168 -280.75733161641983 0 0 0 0 85.026308036249247 270.26327929836407 0 270.26327929836407 -252.33812272539035 0 0 0 0 -184.42024624998885 624.14467556396994 0 624.14467556396994 -198.36220191320172 0 0 0 0 -166.60242950751854 1127.3151728158482 0 1127.3151728158482 -768.20697718724841 0 0 0 0 -1036.3985084392334 1036.295614087896 0 1036.295614087896 -380.0484478583603 0 0 0 0 -698.99910417937645 489.44880276526965 0 489.44880276526965 -41.587908416971914 0 0 0 0 -1172.3988823151158 108.65808530602953 0 108.65808530602953 49.612062396277906 0 0 0 0 -104.09438274668355 160.35884242752218 0 160.35884242752218 -66.416139480570564 0 0 0 0 63.742671363987029 -163.60519272454258 0 -163.60519272454258 -37.858473177228007 0 0 0 0 -403.82258461395008 92.237871450547118 0 92.237871450547118 108.26522765113623 0 0 0 0 234.72275502888078 264.49921511307184 0 264.49921511307184 108.94599060990004 0 0 0 0 37.624616096805596 69.967221409359325 0 69.967221409359325 74.535204265701111 0 0 0 0 -32.834763668681262 -21.688131331953628 0 -21.688131331953628 -32.812945147037681 0 0 0 0 -242.93382552832918 -281.64533354013111 0 -281.64533354013111 -585.01239482132951 0 0 0 0 12.413373598767819 24.152373816476512 0 24.152373816476512 2.8277398863620675 0 0 0 0 -227.27170896755706 467.3492059017226 0 467.3492059017226 658.93457337471773 0 0 0 0 -563.92104411464447 1223.546904321036 0 1223.546904321036 -1999.0263222349167 0 0 0 0 -2580.7179676899614 989.79057216159708 0 989.79057216159708 -1024.4057549154822 0 0 0 0 43.920406345881361 53.804383185685396 0 53.804383185685396 -13.010876755990125 0 0 0 0 71.573355892440304 35.76683540653903 0 35.76683540653903 -295.79684121672472 0 0 0 0 71.220360241170965 32.167984247233107 0 32.167984247233107 -106.77750436027418 0 0 0 0 -3757.7361137155167 3480.4610367963251 0 3480.4610367963251 -1487.582167455992 0 0 0 0 70.803815981373191 45.913259895838564 0 45.913259895838564 -203.9235085377295 0 0 0 0 -3570.6176215882297 1987.6295332316949 0 1987.6295332316949 -1573.8382308979926 0 0 0 0 -2282.5041965585842 334.43373161416093 0 334.43373161416093 288.57141491040238 0 0 0 0 424.14117347798856 2317.4534899543878 0 2317.4534899543878 -3901.2372084322706 0 0 0 0 -7.1136573769825873 2.4366738193967166 0 2.4366738193967166 -1.0493348779327931 0 0 0 0 -1064.3960161075956 -264.2620066342206 0 -264.2620066342206 243.17769634607248 0 0 0 0 -2274.6429095766289 1087.2818374218841 0 1087.2818374218841 -210.40615478402469 0 0 0 0 -1412.3306042245822 1033.9838770452479 0 1033.9838770452479 -2462.4119130292238 0 0 0 0 -1155.4771853545681 1153.5471319530334 0 1153.5471319530334 -475.49414192582481 0 0 0 0 -1230.2104350801683 1735.7074365857825 0 1735.7074365857825 -1066.975922998332 0 0 0 0 -125.43992843606975 1169.5065458608005 0 1169.5065458608005 -1618.3679546054773 0 0 0 0 -739.26279061373498 1970.2553700493008 0 1970.2553700493008 -2647.2349222427292 0 0 0 0 -3139.6463115194492 2411.2542804120749 0 2411.2542804120749 -1115.3390442430973 0 0 0 0 -48.548907016098383 977.7600333996088 0 977.7600333996088 -2466.0481397312719 0 0 0 0 89.109778382466175 86.25309397487581 0 86.25309397487581 -393.6888851877884 0 0 0 0 118.32955796658644 156.22818574913254 0 156.22818574913254 -491.62088490187307 0 0 0 0 96.71683996898355 40.841532193277089 0 40.841532193277089 -364.06760641981964 0 0 0 0 94.106105325542075 -6.2760611589257707 0 -6.2760611589257707 -11.015536731885291 0 0 0 0 -21.476079386848141 159.7621059167941 0 159.7621059167941 -21.717590053973254 0 0 0 0 -15.316185666830279 227.98400017815584 0 227.98400017815584 -275.79676734967506 0 0 0 0 -29.241577925771708 289.81134437413857 0 289.81134437413857 -19.85775229925639 0 0 0 0 -221.45385946491297 439.00188926396004 0 439.00188926396004 81.011333275964716 0 0 0 0 -48.348076329682954 414.7260453866329 0 414.7260453866329 -468.31099301022823 0 0 0 0 705.01473085167527 -76.575960768139339 0 -76.575960768139339 -524.51231145960628 0 0 0 0 642.17494739434915 367.97898311541212 0 367.97898311541212 -1950.1884736239881 0 0 0 0 -64.295708637306234 1305.9466321077489 0 1305.9466321077489 -1329.7933316143462 0 0 0 0 423.75489701494371 1015.9239273339845 0 1015.9239273339845 -1185.0123822936439 0 0 0 0 359.89261764708499 1065.2456454175335 0 1065.2456454175335 -809.02156409819145 0 0 0 0 -47.040641544126402 47.339159779652633 0 47.339159779652633 -24.334486707628628 0 0 0 0 -77.073530976833354 17.455539499185761 0 17.455539499185761 130.226852210777 0 0 0 0 -164.74284419936157 86.25182415326708 0 86.25182415326708 295.3352052997725 0 0 0 0 -52.729732335161316 170.10949199095376 0 170.10949199095376 -23.41699600116408 0 0 0 0 -49.968293449688645 151.09396895190002 0 151.09396895190002 -8.5105188401198575 0 0 0 0 -43.389240377535828 50.239702096997888 0 50.239702096997888 -21.967922654362226 0 0 0 0 -29.700549797169515 77.100313320333953 0 77.100313320333953 -5.5734586189209949 0 0 0 0 -38.124319642440241 134.79372863072422 0 134.79372863072422 52.761247256232309 0 0 0 0 -5.2125926444423385 125.90470460173674 0 125.90470460173674 2.461488421424292 0 0 0 0 -2782.2249973299549 1607.0145670463244 0 1607.0145670463244 -766.63956462903298 0 0 0 0 68.250785545444643 56.508502884960336 0 56.508502884960336 -43.289454649120671 0 0 0 0 -1272.1904860153008 1247.224363912268 0 1247.224363912268 -1534.0110864926246 0 0 0 0 -1878.5229810518795 1446.1304999969216 0 1446.1304999969216 -738.00734906426078 0 0 0 0 -16.765100512406207 69.442749016641756 0 69.442749016641756 -15.994716592307668 0 0 0 0 8.5653452561975314 57.523278831150606 0 57.523278831150606 6.5104960064669513 0 0 0 0 33.192393890117657 38.227632199006848 0 38.227632199006848 -19.778921304182006 0 0 0 0 -32.873546465183608 67.70437335826864 0 67.70437335826864 -15.256809732953116 0 0 0 0 -36.860725716654997 75.194455701141123 0 75.194455701141123 -28.128794429445406 0 0 0 0 -36.041514919595159 58.117230647271043 0 58.117230647271043 -21.539388110887643 0 0 0 0 -61.52367594424868 73.111019832795137 0 73.111019832795137 160.55323197956022 0 0 0 0 -27.593934579999768 64.997622797394797 0 64.997622797394797 -38.972125239233719 0 0 0 0 -28.858514999254112 63.468985120569414 0 63.468985120569414 -22.246133484237362 0 0 0 0 -32.318582708474423 69.217190768897126 0 69.217190768897126 -11.488362382646301 0 0 0 0 -26.998761484614079 71.946878779788676 0 71.946878779788676 -23.919232574393391 0 0 0 0 -38.374167638954532 57.519585402129451 0 57.519585402129451 -19.378047581179999 0 0 0 0 -17.94964710711065 70.961597791632812 0 70.961597791632812 -22.514342361206218 0 0 0 0 -29.651158592692809 71.436495658661443 0 71.436495658661443 -0.20152266601508018 0 0 0 0 -29.855984945689613 52.054877340615803 0 52.054877340615803 -25.899795866786675 0 0 0 0 -25.846625690268411 45.107064182397153 0 45.107064182397153 -10.265281300289644 0 0 0 0 -29.663337727550243 57.001286686747335 0 57.001286686747335 -45.696715743415552 0 0 0 0 105.112986835946 71.868762299581093 0 71.868762299581093 -13.503718847034747 0 0 0 0 -461.27976829611544 761.71095232784319 0 761.71095232784319 -513.56132090113533 0 0 0 0 38.935377959896186 307.19205498975498 0 307.19205498975498 -302.22324326870148 0 0 0 0 -22.303638563988898 16.571872924287163 0 16.571872924287163 -193.2651919489781 0 0 0 0 -152.94118581487783 231.36748113353133 0 231.36748113353133 -299.11050438339589 0 0 0 0 -161.86276384024586 532.50472393674136 0 532.50472393674136 -416.93305349443108 0 0 0 0 -195.70113353118325 343.79284689603082 0 343.79284689603082 -557.59526584703417 0 0 0 0 -482.61127161432978 339.63136378698982 0 339.63136378698982 -273.64561983726162 0 0 0 0 1.4359632839480367 4.2914272664821738 0 4.2914272664821738 5.4295438627613635 0 0 0 0 -574.20636433631682 465.76741844282515 0 465.76741844282515 -426.74624745096662 0 0 0 0 -73.461490516722847 385.86133634451835 0 385.86133634451835 -416.29014154386823 0 0 0 0 -254.86352441428494 353.37523482440156 0 353.37523482440156 -83.171099352548481 0 0 0 0 102.99361744004437 65.054623403002537 0 65.054623403002537 -21.944273096567372 0 0 0 0 98.198736548351008 190.36625132914196 0 190.36625132914196 -517.27180783725635 0 0 0 0 57.943672580739076 778.38419423809682 0 778.38419423809682 -1029.123266637529 0 0 0 0 -1243.5450204801582 771.07385701801149 0 771.07385701801149 -697.87847983418033 0 0 0 0 -861.37162328324803 845.82428519593714 0 845.82428519593714 -595.54419819012401 0 0 0 0 -886.95078545525757 1120.1057676750061 0 1120.1057676750061 -1061.8457524973855 0 0 0 0 -1645.1831322977123 935.53443127634091 0 935.53443127634091 -547.65982959623216 0 0 0 0 -492.47138415609516 955.97681872759131 0 955.97681872759131 -783.6200835146592 0 0 0 0 -1008.5039481952263 971.9237764739155 0 971.9237764739155 -594.58545313753712 0 0 0 0 -996.32920393731911 882.91156988960574 0 882.91156988960574 -675.82799000646628 0 0 0 0 -496.66005762876011 748.96788732432469 0 748.96788732432469 -514.77972274484682 0 0 0 0 -484.78537367063836 824.75092414893879 0 824.75092414893879 -631.56258616430569 0 0 0 0 -537.81075756176142 863.42347282344417 0 863.42347282344417 -542.75861267259461 0 0 0 0 -627.27592405743962 876.32308090746119 0 876.32308090746119 -533.30913938322919 0 0 0 0 -1207.0832950512558 955.18961764348205 0 955.18961764348205 -441.18451501784148 0 0 0 0 -625.15930227578792 872.70635486065112 0 872.70635486065112 -608.78047959922696 0 0 0 0 -596.54948116122978 770.97431499868981 0 770.97431499868981 -474.2851409430441 0 0 0 0 -1004.5317410349089 863.98567053460283 0 863.98567053460283 -494.65758360127802 0 0 0 0 -1178.0745915887601 698.34403451150138 0 698.34403451150138 -305.69515617075376 0 0 0 0 -44.424424820150307 550.8517941308819 0 550.8517941308819 -420.57813324099698 0 0 0 0 -1.6855321667660874 33.347903110796722 0 33.347903110796722 32.782170574291456 0 0 0 0 -13.15109646415749 29.338642233198698 0 29.338642233198698 118.89621551107848 0 0 0 0 -698.42886648327112 570.86697838746477 0 570.86697838746477 -304.54375603482185 0 0 0 0 -1044.4524966954923 618.57671486245818 0 618.57671486245818 -310.56161109561799 0 0 0 0 -17.978458384922305 58.396893776776778 0 58.396893776776778 115.13411831678241 0 0 0 0 -450.18239681160594 945.37360723129086 0 945.37360723129086 -482.27265859069303 0 0 0 0 -408.03228895965731 839.43024588249682 0 839.43024588249682 -420.52692240988108 0 0 0 0 -472.03923218944692 676.04906646440213 0 676.04906646440213 -480.62248823081609 0 0 0 0 -962.37692838400835 855.311291996215 0 855.311291996215 -329.94611260142119 0 0 0 0 -531.55372202717263 1102.3844020451143 0 1102.3844020451143 -219.7770624338591 0 0 0 0 -537.14487852845059 870.8420708141698 0 870.8420708141698 -468.10358216083841 0 0 0 0 -867.58599201229299 599.79115359947718 0 599.79115359947718 -411.43365255034587 0 0 0 0 -792.59382968808495 737.10932055114245 0 737.10932055114245 -419.6943457232328 0 0 0 0 -1139.583572914773 245.26000961363206 0 245.26000961363206 -1099.4550125939277 0 0 0 0 -601.59006236643836 952.10530810917044 0 952.10530810917044 -1014.9543746931595 0 0 0 0 -206.47682538326626 1610.8120900969516 0 1610.8120900969516 -808.68759701012459 0 0 0 0 -1549.2778600234524 929.10150378707294 0 929.10150378707294 -147.36459864773497 0 0 0 0 1246.9024661393632 260.96856509290228 0 260.96856509290228 -427.69154096483362 0 0 0 0 -351.6008614352977 876.05646379634709 0 876.05646379634709 -404.55386113376881 0 0 0 0 4.1741394134184944 6.6153618939474654 0 6.6153618939474654 13.486523205660433 0 0 0 0 70.384689200946013 -127.12777390928386 0 -127.12777390928386 99.982933684965246 0 0 0 0 -87.602577574260067 -19.032497062085895 0 -19.032497062085895 88.182036138561671 0 0 0 0 -91.497530713549622 53.621376438668904 0 53.621376438668904 134.31278057093732 0 0 0 0 66.840645210475486 427.8642734309251 0 427.8642734309251 -604.61861334979767 0 0 0 0 -5.5238384187759948 804.10854182250478 0 804.10854182250478 685.16914839169476 0 0 0 0 258.83246057665383 -1818.5448958177512 0 -1818.5448958177512 -1729.915164669721 0 0 0 0 107.15042400686798 5.8998851927754004 0 5.8998851927754004 174.91940049396362 0 0 0 0 47.387091480071831 21.799460261405329 0 21.799460261405329 -920.8658870829604 0 0 0 0 37.786435258355638 27.152899509073563 0 27.152899509073563 -7.1425655546865414 0 0 0 0 294.72585736236215 171.98176010220777 0 171.98176010220777 -39.912391808109533 0 0 0 0 -33.491653584122815 38.090595972082667 0 38.090595972082667 -22.761811337548608 0 0 0 0 315.83479061823891 -0.14020116845495068 0 -0.14020116845495068 -198.9331735696469 0 0 0 0 155.72378236508303 59.880734907208534 0 59.880734907208534 -177.42571502552892 0 0 0 0 -269.57001879467862 501.25776797712024 0 501.25776797712024 -445.18524457573949 0 0 0 0 292.54406817839481 25.519908586764359 0 25.519908586764359 -335.68730162926659 0 0 0 0 -248.37649847387365 752.23183187493851 0 752.23183187493851 -735.35968386256718 0 0 0 0 -523.81775160366669 501.62471135667874 0 501.62471135667874 -867.96065751944116 0 0 0 0 -1240.329532821037 1110.2767045370856 0 1110.2767045370856 -576.2396031638491 0 0 0 0 -639.37765220936853 866.64682001512847 0 866.64682001512847 -490.96497475638171 0 0 0 0 -966.49229167097656 803.36048119343468 0 803.36048119343468 -448.93069385745912 0 0 0 0 -14.584920173934023 7.2290009330856151 0 7.2290009330856151 -7.3211834741952941 0 0 0 0 -633.4110365300694 1060.1909615633776 0 1060.1909615633776 -370.31586343265371 0 0 0 0 -506.56562716406188 744.70558353629895 0 744.70558353629895 362.02413736176095 0 0 0 0 -557.64585957622694 529.07828820607392 0 529.07828820607392 -68.136487083422253 0 0 0 0 -213.1585582769203 113.1671884437128 0 113.1671884437128 -271.93581811842159 0 0 0 0 -122.73820852003917 1730.9516991869737 0 1730.9516991869737 -889.1532381575671 0 0 0 0 -88.446257307252381 311.02288427027815 0 311.02288427027815 -513.09281818530144 0 0 0 0 129.68937810719945 85.819056339016242 0 85.819056339016242 -269.92024365003454 0 0 0 0 -116.57517268120864 232.1032777349028 0 232.1032777349028 -154.57573762319225 0 0 0 0 -15.406459717374872 53.794191680391549 0 53.794191680391549 -36.256007241604493 0 0 0 0 -90.992153377228533 81.478674974845489 0 81.478674974845489 180.27652511039196 0 0 0 0 45.475675902717647 103.1513495645541 0 103.1513495645541 -118.28347256996494 0 0 0 0 45.287166384616285 176.06411822396331 0 176.06411822396331 -671.25143550970824 0 0 0 0 -90.95155121202697 286.49560468564596 0 286.49560468564596 -265.03668553086754 0 0 0 0 -24.274934995526564 187.63712281206972 0 187.63712281206972 -91.86174910760019 0 0 0 0 -35.617176133167277 38.718452925835209 0 38.718452925835209 124.48176838908694 0 0 0 0 -53.748450692204642 66.672150689788396 0 66.672150689788396 88.670114243895114 0 0 0 0 -103.11715160452877 415.41167328329175 0 415.41167328329175 71.13190388489511 0 0 0 0 3.8159936549927806 178.38265467707242 0 178.38265467707242 -365.70686871686485 0 0 0 0 15.236648026409966 206.71229181749368 0 206.71229181749368 -413.79606075752235 0 0 0 0 -27.000630271320148 54.507829033615479 0 54.507829033615479 -35.117948438125268 0 0 0 0 -116.27015564389876 63.826551034013391 0 63.826551034013391 -13.270175005192868 0 0 0 0 -10.759188666022965 134.7670475935156 0 134.7670475935156 -123.43680509671685 0 0 0 0 20.674020440571837 22.248138052961679 0 22.248138052961679 -7.2675525825858642 0 0 0 0 5.4695565590882325 174.27056911522959 0 174.27056911522959 -412.16968436571187 0 0 0 0 21.082112198488176 207.50983783613628 0 207.50983783613628 -429.01185512926895 0 0 0 0 9.6995783006984198 4.0781941423696537 0 4.0781941423696537 4.1742520084127364 0 0 0 0 118.73333763612027 238.3214005077316 0 238.3214005077316 -231.75721101781528 0 0 0 0 -41.732510760069999 347.74368591005623 0 347.74368591005623 -190.22165677274097 0 0 0 0 -43.696432814569562 -17.856498290144373 0 -17.856498290144373 -132.3018815610485 0 0 0 0 3.8867562778468709 46.970429456225247 0 46.970429456225247 -52.161502235278022 0 0 0 0 5.6572824423105885 87.839688619035542 0 87.839688619035542 146.799465356773 0 0 0 0 1.5591787270362545 1.7403280651211617 0 1.7403280651211617 1.7462517600879437 0 0 0 0 297.45530631886504 -89.026613679699949 0 -89.026613679699949 -37.076487156853545 0 0 0 0 378.56446508826048 113.29845166562882 0 113.29845166562882 -127.60543335028342 0 0 0 0 303.84097605281568 322.25985032130848 0 322.25985032130848 -36.412889303523116 0 0 0 0 102.78405692703382 271.20302875859488 0 271.20302875859488 -43.121266992151504 0 0 0 0 -79.591179713257588 -561.230263714795 0 -561.230263714795 709.01975706918165 0 0 0 0 232.78350106225116 100.79558439820539 0 100.79558439820539 -127.8583506673458 0 0 0 0 -8.3289027306492756 4.436304000241222 0 4.436304000241222 -2.8784261081592035 0 0 0 0 13.970092674844921 52.810734112980299 0 52.810734112980299 -36.045137616406379 0 0 0 0 -34.931579391530249 84.635827199672349 0 84.635827199672349 -205.90374046011129 0 0 0 0 42.960015746706631 -69.196239957993384 0 -69.196239957993384 -170.19966124034545 0 0 0 0 18.728711516912767 7.6155356806794998 0 7.6155356806794998 -27.264870101208999 0 0 0 0 4.8739874629183362 6.8536208389270712 0 6.8536208389270712 -17.824924729316933 0 0 0 0 22.34675431670621 -30.144654289528262 0 -30.144654289528262 -166.18161647306988 0 0 0 0 37.326393654374414 -33.267957849366837 0 -33.267957849366837 -114.13355224802177 0 0 0 0 -70.115670761486399 122.16934476120514 0 122.16934476120514 -85.673267315665726 0 0 0 0 56.028193158332698 33.626055155030201 0 33.626055155030201 -3.1393172517382482 0 0 0 0 132.26904206623294 138.72284984936414 0 138.72284984936414 -167.3128715390485 0 0 0 0 57.564624724316673 14.167087110148714 0 14.167087110148714 -69.441343780170428 0 0 0 0 41.889915489602799 42.435953333041141 0 42.435953333041141 -59.494030536590742 0 0 0 0 55.527098190486868 20.421433470939519 0 20.421433470939519 -88.637180894700577 0 0 0 0 10.287487475750794 12.887215693200261 0 12.887215693200261 -23.298569676979582 0 0 0 0 -34.020580577889632 6.3825933370681014 0 6.3825933370681014 -19.079054868911044 0 0 0 0 69.976287832687376 41.180588700488443 0 41.180588700488443 -137.4537116268184 0 0 0 0 48.183961796210497 65.823829497443512 0 65.823829497443512 -165.24511873465963 0 0 0 0 87.360543929622509 -46.225085301295621 0 -46.225085301295621 -22.96059083216096 0 0 0 0 3.2861186584165125 12.910049052489626 0 12.910049052489626 -7.6608882847450559 0 0 0 0 189.94640213545063 -17.556715911137871 0 -17.556715911137871 -169.66486669742517 0 0 0 0 77.326214547454583 165.66821448898372 0 165.66821448898372 -260.59105811416521 0 0 0 0 27.569949210490449 -0.74420644195924979 0 -0.74420644195924979 -212.63799529411699 0 0 0 0 52.017363898488867 49.304637765520283 0 49.304637765520283 9.8708822058530359 0 0 0 0 -5.8802748723210243 103.9229941145386 0 103.9229941145386 1.0683102843759116 0 0 0 0 -9.2406608401070116 119.84094003992504 0 119.84094003992504 -52.710160870934487 0 0 0 0 -24.901915946201854 53.328233933520835 0 53.328233933520835 -32.702465540605203 0 0 0 0 -19.530854505882417 82.540327941902433 0 82.540327941902433 -3.1163531607890036 0 0 0 0 1.8495253976579988 97.281415368663147 0 97.281415368663147 7.0372230006905738 0 0 0 0 7.3160170040646335 137.58080647591123 0 137.58080647591123 -92.145083674127818 0 0 0 0 9.3711528928542975 476.61682333913632 0 476.61682333913632 -289.41829748614691 0 0 0 0 41.124024533727152 33.084278152436468 0 33.084278152436468 27.483652176375983 0 0 0 0 9.6957580894741113 154.36725577613106 0 154.36725577613106 -237.45012502744794 0 0 0 0 -278.47610433897353 290.5079339157237 0 290.5079339157237 13.239123305946123 0 0 0 0 -137.83778989045823 122.26885984372348 0 122.26885984372348 18.662617802794557 0 0 0 0 -134.83927213444258 151.16644990237546 0 151.16644990237546 0.25114120481885038 0 0 0 0 48.423931060126051 147.02982601028634 0 147.02982601028634 -57.90373593888944 0 0 0 0 173.98507472186611 -74.009676315828983 0 -74.009676315828983 197.97442918564775 0 0 0 0 444.0194656788517 97.1261979622941 0 97.1261979622941 -0.19551358887110837 0 0 0 0 599.45713459386752 -177.67560282141494 0 -177.67560282141494 -53.25769540379406 0 0 0 0 85.274985115378513 98.775845934200333 0 98.775845934200333 -81.78167254323489 0 0 0 0 -2.7181691346986838 2.3152080432494699 0 2.3152080432494699 7.1256341582155756 0 0 0 0 165.39719578209042 378.13617833472381 0 378.13617833472381 83.645263927352062 0 0 0 0 -21.669974427422858 46.642713280700264 0 46.642713280700264 -20.087422403477831 0 0 0 0 5.6320699629141018 77.787654388142982 0 77.787654388142982 -96.625123833538964 0 0 0 0 -25.860934220356285 11.217372698243707 0 11.217372698243707 -101.84892490357379 0 0 0 0 -59.215601607225835 140.57974831361207 0 140.57974831361207 67.499029824481113 0 0 0 0 31.363336194932344 206.5840060282062 0 206.5840060282062 80.278129086200352 0 0 0 0 53.702935852954397 76.716274937489288 0 76.716274937489288 -10.77160792061477 0 0 0 0 5.1932764014054555 54.177963267880841 0 54.177963267880841 0.16274989462260517 0 0 0 0 11.135763382000732 47.638075937866233 0 47.638075937866233 -68.438902947767929 0 0 0 0 0.50024311494780704 72.138645144099428 0 72.138645144099428 -82.980359320295975 0 0 0 0 -396.91377705565537 243.09684406263113 0 243.09684406263113 370.29777883206407 0 0 0 0 -7.351391966608702 10.727352956312131 0 10.727352956312131 -11.685929219533364 0 0 0 0 940.14790125381114 -1269.2564176991291 0 -1269.2564176991291 -53.940592077534802 0 0 0 0 113.58345735633702 3164.3440768102264 0 3164.3440768102264 -470.64021276663698 0 0 0 0 -4005.9744471994891 -1842.3972383335131 0 -1842.3972383335131 2293.8997117683757 0 0 0 0 -620.19377429296037 86.800233501151524 0 86.800233501151524 -1279.6191603795451 0 0 0 0 -13.7054471607658 5.2088477531045214 0 5.2088477531045214 0.16281892675493737 0 0 0 0 -638.62690723875312 43.083186960036983 0 43.083186960036983 -470.90862589597236 0 0 0 0 800.03794685674529 -581.45004834333668 0 -581.45004834333668 -122.49100031811395 0 0 0 0 323.30005142925802 820.7607599892217 0 820.7607599892217 -129.77242232003164 0 0 0 0 16.843037304256939 3.2298859110697435 0 3.2298859110697435 2.9858527375272104 0 0 0 0 -222.12664758932078 -86.074814865336521 0 -86.074814865336521 522.47113328162231 0 0 0 0 34.115319325232122 150.66971566400025 0 150.66971566400025 0.43715566369064618 0 0 0 0 -13.23348864653417 60.013239193131085 0 60.013239193131085 79.887689087860053 0 0 0 0 -1.4063891037912981 88.956525122866879 0 88.956525122866879 -70.931911378225777 0 0 0 0 57.574667537563073 17.928843686584514 0 17.928843686584514 144.23002198478207 0 0 0 0 -117.6851655913124 343.42729018778482 0 343.42729018778482 -146.42918015901523 0 0 0 0 1437.8246538516396 104.06275568435376 0 104.06275568435376 -0.99266872930093086 0 0 0 0 12.198068385418225 7.4350303513315623 0 7.4350303513315623 -12.013405657980172 0 0 0 0 46.349596798547395 62.850088514977188 0 62.850088514977188 -368.22798619337846 0 0 0 0 47.188767124767764 88.615096701381844 0 88.615096701381844 -88.942580055823782 0 0 0 0 30.4982347049298 24.210508041524406 0 24.210508041524406 16.495814405940791 0 0 0 0 -265.3133607445161 299.24408431493066 0 299.24408431493066 -111.77566719040624 0 0 0 0 -232.49449518392794 249.47160981722118 0 249.47160981722118 -124.20942828367697 0 0 0 0 -252.03937429474081 297.60325417128297 0 297.60325417128297 -153.89275451633148 0 0 0 0 -424.08528896790813 194.56168580445228 0 194.56168580445228 -112.80759320786456 0 0 0 0 9.6144467595113952 4.5880840786766726 0 4.5880840786766726 -2.7564459513796464 0 0 0 0 -234.7039450109005 71.599713353556581 0 71.599713353556581 -62.939095513240318 0 0 0 0 3.6568702109542812 3.3309659718065632 0 3.3309659718065632 4.8335554552163558 0 0 0 0 1771.000833465434 -180.00872521293059 0 -180.00872521293059 17.340613852109527 0 0 0 0 -105.20017749391081 81.227670224739995 0 81.227670224739995 -0.3120312646497041 0 0 0 0 1859.047266917034 206.14769516223168 0 206.14769516223168 -284.69329112992273 0 0 0 0 1372.9182972682975 518.41069169745606 0 518.41069169745606 -297.81306201998996 0 0 0 0 396.22600352555673 -11.188692928924866 0 -11.188692928924866 -149.02286406501662 0 0 0 0 -962.93078892047197 837.39980039346847 0 837.39980039346847 354.86096741532674 0 0 0 0 616.85123105978346 889.15916974926949 0 889.15916974926949 0.94690234007430263 0 0 0 0 -270.85512796057446 661.50877741831937 0 661.50877741831937 397.24504128475746 0 0 0 0 4.2186915906459035 1101.8365316994605 0 1101.8365316994605 -0.19351464046873709 0 0 0 0 -102.38001626592904 1207.7459594485572 0 1207.7459594485572 122.90444550348911 0 0 0 0 -677.57172253774115 604.62058163579786 0 604.62058163579786 -54.18708820611937 0 0 0 0 -377.50011591139628 800.11679072906554 0 800.11679072906554 42.157126328529557 0 0 0 0 702.6417940500105 743.82582637593441 0 743.82582637593441 -80.429605310957413 0 0 0 0 -736.73817260269152 1478.4500662268656 0 1478.4500662268656 15.398037575796479 0 0 0 0 -2385.5603113777561 283.90675728592032 0 283.90675728592032 382.49603438796476 0 0 0 0 -2070.835322194489 852.43266248780128 0 852.43266248780128 308.01881050804514 0 0 0 0 -1006.7444140204279 1068.1008411930088 0 1068.1008411930088 -0.60892664495185789 0 0 0 0 -1195.3094450956523 682.39013746589262 0 682.39013746589262 300.8146573875274 0 0 0 0 -981.33006204596313 355.12226474312047 0 355.12226474312047 245.3241169945104 0 0 0 0 -1848.3731577210201 584.4252022432629 0 584.4252022432629 385.94310189429962 0 0 0 0 -1528.7772003740138 435.08644938610814 0 435.08644938610814 408.24601486953907 0 0 0 0 -859.27332614131046 363.13391828529711 0 363.13391828529711 -102.39441487769363 0 0 0 0 -1794.5697085564425 694.28632511418255 0 694.28632511418255 360.62506004102761 0 0 0 0 -2489.5250945118751 560.24853107728995 0 560.24853107728995 365.37445654598832 0 0 0 0 -1725.0802211323171 301.97989048812451 0 301.97989048812451 -947.72530564275803 0 0 0 0 -1646.2698971046411 635.67256122801336 0 635.67256122801336 249.30570519756293 0 0 0 0 -1174.4287070290811 394.68989878670254 0 394.68989878670254 49.144729059538804 0 0 0 0 -1129.9737472136767 593.76445953117764 0 593.76445953117764 295.96977364592021 0 0 0 0 -490.58890352615708 869.17347311638878 0 869.17347311638878 150.49921252967033 0 0 0 0 -561.01348795426384 1266.8013147180463 0 1266.8013147180463 -240.43281627794204 0 0 0 0 -941.89692477705466 394.36598197634157 0 394.36598197634157 -274.48486346896971 0 0 0 0 -1738.8436284710533 945.64824948273963 0 945.64824948273963 218.12543328650645 0 0 0 0 -1633.0223139896334 1385.0062441643458 0 1385.0062441643458 -752.89271855761763 0 0 0 0 -67.7871202157894 61.005776923586382 0 61.005776923586382 -2.3385824488213984 0 0 0 0 -571.06887378382089 1443.5652947669732 0 1443.5652947669732 -1234.9483057146426 0 0 0 0 -3144.6067865233781 731.55165307264542 0 731.55165307264542 -467.3558085707482 0 0 0 0 5.6998427613504461 10.688515602714233 0 10.688515602714233 3.5150970596038178 0 0 0 0 38.379627291177357 65.763691923919609 0 65.763691923919609 16.369317927998395 0 0 0 0 3038.0382029703032 1881.2068586010573 0 1881.2068586010573 -389.8299259004707 0 0 0 0 756.42082316587766 641.86142117820418 0 641.86142117820418 111.81665754574351 0 0 0 0 -13.532514272757155 18.519073318956515 0 18.519073318956515 -14.645606931963869 0 0 0 0 1355.7602649760884 2113.0746289778617 0 2113.0746289778617 164.23153681249823 0 0 0 0 1297.8667602280329 1168.2666633956251 0 1168.2666633956251 112.36716541656642 0 0 0 0 529.47945695769158 797.02564167187666 0 797.02564167187666 418.03889305703342 0 0 0 0 477.77002995616203 931.64418267094879 0 931.64418267094879 97.297117716268986 0 0 0 0 -355.72404878977977 443.32022853434319 0 443.32022853434319 -90.761381693388103 0 0 0 0 -342.93200250806331 362.3557694588053 0 362.3557694588053 405.48058758117259 0 0 0 0 -575.02884866530803 1037.273857497712 0 1037.273857497712 418.33141825234634 0 0 0 0 589.63844356722984 311.13860780071991 0 311.13860780071991 490.38909840909764 0 0 0 0 -483.83040556951892 824.15599874898908 0 824.15599874898908 415.78211923564004 0 0 0 0 580.89275924325921 1437.7310066597565 0 1437.7310066597565 341.10020557933603 0 0 0 0 689.33171041400055 1113.3463881699645 0 1113.3463881699645 1278.9768160454114 0 0 0 0 -1575.9734862405312 -423.06599638159969 0 -423.06599638159969 452.74472651898395 0 0 0 0 2472.8817497756245 5.8052737960679224 0 5.8052737960679224 876.48669302358758 0 0 0 0 -37.901527281697184 47.252164734436292 0 47.252164734436292 -39.402890758638819 0 0 0 0 -923.04888815445884 984.7006034519145 0 984.7006034519145 -1443.8237395391334 0 0 0 0 -1412.8636492429659 431.49517189516337 0 431.49517189516337 -335.35929286602186 0 0 0 0 -2122.0826548175464 998.35982057065121 0 998.35982057065121 -2446.2332624546252 0 0 0 0 1733.2421033440551 1920.1973899342411 0 1920.1973899342411 38.376407559670042 0 0 0 0 -2673.4615727575001 896.19442004342272 0 896.19442004342272 -495.31703941184969 0 0 0 0 -850.49538186983409 415.67028512928664 0 415.67028512928664 -357.11255045801954 0 0 0 0 -452.65931943189207 544.14344700240326 0 544.14344700240326 -946.22811475825438 0 0 0 0 -15.502670605217148 74.715821371271431 0 74.715821371271431 -49.283987156675664 0 0 0 0 -622.50830011159269 1331.5912038384777 0 1331.5912038384777 -190.91070033889991 0 0 0 0 1360.3839221368617 904.27132229920244 0 904.27132229920244 -971.77142151730368 0 0 0 0 -2156.7105760051054 756.37148112051364 0 756.37148112051364 115.87301514414139 0 0 0 0 -2098.4459539092313 1536.9010828927858 0 1536.9010828927858 -126.42921460617799 0 0 0 0 14.589599663511684 30.450074178856624 0 30.450074178856624 35.950420117946578 0 0 0 0 12.891837592987347 42.051294703601457 0 42.051294703601457 29.323162187575122 0 0 0 0 -82.090617436013417 58.1078679189377 0 58.1078679189377 31.138211728335591 0 0 0 0 11.548619654761751 92.853092750443466 0 92.853092750443466 -159.23104810919904 0 0 0 0 -46.563135977236925 61.556281679077074 0 61.556281679077074 6.0267826239578426 0 0 0 0 -153.65626687358144 369.31691474358377 0 369.31691474358377 -214.79852144888719 0 0 0 0 -12.497118276031074 49.686556851761452 0 49.686556851761452 4.5553497301298194 0 0 0 0 23.222141750595689 31.83175985167496 0 31.83175985167496 27.898146392839692 0 0 0 0 33.575420118988461 53.589308977263613 0 53.589308977263613 40.222667736174515 0 0 0 0 -19.734712985104125 111.05167230211373 0 111.05167230211373 8.2065183445265575 0 0 0 0 -534.15049204833122 1744.3239160971498 0 1744.3239160971498 -1248.4256982615771 0 0 0 0 22.046124086640635 30.94563480223654 0 30.94563480223654 19.127776951007149 0 0 0 0 -677.59128715036059 562.06716466095531 0 562.06716466095531 79.593220857525012 0 0 0 0 29.053540208981758 73.382271742768353 0 73.382271742768353 7.444728330563521 0 0 0 0 -192.28853269957472 376.63045389141917 0 376.63045389141917 -216.13047875344637 0 0 0 0 -201.59018460654443 485.92279509341279 0 485.92279509341279 370.26369850597985 0 0 0 0 -260.98313483685797 312.08888562101492 0 312.08888562101492 -121.53629033252946 0 0 0 0 -645.66249829342451 375.02949895564961 0 375.02949895564961 23.998571436066413 0 0 0 0 -888.93350082100369 775.46235335923848 0 775.46235335923848 -319.33192520665034 0 0 0 0 2.7701720327214652 8.0209393948341301 0 8.0209393948341301 0.011829738016444935 0 0 0 0 -1557.3632902741565 147.50216671339876 0 147.50216671339876 -20.826000054890756 0 0 0 0 136.33268624053017 149.04750048081041 0 149.04750048081041 142.45545165077783 0 0 0 0 7.7966098404861413 6.0029047722777591 0 6.0029047722777591 -5.6052170522613665 0 0 0 0 146.05726410351326 138.21543494873913 0 138.21543494873913 52.293123762108735 0 0 0 0 147.9426216073698 148.74260069458251 0 148.74260069458251 20.954863763023241 0 0 0 0 543.23547677473289 193.61541337053495 0 193.61541337053495 25.325926908495603 0 0 0 0 104.95168547326546 97.725102011792657 0 97.725102011792657 16.902580224723806 0 0 0 0 114.63898464228078 248.2388540598331 0 248.2388540598331 84.639316019543912 0 0 0 0 8.0414026366106555 75.269743571454455 0 75.269743571454455 24.517217172746314 0 0 0 0 -693.68555458681658 644.87012783989667 0 644.87012783989667 -946.86424311691371 0 0 0 0 38.645713355451811 16.383354401768003 0 16.383354401768003 -25.703499227464988 0 0 0 0 295.94468493829879 193.48767241908354 0 193.48767241908354 -163.48628219374223 0 0 0 0 25.507133983087861 58.6207931970049 0 58.6207931970049 55.323194524053463 0 0 0 0 25.660083238191874 95.487303245703515 0 95.487303245703515 9.9093941561877728 0 0 0 0 1.7608584440532948 15.195025877590822 0 15.195025877590822 -9.4962609579841342 0 0 0 0 9.8333933795438373 22.868952079306212 0 22.868952079306212 6.3809025988084613 0 0 0 0 254.72281121920969 98.152422841551015 0 98.152422841551015 3.8013114429340931 0 0 0 0 211.99347400044644 110.83550907441531 0 110.83550907441531 48.601028291632247 0 0 0 0 0.57601135880276289 77.250493461763341 0 77.250493461763341 13.415506531073959 0 0 0 0 203.94731929271802 78.743181207093585 0 78.743181207093585 6.8386384083714802 0 0 0 0 228.41774755762071 76.142730889189806 0 76.142730889189806 13.952712322061416 0 0 0 0 228.34843646561512 77.362394353003765 0 77.362394353003765 -7.3710040699806996 0 0 0 0 190.28093711813563 85.368030359168188 0 85.368030359168188 18.389896341919666 0 0 0 0 217.5324766448357 96.008879405049811 0 96.008879405049811 8.1028022230020724 0 0 0 0 217.78582324680247 93.22344926005826 0 93.22344926005826 37.209998438891489 0 0 0 0 44.948361677679827 95.155624340111444 0 95.155624340111444 2.6947521599358879 0 0 0 0 -6.617688821039053 59.23604136421703 0 59.23604136421703 -28.635730311404075 0 0 0 0 17.597302617012701 85.815514292838998 0 85.815514292838998 10.270099074929021 0 0 0 0 44.75252365612323 79.376456657293602 0 79.376456657293602 8.5055939309531823 0 0 0 0 30.537010556494351 100.47500405315077 0 100.47500405315077 2.1176349445886444 0 0 0 0 -47.064615264651366 103.45675747096539 0 103.45675747096539 -49.416170766984578 0 0 0 0 -25.462909692531866 64.646995906194206 0 64.646995906194206 -23.373897284385748 0 0 0 0 -23.550716047021005 57.355454623044807 0 57.355454623044807 -3.9553661692258402 0 0 0 0 15.275748360823515 90.880999901871547 0 90.880999901871547 -13.032664661804631 0 0 0 0 19.236914686596922 92.070236175504618 0 92.070236175504618 15.511102400623372 0 0 0 0 719.04447243461982 -516.6004778782517 0 -516.6004778782517 -676.0016281829885 0 0 0 0 1404.2203274380263 1165.9122956811916 0 1165.9122956811916 414.54440580974915 0 0 0 0 33.656353469822349 37.20369100871244 0 37.20369100871244 6.9488764492834889 0 0 0 0 440.52626723335197 838.73607739697036 0 838.73607739697036 24.581780311273178 0 0 0 0 1059.0019265989376 201.94197091880415 0 201.94197091880415 -566.85091095895041 0 0 0 0 -126.60206414350978 133.69657453492982 0 133.69657453492982 -395.24862451760418 0 0 0 0 -279.35755725227324 426.21801054172101 0 426.21801054172101 -36.516997348546283 0 0 0 0 -34.0321499435248 59.374132380420534 0 59.374132380420534 -54.225646980000761 0 0 0 0 -96.611561331612393 -541.45292420559417 0 -541.45292420559417 -402.32140628733032 0 0 0 0 -101.80917688128102 -10.186435641473508 0 -10.186435641473508 -195.33053229619691 0 0 0 0 -83.285788889122884 373.92373634653313 0 373.92373634653313 -81.666241710627219 0 0 0 0 -122.45809528227173 424.69889355832947 0 424.69889355832947 -143.6075457065599 0 0 0 0 -138.33595982367839 313.63605575970359 0 313.63605575970359 13.202599103824468 0 0 0 0 41.930287191129082 146.27946949088073 0 146.27946949088073 -52.812744918730459 0 0 0 0 -12.067410073594147 262.97589908008376 0 262.97589908008376 -263.93279028765392 0 0 0 0 -24.724372941556226 47.020063852093699 0 47.020063852093699 -43.47027431404598 0 0 0 0 208.86070704278472 182.05927667395736 0 182.05927667395736 -43.560652763902908 0 0 0 0 180.51855137518737 95.348532631178387 0 95.348532631178387 -270.84420291487186 0 0 0 0 93.806892445034691 174.05884552608768 0 174.05884552608768 -283.58800866192905 0 0 0 0 7.2682935634420005 282.26820356897224 0 282.26820356897224 -414.12852433859371 0 0 0 0 -584.11492679510059 361.64471537595091 0 361.64471537595091 -534.38462863970199 0 0 0 0 -14.046796672139521 16.551821813714923 0 16.551821813714923 -749.7109187450551 0 0 0 0 13.255554332966994 132.21838260588993 0 132.21838260588993 -295.89741686382331 0 0 0 0 -28.055863954107053 410.6403608610417 0 410.6403608610417 -141.92964776561712 0 0 0 0 -173.78754845586573 325.46064231300261 0 325.46064231300261 64.464421353652142 0 0 0 0 14.775754110040339 421.67774718563305 0 421.67774718563305 -457.79216453296249 0 0 0 0 -243.83311922993471 468.6904555397341 0 468.6904555397341 -125.63196570775472 0 0 0 0 -174.14424911574565 329.41769067799396 0 329.41769067799396 25.674264338682406 0 0 0 0 174.51293723176605 64.270762241205375 0 64.270762241205375 36.43159329937771 0 0 0 0 172.386037719858 82.539322466327576 0 82.539322466327576 63.233831183606526 0 0 0 0 30.680364325098196 245.80057018329535 0 245.80057018329535 -144.97613726771669 0 0 0 0 120.50024627578922 95.364568615086696 0 95.364568615086696 47.171086831490072 0 0 0 0 -97.165510604968858 163.00462310930016 0 163.00462310930016 250.3238537888974 0 0 0 0 268.01398915243772 97.954834405056317 0 97.954834405056317 -1546.8239910682751 0 0 0 0 -3.5001954544182237 15.128096574904475 0 15.128096574904475 7.8329454325575938 0 0 0 0 120.62527403324407 463.37782962333586 0 463.37782962333586 -1300.9093884486356 0 0 0 0 91.16072050526526 121.20152388186398 0 121.20152388186398 -1051.8837754797423 0 0 0 0 121.14660774416967 31.393925215874333 0 31.393925215874333 -987.03922316156968 0 0 0 0 14.985834945794856 458.82160206617846 0 458.82160206617846 92.632876370946178 0 0 0 0 178.23611116590956 56.989089847411378 0 56.989089847411378 -86.981450389896054 0 0 0 0 -8.6819101206650355 11.262531893212298 0 11.262531893212298 -13.666281638579107 0 0 0 0 -13.124700276728138 -53.032226485685896 0 -53.032226485685896 11.720556685642805 0 0 0 0 -31.341553161035222 249.24360543879448 0 249.24360543879448 -239.58251720754197 0 0 0 0 -131.40141554787982 242.30479238319094 0 242.30479238319094 -239.49558220873587 0 0 0 0 -22.725931650202085 97.568479398236377 0 97.568479398236377 -290.3543349471729 0 0 0 0 -160.9445772159325 -80.960449767590035 0 -80.960449767590035 -404.01840356475441 0 0 0 0 -129.10130713005776 12.72915017757623 0 12.72915017757623 -0.085788255935767666 0 0 0 0 -76.794989702320663 -0.512642899491766 0 -0.512642899491766 177.98971529799746 0 0 0 0 -25.998451626607959 56.277589623612585 0 56.277589623612585 -2.332386022022547 0 0 0 0 -8.7115677258884716 -6.5896303447370883 0 -6.5896303447370883 2.6549407011189032 0 0 0 0 10.027615104045367 61.729453195948736 0 61.729453195948736 86.79669020466099 0 0 0 0 28.354124217064964 109.18096440054069 0 109.18096440054069 132.55402297175897 0 0 0 0 -16.066110967652889 159.04052485956345 0 159.04052485956345 241.58007453937444 0 0 0 0 -6.4678791324556952 16.584865247533344 0 16.584865247533344 -14.409916948924376 0 0 0 0 214.89793325539063 100.16489992036077 0 100.16489992036077 -154.81891550857108 0 0 0 0 -87.561975942890797 -202.15185784883943 0 -202.15185784883943 4.9290823208866641 0 0 0 0 1176.787024332659 505.7451236101042 0 505.7451236101042 941.38209175848169 0 0 0 0 11.596417540194466 -62.003652084807982 0 -62.003652084807982 258.6626160935848 0 0 0 0 124.45004271080052 -44.929543334699702 0 -44.929543334699702 -57.607543096848531 0 0 0 0 16.187881629669757 32.70792106163691 0 32.70792106163691 4.5313956660619965 0 0 0 0 189.31272064023005 -14.674204430455575 0 -14.674204430455575 -46.329800330306171 0 0 0 0 11.93693440300558 -101.06421575885906 0 -101.06421575885906 -178.96172767475946 0 0 0 0 106.90487366114743 22.467862970634087 0 22.467862970634087 -30.130276017764118 0 0 0 0 87.686420959744737 -0.21552064733987208 0 -0.21552064733987208 60.472202510311035 0 0 0 0 2.7498400762710844 42.951568156131543 0 42.951568156131543 104.58120708668139 0 0 0 0 68.068137222393943 -47.03650790611573 0 -47.03650790611573 -22.573635014236061 0 0 0 0 5.416407786008314 31.938902257580651 0 31.938902257580651 23.989510347347618 0 0 0 0 -1167.4683159916131 874.31996034980693 0 874.31996034980693 119.55020432460151 0 0 0 0 -518.3037242599712 -249.07257312345246 0 -249.07257312345246 -158.62947324785637 0 0 0 0 -81.816876820443667 224.87513682543067 0 224.87513682543067 123.87072371644899 0 0 0 0 37.5025107693005 39.51258869706264 0 39.51258869706264 14.717287189875947 0 0 0 0 -15.743384539989709 3.5992756389162537 0 3.5992756389162537 4.9135038994593287 0 0 0 0 18.811300991017546 1.1998392298503404 0 1.1998392298503404 -7.2542250237740973 0 0 0 0 30.399778959545262 3.5984289837838332 0 3.5984289837838332 -10.31360209725915 0 0 0 0 216.95883670598232 -55.538143982746988 0 -55.538143982746988 51.271096587644934 0 0 0 0 83.175417628930632 59.804845702128659 0 59.804845702128659 51.521758133399999 0 0 0 0 -32.374731381890598 -136.13937898878066 0 -136.13937898878066 148.71614992976538 0 0 0 0 25.238160394793681 17.287500368038309 0 17.287500368038309 7.4073911770101404 0 0 0 0 768.6206016753099 240.37940107167378 0 240.37940107167378 300.23061936217709 0 0 0 0 8.1568376315735804 9.3337209477176657 0 9.3337209477176657 0.0029814371955581009 0 0 0 0 25.676287645272168 10.102955519687384 0 10.102955519687384 7.1104296582634561 0 0 0 0 1.5125503611989117 -2.7897468259235438 0 -2.7897468259235438 2.6732399502188855 0 0 0 0 8.9741855434039834 2.3656438409565226 0 2.3656438409565226 -3.3092761486140603 0 0 0 0 12.3314459353806 6.8479771889913081 0 6.8479771889913081 8.9012396346328728 0 0 0 0 -1684.8619770798869 -487.33686042553745 0 -487.33686042553745 -107.66321897340822 0 0 0 0 -2.1587032441255616 10.180564227060302 0 10.180564227060302 -2.8804087615329195 0 0 0 0 22.783151272418763 20.283334248655592 0 20.283334248655592 0.049071427434682846 0 0 0 0 25.09191565565353 -5.2748232010496281 0 -5.2748232010496281 -4.0794629617695932 0 0 0 0 709.1062856395788 1281.7839304473782 0 1281.7839304473782 1154.8250713120215 0 0 0 0 587.71259228982944 861.47583191719605 0 861.47583191719605 113.57735491229687 0 0 0 0 238.8224797711473 504.11380306666251 0 504.11380306666251 516.08227542121313 0 0 0 0 625.96730240292493 278.5296112234937 0 278.5296112234937 12.322859288949985 0 0 0 0 438.67252303549174 762.69947662486811 0 762.69947662486811 851.93048498962889 0 0 0 0 359.050869587958 884.34725391486427 0 884.34725391486427 1255.0626300941221 0 0 0 0 969.96029098180043 748.95921672746772 0 748.95921672746772 344.56926025918801 0 0 0 0 804.61813209502361 459.82579637011804 0 459.82579637011804 -27.666692409693496 0 0 0 0 636.97089714304275 439.29665418103104 0 439.29665418103104 796.14029070382821 0 0 0 0 668.06955312954642 472.60999430650554 0 472.60999430650554 -0.010552840656600893 0 0 0 0 740.80543427791235 581.9139829568885 0 581.9139829568885 126.44788913300727 0 0 0 0 507.57194106082534 508.25316470097459 0 508.25316470097459 103.96410620778624 0 0 0 0 153.85148223708848 26.161255310726119 0 26.161255310726119 -366.96212693990674 0 0 0 0 71.516265360319579 411.5998352540937 0 411.5998352540937 -125.55476392476703 0 0 0 0 -1050.8237884740838 -669.69021170469932 0 -669.69021170469932 -173.67192495378549 0 0 0 0 -38.8747683585716 269.79500522672606 0 269.79500522672606 -0.33347870556463022 0 0 0 0 82.603301057295539 308.4088211114431 0 308.4088211114431 -263.29963504729676 0 0 0 0 -6.400605831288372 3.493236115068612 0 3.493236115068612 1.8204385669062049 0 0 0 0 -90.068332428414578 -8.657726645382354 0 -8.657726645382354 -203.4011720182898 0 0 0 0 374.16026355200074 775.68518644473806 0 775.68518644473806 -544.45920810243115 0 0 0 0 -1543.380148966701 135.52982552527101 0 135.52982552527101 476.19751672376879 0 0 0 0 238.55436683358698 332.54134951293236 0 332.54134951293236 325.67017182317795 0 0 0 0 466.80587286704201 1052.4380245866487 0 1052.4380245866487 67.71981616636549 0 0 0 0 -204.89709461128598 351.99972343429545 0 351.99972343429545 1050.5873525415664 0 0 0 0 -69.071835910425818 -122.96654037147528 0 -122.96654037147528 -299.951072228876 0 0 0 0 -292.8748057588142 -741.50876451041404 0 -741.50876451041404 -502.70831008945243 0 0 0 0 -15.112803892000906 4.7215587462151234 0 4.7215587462151234 -4.1670339546475077 0 0 0 0 -596.49933399410952 3.6539192541094963 0 3.6539192541094963 753.64633411727846 0 0 0 0 746.84972824714623 302.62931535913231 0 302.62931535913231 -1176.9090674071922 0 0 0 0 -92.113081268236442 -9.2965386259083971 0 -9.2965386259083971 -0.0076644624350592494 0 0 0 0 -83.975198195068515 341.60619394997775 0 341.60619394997775 -247.6808966156168 0 0 0 0 -7.3266791897206858 5.2860678120835587 0 5.2860678120835587 2.5387497047007059 0 0 0 0 -203.96308269440487 431.62736166545074 0 431.62736166545074 -277.31640328369394 0 0 0 0 -515.16622655332685 384.87709523175727 0 384.87709523175727 -97.338960007473361 0 0 0 0 -887.97090211084287 -257.97472412064963 0 -257.97472412064963 -5.264229753986001 0 0 0 0 -122.3589868464569 226.76166005048435 0 226.76166005048435 -109.62428486257159 0 0 0 0 83.148163466596543 55.379580763226841 0 55.379580763226841 0.055752049229340628 0 0 0 0 2.3568046912910319 -6.7297638260050974 0 -6.7297638260050974 -1.1436568394109372 0 0 0 0 -255.89425781002501 191.20734060932591 0 191.20734060932591 -72.3073400016292 0 0 0 0 29.000523135999174 51.177230577546652 0 51.177230577546652 8.0768050045589916 0 0 0 0 4.3196854733235774 5.9935732369417707 0 5.9935732369417707 5.5092673712316582 0 0 0 0 -359.0573100083011 125.74592147457588 0 125.74592147457588 48.449410205532331 0 0 0 0 -39.196281629075017 28.676872714435547 0 28.676872714435547 3.4085792152357612 0 0 0 0 -167.55488395245243 -72.823326701269252 0 -72.823326701269252 -47.487407154927496 0 0 0 0 -49.694176914730861 94.718049505034287 0 94.718049505034287 -34.515827126888325 0 0 0 0 -123.93348258374058 279.62410016542344 0 279.62410016542344 456.0755072212196 0 0 0 0 -120.59101231999034 105.53140441227151 0 105.53140441227151 143.7476550477586 0 0 0 0 -23.64968112014207 65.014852971730832 0 65.014852971730832 45.901698674075419 0 0 0 0 89.844708574683409 207.81473494750389 0 207.81473494750389 98.529346198785788 0 0 0 0 -164.22604139757095 146.08249288995285 0 146.08249288995285 106.14077349798754 0 0 0 0 18.98090752651683 469.94271310935437 0 469.94271310935437 241.96457741063205 0 0 0 0 -48.576686026222248 398.01851590661681 0 398.01851590661681 213.46697502326424 0 0 0 0 21.21287642316625 607.90588383807335 0 607.90588383807335 793.70033704926027 0 0 0 0 410.5422949679687 152.45125776322675 0 152.45125776322675 -162.04199290517136 0 0 0 0 69.203055943934771 536.49419222779397 0 536.49419222779397 257.69253253789975 0 0 0 0 -69.013374052088977 -439.54124162512016 0 -439.54124162512016 -49.993998092104448 0 0 0 0 583.67797040146934 441.95530280431558 0 441.95530280431558 267.12458869762122 0 0 0 0 6.9506116609025419 -0.67465350201780439 0 -0.67465350201780439 1.053436265547532 0 0 0 0 164.24642085686037 1380.918292527087 0 1380.918292527087 2166.1514202283579 0 0 0 0 827.60573506404273 1222.9865960765601 0 1222.9865960765601 943.89584942330839 0 0 0 0 698.86745689059489 257.99277633331985 0 257.99277633331985 508.76911665406078 0 0 0 0 -289.39003440583213 13.678626408138371 0 13.678626408138371 324.663817306282 0 0 0 0 -101.77855937451091 119.39299660205143 0 119.39299660205143 266.19556660953094 0 0 0 0 -124.76825547489815 81.678644799379981 0 81.678644799379981 852.12702305521816 0 0 0 0 -234.01614950334078 333.3589136874034 0 333.3589136874034 1080.0964393977774 0 0 0 0 289.10991698676298 -108.85940846339872 0 -108.85940846339872 -3.2760689717251807 0 0 0 0 257.30461839609416 330.82950750175223 0 330.82950750175223 1.4345766126643866 0 0 0 0 96.408877577439853 204.74201054013974 0 204.74201054013974 382.51088240709214 0 0 0 0 10.041572925769287 27.497716609577765 0 27.497716609577765 47.290952444065624 0 0 0 0 41.475699160044314 77.195037616002082 0 77.195037616002082 44.500809702803963 0 0 0 0 63.698283619954054 86.354536905346322 0 86.354536905346322 -0.080502816563239321 0 0 0 0 33.080126222892432 47.242477491119644 0 47.242477491119644 10.25131626194343 0 0 0 0 34.192810840755556 18.282131986314198 0 18.282131986314198 -23.978360306326067 0 0 0 0 51.77314422999001 32.292677681586611 0 32.292677681586611 -23.179656560297957 0 0 0 0 113.75575107659279 72.906281865021811 0 72.906281865021811 43.844697497755988 0 0 0 0 43.906225169743266 60.559755020010925 0 60.559755020010925 68.138440691414871 0 0 0 0 47.398112745107937 60.086185544845648 0 60.086185544845648 -13.679196811597649 0 0 0 0 7.5512089646290406 95.757863803555665 0 95.757863803555665 4.8583304096682696 0 0 0 0 25.326267785408348 45.218532862181263 0 45.218532862181263 -17.232963654031352 0 0 0 0 125.25731940200785 30.722014130893513 0 30.722014130893513 -56.01732198560785 0 0 0 0 56.622776564061496 136.989768067564 0 136.989768067564 -123.56869515725703 0 0 0 0 62.175282383839658 125.97062518887105 0 125.97062518887105 -83.356242632798967 0 0 0 0 72.379900332748349 40.71649042452259 0 40.71649042452259 -3.548827463300313 0 0 0 0 96.107848224004556 68.273694575036643 0 68.273694575036643 -183.45502103889885 0 0 0 0 10.876797389066184 13.808170851478508 0 13.808170851478508 9.8442534778709501 0 0 0 0 238.73082820238051 131.1598419010661 0 131.1598419010661 -197.5359002823534 0 0 0 0 44.437150660942379 52.36822347684064 0 52.36822347684064 39.781098555661458 0 0 0 0 215.7292945548179 112.7719043917823 0 112.7719043917823 48.736894300760468 0 0 0 0 45.630232532370428 146.11599584472424 0 146.11599584472424 36.222899468313699 0 0 0 0 6.8840515380470606 26.718596495218662 0 26.718596495218662 475.41824397418532 0 0 0 0 45.247665419043187 270.61299296209108 0 270.61299296209108 -209.79699967824854 0 0 0 0 32.167158076976193 131.41235357232654 0 131.41235357232654 -84.205620770791938 0 0 0 0 39.215872007447615 174.10992694245942 0 174.10992694245942 55.394260693967226 0 0 0 0 -13.092007534971344 89.403588639033842 0 89.403588639033842 44.369177344044147 0 0 0 0 0.23635349079995649 151.51550968029187 0 151.51550968029187 -28.731533162635969 0 0 0 0 -4.941380778880557 180.10904547150858 0 180.10904547150858 -22.013583209642093 0 0 0 0 79.145003658412108 52.665870971057586 0 52.665870971057586 20.560789302067803 0 0 0 0 116.61185912600195 137.11511555928155 0 137.11511555928155 11.630674495165295 0 0 0 0 28.151545591894319 67.417385512817418 0 67.417385512817418 -12.615934383415151 0 0 0 0 149.19099376771192 139.18062495416962 0 139.18062495416962 133.86123050074093 0 0 0 0 128.7995034444466 76.034316233330173 0 76.034316233330173 -60.849900527289719 0 0 0 0 -14.67758876494554 96.282901347825828 0 96.282901347825828 17.172366234706715 0 0 0 0 88.547582224442522 69.914875412082438 0 69.914875412082438 -36.773959677899256 0 0 0 0 -3.0031379032734549 121.10016641677066 0 121.10016641677066 -17.330245953635313 0 0 0 0 86.964968287109514 189.34532906033564 0 189.34532906033564 1.9080237693560775 0 0 0 0 4.5057550009184411 21.432459915690799 0 21.432459915690799 -3.1101729737097799 0 0 0 0 84.989460149890107 75.455513637123076 0 75.455513637123076 23.323433909816686 0 0 0 0 88.22383441532088 63.461159443561144 0 63.461159443561144 -61.535663211611336 0 0 0 0 51.228779608252808 91.953381120576523 0 91.953381120576523 -1.7027508613246027 0 0 0 0 163.16538273325324 2.9781824680520117 0 2.9781824680520117 -345.15989627700765 0 0 0 0 41.274259295045709 29.745907299884152 0 29.745907299884152 -20.158146678793628 0 0 0 0 9.9847792377768201 77.882017795578577 0 77.882017795578577 13.014924433839042 0 0 0 0 18.152025421790313 69.023129336055717 0 69.023129336055717 1.8494800656626467 0 0 0 0 82.933956307693734 28.936683579395321 0 28.936683579395321 81.629454290756257 0 0 0 0 0.35827941797832352 25.158369302121059 0 25.158369302121059 -25.681588459497505 0 0 0 0 82.530565628108889 9.4810574381608603 0 9.4810574381608603 -26.905724582000403 0 0 0 0 0.20656086943927221 34.58309447557258 0 34.58309447557258 3.963266868363462 0 0 0 0 -2.503381596696272 43.680097817239584 0 43.680097817239584 42.899176367587643 0 0 0 0 3.5770107813368668 6.1762754350871489 0 6.1762754350871489 -1.4278752438875131 0 0 0 0 -435.01215088245226 257.33181879025506 0 257.33181879025506 -170.44941483904404 0 0 0 0 -13.020163213750493 77.780438229339779 0 77.780438229339779 26.049746360135032 0 0 0 0 -3.746619347090018 68.656097164872335 0 68.656097164872335 26.206912405759795 0 0 0 0 4.4149131250580922 2.00828397881142 0 2.00828397881142 0.59446109974189199 0 0 0 0 -20.478075707364042 82.770767028339833 0 82.770767028339833 240.28851872518135 0 0 0 0 -138.86098213204241 556.73000942332874 0 556.73000942332874 -676.86592691763508 0 0 0 0 -258.96700714087456 259.83373363369174 0 259.83373363369174 -725.66254726200714 0 0 0 0 113.26033044364067 50.285678914201071 0 50.285678914201071 24.278582558472408 0 0 0 0 136.82537229707668 82.689571968869132 0 82.689571968869132 64.715165822055496 0 0 0 0 173.07915294734994 43.209002748866624 0 43.209002748866624 70.140079186981893 0 0 0 0 176.99948213017524 48.325638121605152 0 48.325638121605152 33.058070204569958 0 0 0 0 135.89124536692492 79.396905164367979 0 79.396905164367979 32.662411854494962 0 0 0 0 -165.17209941942818 369.57735904955189 0 369.57735904955189 -1788.1401489597629 0 0 0 0 1529.7174262152748 -1059.2885349619319 0 -1059.2885349619319 -1162.9941371098976 0 0 0 0 28.987168679501284 -6.4119909300971756 0 -6.4119909300971756 -25.715135796846255 0 0 0 0 86.931754021506947 -113.17520582579891 0 -113.17520582579891 -1187.4441723499331 0 0 0 0 415.10354366719503 -485.47906079585664 0 -485.47906079585664 -1434.2524390872568 0 0 0 0 4.7096886725546909 -234.09446200707316 0 -234.09446200707316 -1407.8217928975064 0 0 0 0 -3.0417066720095658 4.50444095249577 0 4.50444095249577 -6.1715955061474688 0 0 0 0 -493.11685677900186 12.962371166882804 0 12.962371166882804 -427.56867002949002 0 0 0 0 121.80360807849117 42.350510873560722 0 42.350510873560722 -1.7168144900606848 0 0 0 0 309.09634871291246 337.87147810465831 0 337.87147810465831 -828.80376504031301 0 0 0 0 79.567956062138137 793.31883872258868 0 793.31883872258868 -270.53366586833727 0 0 0 0 -0.68128278639767359 371.83523533758489 0 371.83523533758489 -160.82596593577182 0 0 0 0 355.12389724799073 157.24416885506071 0 157.24416885506071 -122.10124671040103 0 0 0 0 -20.067945243667921 68.160259936785621 0 68.160259936785621 39.071218341161455 0 0 0 0 55.465551338118985 136.87376633096574 0 136.87376633096574 -16.006019146239851 0 0 0 0 168.36803346798843 109.48711126515991 0 109.48711126515991 -44.94947664430947 0 0 0 0 143.73955119526011 109.27306002369005 0 109.27306002369005 -39.053241589295794 0 0 0 0 74.410049845941103 78.4194457095291 0 78.4194457095291 -37.823449010753393 0 0 0 0 77.0600589632013 96.768230503235827 0 96.768230503235827 -12.469135158738936 0 0 0 0 96.386763125477245 44.098174553186709 0 44.098174553186709 -16.287342813349071 0 0 0 0 116.46233573743302 85.762802569865016 0 85.762802569865016 -30.456529120885534 0 0 0 0 96.439663320357795 93.896858006803086 0 93.896858006803086 -38.819719305407489 0 0 0 0 54.930164431687444 103.56949204767443 0 103.56949204767443 -4.0673741798236733 0 0 0 0 163.11566360174913 37.16337173505169 0 37.16337173505169 -86.66059471850167 0 0 0 0 116.34723373726256 74.43929428254296 0 74.43929428254296 -6.7198077299430565 0 0 0 0 58.589127814178937 135.17971023899008 0 135.17971023899008 -49.153268408348595 0 0 0 0 210.66544459755823 11.891466614244564 0 11.891466614244564 -132.79692739111488 0 0 0 0 242.25124386040989 54.009678132773843 0 54.009678132773843 -77.753614125453169 0 0 0 0 4.9009652542021769 6.6759604202419354 0 6.6759604202419354 -2.8182157820954785 0 0 0 0 127.68603807976751 73.657157129264249 0 73.657157129264249 6.9254368135620439 0 0 0 0 50.314910263117781 157.1223947628896 0 157.1223947628896 -43.581152029129044 0 0 0 0 43.20002471868429 326.08012251407854 0 326.08012251407854 -56.381063953784178 0 0 0 0 70.832951959331695 90.592460188381665 0 90.592460188381665 -14.586593950531096 0 0 0 0 112.25909168064391 118.62025035233091 0 118.62025035233091 -7.0635324780014344 0 0 0 0 98.408269294781348 109.01841219799098 0 109.01841219799098 9.9825549559318461 0 0 0 0 142.68269026045164 76.306671680358704 0 76.306671680358704 -12.98918387532467 0 0 0 0 140.15119206218515 77.084748478984693 0 77.084748478984693 26.35687022402999 0 0 0 0 174.50502497069101 72.197198085370474 0 72.197198085370474 48.897938371272176 0 0 0 0 175.21445033295458 81.504318416831666 0 81.504318416831666 14.898204275981698 0 0 0 0 187.86343048441449 76.90389176831377 0 76.90389176831377 -10.062493079545675 0 0 0 0 145.12973611012058 78.731926406762796 0 78.731926406762796 -20.505053216620581 0 0 0 0 193.11054311079351 72.316967531529372 0 72.316967531529372 -6.4813176597235724 0 0 0 0 160.0527430408838 100.09561869363824 0 100.09561869363824 8.0409397405383061 0 0 0 0 154.79298871690844 74.40603236365132 0 74.40603236365132 -13.921769607710303 0 0 0 0 120.66694351656042 124.91302436415572 0 124.91302436415572 -6.1964979873919219 0 0 0 0 123.61475321637772 110.6903540639687 0 110.6903540639687 -62.144660924313939 0 0 0 0 69.912178663966188 177.89686025577976 0 177.89686025577976 -32.137273921765882 0 0 0 0 9.7453236585497507 292.63774181714689 0 292.63774181714689 -57.607432851677004 0 0 0 0 132.63638307252091 77.195849434784463 0 77.195849434784463 10.811173269112885 0 0 0 0 116.1665753535417 65.51590222613595 0 65.51590222613595 -5.5519770935934503 0 0 0 0 -20.357782369435881 260.02387769974303 0 260.02387769974303 -39.502232518585515 0 0 0 0 -53.525458430463914 179.16604807022122 0 179.16604807022122 58.713329810270807 0 0 0 0 114.54920537451162 89.1350739039529 0 89.1350739039529 10.201504710190761 0 0 0 0 115.87384428433143 39.957414777301892 0 39.957414777301892 29.682146319726598 0 0 0 0 -9.4493860312149422 -6.347887145760069 0 -6.347887145760069 5.683513509271009 0 0 0 0 68.991219006631582 189.13974258868984 0 189.13974258868984 288.69122951919417 0 0 0 0 3.4722117621568032 189.46382344917947 0 189.46382344917947 84.398728508567729 0 0 0 0 4.541048697875226 19.504894739972912 0 19.504894739972912 -13.073221736850201 0 0 0 0 89.003003930585692 100.92514168553316 0 100.92514168553316 59.266584804630213 0 0 0 0 1454.1444304909674 42.106879362610925 0 42.106879362610925 -529.60396977976052 0 0 0 0 -1391.7890269931158 1168.0148432753704 0 1168.0148432753704 -733.138567591217 0 0 0 0 3.0486932325248333 8.8170874494334583 0 8.8170874494334583 -7.8412487163597007 0 0 0 0 -263.71808853957918 1009.4099932719837 0 1009.4099932719837 -1362.9918625980063 0 0 0 0 308.26646797663852 940.90921108795374 0 940.90921108795374 -1172.9939923813508 0 0 0 0 28.335722202449688 313.1567889092039 0 313.1567889092039 -82.307092679031484 0 0 0 0 472.15242978690367 360.75356238666427 0 360.75356238666427 -869.21629403445695 0 0 0 0 340.48097752177273 149.29768084528041 0 149.29768084528041 0.67778776341947378 0 0 0 0 343.63078610203956 61.13330618107284 0 61.13330618107284 225.61898216822738 0 0 0 0 -64.285640400856209 155.33287776918405 0 155.33287776918405 -478.33217440498993 0 0 0 0 747.05806621780903 25.920078343187924 0 25.920078343187924 -66.061096838282538 0 0 0 0 4.9185552888101896 12.624375906927824 0 12.624375906927824 -13.833124315623706 0 0 0 0 -687.92407297938189 530.81563498746982 0 530.81563498746982 -159.70435997214372 0 0 0 0 309.49974605476018 54.734191993629793 0 54.734191993629793 50.048399916064227 0 0 0 0 270.3563507650033 -17.979402374585334 0 -17.979402374585334 -65.784044285901473 0 0 0 0 298.46785539554548 171.94049774714222 0 171.94049774714222 -210.21223898771132 0 0 0 0 523.65411754771776 39.591529316225206 0 39.591529316225206 -7.6728206112165935 0 0 0 0 526.7778920908313 10.911450015453738 0 10.911450015453738 -97.134810909585212 0 0 0 0 8.2507500598534662 13.704435395366573 0 13.704435395366573 -11.228471043879381 0 0 0 0 204.0594837005483 8.0298132858151803 0 8.0298132858151803 171.50727466441458 0 0 0 0 629.82085748427198 -134.66207054242841 0 -134.66207054242841 11.635434886324219 0 0 0 0 1.3158447354045961 -0.5367179616648059 0 -0.5367179616648059 -2.5775618593306149 0 0 0 0 -1.8213082004020293 8.9662100987546296 0 8.9662100987546296 -0.54734047333715807 0 0 0 0 -0.69299858865997521 5.1650267048062233 0 5.1650267048062233 -8.3698517643024388 0 0 0 0 18.465573968575313 5.467438347135527 0 5.467438347135527 -16.447662247856783 0 0 0 0 -768.7107021778429 390.85982309971587 0 390.85982309971587 -143.94572860400513 0 0 0 0 -216.54184957321559 480.32587644155501 0 480.32587644155501 -319.92859070791746 0 0 0 0 -515.74527513056455 565.69925393931044 0 565.69925393931044 -276.83584886227618 0 0 0 0 -482.29709782739155 505.45192262015371 0 505.45192262015371 -308.18925030129321 0 0 0 0 22.086256311296893 -6.332749536254596 0 -6.332749536254596 -44.222816698267707 0 0 0 0 -514.08154057856882 495.50670238146995 0 495.50670238146995 -304.70209148102731 0 0 0 0 140.07921808489482 211.45397394055908 0 211.45397394055908 -446.36598237433645 0 0 0 0 -56.013489520337316 570.54600417197435 0 570.54600417197435 -322.93223310023313 0 0 0 0 -163.0778104931378 420.67516965885443 0 420.67516965885443 -528.14667995987111 0 0 0 0 -25.465505363172269 538.66451523177966 0 538.66451523177966 -481.16606049732218 0 0 0 0 -93.528091549414967 361.01950395986205 0 361.01950395986205 -208.60174094817194 0 0 0 0 491.79080229531087 -159.3356247902035 0 -159.3356247902035 -71.925892173516331 0 0 0 0 516.35142671501524 687.03795647493791 0 687.03795647493791 -67.432355473647476 0 0 0 0 -48.055000109554385 -113.64443194186606 0 -113.64443194186606 253.60559915334306 0 0 0 0 -142.62231901308405 86.298739317753643 0 86.298739317753643 -127.52712841292669 0 0 0 0 203.09242102161807 -206.61871101553697 0 -206.61871101553697 -275.2194423289111 0 0 0 0 119.64147106322937 25.433523676052559 0 25.433523676052559 7.0541374447831942 0 0 0 0 982.71027457364835 -275.0350904871957 0 -275.0350904871957 -438.72449269441859 0 0 0 0 342.0395715456325 138.3691048278979 0 138.3691048278979 -677.18035515425436 0 0 0 0 -890.63716014031888 201.79059791940381 0 201.79059791940381 -410.48647120059468 0 0 0 0 -656.9124857623392 691.37391660896537 0 691.37391660896537 -869.25692841516866 0 0 0 0 -1028.8427552659268 439.00953390106588 0 439.00953390106588 -289.58622394197755 0 0 0 0 -579.59034624524793 792.81790598723092 0 792.81790598723092 -421.63175427941314 0 0 0 0 22.218682096528937 165.31680431108543 0 165.31680431108543 -827.0256092649106 0 0 0 0 11.774128154275026 12.372498735568939 0 12.372498735568939 -7.5171639878092833 0 0 0 0 -11.053961199038895 -163.12811510985193 0 -163.12811510985193 -368.86521083519619 0 0 0 0 -724.11154293039726 785.67380121761016 0 785.67380121761016 -690.87635610464349 0 0 0 0 -678.19219716174121 633.62481557857973 0 633.62481557857973 -422.17852454102831 0 0 0 0 28.799379243629176 18.221092350534676 0 18.221092350534676 0.14563652107297287 0 0 0 0 198.76814584626845 619.24042863621435 0 619.24042863621435 1169.5543789097865 0 0 0 0 -413.64241334851249 75.928093878275831 0 75.928093878275831 -141.38558656473833 0 0 0 0 -55.609193807671545 -50.928858791172388 0 -50.928858791172388 168.16492719461166 0 0 0 0 83.625587983592027 21.942315397757881 0 21.942315397757881 -1.9282985285731442 0 0 0 0 -81.582232880980882 -131.2874550719207 0 -131.2874550719207 -151.99934172004578 0 0 0 0 218.09363364335877 95.247444024480501 0 95.247444024480501 -245.28931527870009 0 0 0 0 11.433570032424182 14.554341989418987 0 14.554341989418987 -36.17791528210347 0 0 0 0 62.880701818612579 -24.930502427017927 0 -24.930502427017927 -297.01678173396067 0 0 0 0 898.55004205119621 597.33943439277209 0 597.33943439277209 -47.4968605279646 0 0 0 0 -121.45916462114837 154.24403519997213 0 154.24403519997213 60.700213234333205 0 0 0 0 253.98885741864797 237.35651814235462 0 237.35651814235462 -602.29238964138131 0 0 0 0 188.38615567953821 68.212335018975864 0 68.212335018975864 -357.6121178149333 0 0 0 0 -466.80435845199099 395.21873100592347 0 395.21873100592347 -282.51092017704286 0 0 0 0 -124.67319977814986 414.36031346180789 0 414.36031346180789 -787.97523614963575 0 0 0 0 -209.77943467212754 717.3415427732798 0 717.3415427732798 -830.18170970844221 0 0 0 0 -250.99773898647982 576.41927358151588 0 576.41927358151588 -544.15058460243745 0 0 0 0 -299.48945392671158 1056.3260324256189 0 1056.3260324256189 -1389.8314012796218 0 0 0 0 -324.02579117787536 565.48008035602106 0 565.48008035602106 -946.8454047750929 0 0 0 0 -402.85909478821122 775.66625074763579 0 775.66625074763579 -696.03963747265516 0 0 0 0 -226.69363221971435 883.7042762778874 0 883.7042762778874 -1515.5386118514143 0 0 0 0 -395.97776338922267 1019.5118050142701 0 1019.5118050142701 -1233.415142507627 0 0 0 0 -494.98688337250496 1139.6555328729228 0 1139.6555328729228 -1149.763992294269 0 0 0 0 -747.89188440576982 1544.9339930960487 0 1544.9339930960487 -1788.3020097054759 0 0 0 0 -299.26179188866081 1279.1743777649244 0 1279.1743777649244 -1775.1378188820672 0 0 0 0 -689.24252798700763 1395.2930830128462 0 1395.2930830128462 -1629.5759480976012 0 0 0 0 317.78457194525254 -334.626789177295 0 -334.626789177295 -315.12706087567494 0 0 0 0 268.8919581577793 804.4305243746021 0 804.4305243746021 44.569464652646275 0 0 0 0 -917.44848754019404 513.5742721763454 0 513.5742721763454 -34.960598199570086 0 0 0 0 -2.2496573789285392 2.9667546057092125 0 2.9667546057092125 -17.915477167548033 0 0 0 0 -1707.998186778088 1260.3874591068925 0 1260.3874591068925 -671.50740437072818 0 0 0 0 1426.9954134559521 24.078079820883431 0 24.078079820883431 -1607.4425746931738 0 0 0 0 191.09238959303184 106.0615104755052 0 106.0615104755052 -1144.1622283811157 0 0 0 0 -68.237125446554273 246.13427145314199 0 246.13427145314199 -1215.6299580112536 0 0 0 0 -97.391568608441958 379.27099296715642 0 379.27099296715642 -1097.5531035271124 0 0 0 0 -1105.7550554514019 935.51973919211741 0 935.51973919211741 -705.52499946173066 0 0 0 0 -306.47087453592394 56.631214834400453 0 56.631214834400453 -654.26772319493466 0 0 0 0 -441.4085177819361 502.60688715140714 0 502.60688715140714 -1457.9683584449085 0 0 0 0 -568.52500163929653 1211.7341504690266 0 1211.7341504690266 -1801.6803896749334 0 0 0 0 -652.72606551857461 591.35497656130974 0 591.35497656130974 -1116.2144912621879 0 0 0 0 -285.92769472245709 326.00377032990946 0 326.00377032990946 -1020.6466593967489 0 0 0 0 -431.76574385631466 632.66055409310502 0 632.66055409310502 -1029.7830622792389 0 0 0 0 -283.05585574699217 546.05128610598331 0 546.05128610598331 -989.41546763789665 0 0 0 0 -302.78824780936702 758.5153797231178 0 758.5153797231178 -963.37583210541925 0 0 0 0 -392.35918487148592 645.26779102363798 0 645.26779102363798 -1040.9287200576509 0 0 0 0 -385.33447800508293 768.76791923849987 0 768.76791923849987 -881.78110061536427 0 0 0 0 -352.94292584299092 657.01468401802731 0 657.01468401802731 -1285.1461549803207 0 0 0 0 -347.57243437538455 743.39181652682919 0 743.39181652682919 -1225.0002764311794 0 0 0 0 -380.12771975330543 747.74106291489443 0 747.74106291489443 -1102.5705338201515 0 0 0 0 -427.05029931868194 548.03740209036914 0 548.03740209036914 -1182.427171554853 0 0 0 0 -273.84576088434551 927.13854066314525 0 927.13854066314525 -650.84984598835581 0 0 0 0 -405.14504557236796 861.88530177461507 0 861.88530177461507 -548.05729686365521 0 0 0 0 -432.66425798262935 704.97967183428409 0 704.97967183428409 -828.92753536633973 0 0 0 0 -403.50998908205656 632.30519322383043 0 632.30519322383043 -1035.757709980855 0 0 0 0 -386.49279180284793 723.62487455198971 0 723.62487455198971 -885.28614208466024 0 0 0 0 -370.57335794411483 873.71710319574049 0 873.71710319574049 -706.31681224387285 0 0 0 0 -343.78034551779274 769.79088873752335 0 769.79088873752335 -885.9904253784116 0 0 0 0 -223.79084594272717 579.2946672005346 0 579.2946672005346 -1510.9121595373144 0 0 0 0 -402.11207777220989 411.25850520952372 0 411.25850520952372 -1224.6996520154207 0 0 0 0 -402.11207777215168 411.25850520949461 0 411.25850520949461 -1224.6996520154062 0 0 0 0 -402.11207777216623 411.25850520950917 0 411.25850520950917 -1224.6996520154062 0 0 0 0 -449.83382036123658 532.31591435482551 0 532.31591435482551 -692.35313213260088 0 0 0 0 -22.498574719280153 59.184838271718348 0 59.184838271718348 -7.8891494386126055 0 0 0 0 -70.809884892021017 -15.02021528089611 0 -15.02021528089611 0.036927671537981155 0 0 0 0 -156.20850559680548 5.8844979113637237 0 5.8844979113637237 43.428063225233927 0 0 0 0 -332.61133282841183 816.34795295299409 0 816.34795295299409 -1538.1970496726753 0 0 0 0 -573.27700630016625 800.8985720821147 0 800.8985720821147 -1285.2818937454776 0 0 0 0 -643.71171468406101 614.2572553692371 0 614.2572553692371 -1194.5798584425083 0 0 0 0 -42.162957834130793 -211.98433167725307 0 -211.98433167725307 415.97337565501221 0 0 0 0 -71.195160996969207 -116.80136977615621 0 -116.80136977615621 137.4472671871772 0 0 0 0 -327.82369603286497 115.26017477553251 0 115.26017477553251 398.41121631786518 0 0 0 0 -280.90299870644958 -18.538300812262605 0 -18.538300812262605 753.32471124875883 0 0 0 0 -230.95545370144828 159.9560314953851 0 159.9560314953851 -17.339809249067912 0 0 0 0 -140.15189566946719 38.972675463061933 0 38.972675463061933 110.93301669076027 0 0 0 0 29.639704768625961 155.06013266980517 0 155.06013266980517 -165.767987299776 0 0 0 0 1.0175229292290169 177.25446922900665 0 177.25446922900665 -19.07652338744083 0 0 0 0 34.214634158215631 281.60522541932914 0 281.60522541932914 -1006.7810165935662 0 0 0 0 -261.22477649146458 844.19545312115952 0 844.19545312115952 393.85395942849573 0 0 0 0 6.2406504884436913 2.1350920005303351 0 2.1350920005303351 2.5125590484534683 0 0 0 0 -47.495339056215016 879.47580341524008 0 879.47580341524008 -1314.7210632465431 0 0 0 0 -208.57339528038574 835.69037214431592 0 835.69037214431592 -1090.4480839976168 0 0 0 0 -389.42630509761511 724.84703349223855 0 724.84703349223855 -1106.021691025664 0 0 0 0 -68.640626322405296 488.77976313415274 0 488.77976313415274 -1185.9534798702371 0 0 0 0 -1203.0657474016552 -1214.8570508833436 0 -1214.8570508833436 2970.6405815980033 0 0 0 0 -254.82511684688507 -47.478780031151473 0 -47.478780031151473 -349.66303388330562 0 0 0 0 334.44056497441488 1210.6561283507399 0 1210.6561283507399 -402.56873483171512 0 0 0 0 247.99023657434736 484.82631821180257 0 484.82631821180257 1747.8655986122685 0 0 0 0 -20.118017454994288 -5.4403285366008163 0 -5.4403285366008163 -2.3445021839885953 0 0 0 0 -952.13554152158031 1067.7122114301601 0 1067.7122114301601 -839.01257930671636 0 0 0 0 -939.49967499586637 701.38428334168566 0 701.38428334168566 -660.62973059938304 0 0 0 0 -1136.1307913820929 1261.1713974452068 0 1261.1713974452068 -1258.7147646069352 0 0 0 0 -807.29639356649932 858.57168287244713 0 858.57168287244713 -1297.9242731539416 0 0 0 0 -889.00297588208196 1107.3617848186623 0 1107.3617848186623 -1217.0024393147905 0 0 0 0 -1137.0407069931389 1215.348858928126 0 1215.348858928126 -1171.7977228652853 0 0 0 0 -901.59819169461844 1148.1960719088165 0 1148.1960719088165 -1105.794247636295 0 0 0 0 -1082.4540423255366 721.68502956546854 0 721.68502956546854 -259.82528886456566 0 0 0 0 6.0885044721727297 25.673563048073447 0 25.673563048073447 -23.974922458438357 0 0 0 0 2983.994975293288 488.70475719537444 0 488.70475719537444 -248.44850403648161 0 0 0 0 -735.0964189558581 705.25650375090845 0 705.25650375090845 -464.07726489943889 0 0 0 0 -749.98790857204585 266.28861029501422 0 266.28861029501422 -81.975578217672592 0 0 0 0 6.2304465564031588 32.573385581919325 0 32.573385581919325 -21.632606595129346 0 0 0 0 1518.1373608775612 575.91993950193864 0 575.91993950193864 -81.731741871964914 0 0 0 0 4.5840409550000913 182.09410885600664 0 182.09410885600664 -291.72692515776725 0 0 0 0 -565.96113679058089 264.47498553945479 0 264.47498553945479 -67.432028676419577 0 0 0 0 -533.47686621341563 424.79600099324307 0 424.79600099324307 -317.27802781238279 0 0 0 0 -681.45253071252682 699.44200088446905 0 699.44200088446905 -706.7227103044861 0 0 0 0 -811.53113625776314 509.79518858406664 0 509.79518858406664 -1058.598673207307 0 0 0 0 -900.07231428041996 369.44389231356035 0 369.44389231356035 -321.65785395739658 0 0 0 0 -485.14260020105576 -76.998782547874725 0 -76.998782547874725 -557.92401263923966 0 0 0 0 -973.90879887665506 578.64675152606651 0 578.64675152606651 -917.04743831090309 0 0 0 0 -631.63335513231868 569.75404456717661 0 569.75404456717661 -872.0774967101861 0 0 0 0 -132.72304156530299 173.22829848317633 0 173.22829848317633 -1310.808268423345 0 0 0 0 -2108.079101232317 1409.8330413936274 0 1409.8330413936274 -1662.0982719716412 0 0 0 0 -751.57081764789109 452.55342199465508 0 452.55342199465508 -1255.2453487419116 0 0 0 0 -796.87473454422889 1266.3362528470618 0 1266.3362528470618 -2479.6766090582241 0 0 0 0 -969.09120916140091 1045.8002030031712 0 1045.8002030031712 -1797.8492832725824 0 0 0 0 -969.78785775840515 779.98763928716653 0 779.98763928716653 -1016.8493403149596 0 0 0 0 -801.42520222126041 1257.1346861893253 0 1257.1346861893253 -900.35454158789798 0 0 0 0 -1700.8636621159094 2169.0261855482313 0 2169.0261855482313 -1608.6670324877705 0 0 0 0 -354.25500202682451 1227.2396326123708 0 1227.2396326123708 -2504.1230551154731 0 0 0 0 -2123.3011197543237 4309.5601556301117 0 4309.5601556301117 -3122.8820891685318 0 0 0 0 -2361.1080591213977 3041.7949467606813 0 3041.7949467606813 -2442.8043787234055 0 0 0 0 1951.8515381173929 924.24608802615694 0 924.24608802615694 -2585.8781065539879 0 0 0 0 -3608.8976636160187 1531.4925194579882 0 1531.4925194579882 -491.98561601004621 0 0 0 0 -5.254845067616003 10.413216345853982 0 10.413216345853982 -17.459608054057469 0 0 0 0 -2944.4985779252311 2532.0587355002353 0 2532.0587355002353 -5042.6424052939547 0 0 0 0 174.53960467133493 2382.958567247978 0 2382.958567247978 -3711.8668605091079 0 0 0 0 -2443.2915676932753 3648.1592866413484 0 3648.1592866413484 -2914.3566054991497 0 0 0 0 2.1074250815832727 2.189994528816591 0 2.189994528816591 -10.126863294960572 0 0 0 0 265.33618886690238 -196.22196776529745 0 -196.22196776529745 -462.57339201250579 0 0 0 0 -175.72106785028882 758.35300978057057 0 758.35300978057057 -2339.7089669645939 0 0 0 0 387.41705853998428 1014.9963615822489 0 1014.9963615822489 -3973.7436409209186 0 0 0 0 -4.6683321860036813 2261.9327236333047 0 2261.9327236333047 -4543.5715965540148 0 0 0 0 -100.63524886398227 624.05581435268687 0 624.05581435268687 -2555.3284143813071 0 0 0 0 667.51519633136922 311.10873880868894 0 311.10873880868894 -2209.892923690204 0 0 0 0 -47.035734411794692 306.17230262783414 0 306.17230262783414 -773.07933131471509 0 0 0 0 -502.19333119754447 648.87279059973662 0 648.87279059973662 -319.50699427432846 0 0 0 0 -460.78937008674257 617.29370941723755 0 617.29370941723755 -873.85705853093532 0 0 0 0 -297.17992553178919 767.64702728924749 0 767.64702728924749 -1229.5477535821483 0 0 0 0 -473.54095679064631 650.48599631755496 0 650.48599631755496 -1277.6395390584657 0 0 0 0 -356.29618190838664 816.72800454679236 0 816.72800454679236 -974.6072160943877 0 0 0 0 -280.20520891225351 1267.7087372260276 0 1267.7087372260276 -2527.7188311676437 0 0 0 0 -559.51934155068011 1894.7979817122832 0 1894.7979817122832 -3435.2939436839661 0 0 0 0 -25.110628426904441 790.10955096757243 0 790.10955096757243 -865.97228526807157 0 0 0 0 -429.73146302657551 765.37085180114082 0 765.37085180114082 -856.26319172196963 0 0 0 0 -318.80484762447304 898.10531314630498 0 898.10531314630498 -737.01212784191011 0 0 0 0 -658.23273293938837 927.8194495648786 0 927.8194495648786 -535.9285784288295 0 0 0 0 -506.74207248602761 1020.5935533353331 0 1020.5935533353331 -773.44123719679192 0 0 0 0 270.51446388248587 770.41635033377679 0 770.41635033377679 -752.81908297027985 0 0 0 0 -279.16639661743829 994.68477290466399 0 994.68477290466399 -843.49448196828598 0 0 0 0 -540.79998718422212 462.83494613189941 0 462.83494613189941 535.41245139915554 0 0 0 0 -1603.778518666717 1948.3199262639246 0 1948.3199262639246 -0.23140521230379818 0 0 0 0 237.58689339681587 -270.0110908483839 0 -270.0110908483839 -821.17774444723909 0 0 0 0 18.881639327801924 10.641849235680638 0 10.641849235680638 -18.29001405015066 0 0 0 0 -1518.6449450386863 1302.2426640274498 0 1302.2426640274498 -866.79284299991559 0 0 0 0 -517.45436747971689 1046.4140866661473 0 1046.4140866661473 -3092.8135415138822 0 0 0 0 46.121209517499665 1363.7301493893101 0 1363.7301493893101 -2287.7215249642904 0 0 0 0 395.36788921838161 70.321698535677569 0 70.321698535677569 -1815.2583703356067 0 0 0 0 221.03185196808772 595.26194895657682 0 595.26194895657682 -1001.825942123869 0 0 0 0 53.889763669511012 440.85466848626675 0 440.85466848626675 -311.94925779169716 0 0 0 0 -1619.2719464948168 1590.0272148090153 0 1590.0272148090153 -1558.4458499892098 0 0 0 0 -1561.2346379763767 1720.9889719407147 0 1720.9889719407147 -1768.9838586437072 0 0 0 0 -1420.0413324709807 1198.8388229016418 0 1198.8388229016418 -1352.2541452405858 0 0 0 0 -1381.885476810945 1372.1050644107454 0 1372.1050644107454 -1952.6940226721345 0 0 0 0 17.123997381200326 6.7736404804790382 0 6.7736404804790382 -23.56190755571464 0 0 0 0 -820.78001070988466 328.81668618474032 0 328.81668618474032 -1186.9019274715683 0 0 0 0 -1156.6681658206508 1155.0437800521104 0 1155.0437800521104 -1225.4358223569725 0 0 0 0 -1358.3542286365991 1147.8961926808988 0 1147.8961926808988 -1148.7554464835121 0 0 0 0 26.093737499282412 14.904866562818846 0 14.904866562818846 -18.051769532322567 0 0 0 0 -1779.3451314911363 1305.7850740240683 0 1305.7850740240683 -1525.5960601436673 0 0 0 0 -1232.0008853990439 1282.0732563351703 0 1282.0732563351703 -1176.3564572276518 0 0 0 0 -1161.4298870902712 1531.585548735231 0 1531.585548735231 -2011.9636671321496 0 0 0 0 -454.56051467932411 174.06207858587004 0 174.06207858587004 709.60420832047384 0 0 0 0 -12.912858699439653 11.499315747266749 0 11.499315747266749 0.04388941639471966 0 0 0 0 -1209.2362581060734 1950.1616264214317 0 1950.1616264214317 -1324.8564955348643 0 0 0 0 -87.332869699544972 345.36952714955987 0 345.36952714955987 30.865959734408534 0 0 0 0 -139.1188025829324 254.13022777315928 0 254.13022777315928 -13.964732058404479 0 0 0 0 -510.69718664919492 700.52185119602655 0 700.52185119602655 -304.44169930061616 0 0 0 0 -1353.837048998219 745.12568480639311 0 745.12568480639311 -160.45075183612062 0 0 0 0 -1617.5544269067959 1545.9779857871167 0 1545.9779857871167 -1331.2859943783842 0 0 0 0 -1581.230769384525 979.46612718241249 0 979.46612718241249 324.3865032310714 0 0 0 0 -1073.0469010132365 579.8121271115815 0 579.8121271115815 539.27947839570697 0 0 0 0 146.38269301428073 53.042926410558266 0 53.042926410558266 0.56237227859783445 0 0 0 0 76.213952529607923 412.68177221984661 0 412.68177221984661 -357.93879083893989 0 0 0 0 -184.70990752283251 -153.13307561342663 0 -153.13307561342663 144.69177611165651 0 0 0 0 -65.447715556303592 547.17644804013617 0 547.17644804013617 325.80172586807748 0 0 0 0 25.072962034471196 103.00171021028824 0 103.00171021028824 -3.0328672357913433 0 0 0 0 -21.213080748067462 157.23198164942414 0 157.23198164942414 8.9638217446481576 0 0 0 0 360.61834826113773 104.91009204481816 0 104.91009204481816 153.50773443102662 0 0 0 0 -56.198721940651012 -20.164960096968571 0 -20.164960096968571 522.03563697241771 0 0 0 0 -96.530139712544042 138.9234879866126 0 138.9234879866126 11.231778747365752 0 0 0 0 13.955434026783422 0.56717802568273612 0 0.56717802568273612 -2.8766758502854088 0 0 0 0 112.9904460468606 118.89451809304592 0 118.89451809304592 -267.86726107785216 0 0 0 0 73.017700850730762 -1.6660974074038677 0 -1.6660974074038677 -218.09248056072101 0 0 0 0 32.154392452280803 114.50062244639165 0 114.50062244639165 -5.6632528883052373 0 0 0 0 -82.631806385310483 100.11392336407152 0 100.11392336407152 38.183564187216689 0 0 0 0 6.4475785821224747 29.355405622581088 0 29.355405622581088 -8.2267979438632892 0 0 0 0 121.64741541601325 75.900485738100542 0 75.900485738100542 -293.3908766895147 0 0 0 0 22.453119796814068 34.546650125134022 0 34.546650125134022 -100.03712325062719 0 0 0 0 -54.736919060560467 125.48701278949738 0 125.48701278949738 -240.4374694713988 0 0 0 0 97.007916899583506 36.043180547691009 0 36.043180547691009 -357.72726584790507 0 0 0 0 141.11302172931028 367.34802062225208 0 367.34802062225208 -571.45560130599188 0 0 0 0 -1270.1073590032756 794.56284683731064 0 794.56284683731064 -200.13917328821844 0 0 0 0 458.94768875388229 172.74877680827393 0 172.74877680827393 -200.55023996446107 0 0 0 0 -92.761996078319498 10.801846058286174 0 10.801846058286174 94.688200622367731 0 0 0 0 142.97725932958718 116.5902576267368 0 116.5902576267368 57.025911076484761 0 0 0 0 319.04483214226275 291.78836064197094 0 291.78836064197094 -695.2250534400082 0 0 0 0 -745.96260730415815 999.21965845346131 0 999.21965845346131 -206.47001304673904 0 0 0 0 -1032.6099676797749 144.71085167459387 0 144.71085167459387 8.4357721503783978 0 0 0 0 -1654.8840591299013 1226.0299074105606 0 1226.0299074105606 -906.65671624168317 0 0 0 0 28.528869069296945 23.105146669358575 0 23.105146669358575 2.6955925518514618 0 0 0 0 -811.38053974710783 760.09954936716167 0 760.09954936716167 -1000.5985371508432 0 0 0 0 -1514.0088406276773 1640.9765561275635 0 1640.9765561275635 -701.54023181677803 0 0 0 0 -879.44649821158964 911.14279367906056 0 911.14279367906056 -895.03724322737253 0 0 0 0 29.613350255203272 21.286391039775751 0 21.286391039775751 -5.8629058228301574 0 0 0 0 -874.22578872415943 1059.3876577882615 0 1059.3876577882615 -1116.6846219466534 0 0 0 0 -920.87865340267308 1121.0314967960367 0 1121.0314967960367 -1125.3208580642604 0 0 0 0 -880.89049351848371 1080.7650713986222 0 1080.7650713986222 -1088.6687602443999 0 0 0 0 -915.91372734674223 1135.2995924777479 0 1135.2995924777479 -1194.6956198035041 0 0 0 0 -1209.6119623272389 1144.115058453026 0 1144.115058453026 -1043.0287172556855 0 0 0 0 2.4662374275680889 10.480924609876524 0 10.480924609876524 -11.156262070091714 0 0 0 0 -3045.601537296403 1620.2312219316882 0 1620.2312219316882 -665.68966236044434 0 0 0 0 -965.08535120091165 1922.2181722529863 0 1922.2181722529863 -1734.8449552792881 0 0 0 0 341.6822168311628 1383.0141744338398 0 1383.0141744338398 -1665.4559740740679 0 0 0 0 420.61671866441611 1138.7636207822652 0 1138.7636207822652 -1100.4421534660651 0 0 0 0 1128.2470551270962 1207.9862392190553 0 1207.9862392190553 -1212.7353293721026 0 0 0 0 -682.95637763062405 766.56814677398506 0 766.56814677398506 -682.9857497591729 0 0 0 0 710.32901969537488 310.06549690660177 0 310.06549690660177 -545.67322185642843 0 0 0 0 -246.54675091519312 802.62309489319159 0 802.62309489319159 -686.09288099375317 0 0 0 0 28.63905905430147 432.79787211349321 0 432.79787211349321 -470.70497548149433 0 0 0 0 569.42487487846665 1261.640964127766 0 1261.640964127766 -991.34136401902651 0 0 0 0 1861.3055647380243 1103.2589998689946 0 1103.2589998689946 -994.54619092027133 0 0 0 0 2284.3752491672058 2817.096509709143 0 2817.096509709143 380.95576568506658 0 0 0 0 3345.1004706188687 373.39192391125107 0 373.39192391125107 -590.10627178345021 0 0 0 0 1627.002908086899 1985.3335906925058 0 1985.3335906925058 -612.32880314606155 0 0 0 0 421.17797288345173 2467.6666442857677 0 2467.6666442857677 1728.9608864749025 0 0 0 0 63.902275620722094 35.852503783793836 0 35.852503783793836 20.377923816782612 0 0 0 0 -1280.8369122667063 1050.8920387106191 0 1050.8920387106191 1311.9617074269081 0 0 0 0 2084.7054537334643 -2237.0554920521499 0 -2237.0554920521499 -6234.5698623310163 0 0 0 0 -137.03647935180925 4227.5667958251579 0 4227.5667958251579 386.95545300733647 0 0 0 0 12.337962815608194 11.488607009794904 0 11.488607009794904 3.519004766142416 0 0 0 0 -654.11418132849212 429.34431263234728 0 429.34431263234728 -1376.3200801865969 0 0 0 0 -1847.3452570948557 8.6230293634025657 0 8.6230293634025657 -701.98166018549819 0 0 0 0 150.49996854998119 103.164827652784 0 103.164827652784 71.127214595666857 0 0 0 0 1116.5896229670834 574.10976987048343 0 574.10976987048343 -82.937219958999776 0 0 0 0 -955.73649435760854 -165.22561906527517 0 -165.22561906527517 -208.87979804578936 0 0 0 0 132.23472072737292 101.32907982280457 0 101.32907982280457 65.862144600716988 0 0 0 0 461.14684931819647 2675.2589218095673 0 2675.2589218095673 -1280.387021124392 0 0 0 0 -232.77306419244269 339.19269587262534 0 339.19269587262534 -1195.4449061242694 0 0 0 0 -1781.9393116396623 6572.9741542335942 0 6572.9741542335942 3372.9216482451084 0 0 0 0 150.46144108739099 2553.3378659109949 0 2553.3378659109949 2290.3637227480358 0 0 0 0 -641.8449970457732 942.97600354373571 0 942.97600354373571 -519.52867812756449 0 0 0 0 -1381.5561521021882 250.93689999070193 0 250.93689999070193 2822.6039454607708 0 0 0 0 -974.98189825983718 1135.0976362574511 0 1135.0976362574511 1951.1629177763243 0 0 0 0 2915.4900542116084 -955.16837614440374 0 -955.16837614440374 1020.1873984870035 0 0 0 0 2995.3494792420151 688.57315237185321 0 688.57315237185321 -78.477934080088744 0 0 0 0 6.6677676413167148 10.018364088722564 0 10.018364088722564 33.807222950022549 0 0 0 0 -840.93326062721462 -342.91975263682252 0 -342.91975263682252 1806.2484363961703 0 0 0 0 -1387.5954126835331 346.84333705445715 0 346.84333705445715 1575.533531545545 0 0 0 0 -616.92117433543172 111.74591239954316 0 111.74591239954316 -235.32730283212732 0 0 0 0 -568.64590309155028 529.62526668282226 0 529.62526668282226 493.84170724807336 0 0 0 0 -676.56621994942543 596.47477591884672 0 596.47477591884672 1435.091444681304 0 0 0 0 594.46393694207654 1287.6287463160988 0 1287.6287463160988 -273.43644050438888 0 0 0 0 2912.9598187894298 1360.5172031957336 0 1360.5172031957336 -575.68405796011211 0 0 0 0 -206.92255519785977 1482.8553987906344 0 1482.8553987906344 1155.3935234797973 0 0 0 0 1387.0614447374246 -1683.5020247013308 0 -1683.5020247013308 -5771.3988718031032 0 0 0 0 66.531856711927446 43.093383980300786 0 43.093383980300786 25.88245052982856 0 0 0 0 -988.97659893423406 720.02857145073358 0 720.02857145073358 2998.181521018967 0 0 0 0 350.10758515798807 2448.5884351911445 0 2448.5884351911445 2787.4075224774715 0 0 0 0 -1202.220935767371 204.99026268963644 0 204.99026268963644 1907.0199703608523 0 0 0 0 -1164.6676903926127 -103.3234238497098 0 -103.3234238497098 198.74771722039441 0 0 0 0 -1413.3025114479969 696.33007862871455 0 696.33007862871455 2150.7429406817537 0 0 0 0 -1340.5068203495612 937.4403926969826 0 937.4403926969826 2512.2449940952065 0 0 0 0 -351.90558814254473 -9.1039636587520363 0 -9.1039636587520363 993.08208381455916 0 0 0 0 4.6431408904775253 -1.9766735818596715 0 -1.9766735818596715 -3.1891652465133689 0 0 0 0 -183.92880679285736 711.48688938021951 0 711.48688938021951 -1109.3455787219573 0 0 0 0 -284.88085702717308 56.200999424321708 0 56.200999424321708 -209.78562001425598 0 0 0 0 -124.15792011169106 443.65104914135009 0 443.65104914135009 -547.29825070322477 0 0 0 0 -3.3677051721406448 23.00599067997139 0 23.00599067997139 -59.744258370227897 0 0 0 0 92.384354393612739 -236.4024546412038 0 -236.4024546412038 -138.59455009912199 0 0 0 0 -379.5324550717196 312.26754043796245 0 312.26754043796245 -29.107484988053329 0 0 0 0 -458.40213393091835 505.75007276091128 0 505.75007276091128 -499.49152536701877 0 0 0 0 87.843178729799547 -167.84690258362389 0 -167.84690258362389 -175.48392045023502 0 0 0 0 399.10637237509945 -89.464319438877283 0 -89.464319438877283 -167.81218078019265 0 0 0 0 293.18012015766726 -249.85284076742391 0 -249.85284076742391 -455.42586259031668 0 0 0 0 312.71497486657609 13.513424912220216 0 13.513424912220216 -390.3058825347689 0 0 0 0 -140.03772339846182 965.38346680736868 0 965.38346680736868 -1400.9855334914464 0 0 0 0 933.34398526265431 71.635775798727991 0 71.635775798727991 -1383.938657664977 0 0 0 0 672.58241196191739 762.61587036696437 0 762.61587036696437 1022.7965162238688 0 0 0 0 134.75858315461664 853.88293350144522 0 853.88293350144522 2401.9502279477529 0 0 0 0 426.01332907339929 -686.45341692366128 0 -686.45341692366128 880.13171838718699 0 0 0 0 1923.6265486934135 1792.4344441465801 0 1792.4344441465801 945.94187181149027 0 0 0 0 209.19305993825401 486.643023443743 0 486.643023443743 722.64754177014402 0 0 0 0 389.8725488603377 390.22882525195746 0 390.22882525195746 34.308282920625061 0 0 0 0 383.61193149477913 287.77970284491312 0 287.77970284491312 495.01504321423999 0 0 0 0 243.97262904297531 -440.27243050729339 0 -440.27243050729339 128.1307818464411 0 0 0 0 -315.68449911715288 135.87065262345277 0 135.87065262345277 -267.86142928113986 0 0 0 0 257.85371007625872 500.87631357915961 0 500.87631357915961 498.68829940259457 0 0 0 0 -1279.8849187780579 266.37472616020386 0 266.37472616020386 178.55412721265748 0 0 0 0 -0.44317865865259826 22.909215426333816 0 22.909215426333816 -22.610504793318171 0 0 0 0 -12.570751504885266 192.76932894127458 0 192.76932894127458 -186.34787164014415 0 0 0 0 -390.28930585776834 314.36492986205849 0 314.36492986205849 -100.2698350493738 0 0 0 0 -428.79425107450606 510.47737041598884 0 510.47737041598884 -531.69026839517755 0 0 0 0 -449.71924636903714 369.38750907358917 0 369.38750907358917 577.26943065359956 0 0 0 0 -106.83260262866679 395.7844321924058 0 395.7844321924058 -130.24818801116635 0 0 0 0 217.18960462439486 88.418143697014784 0 88.418143697014784 -372.91841993053094 0 0 0 0 489.32657854128774 -341.20520280348137 0 -341.20520280348137 118.18381811393192 0 0 0 0 -418.6972835016204 67.202580344965099 0 67.202580344965099 29.515746373886941 0 0 0 0 -438.73870695660025 -67.047816791554396 0 -67.047816791554396 -385.75417704755091 0 0 0 0 95.129037665636133 439.036076865832 0 439.036076865832 -247.79961815747083 0 0 0 0 -0.35713007519345963 11.809403226031264 0 11.809403226031264 -4.0253245198722425 0 0 0 0 -2648.7828817588161 909.769353687072 0 909.769353687072 471.30289327923674 0 0 0 0 625.25238712710416 1944.5407716611517 0 1944.5407716611517 176.56085311394418 0 0 0 0 629.23851546018705 1295.8123179085887 0 1295.8123179085887 1028.5101134028228 0 0 0 0 2391.2687650508524 1435.5398236269612 0 1435.5398236269612 370.50817332061706 0 0 0 0 1101.0525256594701 788.98368978914368 0 788.98368978914368 180.24319366972486 0 0 0 0 1372.4768532230773 1001.0081920751982 0 1001.0081920751982 383.92612879649096 0 0 0 0 1076.148233484198 1139.0700089634333 0 1139.0700089634333 445.21004857553635 0 0 0 0 818.04456899192587 758.88808258634117 0 758.88808258634117 561.55477788730059 0 0 0 0 -37.509197422046697 27.94862705418592 0 27.94862705418592 -20.319869550996458 0 0 0 0 -14.930590610136278 110.45738948724465 0 110.45738948724465 -9.745125860295957 0 0 0 0 -43.368785473514436 110.85599188994092 0 110.85599188994092 -8.1112194138986524 0 0 0 0 -311.9948407740012 867.4003241211467 0 867.4003241211467 1374.1259084706398 0 0 0 0 -46.537011072981841 108.02387774634917 0 108.02387774634917 -1.3662560791708529 0 0 0 0 -117.48927924467716 756.77142563831876 0 756.77142563831876 -1059.027309509489 0 0 0 0 -11.547493318964001 10.933616331758003 0 10.933616331758003 -6.7193937398762955 0 0 0 0 506.92347167385014 1041.3212275912738 0 1041.3212275912738 1397.4402753246541 0 0 0 0 797.64745919933239 1183.4327899035743 0 1183.4327899035743 944.41551654855721 0 0 0 0 -152.56722005875781 1578.9892624978384 0 1578.9892624978384 1048.9035298375547 0 0 0 0 2664.7724778196789 1889.0175081643974 0 1889.0175081643974 151.45177114076796 0 0 0 0 499.02544072222008 2539.1119282019172 0 2539.1119282019172 1936.3968387286441 0 0 0 0 -1575.9568635877295 2196.1514610612721 0 2196.1514610612721 2379.9062845095177 0 0 0 0 -145.99586923195784 945.29812767586191 0 945.29812767586191 -0.24939433256804477 0 0 0 0 1845.5135545057055 1735.5552203745756 0 1735.5552203745756 1202.0122034153574 0 0 0 0 4040.7532569141476 1098.5721953505272 0 1098.5721953505272 -236.14536263757327 0 0 0 0 2539.0741563682095 -112.83648385998094 0 -112.83648385998094 142.43509842103231 0 0 0 0 16.47108015639175 15.646683708342081 0 15.646683708342081 18.902295420992516 0 0 0 0 -979.35461482884421 846.9855991135264 0 846.9855991135264 481.95354084571591 0 0 0 0 -209.00916159393933 -506.11234889347088 0 -506.11234889347088 -308.32660409010714 0 0 0 0 -29.445400201252198 77.737253635126933 0 77.737253635126933 -51.014582078922643 0 0 0 0 2300.911272983918 391.38421126533649 0 391.38421126533649 499.69305474768043 0 0 0 0 -148.47724559800531 958.61753728448775 0 958.61753728448775 449.01076994818868 0 0 0 0 -24.889810376890352 61.036690021242123 0 61.036690021242123 -68.749243444039166 0 0 0 0 163.34012806108512 -147.53277211889508 0 -147.53277211889508 -341.61049024562089 0 0 0 0 521.20108944703316 84.403786242306523 0 84.403786242306523 -1618.096081394935 0 0 0 0 -510.5255938824339 384.24831551914394 0 384.24831551914394 -301.66971326371277 0 0 0 0 -235.93683826897905 798.7601005121287 0 798.7601005121287 132.98340145248221 0 0 0 0 278.24321449951458 409.97840136694867 0 409.97840136694867 217.07517087768065 0 0 0 0 -2.1091156337313635 52.312222728859524 0 52.312222728859524 74.239026560645414 0 0 0 0 -817.00096482557274 756.26425948072574 0 756.26425948072574 -97.683304556107032 0 0 0 0 490.16002591810684 229.37703171865724 0 229.37703171865724 91.719676217478991 0 0 0 0 269.53943779539259 571.92170524620451 0 571.92170524620451 535.83445508668956 0 0 0 0 572.32683711729624 141.32270584271464 0 141.32270584271464 41.458793557045283 0 0 0 0 -59.830254009840985 53.697971670117226 0 53.697971670117226 -14.195089893543923 0 0 0 0 -77.582812551470852 116.70324745863036 0 116.70324745863036 -11.64456831527059 0 0 0 0 -70.333231189459184 90.000375042924134 0 90.000375042924134 74.171594059793279 0 0 0 0 -10.811931592585339 28.570125231632773 0 28.570125231632773 25.622377370365939 0 0 0 0 -2.6615276503071073 73.354011853196425 0 73.354011853196425 -3.1277960276202066 0 0 0 0 -66.73969385449891 84.307978414086392 0 84.307978414086392 -2.0777827016863739 0 0 0 0 -32.708580786893435 101.30777145404136 0 101.30777145404136 0.32958210105425678 0 0 0 0 -61.515326250115322 50.594582743937281 0 50.594582743937281 3.9140112539171241 0 0 0 0 -151.37771529980819 101.80693167098798 0 101.80693167098798 -0.11574299093421114 0 0 0 0 2952.0843510616396 1300.5412227113848 0 1300.5412227113848 -295.64169381844113 0 0 0 0 3.2856279526037895 3.1765018829665408 0 3.1765018829665408 14.671141139806423 0 0 0 0 -212.87137129301846 816.18999899314076 0 816.18999899314076 -369.7630264684849 0 0 0 0 102.4946163418208 3278.5059130583686 0 3278.5059130583686 679.41409501033195 0 0 0 0 -106.29275931065786 1685.706327826847 0 1685.706327826847 2918.1646419147728 0 0 0 0 -707.10845755199261 1687.1846931252803 0 1687.1846931252803 0.55927642835013103 0 0 0 0 1928.9550046096338 2919.8999612993503 0 2919.8999612993503 -1774.6160654214036 0 0 0 0 -390.69191515896819 1119.5707819548115 0 1119.5707819548115 -1827.7586667220603 0 0 0 0 -9.6885093430065012 19.469846878460203 0 19.469846878460203 -2.3476939062050235 0 0 0 0 -77.911714654546813 173.16622816085146 0 173.16622816085146 -113.19852993248787 0 0 0 0 -88.648380154685583 181.61922095787304 0 181.61922095787304 -2.461749427660834 0 0 0 0 25.768800193333846 495.70982059822927 0 495.70982059822927 997.97634181354078 0 0 0 0 -32.982494614927759 35.285199494556082 0 35.285199494556082 -9.5224376626153457 0 0 0 0 16.61079336052353 517.21263988580904 0 517.21263988580904 3346.1294338150474 0 0 0 0 16.37671658249036 21.050645505221212 0 21.050645505221212 0.92139138201454784 0 0 0 0 933.23571998292937 266.61904948694973 0 266.61904948694973 29.784630202062544 0 0 0 0 370.31431569558481 1946.8588346583056 0 1946.8588346583056 2283.8976964009053 0 0 0 0 279.69323162248475 1180.5831458096509 0 1180.5831458096509 1317.3449202601623 0 0 0 0 480.94669472728856 1290.7471232608077 0 1290.7471232608077 882.52645736868726 0 0 0 0 79.39373291238735 1134.946870607193 0 1134.946870607193 863.37580700440412 0 0 0 0 244.67997443373315 1627.9922605714455 0 1627.9922605714455 1534.7057332839468 0 0 0 0 -214.86587527609663 344.41322229109937 0 344.41322229109937 1587.3599382967077 0 0 0 0 61.142594728968106 1456.5853247022023 0 1456.5853247022023 1374.960280374682 0 0 0 0 455.05003093728737 1211.5327209773968 0 1211.5327209773968 474.03524821222527 0 0 0 0 671.34239793705638 1077.6531072038342 0 1077.6531072038342 620.58785421442008 0 0 0 0 -949.79336380008954 -3198.0121916635626 0 -3198.0121916635626 8964.7606201936433 0 0 0 0 -93.791172552846547 20.525196442584274 0 20.525196442584274 1619.7718716963136 0 0 0 0 9.3663421853360376 47.248073179727726 0 47.248073179727726 -29.972851899651346 0 0 0 0 507.31144931673953 11445.878607691317 0 11445.878607691317 2878.106360609876 0 0 0 0 2162.6026608411921 2141.9652353966376 0 2141.9652353966376 -6171.8105675531551 0 0 0 0 50.930533517114839 30.436025821739292 0 30.436025821739292 19.046772518320211 0 0 0 0 -2200.188662858156 5585.2405123503413 0 5585.2405123503413 10781.337887554888 0 0 0 0 -970.14742220254266 -636.54465935807093 0 -636.54465935807093 10027.060192502056 0 0 0 0 279.05623828392709 2870.1947968899331 0 2870.1947968899331 4771.0850750339741 0 0 0 0 448.60905577757512 -834.70197424574872 0 -834.70197424574872 2999.0830045906478 0 0 0 0 1203.9302546173567 2327.4973681485135 0 2327.4973681485135 1361.9632981731265 0 0 0 0 18.107219618657837 1472.683494306737 0 1472.683494306737 1522.6243545969483 0 0 0 0 366.40330278090551 3049.0867827332695 0 3049.0867827332695 2581.0291025880724 0 0 0 0 2301.2903098918905 3781.4210224757553 0 3781.4210224757553 1877.0588821152633 0 0 0 0 -17.194353745511535 14.525425424760783 0 14.525425424760783 -10.472026600804213 0 0 0 0 626.53778235236678 1576.6043000553691 0 1576.6043000553691 480.31188267152174 0 0 0 0 640.94132899551187 448.99718836243846 0 448.99718836243846 -417.19224506964383 0 0 0 0 749.80926387036743 984.4971686067438 0 984.4971686067438 -1927.8817753196927 0 0 0 0 196.53253778694489 746.29124674458581 0 746.29124674458581 301.8177161226522 0 0 0 0 571.84529326453776 785.51903057254094 0 785.51903057254094 -250.96489627688425 0 0 0 0 182.75984092481667 -120.17353864118923 0 -120.17353864118923 -1598.1223785424954 0 0 0 0 240.20655147376237 -1.1692868374047976 0 -1.1692868374047976 116.70343300816603 0 0 0 0 -9.2195903878600802 -259.05985435314869 0 -259.05985435314869 299.70325644841068 0 0 0 0 489.12561257211928 -393.30001617550079 0 -393.30001617550079 167.34687887402833 0 0 0 0 -68.643842784018489 249.53819800803467 0 249.53819800803467 -122.84387807184248 0 0 0 0 -276.70905619241239 122.56468179279182 0 122.56468179279182 259.2598957463415 0 0 0 0 -10.871005673368927 40.121208275013487 0 40.121208275013487 0.5248283140535932 0 0 0 0 49.474376972669575 25.783887164688679 0 25.783887164688679 2.160575800054005 0 0 0 0 2571.9222877030988 -509.70390908623813 0 -509.70390908623813 -70.335489358250925 0 0 0 0 20.788866727912421 6.7984196981943796 0 6.7984196981943796 3.8306604609111901 0 0 0 0 -10.283054492079827 40.707007768804033 0 40.707007768804033 -0.25524592204601504 0 0 0 0 4735.3235084001717 2025.1895367455509 0 2025.1895367455509 -499.58966639533173 0 0 0 0 2556.9133016728883 2752.7805631964948 0 2752.7805631964948 1.1480108211690094 0 0 0 0 2636.9168964218948 1713.5503768995563 0 1713.5503768995563 -439.06940749794012 0 0 0 0 1775.0831453305436 2172.1158059302688 0 2172.1158059302688 481.97346473594371 0 0 0 0 2557.7410625014973 2657.264675649315 0 2657.264675649315 100.67209293248015 0 0 0 0 1608.0907384363818 1288.8999446034868 0 1288.8999446034868 -113.10316792928643 0 0 0 0 1899.8566951238463 877.68499838458956 0 877.68499838458956 76.375732269923901 0 0 0 0 921.30336922862625 2899.7769773696382 0 2899.7769773696382 -2.652006224510842 0 0 0 0 -0.45559760285436823 11.05423041594014 0 11.05423041594014 -1.0227224769460044 0 0 0 0 1700.2102669283195 2317.9454630588298 0 2317.9454630588298 -36.32615890057059 0 0 0 0 1826.5984325461613 2671.989450475623 0 2671.989450475623 258.06832999487233 0 0 0 0 1939.2313582243514 2617.6814774730155 0 2617.6814774730155 287.32533644615614 0 0 0 0 1875.0364543143078 2705.9315108591254 0 2705.9315108591254 222.6787962478702 0 0 0 0 1401.8032286918533 2435.8295040898302 0 2435.8295040898302 2499.517303734232 0 0 0 0 1674.7270394281877 2641.4336013845314 0 2641.4336013845314 833.51563260389958 0 0 0 0 1847.5203148572036 2130.1871039035323 0 2130.1871039035323 935.11097814801178 0 0 0 0 2217.9635583321215 2537.9338480599254 0 2537.9338480599254 1382.7632883690967 0 0 0 0 1789.4423807092462 2318.8968194085883 0 2318.8968194085883 684.87172323194682 0 0 0 0 1314.0787372086197 1623.6513990692329 0 1623.6513990692329 1111.1672588953807 0 0 0 0 1514.9187958157781 1833.3821201296914 0 1833.3821201296914 1295.8415631807002 0 0 0 0 1520.6381312366557 1899.4009059144119 0 1899.4009059144119 2024.6893606388476 0 0 0 0 1284.8433967294404 818.5949068529153 0 818.5949068529153 92.471195041885949 0 0 0 0 469.4445935926633 -51.241004238603637 0 -51.241004238603637 -860.64413967383734 0 0 0 0 -0.95116142082946453 5.880213110246757 0 5.880213110246757 -5.2537825440222434 0 0 0 0 968.672246163198 1496.3640667922373 0 1496.3640667922373 399.51063448618515 0 0 0 0 1882.884593612398 1623.6534988034982 0 1623.6534988034982 158.5977134979039 0 0 0 0 1430.8790773561195 1363.1105329073762 0 1363.1105329073762 155.63868580802227 0 0 0 0 335.7613106861827 623.37615103174176 0 623.37615103174176 1157.6297468680714 0 0 0 0 547.13822953159979 589.71803660952719 0 589.71803660952719 1109.9016220742706 0 0 0 0 293.93466363514744 835.20049583122272 0 835.20049583122272 908.08201930785435 0 0 0 0 459.90884101876873 540.97476969762647 0 540.97476969762647 1092.6006043068337 0 0 0 0 362.14132881416299 624.96925841317716 0 624.96925841317716 1251.7328774638445 0 0 0 0 141.76838832215634 39.328234171190161 0 39.328234171190161 -25.991174420443222 0 0 0 0 564.95692540591699 268.98691386439168 0 268.98691386439168 -1345.5655403595447 0 0 0 0 -36.281469561676857 82.030544933923466 0 82.030544933923466 -29.379728103405625 0 0 0 0 1067.8056246924825 565.84872561268276 0 565.84872561268276 -761.06720983851119 0 0 0 0 -179.86248393066489 234.18939580285587 0 234.18939580285587 -192.21710282773711 0 0 0 0 133.3722813054701 779.11119718754708 0 779.11119718754708 -457.93112670184928 0 0 0 0 387.42569361900678 149.653077537645 0 149.653077537645 -218.59395605775353 0 0 0 0 -72.718464881602415 79.82555882095329 0 79.82555882095329 -20.910748019710695 0 0 0 0 905.74699223655625 717.98313947908173 0 717.98313947908173 -464.55532392062742 0 0 0 0 538.3280242140172 -80.034168675811088 0 -80.034168675811088 -890.92173615639331 0 0 0 0 1244.1118784004429 1809.3547644129321 0 1809.3547644129321 1995.4292757486692 0 0 0 0 99.692478361712176 21.652602414096179 0 21.652602414096179 -4.3948277099138409 0 0 0 0 643.49076443533704 958.78148641754524 0 958.78148641754524 2164.5746963664787 0 0 0 0 938.80226228141692 1787.9633311108264 0 1787.9633311108264 3160.3185195923579 0 0 0 0 334.07803502419847 270.35790829604957 0 270.35790829604957 -2474.9540588824275 0 0 0 0 -180.16255863076367 964.63047292425472 0 964.63047292425472 -423.83430118401884 0 0 0 0 -163.14564456225708 444.96349673748341 0 444.96349673748341 470.40988773378194 0 0 0 0 247.63004500753595 270.00781333784107 0 270.00781333784107 312.06110284324677 0 0 0 0 -45.33378024502241 35.112675266160295 0 35.112675266160295 -25.742812667111593 0 0 0 0 277.86428045656066 269.70890437354683 0 269.70890437354683 417.50499166363625 0 0 0 0 57.898942042222188 401.93939121906442 0 401.93939121906442 851.00426320866245 0 0 0 0 25.581159704339825 36.775230874872136 0 36.775230874872136 -49.482564620647508 0 0 0 0 3014.660256420204 1722.5514397664519 0 1722.5514397664519 823.41083912674867 0 0 0 0 1035.4011901880585 582.46815638161206 0 582.46815638161206 425.67129835775995 0 0 0 0 1106.187867089553 865.53664567964734 0 865.53664567964734 835.76742334156006 0 0 0 0 1707.8839921988838 912.16448334594315 0 912.16448334594315 103.43551380123245 0 0 0 0 -50.791187663991934 55.113058667254222 0 55.113058667254222 -45.014257979790216 0 0 0 0 -93.591328605420131 991.32961479719233 0 991.32961479719233 443.70110255942564 0 0 0 0 -15.485222179669535 23.913107262576659 0 23.913107262576659 -18.162294097803397 0 0 0 0 -122.4096260285005 4.5865560281745275 0 4.5865560281745275 235.41048689797753 0 0 0 0 1115.560865135416 794.7262327051867 0 794.7262327051867 76.309859757311642 0 0 0 0 786.59840359137161 364.67353754221404 0 364.67353754221404 -168.04777940993517 0 0 0 0 1437.4261803535046 442.96056952395156 0 442.96056952395156 -290.13990906614345 0 0 0 0 894.7086656888132 313.23687077887007 0 313.23687077887007 -639.70351676041901 0 0 0 0 303.72052320852526 56.027177824704268 0 56.027177824704268 -80.630234446169197 0 0 0 0 1036.7038710447086 -409.25856732665852 0 -409.25856732665852 -18.608697870920878 0 0 0 0 186.07109095141641 408.82884275516699 0 408.82884275516699 -188.81429112919432 0 0 0 0 3427.9200397347158 -968.7597096083482 0 -968.7597096083482 632.78412885297439 0 0 0 0 1648.2208463243442 447.6381490881322 0 447.6381490881322 -224.02727500765468 0 0 0 0 65.717365550110117 523.15204671664105 0 523.15204671664105 -946.61141725422931 0 0 0 0 65.939497346058488 472.65310716381646 0 472.65310716381646 -951.68579789778778 0 0 0 0 -643.37052678799955 1054.8410353507061 0 1054.8410353507061 -527.33562911587796 0 0 0 0 15.710253940371331 239.23090764257358 0 239.23090764257358 -288.04784270084201 0 0 0 0 -244.80064775516803 636.94036502842209 0 636.94036502842209 -368.84098052277113 0 0 0 0 194.88094780898246 360.14615278224665 0 360.14615278224665 -296.13437034362141 0 0 0 0 -71.235070175549481 393.09768539031211 0 393.09768539031211 -204.12569803519 0 0 0 0 118.05008824900142 819.40542781921977 0 819.40542781921977 -307.04807057463768 0 0 0 0 19.951229362108279 727.48218079956132 0 727.48218079956132 -198.26342491597461 0 0 0 0 1200.0861853984024 1478.7799376529911 0 1478.7799376529911 -295.46544324426213 0 0 0 0 307.14027164968138 1037.3874978330277 0 1037.3874978330277 -121.29932951368392 0 0 0 0 104.03256191028049 1529.6242434882151 0 1529.6242434882151 688.92151033389382 0 0 0 0 -540.17188100948988 887.4513294895296 0 887.4513294895296 428.58889528119471 0 0 0 0 -280.12770725160954 736.25096688879421 0 736.25096688879421 500.0838989958138 0 0 0 0 -434.60683826071909 326.89286378265024 0 326.89286378265024 -127.49632344051497 0 0 0 0 -112.04824817972258 822.74992106635182 0 822.74992106635182 267.4751344921533 0 0 0 0 -1106.9977716565772 -392.83187957585324 0 -392.83187957585324 -299.40595423960622 0 0 0 0 -97.500115583883598 531.52085568777693 0 531.52085568777693 -396.65285058524751 0 0 0 0 -82.757672710547922 442.27645098179346 0 442.27645098179346 -374.33250483945085 0 0 0 0 -45.405873004812747 394.45151735866239 0 394.45151735866239 -643.321299687188 0 0 0 0 -64.419131774455309 52.677727410889929 0 52.677727410889929 -799.60833116828871 0 0 0 0 65.453461761178914 467.15361288457643 0 467.15361288457643 -880.60863699462061 0 0 0 0 64.590691114397487 518.29291554731026 0 518.29291554731026 -903.6918866779888 0 0 0 0 61.213396392035065 430.39615096064517 0 430.39615096064517 -1291.0813969975497 0 0 0 0 130.5018038492417 287.50125594098063 0 287.50125594098063 -1124.4672136860027 0 0 0 0 194.41654995939462 217.04634583636653 0 217.04634583636653 -1056.1283560401644 0 0 0 0 117.36129330816766 364.57348329801061 0 364.57348329801061 -1091.4251651088125 0 0 0 0 -13.073143700719811 385.44916092553467 0 385.44916092553467 -1031.8726195218769 0 0 0 0 113.01106987478755 93.89706994253865 0 93.89706994253865 37.380135116181265 0 0 0 0 -470.63636330608642 2936.5791527678703 0 2936.5791527678703 -67.252977036288939 0 0 0 0 103.99650676210877 194.24448809350724 0 194.24448809350724 -1432.8312291990151 0 0 0 0 -93.38269866083283 -105.19354623502295 0 -105.19354623502295 -1346.4426152111846 0 0 0 0 -1565.924119964111 4477.7501357337314 0 4477.7501357337314 13926.849668063631 0 0 0 0 -289.34816219983441 -1602.7264603423328 0 -1602.7264603423328 -1482.5557781359967 0 0 0 0 -20.540431842541324 89.762284490032528 0 89.762284490032528 -36.762640460073442 0 0 0 0 -606.53369041275437 -82.236960521659057 0 -82.236960521659057 188.62122738186736 0 0 0 0 2500.4771829191886 -632.22262092752499 0 -632.22262092752499 -262.84053484472679 0 0 0 0 -180.69218532645391 683.63213244844155 0 683.63213244844155 641.29381813202053 0 0 0 0 -74.505982700822642 153.65210383225349 0 153.65210383225349 -34.734883990975504 0 0 0 0 158.71786708627769 881.98747342430579 0 881.98747342430579 7.650731508503668 0 0 0 0 103.7020314143947 109.27599531116259 0 109.27599531116259 31.475391311740623 0 0 0 0 350.95677165058441 -4.5355449521739502 0 -4.5355449521739502 12.195496710482985 0 0 0 0 114.26906519202748 -24.253632501029642 0 -24.253632501029642 -27.029796849132254 0 0 0 0 -29.710178235734418 76.782193352487781 0 76.782193352487781 2.4809174872962672 0 0 0 0 -1298.0148842327762 722.5595847760851 0 722.5595847760851 131.31144373389543 0 0 0 0 184.45093198382528 -691.36746097872674 0 -691.36746097872674 -668.37871697416995 0 0 0 0 -105.7262086791452 -631.78777182041085 0 -631.78777182041085 -512.6637596617802 0 0 0 0 6024.4335391835357 4196.6978685681761 0 4196.6978685681761 -1871.3427901356481 0 0 0 0 2664.5333875449141 4958.6173449567214 0 4958.6173449567214 -2009.6908334540785 0 0 0 0 4114.1152071157703 956.32066610481706 0 956.32066610481706 -1377.1505647078739 0 0 0 0 -932.31641673682316 -3378.7222334886719 0 -3378.7222334886719 2831.4349240693846 0 0 0 0 6122.5373898515827 -874.67749715439277 0 -874.67749715439277 -745.87127461351338 0 0 0 0 3694.3086950396828 -522.00351358401531 0 -522.00351358401531 -4614.3119376852701 0 0 0 0 746.30999265110586 3765.9537888796767 0 3765.9537888796767 2904.4083257054954 0 0 0 0 46.947613994188146 6.3293395633359069 0 6.3293395633359069 -16.95520530353479 0 0 0 0 -380.42553592898184 -165.92010891482641 0 -165.92010891482641 1069.8046901674534 0 0 0 0 3859.6944648650242 2110.0230113264406 0 2110.0230113264406 -5107.7342696689157 0 0 0 0 -7.3488897365571688 12.422774507720646 0 12.422774507720646 -7.7128374570349365 0 0 0 0 981.68067082023481 -2045.1746022574953 0 -2045.1746022574953 -3796.1575819171121 0 0 0 0 628.83219388796715 7381.588191417919 0 7381.588191417919 5291.4750275192782 0 0 0 0 -1494.8479240211891 638.29347698466154 0 638.29347698466154 -183.1614797495713 0 0 0 0 363.51809471397428 -1700.6414657924033 0 -1700.6414657924033 4181.5320013179153 0 0 0 0 -1842.7139658910455 625.29585626268818 0 625.29585626268818 2284.8011914581002 0 0 0 0 -699.61251258174161 2071.3340554529095 0 2071.3340554529095 -2986.3635623570008 0 0 0 0 285.52136432670522 -302.25427336312714 0 -302.25427336312714 -3905.9286532941987 0 0 0 0 -73.547483075119089 -367.01545789030206 0 -367.01545789030206 -1792.4101154492819 0 0 0 0 167.34396937346901 745.52612404545653 0 745.52612404545653 -2490.9492164327821 0 0 0 0 181.00948581570992 610.01154744779342 0 610.01154744779342 -1260.7616485966719 0 0 0 0 191.76956665930811 171.20045967255464 0 171.20045967255464 -1589.918531221454 0 0 0 0 -82.306762117383187 332.77424189588055 0 332.77424189588055 -559.25842936438858 0 0 0 0 -61.649787110945908 -188.83745142600674 0 -188.83745142600674 -865.89105670427671 0 0 0 0 5455.0353467227251 4979.9497935082763 0 4979.9497935082763 3971.2196219375473 0 0 0 0 -19.546082272178808 13.234032465937105 0 13.234032465937105 -2.6199479201945621 0 0 0 0 1.6840837656272925 3847.0616247447069 0 3847.0616247447069 2642.0799710862848 0 0 0 0 719.79203552679064 2676.2408575940608 0 2676.2408575940608 3135.6271537060093 0 0 0 0 1432.9548518127704 3769.6711118941894 0 3769.6711118941894 2771.2955480722376 0 0 0 0 1525.0707025289885 2348.2146289732773 0 2348.2146289732773 4692.6263868028764 0 0 0 0 993.88954055817885 3885.7841211828863 0 3885.7841211828863 2740.9934334902064 0 0 0 0 1757.5860845297575 4324.9114919519307 0 4324.9114919519307 1069.6846212618984 0 0 0 0 4775.655770495272 3360.8743582388852 0 3360.8743582388852 -2.2606662918674951 0 0 0 0 2930.0136689515348 3840.4960105213831 0 3840.4960105213831 1224.5505752401878 0 0 0 0 4377.047250260468 2985.0113605720981 0 2985.0113605720981 1990.0255897398456 0 0 0 0 4290.0745087222094 1285.6177917516652 0 1285.6177917516652 285.8590108739736 0 0 0 0 109.29779447329929 -31.826106242835522 0 -31.826106242835522 95.933871021086816 0 0 0 0 15.151615458328763 18.212604577236391 0 18.212604577236391 -1.4618602558597331 0 0 0 0 -105.65927781352366 32.551201735441282 0 32.551201735441282 -64.866540344686655 0 0 0 0 -86.007564651477992 39.673720987892352 0 39.673720987892352 12.61524495901881 0 0 0 0 -103.57278512265094 53.667571940854145 0 53.667571940854145 24.261590390544313 0 0 0 0 -414.33770342257048 290.68212476317422 0 290.68212476317422 195.12436066104419 0 0 0 0 508.01278909365647 -418.40162067525671 0 -418.40162067525671 120.85466199330585 0 0 0 0 827.06860879111264 787.74565139979495 0 787.74565139979495 706.36547590221744 0 0 0 0 131.76627797826222 352.96132073231274 0 352.96132073231274 313.85066631971858 0 0 0 0 47.418624656333122 -386.30635788550717 0 -386.30635788550717 34.976514830355882 0 0 0 0 -627.34560924797552 -97.464783745250315 0 -97.464783745250315 462.03902790980646 0 0 0 0 -694.53453427330533 70.360966857006133 0 70.360966857006133 232.03940415446414 0 0 0 0 -12.481763702481828 2.4628148157569854 0 2.4628148157569854 -7.5092143703334386 0 0 0 0 -307.38045331308967 -114.01167212810833 0 -114.01167212810833 -270.89937454427127 0 0 0 0 -455.51214872027049 -231.33326122057042 0 -231.33326122057042 -439.80281598796137 0 0 0 0 -17.556125599890947 -293.22436897247098 0 -293.22436897247098 -507.70020637993366 0 0 0 0 -40.306694865029556 22.316964939510115 0 22.316964939510115 1.8003956348923005 0 0 0 0 12.895899981465789 2.7230527350217244 0 2.7230527350217244 -10.175636605594491 0 0 0 0 -302.95581333297014 -57.728802616635221 0 -57.728802616635221 -262.68019640797866 0 0 0 0 -19.691188232774458 49.46417935610927 0 49.46417935610927 -2.980182249216341 0 0 0 0 -131.7091427538835 121.30996551111457 0 121.30996551111457 -77.2404037953238 0 0 0 0 -72.380889552645385 84.186745560102281 0 84.186745560102281 0.0061049284850014374 0 0 0 0 -77.142463885229517 62.369499158652616 0 62.369499158652616 -23.651906320534181 0 0 0 0 -48.31377275698469 77.40959603014926 0 77.40959603014926 -59.173663763853256 0 0 0 0 -4.8639839355995349 5.8528587795408384 0 5.8528587795408384 8.4591108568050686 0 0 0 0 -40.487590513628675 102.52474804918165 0 102.52474804918165 -31.614306880175718 0 0 0 0 -153.95934144465718 -382.68147165673145 0 -382.68147165673145 -212.43821680959081 0 0 0 0 379.90677276809583 7.3818829593947157 0 7.3818829593947157 -29.6497811001027 0 0 0 0 -168.78742039425197 62.543314864687773 0 62.543314864687773 214.59515906695742 0 0 0 0 818.14420715130836 426.73193228480523 0 426.73193228480523 -417.3200078218506 0 0 0 0 625.85198134987149 231.36237618078303 0 231.36237618078303 204.85170931584435 0 0 0 0 -53.930519072217066 185.15843799199411 0 185.15843799199411 -449.97448848152999 0 0 0 0 -212.11349791804969 496.96512975887163 0 496.96512975887163 -0.56192178050696384 0 0 0 0 -12.856302495375644 16.090848439588626 0 16.090848439588626 -2.7973303297584025 0 0 0 0 7.3504805192933418 658.54928388858389 0 658.54928388858389 -2576.2462710714699 0 0 0 0 581.0510639463173 1401.7194971132703 0 1401.7194971132703 1252.5725753244187 0 0 0 0 1619.267471240586 1097.8291938090406 0 1097.8291938090406 922.00324504483433 0 0 0 0 2571.015042008934 2025.3203874948085 0 2025.3203874948085 807.81625383029314 0 0 0 0 1020.0753286417457 156.12401361242519 0 156.12401361242519 216.54890245215211 0 0 0 0 1274.0272327182174 1274.6976839400304 0 1274.6976839400304 866.90830850460043 0 0 0 0 2129.4601657918975 2003.7425045954733 0 2003.7425045954733 1578.129623742585 0 0 0 0 2104.8102731497638 386.0817276021553 0 386.0817276021553 478.72308864509978 0 0 0 0 4775.3335791765276 2314.1597560525552 0 2314.1597560525552 676.45057819686917 0 0 0 0 2071.2043280121579 3831.1355442404129 0 3831.1355442404129 6471.8218936102494 0 0 0 0 38.203480410896816 8.791195051788236 0 8.791195051788236 -0.39754646999567456 0 0 0 0 2582.3962873985583 503.33702846194137 0 503.33702846194137 1305.6641540172277 0 0 0 0 3242.8835351757953 3364.3219054647343 0 3364.3219054647343 1252.8898274502571 0 0 0 0 3786.3227895219825 2960.9411227016135 0 2960.9411227016135 594.52980455482611 0 0 0 0 2239.215811989503 107.67729812059406 0 107.67729812059406 -3700.8110131828071 0 0 0 0 436.67810597109201 1055.1337761810246 0 1055.1337761810246 1665.8995838217525 0 0 0 0 2266.4684795365647 3078.7175502997688 0 3078.7175502997688 3319.0311779969925 0 0 0 0 1794.6471696586668 1271.7662802252526 0 1271.7662802252526 95.690549429520615 0 0 0 0 3488.2624169881674 914.44515808140568 0 914.44515808140568 -1699.2812943617027 0 0 0 0 3590.9060189423544 3547.2379193534725 0 3547.2379193534725 1203.7480199225247 0 0 0 0 858.91240866945009 329.23582028839155 0 329.23582028839155 2721.0935546440433 0 0 0 0 4240.0125898141268 5106.8835625157371 0 5106.8835625157371 1217.0021603173882 0 0 0 0 -1860.0183344039106 3629.2522787906782 0 3629.2522787906782 3457.8784605204346 0 0 0 0 38.089152845943374 29.564271477017009 0 29.564271477017009 18.26110130084993 0 0 0 0 -648.75059753225651 1048.5197817118678 0 1048.5197817118678 1029.9561923425354 0 0 0 0 1157.9883369009476 857.55169170298177 0 857.55169170298177 309.96145909693769 0 0 0 0 1082.6305385442683 1128.4626632815416 0 1128.4626632815416 1527.5285430282092 0 0 0 0 -256.16279865775141 -93.889026425000338 0 -93.889026425000338 471.03494929010049 0 0 0 0 -438.44473629639106 194.42904408693721 0 194.42904408693721 -41.998359354533022 0 0 0 0 -439.98730566466787 586.13962756980789 0 586.13962756980789 -234.81486295005016 0 0 0 0 108.41967727934991 90.561728201400186 0 90.561728201400186 45.672517804847075 0 0 0 0 94.608202820637018 67.151136440243533 0 67.151136440243533 40.613312198297422 0 0 0 0 -591.0730327154979 1389.6782034017033 0 1389.6782034017033 -754.28053236487904 0 0 0 0 -580.04316058903714 2091.2788641090101 0 2091.2788641090101 -1130.1071811490256 0 0 0 0 -314.20489445740532 2709.2583703095152 0 2709.2583703095152 -2863.4546192962152 0 0 0 0 -2107.1586561003369 2149.457859775107 0 2149.457859775107 694.18808424597955 0 0 0 0 -40.77870850378531 4026.5386334926588 0 4026.5386334926588 1870.5334169575581 0 0 0 0 -203.51464991460671 2100.4558490857817 0 2100.4558490857817 987.64273224944191 0 0 0 0 240.37628596197465 3033.8889796246367 0 3033.8889796246367 -625.21643650019541 0 0 0 0 -302.74920592931448 2076.0412248816283 0 2076.0412248816283 -917.9792805151119 0 0 0 0 -376.88963700571912 2466.4323324730794 0 2466.4323324730794 788.22427953690931 0 0 0 0 491.75852411572123 2233.8558005580562 0 2233.8558005580562 -988.85621289903429 0 0 0 0 0.73549222080785492 3173.0789539246175 0 3173.0789539246175 -3947.6095643728913 0 0 0 0 298.27063171585905 -12.235896297781437 0 -12.235896297781437 -5884.5161412763591 0 0 0 0 1746.4695385209998 1945.1147497890761 0 1945.1147497890761 2993.4385859933682 0 0 0 0 257.38190031917475 2102.933047522074 0 2102.933047522074 -3788.9945157227339 0 0 0 0 151.11657175325672 644.31704693068605 0 644.31704693068605 -2696.1572029387826 0 0 0 0 -16.342104872421885 7.5671726838993436 0 7.5671726838993436 9.4083616211119079 0 0 0 0 8.550436331016158 22.087906511519975 0 22.087906511519975 -13.540860206103162 0 0 0 0 2220.3317120001884 2158.6940628743032 0 2158.6940628743032 2001.1194228467066 0 0 0 0 827.3066644492792 757.3209128531671 0 757.3209128531671 -1643.5496282760578 0 0 0 0 -272.76217271063069 464.16507004610321 0 464.16507004610321 1997.0074367005873 0 0 0 0 -1.5868590867030434 1121.5408065311785 0 1121.5408065311785 196.16237417663797 0 0 0 0 79.764417198050069 -277.98816787358373 0 -277.98816787358373 -404.47317939740242 0 0 0 0 562.70843617618084 104.46152063657064 0 104.46152063657064 -300.76318370078297 0 0 0 0 -36.5569301196374 508.90990093986329 0 508.90990093986329 501.1871700136835 0 0 0 0 -477.6000234070234 112.22091838207416 0 112.22091838207416 268.08593848429155 0 0 0 0 136.44805402528436 1739.8169468313426 0 1739.8169468313426 5201.1309905185226 0 0 0 0 8.5221038313762847 7.4087242261230131 0 7.4087242261230131 2.9011672253183338 0 0 0 0 2.1505865142482836 3200.0511535241671 0 3200.0511535241671 2639.7974896017986 0 0 0 0 -1.4035653079724351 3104.9991908360498 0 3104.9991908360498 719.84480776707642 0 0 0 0 -199.52973939479853 2276.959626553602 0 2276.959626553602 2361.6201391481954 0 0 0 0 666.33718542968563 2709.146592602192 0 2709.146592602192 772.69424910387897 0 0 0 0 4639.7587830163393 3169.7234295554372 0 3169.7234295554372 1378.9715736229264 0 0 0 0 -66.974472791880544 3474.6245498489297 0 3474.6245498489297 2359.0044667132024 0 0 0 0 1.2522373779880667 8.1654992368511614 0 8.1654992368511614 12.311047313548613 0 0 0 0 -4029.2203764615388 2457.3147672832138 0 2457.3147672832138 368.26361088980047 0 0 0 0 0.32650678122912069 28.599376060232032 0 28.599376060232032 30.162628968783793 0 0 0 0 -1138.1125338529691 1288.6433793870292 0 1288.6433793870292 -1298.284189102953 0 0 0 0 17.182713894449648 29.184856599587164 0 29.184856599587164 10.341542247573603 0 0 0 0 797.70088474138174 1153.6912661794049 0 1153.6912661794049 1542.7167142552498 0 0 0 0 135.77039112812122 1793.5107836376719 0 1793.5107836376719 958.90586807078216 0 0 0 0 -161.2192812568901 421.48748187367528 0 421.48748187367528 -255.72109182299755 0 0 0 0 -84.359368570992956 67.83214318518003 0 67.83214318518003 108.13141327684571 0 0 0 0 6.8803158576004506 61.759485034550096 0 61.759485034550096 45.368276382485647 0 0 0 0 -142.41099613014376 150.66897455267463 0 150.66897455267463 104.07629646547866 0 0 0 0 20.032240230211755 187.8216889777832 0 187.8216889777832 241.10268916099449 0 0 0 0 -33.193750070198121 26.966931644450796 0 26.966931644450796 9.5427000412410372 0 0 0 0 -41.833624139675521 279.0329463608432 0 279.0329463608432 124.30923558448558 0 0 0 0 -83.73272231327428 179.95269153317349 0 179.95269153317349 819.7726593594316 0 0 0 0 -384.09250016276201 906.78210960476281 0 906.78210960476281 -2488.5116760708042 0 0 0 0 -208.29682229587343 1248.5316631001624 0 1248.5316631001624 -1832.8391416061677 0 0 0 0 -47.924076849769335 2481.5130014522656 0 2481.5130014522656 -783.93435917000534 0 0 0 0 -980.53732149225834 3080.9086373801547 0 3080.9086373801547 434.99221497842518 0 0 0 0 -13.886455170912086 4476.9578897160027 0 4476.9578897160027 1220.2472556176144 0 0 0 0 1873.5163310134376 4096.6392647060202 0 4096.6392647060202 -1813.5938214330308 0 0 0 0 178.25401844542284 1919.622169763652 0 1919.622169763652 -3164.0994471107697 0 0 0 0 1497.2250266949122 907.61021908454859 0 907.61021908454859 512.67043948402716 0 0 0 0 -718.99570062465136 813.74148015724495 0 813.74148015724495 511.32881020370405 0 0 0 0 210.11697501123126 711.64744630402129 0 711.64744630402129 -3627.6242755645944 0 0 0 0 -14.349801397265708 13.936681816254577 0 13.936681816254577 -12.904369254254789 0 0 0 0 -525.11684738178155 1190.8037903477452 0 1190.8037903477452 -2468.373946580803 0 0 0 0 -625.58981701648736 1822.0716850374265 0 1822.0716850374265 -4496.7545784424146 0 0 0 0 -1061.7079161981819 1589.9952204242582 0 1589.9952204242582 -2731.1660307430284 0 0 0 0 -11.04253048470332 6.360648799027814 0 6.360648799027814 -3.7445434661876984 0 0 0 0 -777.70401163033966 2230.1900495471273 0 2230.1900495471273 -1942.5128567203792 0 0 0 0 -18.880841362260981 1597.3611247824811 0 1597.3611247824811 -2332.4909237169013 0 0 0 0 984.41391620282957 1018.2830742708647 0 1018.2830742708647 -1596.8970794681227 0 0 0 0 59.355075504194247 -23.457963054635911 0 -23.457963054635911 115.15133973752381 0 0 0 0 -331.77475871216302 536.85724373947232 0 536.85724373947232 432.73689311149064 0 0 0 0 -646.43917972810596 1230.8454196908569 0 1230.8454196908569 -858.78253117589338 0 0 0 0 17.021555903222179 198.94096543831256 0 198.94096543831256 283.01546671296819 0 0 0 0 -123.0160198290032 23.412065035663545 0 23.412065035663545 271.93034106792766 0 0 0 0 -65.487425823579542 155.06912137432664 0 155.06912137432664 573.24833165248128 0 0 0 0 7.0834501524659572 -5.4545713381885435 0 -5.4545713381885435 388.63041988774785 0 0 0 0 505.25250879491796 506.47091351832205 0 506.47091351832205 383.61560879023455 0 0 0 0 -12.73064832959875 20.658740397992005 0 20.658740397992005 -26.024526250582653 0 0 0 0 -26.308659010788688 277.28411217551547 0 277.28411217551547 -306.88902721306658 0 0 0 0 271.25726115863108 95.194675189999543 0 95.194675189999543 -58.116271452323417 0 0 0 0 130.26115997842862 -24.083084166355547 0 -24.083084166355547 109.67035893176217 0 0 0 0 -8.6841336692218647 10.504932807930459 0 10.504932807930459 -10.381174895360118 0 0 0 0 78.149740891298279 88.793148156335519 0 88.793148156335519 48.232038287591422 0 0 0 0 8.7064211465767585 -38.173397288832348 0 -38.173397288832348 1.9204043152421946 0 0 0 0 149.42272818132187 13.714943038845377 0 13.714943038845377 -12.069626839715056 0 0 0 0 -15.038074500685724 24.267403333394952 0 24.267403333394952 -34.421685161239623 0 0 0 0 64.682660005404614 113.955634777456 0 113.955634777456 -26.192140504776035 0 0 0 0 338.36551969096763 308.26483407824708 0 308.26483407824708 42.337010763993021 0 0 0 0 112.66431150519929 -4.50939700876188 0 -4.50939700876188 -6.8603792008361779 0 0 0 0 139.20062748840428 70.318295065859274 0 70.318295065859274 157.60696694342187 0 0 0 0 52.924943493326282 267.34575435338229 0 267.34575435338229 176.44913079586695 0 0 0 0 -6.7294566132477485 94.420654539033421 0 94.420654539033421 218.22934414706833 0 0 0 0 -186.52468908962328 263.58046027930322 0 263.58046027930322 236.25248350693437 0 0 0 0 -2.4486164037643903 -2.6169450206941747 0 -2.6169450206941747 -4.6694389181407132 0 0 0 0 342.22286360148792 63.074176111495035 0 63.074176111495035 180.58888837331324 0 0 0 0 -533.22112223561271 -54.917891895478533 0 -54.917891895478533 207.19198077674082 0 0 0 0 97.87545664422214 45.019951107591623 0 45.019951107591623 -172.30038689484354 0 0 0 0 296.39755387755577 10.470036228653044 0 10.470036228653044 -43.284367138847301 0 0 0 0 133.76269887996023 151.79566223260917 0 151.79566223260917 46.302753736730665 0 0 0 0 387.57451501398464 59.629451726999832 0 59.629451726999832 -16.7915103983687 0 0 0 0 364.76434326427989 148.43710458862915 0 148.43710458862915 31.122361474379431 0 0 0 0 289.76706639869371 106.15867064483609 0 106.15867064483609 159.59850527864182 0 0 0 0 446.57019039884653 234.17345825112079 0 234.17345825112079 189.22872178960824 0 0 0 0 427.89436914084945 35.933239237143425 0 35.933239237143425 178.68784651822352 0 0 0 0 411.71334301927709 124.47925387084251 0 124.47925387084251 329.16513553849654 0 0 0 0 373.30677160213236 -14.277664958513924 0 -14.277664958513924 309.04095388477435 0 0 0 0 482.76563321879075 6.4699670624031569 0 6.4699670624031569 476.79099582546041 0 0 0 0 956.44405097018171 277.39481386426633 0 277.39481386426633 508.97992887618602 0 0 0 0 626.04837277662591 635.76628156543302 0 635.76628156543302 309.18016236968106 0 0 0 0 555.63684716982971 -79.567569054688647 0 -79.567569054688647 -110.03695090071415 0 0 0 0 309.34463747797417 105.70399024932703 0 105.70399024932703 853.94291532880743 0 0 0 0 157.15654428610287 402.36444835866132 0 402.36444835866132 366.95620679145213 0 0 0 0 -222.48058350449719 96.188277323111834 0 96.188277323111834 269.29693039534322 0 0 0 0 192.83524809140363 433.05678384836938 0 433.05678384836938 83.053653733040846 0 0 0 0 186.82199589067022 328.15722441789694 0 328.15722441789694 126.73288597370993 0 0 0 0 257.34375852715311 352.14761773446298 0 352.14761773446298 95.484419408603571 0 0 0 0 256.8323956881577 143.01007062614917 0 143.01007062614917 -22.615758563712006 0 0 0 0 -214.43699892226141 21.959463147199131 0 21.959463147199131 232.07160043573822 0 0 0 0 0.93443604779344014 49.985854615633087 0 49.985854615633087 47.129789337859165 0 0 0 0 57.021797380235512 143.1355934639505 0 143.1355934639505 121.71895602553559 0 0 0 0 -82.064442303264514 98.34236028745363 0 98.34236028745363 84.061840103702707 0 0 0 0 -151.52789592411136 131.33618361090339 0 131.33618361090339 359.69528473548417 0 0 0 0 -99.75762249075342 -88.658847842096293 0 -88.658847842096293 279.74980279023293 0 0 0 0 -80.02429830271285 -38.290740142569121 0 -38.290740142569121 398.38132001354825 0 0 0 0 -7.4920798964449205 -112.11392562491528 0 -112.11392562491528 448.78153818212741 0 0 0 0 -92.194744795314421 -27.772222277015516 0 -27.772222277015516 -2.6795808267567054 0 0 0 0 -8.5794723415361887 17.814493583423555 0 17.814493583423555 10.480238704285071 0 0 0 0 76.171655216428917 465.21191203937633 0 465.21191203937633 1521.1178011220181 0 0 0 0 -248.05557709286222 -104.08280859954539 0 -104.08280859954539 1523.424564511748 0 0 0 0 543.22446698250133 650.44895314318273 0 650.44895314318273 1365.7239483023877 0 0 0 0 -13.744298506576861 -3.7944414872843311 0 -3.7944414872843311 1.7444409867518402 0 0 0 0 343.46805238252273 363.4336482314684 0 363.4336482314684 580.36349264960154 0 0 0 0 339.53574805241078 187.30582776259689 0 187.30582776259689 813.25669444655068 0 0 0 0 699.21248337245197 353.54027493279136 0 353.54027493279136 413.28721287759254 0 0 0 0 316.73368611524347 189.9413927073183 0 189.9413927073183 344.6868750271824 0 0 0 0 348.66138396103634 325.23933651988045 0 325.23933651988045 297.78638602027786 0 0 0 0 -2.0402742419100832 281.16414385200187 0 281.16414385200187 631.34120987736969 0 0 0 0 60.161213096784195 194.98537828263943 0 194.98537828263943 542.75705554953311 0 0 0 0 161.15981538999768 285.04950415170606 0 285.04950415170606 93.226641527726315 0 0 0 0 136.06152859045687 226.23794301257658 0 226.23794301257658 251.75498237990541 0 0 0 0 300.96467946271878 278.15229927160544 0 278.15229927160544 104.05884756642627 0 0 0 0 244.00335730676306 154.86460588648333 0 154.86460588648333 159.17996920610312 0 0 0 0 88.370367418712704 181.94343074675999 0 181.94343074675999 60.765026016553747 0 0 0 0 50.464967909527331 345.21682146053718 0 345.21682146053718 128.80993732874049 0 0 0 0 229.60589061162318 247.46071224991465 0 247.46071224991465 -93.995978740043938 0 0 0 0 27.216628796420991 203.86163582855079 0 203.86163582855079 -236.61434854434265 0 0 0 0 33.633321757602971 468.38591169203573 0 468.38591169203573 -190.45554627703859 0 0 0 0 -106.30126377758643 193.11411160700663 0 193.11411160700663 209.5448070790153 0 0 0 0 -164.77119119053532 182.94253727420437 0 182.94253727420437 232.29570654619602 0 0 0 0 -97.008752962836297 136.79653364889964 0 136.79653364889964 412.08828638572595 0 0 0 0 -159.95545217458312 236.15781578215683 0 236.15781578215683 188.1587190789578 0 0 0 0 -97.005608099279925 117.51372549777443 0 117.51372549777443 131.60055468793144 0 0 0 0 -122.84123903115687 225.21419703523861 0 225.21419703523861 25.557278122025309 0 0 0 0 -142.01391740012332 94.938781625081901 0 94.938781625081901 133.21306600693788 0 0 0 0 129.6579466277035 196.25174789137236 0 196.25174789137236 129.35433950079459 0 0 0 0 55.740358996053033 86.200171077909346 0 86.200171077909346 91.042592804479995 0 0 0 0 -148.90296323347138 29.488242140352668 0 29.488242140352668 156.32980686739393 0 0 0 0 46.890437109890627 -10.261234898534894 0 -10.261234898534894 40.165766425096081 0 0 0 0 249.55114455276635 344.43482150905038 0 344.43482150905038 168.94039440952474 0 0 0 0 7.1295545225165426 22.357925436918151 0 22.357925436918151 -36.314874501236091 0 0 0 0 -6.8332984483942596 45.471471473193731 0 45.471471473193731 87.339382217593595 0 0 0 0 -79.993600517365849 12.624640941394318 0 12.624640941394318 148.84759824556386 0 0 0 0 0.55576010809454601 35.735082959068677 0 35.735082959068677 14.041446200761129 0 0 0 0 -6.1922325802584055 3.0176273507382447 0 3.0176273507382447 4.9166308354155319 0 0 0 0 -0.048407667331048287 73.650359640989336 0 73.650359640989336 52.300521687342552 0 0 0 0 -19.351657763431021 31.296830804416118 0 31.296830804416118 57.153893768641638 0 0 0 0 -140.6829017274722 -23.854518676969747 0 -23.854518676969747 135.15743782520133 0 0 0 0 -139.54669290664606 91.770429298630916 0 91.770429298630916 136.36247480026213 0 0 0 0 -80.635910509765722 -25.98043050167945 0 -25.98043050167945 -1.3407248035794481 0 0 0 0 -228.5109583357771 -92.617105637136774 0 -92.617105637136774 723.81444824776554 0 0 0 0 -126.93854041470331 -10.367687761754496 0 -10.367687761754496 145.50034717997187 0 0 0 0 -51.371882335515693 -418.2416102385323 0 -418.2416102385323 1032.7511471869366 0 0 0 0 -9.0360580431315896 0.44236388803801674 0 0.44236388803801674 1.8257662525980436 0 0 0 0 1.7490995348348406 5.4995653754491229 0 5.4995653754491229 4.5720557099123482 0 0 0 0 -5.8789553472015541 54.446948811959373 0 54.446948811959373 7.1299204420502065 0 0 0 0 -32.108223223429377 -70.413092528323432 0 -70.413092528323432 1959.5671756603697 0 0 0 0 832.90227528568357 488.36770362327661 0 488.36770362327661 181.86331594171861 0 0 0 0 7.1640755108161329 4.812110982823981 0 4.812110982823981 -8.6721401660461765 0 0 0 0 796.47802337238682 -678.39809350913856 0 -678.39809350913856 -3132.4630709246921 0 0 0 0 330.27175996055666 -264.21089518053486 0 -264.21089518053486 -1484.5962828242918 0 0 0 0 2313.059793300461 1378.3865703221454 0 1378.3865703221454 585.92070155272813 0 0 0 0 4129.8601069434308 278.57105932953118 0 278.57105932953118 -571.11589642844774 0 0 0 0 1654.720580200199 1555.8066070102432 0 1555.8066070102432 -1223.6408193382085 0 0 0 0 2240.8338718504383 1002.4794052575198 0 1002.4794052575198 -1367.8001613793022 0 0 0 0 1243.6773296574975 1123.6569605971308 0 1123.6569605971308 -1369.252774221568 0 0 0 0 1091.6483388176857 1202.7733599995227 0 1202.7733599995227 -973.98074579435342 0 0 0 0 759.67476925908704 1058.7416178908825 0 1058.7416178908825 -939.07194121049542 0 0 0 0 1118.2879306340183 1538.6137553938097 0 1538.6137553938097 -301.2350060158069 0 0 0 0 535.21417107836169 940.82940410401352 0 940.82940410401352 -272.53302654865911 0 0 0 0 420.39430048703616 521.11167370938438 0 521.11167370938438 -621.18401432900282 0 0 0 0 552.40594849183981 151.88452520219289 0 151.88452520219289 -955.14773309499287 0 0 0 0 1430.5685068491075 621.90021064758002 0 621.90021064758002 -1723.1196076860651 0 0 0 0 599.51429961284703 418.37056251689637 0 418.37056251689637 -1216.1292995779513 0 0 0 0 781.25463366956683 47.525004157454532 0 47.525004157454532 -718.35979410692016 0 0 0 0 740.91095741218305 282.83798685856164 0 282.83798685856164 -594.53636108916544 0 0 0 0 925.87052604995552 175.53663414273615 0 175.53663414273615 -538.19306405837415 0 0 0 0 809.96335110997825 620.91140726984213 0 620.91140726984213 282.24054412695114 0 0 0 0 713.39800792746246 -117.97130488524272 0 -117.97130488524272 -343.70981184520497 0 0 0 0 907.22421111198491 211.5304872372144 0 211.5304872372144 -1451.5272848233672 0 0 0 0 1033.8082798259129 361.51145864125283 0 361.51145864125283 -1992.1956422799813 0 0 0 0 1098.4138101740391 89.210735688968271 0 89.210735688968271 -1451.4854872756841 0 0 0 0 -649.87985335926351 535.54944948778575 0 535.54944948778575 -143.13667549886304 0 0 0 0 -328.10624478454702 554.99068391881883 0 554.99068391881883 -142.27546450310911 0 0 0 0 -0.8752945401892589 3.8742485662298805 0 3.8742485662298805 -14.256449657364442 0 0 0 0 -756.9177052808227 101.58372429111478 0 101.58372429111478 -149.20211574415589 0 0 0 0 151.04712143761571 -78.01538923472981 0 -78.01538923472981 -166.46032905727043 0 0 0 0 731.95122668776457 -243.70989367452239 0 -243.70989367452239 -1571.5414510916016 0 0 0 0 250.77378363115622 -113.23157933277344 0 -113.23157933277344 -2180.4523100611841 0 0 0 0 -589.00284516117972 1002.1759620780686 0 1002.1759620780686 -1839.9494475213287 0 0 0 0 -435.39339965599356 540.14180394982395 0 540.14180394982395 -2519.0394703579223 0 0 0 0 124.64317906876386 664.48469229233888 0 664.48469229233888 -1521.6613871864101 0 0 0 0 -314.24813110256218 197.64262876505018 0 197.64262876505018 -1578.9345784620673 0 0 0 0 -1025.1960327539418 730.4705475535884 0 730.4705475535884 -1078.8204469388511 0 0 0 0 -174.5597234403831 1064.9714108066546 0 1064.9714108066546 -1511.4400879529712 0 0 0 0 -866.07055679796031 980.2953227151811 0 980.2953227151811 -1669.9999646143988 0 0 0 0 -996.90073430968914 616.51834499175311 0 616.51834499175311 -1537.4681569933018 0 0 0 0 -2121.4809099301056 1303.4754503209842 0 1303.4754503209842 -1366.1735419762772 0 0 0 0 720.36177249680622 247.30117464866089 0 247.30117464866089 -1335.2819718134124 0 0 0 0 -140.61592311567802 565.37644147693209 0 565.37644147693209 578.15690546754922 0 0 0 0 946.8652762772108 38.695376012339693 0 38.695376012339693 -1052.5437206323695 0 0 0 0 1123.8591348944028 538.07853878734022 0 538.07853878734022 -1166.6516311262203 0 0 0 0 880.39679221219558 436.26738607087464 0 436.26738607087464 -450.13598183968134 0 0 0 0 9.3033305286843415 11.820428328256696 0 11.820428328256696 -17.091157746291998 0 0 0 0 482.20965601595526 487.61295416722351 0 487.61295416722351 -393.78784939015168 0 0 0 0 192.05838963557471 -385.56607331861778 0 -385.56607331861778 -2785.4781019216607 0 0 0 0 2.2102276547020097 7.0455540922234832 0 7.0455540922234832 -8.4948533601536269 0 0 0 0 143.88640678874799 1629.3938470889407 0 1629.3938470889407 -2220.1856043230728 0 0 0 0 -5.2888266009161669 8.6276621331337537 0 8.6276621331337537 -11.191370531624329 0 0 0 0 -2461.4570742277137 1638.9718782615746 0 1638.9718782615746 -1231.6564622574369 0 0 0 0 -2001.8482150107448 2224.7986206051137 0 2224.7986206051137 -1629.51762702009 0 0 0 0 81.967362424184103 2847.757860753889 0 2847.757860753889 618.91078243299557 0 0 0 0 109.21124610392144 1683.8681944858763 0 1683.8681944858763 -2011.9790996443044 0 0 0 0 -1241.6169409891409 1383.1486711153793 0 1383.1486711153793 -849.66017241962254 0 0 0 0 -1360.1252315486927 1544.7881373415948 0 1544.7881373415948 -1776.5069447840506 0 0 0 0 -1105.3934267435834 1058.8378052683911 0 1058.8378052683911 -1263.0466622612148 0 0 0 0 44.106159978071446 -311.48985776293284 0 -311.48985776293284 215.17295148971607 0 0 0 0 -1688.9019160059979 596.81300484480016 0 596.81300484480016 -365.89974996741512 0 0 0 0 -1751.4358667835768 1323.5748651200556 0 1323.5748651200556 -1105.5177838666714 0 0 0 0 -6.5963165977024403 5.6758440272751045 0 5.6758440272751045 -1.8634473497709791 0 0 0 0 -1525.2987620873319 853.47993025973119 0 853.47993025973119 -390.55463965047966 0 0 0 0 243.31919665497753 -276.48786417655856 0 -276.48786417655856 -1.0703176155511755 0 0 0 0 -993.29890419353615 -130.27536491443607 0 -130.27536491443607 302.39068762748502 0 0 0 0 -1041.9401910086453 780.46342675854248 0 780.46342675854248 -466.29757555425749 0 0 0 0 -975.95506298185501 536.90763863284519 0 536.90763863284519 -16.761750372315873 0 0 0 0 -501.57244489716686 1210.33171172117 0 1210.33171172117 -909.64539666174096 0 0 0 0 -85.835486965544987 336.32553233078943 0 336.32553233078943 -85.172998035575802 0 0 0 0 914.58626950942562 645.19322876555088 0 645.19322876555088 -197.99919095223231 0 0 0 0 -388.35369691745291 750.5360818679037 0 750.5360818679037 -142.74898165251943 0 0 0 0 -181.59869515729952 -143.11940024813521 0 -143.11940024813521 53.497269173778477 0 0 0 0 -369.76104429521365 94.966854790778598 0 94.966854790778598 50.487356200130307 0 0 0 0 557.24192472822324 1021.567925028126 0 1021.567925028126 -522.7979224115843 0 0 0 0 986.29157603232306 1433.6297241898901 0 1433.6297241898901 -512.49257249213406 0 0 0 0 -44.599299441848416 700.80494072510919 0 700.80494072510919 -345.52381656657963 0 0 0 0 196.34275963217078 1429.7753721151093 0 1429.7753721151093 -628.7266732624048 0 0 0 0 597.70105455044359 846.24053999470107 0 846.24053999470107 -1424.1156037425972 0 0 0 0 906.04329312287155 1313.8930826296273 0 1313.8930826296273 -155.13190166707136 0 0 0 0 396.69663861564186 1110.4885588536345 0 1110.4885588536345 -203.78535036180983 0 0 0 0 1056.0144985036459 1236.8199517281028 0 1236.8199517281028 -115.07218121205369 0 0 0 0 1242.313784426864 1292.7144706717609 0 1292.7144706717609 -335.05349094246048 0 0 0 0 1369.981708613821 948.66847387677262 0 948.66847387677262 -347.38627170882569 0 0 0 0 1508.0105573289402 995.09544394093246 0 995.09544394093246 -245.20692778170633 0 0 0 0 984.7362270259764 484.10986168906675 0 484.10986168906675 -743.41735280630382 0 0 0 0 1120.1802246016596 1242.8669551734165 0 1242.8669551734165 -655.93709645207855 0 0 0 0 1991.4383173134265 641.57366218667448 0 641.57366218667448 57.664816902681196 0 0 0 0 2009.9915111037262 631.20357606430116 0 631.20357606430116 -238.05998017159436 0 0 0 0 1428.3431112427716 1057.769787023879 0 1057.769787023879 -166.10845594988496 0 0 0 0 1800.4025979573635 438.67178323620465 0 438.67178323620465 -16.657181471317017 0 0 0 0 1756.4695309936214 966.60175894483109 0 966.60175894483109 -241.04277115243167 0 0 0 0 1332.8224216051458 1115.0615374933805 0 1115.0615374933805 -85.907070812783786 0 0 0 0 1199.3408768707159 1060.6719087126112 0 1060.6719087126112 -5.0742791025040788 0 0 0 0 1301.1290346589803 567.65604496664992 0 567.65604496664992 -2.2841299116989831 0 0 0 0 501.48601517402858 406.20690116244077 0 406.20690116244077 108.27301300968247 0 0 0 0 780.53295894256735 942.02462022323925 0 942.02462022323925 655.50333431336912 0 0 0 0 892.11410959347631 717.74126958109628 0 717.74126958109628 345.22989116761892 0 0 0 0 170.56285993565689 392.38057320150983 0 392.38057320150983 489.25216279200322 0 0 0 0 403.63412714895821 248.11624262471378 0 248.11624262471378 128.44260873277381 0 0 0 0 8.2069511652506435 9.0065852455728361 0 9.0065852455728361 -6.9054155696754549 0 0 0 0 562.44003008691652 868.41631852080536 0 868.41631852080536 1058.5508351072131 0 0 0 0 133.13828166984604 -25.168862349022675 0 -25.168862349022675 -244.53677551345027 0 0 0 0 136.70861027669162 45.930020801344654 0 45.930020801344654 56.709086141050648 0 0 0 0 35.967098235247249 87.608481672457856 0 87.608481672457856 153.7344773629884 0 0 0 0 -61.184999714692822 95.454544502164936 0 95.454544502164936 50.03525807983533 0 0 0 0 4.0373250251210493 4.4844369850006274 0 4.4844369850006274 -1.1734271920949908 0 0 0 0 320.07103601153358 36.330033329410071 0 36.330033329410071 -614.13213018235547 0 0 0 0 724.89605548852705 1718.4765791075224 0 1718.4765791075224 2364.7116505634476 0 0 0 0 -62.087394073692849 259.31278783524613 0 259.31278783524613 -19.927944780083635 0 0 0 0 697.78219378401991 1038.7603562249933 0 1038.7603562249933 1631.8798389899894 0 0 0 0 685.25998442566197 927.11337905688924 0 927.11337905688924 653.40894901407592 0 0 0 0 1080.0132084049983 1239.4460800142588 0 1239.4460800142588 656.40417182368401 0 0 0 0 895.50874151408789 1343.3787683225237 0 1343.3787683225237 645.77932232964667 0 0 0 0 1063.301737599264 1215.6503306247178 0 1215.6503306247178 231.84267114519753 0 0 0 0 1062.9808785734613 1219.3650465857208 0 1219.3650465857208 236.53563094540732 0 0 0 0 1041.6306736062106 1421.6262123613633 0 1421.6262123613633 -56.203883718990255 0 0 0 0 781.17880947497906 1232.1617025487467 0 1232.1617025487467 253.96006125793792 0 0 0 0 1055.2946486011642 1290.998250436096 0 1290.998250436096 265.89307739353535 0 0 0 0 1095.8482163788649 952.48262092345612 0 952.48262092345612 374.37149756378494 0 0 0 0 303.29348186051357 1102.9751100802459 0 1102.9751100802459 353.71389900907525 0 0 0 0 819.44825964895426 1175.3120192007082 0 1175.3120192007082 736.9121988224797 0 0 0 0 -48.438946699825465 39.835093845445954 0 39.835093845445954 45.207400898123524 0 0 0 0 -53.484968359298364 18.682828320637782 0 18.682828320637782 -37.803241301327944 0 0 0 0 -0.88130629414808936 85.595273708557215 0 85.595273708557215 -287.81346002595092 0 0 0 0 3.3484070585326435 -1.5599255117457744 0 -1.5599255117457744 1.0938936361370253 0 0 0 0 985.92717531077506 926.75787919804861 0 926.75787919804861 533.56494997051777 0 0 0 0 984.9081543697539 910.78572946404893 0 910.78572946404893 617.72605343527903 0 0 0 0 205.40762719071063 358.69125400091798 0 358.69125400091798 412.74431545678817 0 0 0 0 522.62236127135111 34.862818609857641 0 34.862818609857641 -100.94646438508062 0 0 0 0 1497.7087071985734 968.83276163415576 0 968.83276163415576 193.14143200506805 0 0 0 0 1044.7306719989792 1101.6108482741511 0 1101.6108482741511 1007.9235883410511 0 0 0 0 1607.7938879550347 1152.0440339489214 0 1152.0440339489214 1238.6974767422143 0 0 0 0 1736.8975792643905 1028.4649655670692 0 1028.4649655670692 1011.262227330466 0 0 0 0 1516.4908255484697 872.91158918424389 0 872.91158918424389 654.72604146129743 0 0 0 0 937.14863206839073 1314.3363111641011 0 1314.3363111641011 1494.9620099799504 0 0 0 0 1130.5195071999042 1211.6844391704217 0 1211.6844391704217 732.1482631954259 0 0 0 0 1108.0322981474455 1308.1273953407945 0 1308.1273953407945 1147.0179023711244 0 0 0 0 1363.0867472185346 1044.4204279969053 0 1044.4204279969053 511.52398262280531 0 0 0 0 1223.4746766248427 1350.4850787588366 0 1350.4850787588366 1450.5301137471833 0 0 0 0 1367.043747175514 1470.3212277649072 0 1470.3212277649072 1179.7544604566847 0 0 0 0 1104.1645456414117 1639.7484430157456 0 1639.7484430157456 1569.1942105992784 0 0 0 0 1077.5019394923293 1562.0605055186752 0 1562.0605055186752 1362.0246884047301 0 0 0 0 385.18226384047739 478.10327136208616 0 478.10327136208616 352.73436697329453 0 0 0 0 231.31851189174631 699.65492106498277 0 699.65492106498277 1887.6671704608707 0 0 0 0 2226.844039909105 1833.988128289202 0 1833.988128289202 1578.6970021151647 0 0 0 0 666.93338259280426 1573.2885178412798 0 1573.2885178412798 3505.6486434974431 0 0 0 0 16.563785242087249 5.7884289335685963 0 5.7884289335685963 2.0412364932925016 0 0 0 0 766.53507229837123 871.78274154694373 0 871.78274154694373 -1429.7493005440119 0 0 0 0 1893.96336346514 1652.1862631288022 0 1652.1862631288022 -943.20153501047025 0 0 0 0 161.16082977177575 1087.3019983830454 0 1087.3019983830454 -2360.1036857265863 0 0 0 0 -2.2444727631108776 -0.66006508925482166 0 -0.66006508925482166 -1.4428022019717588 0 0 0 0 -652.58133924411959 -590.29087643764069 0 -590.29087643764069 856.1317243632584 0 0 0 0 1839.7191894580174 1496.456460092224 0 1496.456460092224 745.70607830866356 0 0 0 0 1969.8670528787334 1096.2694183440835 0 1096.2694183440835 1140.8567318074565 0 0 0 0 1605.8997758060868 1688.4155356239207 0 1688.4155356239207 1790.2887618027016 0 0 0 0 1993.9844764201698 2242.713176980229 0 2242.713176980229 175.5713767805355 0 0 0 0 1625.8909905577166 2496.9928367217508 0 2496.9928367217508 965.31401657992683 0 0 0 0 2355.6768541684578 2271.6520146314178 0 2271.6520146314178 408.38836988109688 0 0 0 0 1653.8547986036356 1679.548524544567 0 1679.548524544567 572.20679413837206 0 0 0 0 2036.8353350585385 2081.0087063992978 0 2081.0087063992978 617.12522168324904 0 0 0 0 1835.2637141360756 1779.1868575386034 0 1779.1868575386034 268.16949182998087 0 0 0 0 1812.4260986411728 2083.3328904315304 0 2083.3328904315304 623.87111763113353 0 0 0 0 926.30627236296277 1689.3725183263164 0 1689.3725183263164 557.16707446490182 0 0 0 0 1034.9061108087408 944.35259704647888 0 944.35259704647888 -455.17602044669911 0 0 0 0 -0.73793490974037468 2.3671187536718037 0 2.3671187536718037 6.0676155588575682 0 0 0 0 194.47505710549012 712.75935496938837 0 712.75935496938837 1200.2529672626697 0 0 0 0 276.8694242980273 555.36004366761699 0 555.36004366761699 68.899932710803114 0 0 0 0 445.04768059923663 825.59134748154611 0 825.59134748154611 225.0761986028956 0 0 0 0 113.71591480731149 708.48407158251212 0 708.48407158251212 350.80693068519031 0 0 0 0 1615.0524682443211 329.4296952685545 0 329.4296952685545 -128.11845769253705 0 0 0 0 -657.33780440335977 795.68057346480782 0 795.68057346480782 -73.139713267314619 0 0 0 0 -903.40967351334984 975.53408688993659 0 975.53408688993659 -114.69181561036385 0 0 0 0 -880.20645575052913 1059.098694379978 0 1059.098694379978 -269.68998971153633 0 0 0 0 -69.663708906133252 -240.6798520005359 0 -240.6798520005359 -1671.0593444555707 0 0 0 0 -634.41176783668925 676.54596911292901 0 676.54596911292901 -65.3629939120583 0 0 0 0 -452.88935757504078 1322.3466526576376 0 1322.3466526576376 -1509.977044877407 0 0 0 0 -603.82939162685943 1272.1544993265998 0 1272.1544993265998 -243.25066877655627 0 0 0 0 -30.203797942231176 655.34033463941159 0 655.34033463941159 -100.3363545464963 0 0 0 0 88.046474216098431 1007.7876546899497 0 1007.7876546899497 220.86435187789903 0 0 0 0 -21.126652614213526 643.75079052527872 0 643.75079052527872 -326.21128319681884 0 0 0 0 -613.64142838132102 859.94237151308334 0 859.94237151308334 13.894159446484991 0 0 0 0 -35.604531446500914 501.35629968112335 0 501.35629968112335 289.30129063074128 0 0 0 0 -442.54897465198883 548.16936384393921 0 548.16936384393921 58.621174715546658 0 0 0 0 -89.799070812165155 650.43284238986234 0 650.43284238986234 -99.451642997839372 0 0 0 0 -657.44048515928444 593.22409666220483 0 593.22409666220483 -67.53671657553059 0 0 0 0 -589.31778737447166 785.24448250342539 0 785.24448250342539 -148.71553702560777 0 0 0 0 -718.21786115349096 832.23298487792636 0 832.23298487792636 -487.62714067843626 0 0 0 0 -752.26982906257035 731.42202919963165 0 731.42202919963165 -125.55849163944549 0 0 0 0 -704.13952028751373 1087.7408368572214 0 1087.7408368572214 -647.54614923900226 0 0 0 0 -750.91598186775809 671.61977464990923 0 671.61977464990923 -159.14856026123744 0 0 0 0 -371.42367259785533 219.23048270339859 0 219.23048270339859 -193.26835193505394 0 0 0 0 -620.12462064495776 587.87816452857805 0 587.87816452857805 -694.79795567710244 0 0 0 0 -16.668794900310616 3.793056322003352 0 3.793056322003352 13.359120342005824 0 0 0 0 -603.33857371126942 1017.4382006956575 0 1017.4382006956575 718.30156441804138 0 0 0 0 -232.4897610990156 -143.41096934359666 0 -143.41096934359666 554.50212037303572 0 0 0 0 -149.69009833363816 246.45951778785093 0 246.45951778785093 -350.17390360787977 0 0 0 0 -433.81013455323409 -448.06427712337609 0 -448.06427712337609 408.20901966340898 0 0 0 0 4.0752447966352747 5.3913274692070772 0 5.3913274692070772 4.3014495153873895 0 0 0 0 157.96142686068197 552.89029170121285 0 552.89029170121285 171.07842937560054 0 0 0 0 -2769.2137386250542 -886.99724478184362 0 -886.99724478184362 348.96610341413179 0 0 0 0 -6.7849777156061464 1.7534403019121783 0 1.7534403019121783 12.614115356491538 0 0 0 0 -11.284571571421111 59.538756277834182 0 59.538756277834182 70.989412636401539 0 0 0 0 -8.5462910515780095 58.289075200431398 0 58.289075200431398 71.348168339362019 0 0 0 0 1333.5912194671109 447.01587436132831 0 447.01587436132831 373.41353066149168 0 0 0 0 15.161963936754091 40.342159081621659 0 40.342159081621659 26.724412753351359 0 0 0 0 11.77366087100205 16.176719849145819 0 16.176719849145819 16.721550391981054 0 0 0 0 -470.25269239148474 139.97728708801151 0 139.97728708801151 -60.615541742750793 0 0 0 0 -119.58587319182698 -138.05924806767871 0 -138.05924806767871 166.22940859600931 0 0 0 0 229.04373210971244 59.693120094147162 0 59.693120094147162 75.868960078980308 0 0 0 0 120.02632423804607 90.373924003521097 0 90.373924003521097 42.737129107168585 0 0 0 0 -2.7605584078226002 5.7250562671172105 0 5.7250562671172105 15.173843607814121 0 0 0 0 280.05293315439485 164.56288277130807 0 164.56288277130807 71.427808695865679 0 0 0 0 364.7892625570239 171.36152464516999 0 171.36152464516999 66.19730149031966 0 0 0 0 83.936846142052673 -2.7618661239757785 0 -2.7618661239757785 50.556627426776686 0 0 0 0 -110.90188426338136 -78.848179254127899 0 -78.848179254127899 24.931423125832225 0 0 0 0 20.547292596732916 27.527889476563473 0 27.527889476563473 31.092966820874409 0 0 0 0 17.35443327548694 46.723384966050567 0 46.723384966050567 55.352278847264472 0 0 0 0 -90.003911690000677 119.91641747453832 0 119.91641747453832 83.828734703500231 0 0 0 0 -23.489779153838754 37.807347046327777 0 37.807347046327777 112.78939969954081 0 0 0 0 -11.604795058508898 23.81390081483795 0 23.81390081483795 63.196559599887081 0 0 0 0 87.256427480126149 17.231615165961557 0 17.231615165961557 96.687740122608375 0 0 0 0 248.94847709723399 35.71887235565373 0 35.71887235565373 -10.695675055758329 0 0 0 0 -74.27859494209406 50.191924640486832 0 50.191924640486832 183.58543007682601 0 0 0 0 -7.8533252303305972 10.891723263422705 0 10.891723263422705 15.758181430911563 0 0 0 0 -61.022595735295909 -5.8158040659218386 0 -5.8158040659218386 205.95290784857934 0 0 0 0 -13.551800162754205 14.613133431916111 0 14.613133431916111 13.174496536640476 0 0 0 0 82.800095846978365 -17.010502287161216 0 -17.010502287161216 64.741257843750645 0 0 0 0 153.72019259461376 29.41613820931525 0 29.41613820931525 38.052698489027534 0 0 0 0 -17.57568366205669 17.309658388279786 0 17.309658388279786 56.872365035727853 0 0 0 0 3.4671224455232732 44.354109350402723 0 44.354109350402723 29.951129049033625 0 0 0 0 11.774795702169456 41.805591748527164 0 41.805591748527164 32.585941512616643 0 0 0 0 32.402220771793509 91.116466049410519 0 91.116466049410519 -12.700472927404917 0 0 0 0 11.87862940915511 100.60423461250321 0 100.60423461250321 71.354564069857588 0 0 0 0 13.717309066996677 3.0819935235776938 0 3.0819935235776938 66.775753347363207 0 0 0 0 -9.3745356045546941 42.916455820537522 0 42.916455820537522 120.33952500179294 0 0 0 0 68.899315513859619 123.89856960534235 0 123.89856960534235 86.056960494690429 0 0 0 0 24.816747558289819 35.617449879526802 0 35.617449879526802 8.3491042830188604 0 0 0 0 21.302806558381519 17.131870518674873 0 17.131870518674873 -24.557484679828463 0 0 0 0 72.950082215611474 37.735055431752698 0 37.735055431752698 -9.4821023408640031 0 0 0 0 -230.95494406328362 645.91945660499186 0 645.91945660499186 750.05655795466737 0 0 0 0 2.028700551529198 -2.1934389771921587 0 -2.1934389771921587 -6.5998160319251156 0 0 0 0 179.27888851711759 170.74334528151667 0 170.74334528151667 55.279546652182034 0 0 0 0 6.6256607714836377 5.326757377661238 0 5.326757377661238 2.7699845241554328 0 0 0 0 87.902819848479339 27.480899501172644 0 27.480899501172644 45.453609546850203 0 0 0 0 30.771856675790332 108.02364075706282 0 108.02364075706282 80.924764828931075 0 0 0 0 26.625584420718951 51.679930614263867 0 51.679930614263867 113.34617538322345 0 0 0 0 -3.4317602934606839 258.88578808081365 0 258.88578808081365 209.58362310210214 0 0 0 0 -26.707727630515024 12.086769118834241 0 12.086769118834241 20.708837021550124 0 0 0 0 114.30527186713152 50.457094720419263 0 50.457094720419263 161.73136281664483 0 0 0 0 -18.326663691465399 4.6738449915127376 0 4.6738449915127376 -0.58202959664799891 0 0 0 0 -67.992744691400048 2.8549871525650588 0 2.8549871525650588 201.49104378286575 0 0 0 0 17.87421919987537 199.89930109446868 0 199.89930109446868 279.77150329998403 0 0 0 0 136.24058592080837 -9.1307930093098548 0 -9.1307930093098548 189.89582048684315 0 0 0 0 36.163520537579871 17.337404668133459 0 17.337404668133459 6.1063726582045277 0 0 0 0 70.247264838049887 189.22268161902321 0 189.22268161902321 -103.42123327414447 0 0 0 0 -28.536009389325045 213.00862225308083 0 213.00862225308083 -361.09926739496586 0 0 0 0 90.871550936004496 540.02652505410697 0 540.02652505410697 -75.174931224391912 0 0 0 0 -47.570223165646894 210.07504359733139 0 210.07504359733139 742.2717684159652 0 0 0 0 5.8714097226916806 9.4187581643000158 0 9.4187581643000158 11.210193486621137 0 0 0 0 -2.1898154363242384 7.514900909025414 0 7.514900909025414 11.486729800647936 0 0 0 0 -33.714153200599981 13.351194265041471 0 13.351194265041471 35.376644837271414 0 0 0 0 64.38113857244025 171.30105864475627 0 171.30105864475627 118.11123557361134 0 0 0 0 15.075514671392739 72.620584190339287 0 72.620584190339287 85.198552492031013 0 0 0 0 45.344042199042406 40.030416180751118 0 40.030416180751118 18.896740701829827 0 0 0 0 -102.35665467270883 1528.4125941039092 0 1528.4125941039092 -1219.4062370292304 0 0 0 0 1.1214141611126252 1958.0084176260207 0 1958.0084176260207 -960.47247833103211 0 0 0 0 -376.55729845681344 1805.0197424629441 0 1805.0197424629441 -1182.3859410548175 0 0 0 0 192.31035796788638 1935.5944359808564 0 1935.5944359808564 -1522.099066733208 0 0 0 0 238.57180892229371 1906.0427151127642 0 1906.0427151127642 -1945.8897418512061 0 0 0 0 -7.933739756437717 1689.6400482107492 0 1689.6400482107492 -1803.9783590789593 0 0 0 0 252.03605586790945 1530.9344218684018 0 1530.9344218684018 -1723.7145454567435 0 0 0 0 361.81575643573888 1590.263268771756 0 1590.263268771756 -2011.0400283301678 0 0 0 0 -389.54940618795808 1980.3935712498751 0 1980.3935712498751 -1866.9250018668536 0 0 0 0 -0.96668780267646071 969.9175535987124 0 969.9175535987124 -3260.7430719660479 0 0 0 0 449.11302652541781 -143.03896346889815 0 -143.03896346889815 -1737.0773077396152 0 0 0 0 -553.44283150228148 1197.575033218618 0 1197.575033218618 -2460.2936844357391 0 0 0 0 228.2143722337496 2036.3187565409462 0 2036.3187565409462 -3408.0552685314178 0 0 0 0 631.95013598352671 349.66064188867313 0 349.66064188867313 -3380.929941793308 0 0 0 0 349.75638431461994 449.44151529193914 0 449.44151529193914 -1864.1471980075294 0 0 0 0 -1.4198833896711722 -16.792989935866597 0 -16.792989935866597 57.255847642809385 0 0 0 0 -1.923840150438366 3.1146364476740018 0 3.1146364476740018 -16.031158706867132 0 0 0 0 290.13309631533048 -444.79196364523159 0 -444.79196364523159 -901.73298007200356 0 0 0 0 52.599987860303372 -231.80767950426525 0 -231.80767950426525 215.4002396584001 0 0 0 0 -139.12777820765041 -33.92394268658245 0 -33.92394268658245 -194.24964605248533 0 0 0 0 -10.973494337667944 287.32982839307078 0 287.32982839307078 384.61462202698749 0 0 0 0 102.08793419206631 82.362749000600161 0 82.362749000600161 -1150.4734935658489 0 0 0 0 373.95690860502509 258.09422132526151 0 258.09422132526151 -1068.1994354204217 0 0 0 0 47.644275645550806 1020.4960150517873 0 1020.4960150517873 -2022.4667450924862 0 0 0 0 -752.99331407254795 1693.5381220365089 0 1693.5381220365089 -1068.979345691143 0 0 0 0 -108.71907007819391 243.68635124393768 0 243.68635124393768 -490.43253894156442 0 0 0 0 -181.93046341025183 749.02406279971274 0 749.02406279971274 -197.49471586401341 0 0 0 0 -243.58214762900025 214.5780008184156 0 214.5780008184156 386.31217572331661 0 0 0 0 12.512851857201895 -0.61500036491452192 0 -0.61500036491452192 -367.33474745505373 0 0 0 0 77.321831218863622 93.566736908630162 0 93.566736908630162 92.862770584364 0 0 0 0 46.518850176595151 89.013883374736906 0 89.013883374736906 -131.66189563745138 0 0 0 0 -153.75556556100491 230.72824970481452 0 230.72824970481452 -64.886771184879763 0 0 0 0 447.24605973268626 -630.04515235077997 0 -630.04515235077997 281.54699357875506 0 0 0 0 372.25170527369482 -285.0989871323327 0 -285.0989871323327 -295.0664040362899 0 0 0 0 391.73422321265389 192.32577821442101 0 192.32577821442101 85.570756801054813 0 0 0 0 -199.13769072684227 -8.9428000901607447 0 -8.9428000901607447 1110.514344402909 0 0 0 0 701.90298490674468 590.12960438638402 0 590.12960438638402 162.94749689671153 0 0 0 0 340.12462554988451 447.96187871921575 0 447.96187871921575 125.95034752215724 0 0 0 0 153.43559474896756 73.497202511551222 0 73.497202511551222 61.129432301167981 0 0 0 0 -9.0051297304592026 0.39508524131599643 0 0.39508524131599643 -0.82261396439928092 0 0 0 0 -238.87503262635437 1110.3231230890233 0 1110.3231230890233 -2194.3999558002688 0 0 0 0 -266.91165308916243 579.77295000557933 0 579.77295000557933 628.99625093217765 0 0 0 0 -49.039587498089531 678.63067367293843 0 678.63067367293843 -1348.7269351956202 0 0 0 0 -982.48856349466951 1826.0969196334845 0 1826.0969196334845 -1519.3377852374397 0 0 0 0 -7.9123983337810451 1455.0795147381727 0 1455.0795147381727 -1677.8080924997921 0 0 0 0 -1161.8756823276926 1712.6933334597234 0 1712.6933334597234 -1217.1592438396037 0 0 0 0 -1266.3278025039181 1955.0054999170347 0 1955.0054999170347 -597.99845182243735 0 0 0 0 -304.73120304444456 1953.481277392988 0 1953.481277392988 -1149.5314006469198 0 0 0 0 -1353.8183620691707 1574.1823567705178 0 1574.1823567705178 -978.10589251514102 0 0 0 0 -1342.2625317743514 1810.5057163066231 0 1810.5057163066231 -769.04407419918061 0 0 0 0 -831.43144480719639 1437.4384559670507 0 1437.4384559670507 -555.67856506587123 0 0 0 0 -165.46622885848046 24.425733180276438 0 24.425733180276438 211.96046197065152 0 0 0 0 -392.01947184721939 22.955736017876916 0 22.955736017876916 -70.405659929238027 0 0 0 0 -10.120292873945445 74.602742161546018 0 74.602742161546018 83.455976748314356 0 0 0 0 -395.61206976109679 65.574538055803714 0 65.574538055803714 339.75941725054872 0 0 0 0 -1398.2682062248932 607.351823462217 0 607.351823462217 120.17482100577581 0 0 0 0 -269.33383389399387 135.1333227451687 0 135.1333227451687 253.79137354344857 0 0 0 0 -55.377656592434505 -37.495548812294146 0 -37.495548812294146 263.82315464052226 0 0 0 0 -99.593703134014504 79.959850344821461 0 79.959850344821461 197.2449793976557 0 0 0 0 26.604197739055962 -57.766094267033623 0 -57.766094267033623 225.62728453308227 0 0 0 0 -25.062590782734333 14.268164736582548 0 14.268164736582548 140.12821293946763 0 0 0 0 -323.58633493742673 -48.455812229090952 0 -48.455812229090952 -2.8038699184544384 0 0 0 0 -342.18568186607445 -67.376065593627573 0 -67.376065593627573 -14.019605499517638 0 0 0 0 -5.0897438670946826 3.5130908922754429 0 3.5130908922754429 4.3799000659062699 0 0 0 0 -31.859841173529276 -34.933980220863305 0 -34.933980220863305 -205.10992865584558 0 0 0 0 17.696274130255915 -139.78404316678643 0 -139.78404316678643 -88.104231883306056 0 0 0 0 -0.074372686279502886 0.98597546333715513 0 0.98597546333715513 -3.2194270262651514 0 0 0 0 -312.29339129288564 -24.353179996280232 0 -24.353179996280232 37.087658205535263 0 0 0 0 -296.30170434736647 -73.012097316059226 0 -73.012097316059226 22.549602008773945 0 0 0 0 -199.14342317834962 -143.98241176095325 0 -143.98241176095325 -25.609131991164759 0 0 0 0 -214.17841260832211 -9.3178846948576393 0 -9.3178846948576393 100.41019264579518 0 0 0 0 -80.05652123701293 -24.938569308549631 0 -24.938569308549631 15.200902090251475 0 0 0 0 -264.97955186082982 101.90872080787085 0 101.90872080787085 90.56588567700237 0 0 0 0 -294.19515278906329 11.553885623899987 0 11.553885623899987 79.744119828450494 0 0 0 0 -223.00104962897603 -38.407277284801239 0 -38.407277284801239 34.092574096517637 0 0 0 0 -356.54277803891455 -15.305132651854365 0 -15.305132651854365 51.102306317887269 0 0 0 0 -41.098090248273706 71.78159441173176 0 71.78159441173176 87.93906421358173 0 0 0 0 -102.83252738876035 130.78674388815489 0 130.78674388815489 253.99875119492935 0 0 0 0 240.90682620326697 42.501198106452648 0 42.501198106452648 -52.45643231215945 0 0 0 0 -0.39647382340626791 -175.54176886770438 0 -175.54176886770438 -154.90489566558972 0 0 0 0 -462.59192897118919 -38.62341409135297 0 -38.62341409135297 186.74588630130165 0 0 0 0 -49.099864473566413 -78.061286812298931 0 -78.061286812298931 193.74508560006507 0 0 0 0 -13.896121886678884 681.06210060849753 0 681.06210060849753 605.99587299167615 0 0 0 0 79.064938661060353 101.45401971192244 0 101.45401971192244 101.49368318580434 0 0 0 0 -11.599488597352206 24.402331160746854 0 24.402331160746854 19.2841010346133 0 0 0 0 -0.98564914956295979 13.277563519763579 0 13.277563519763579 15.921238047379916 0 0 0 0 225.27399761741981 66.133034379061428 0 66.133034379061428 17.979894383635838 0 0 0 0 260.62489261094015 110.69560127846489 0 110.69560127846489 34.790166918130126 0 0 0 0 58.369623586438095 112.83396365035009 0 112.83396365035009 77.386543427323545 0 0 0 0 188.9443015113211 170.20935426024516 0 170.20935426024516 -192.73305058917322 0 0 0 0 174.07678330579074 156.68984109839948 0 156.68984109839948 -143.97198914195178 0 0 0 0 167.23925199615769 126.59282392241585 0 126.59282392241585 -74.36487523298274 0 0 0 0 200.86589917176752 170.19721937493887 0 170.19721937493887 -214.37125617929587 0 0 0 0 201.61555285652867 113.41588915012835 0 113.41588915012835 -217.44810131375561 0 0 0 0 198.05558964249212 110.04039541121165 0 110.04039541121165 -144.52888828254072 0 0 0 0 -156.19007160863839 234.1252802375966 0 234.1252802375966 79.011222770233871 0 0 0 0 15.439347484628094 20.982227466058731 0 20.982227466058731 -9.3565941059469537 0 0 0 0 -205.4193127062681 83.970193963519705 0 83.970193963519705 116.1983013433055 0 0 0 0 -20.660809263470583 224.86676391385845 0 224.86676391385845 -105.86504640536441 0 0 0 0 -10.81125853636695 114.00090894848108 0 114.00090894848108 64.335831250122283 0 0 0 0 126.6155843816523 67.139531943656038 0 67.139531943656038 19.700182667642366 0 0 0 0 25.637294442130951 144.51668171530764 0 144.51668171530764 44.954524795117322 0 0 0 0 -21.388553596072597 22.784950368761201 0 22.784950368761201 7.0122388968011364 0 0 0 0 -36.923279910814017 40.312067136823316 0 40.312067136823316 58.293761957786046 0 0 0 0 22.408571475651115 82.477599995036144 0 82.477599995036144 -38.587476081534987 0 0 0 0 -1.0156988998351153 108.18327915701957 0 108.18327915701957 56.812633507768624 0 0 0 0 0.28512858017347753 100.37993817357346 0 100.37993817357346 22.395544355153106 0 0 0 0 3.6337359045701305 95.635860401717963 0 95.635860401717963 19.895160395016205 0 0 0 0 7.517138269264251 102.18048406479647 0 102.18048406479647 38.588774692267179 0 0 0 0 -22.761463497358591 36.121172807197802 0 36.121172807197802 10.858211619523644 0 0 0 0 -21.200174486031756 25.112216079782229 0 25.112216079782229 28.652494773064973 0 0 0 0 -57.325742844851391 11.516844133176491 0 11.516844133176491 24.669178896502359 0 0 0 0 -195.24649751279503 -37.924445735174231 0 -37.924445735174231 111.5824531748658 0 0 0 0 -22.71224234587396 41.279863922055 0 41.279863922055 93.417975137992656 0 0 0 0 -117.55523443722632 4.8540308576775715 0 4.8540308576775715 73.348027725194697 0 0 0 0 -39.397145445703586 121.99296345366193 0 121.99296345366193 106.39970205419948 0 0 0 0 -145.73189694201574 152.29540455795359 0 152.29540455795359 43.549632245441899 0 0 0 0 11.04955518519273 88.343717789553921 0 88.343717789553921 63.347988582856487 0 0 0 0 -25.971433298313059 39.052389158838196 0 39.052389158838196 47.270311520711402 0 0 0 0 -6.2759517832637925 55.175833127878576 0 55.175833127878576 10.134738002015297 0 0 0 0 -8.2291309230564025 5.3962572870199779 0 5.3962572870199779 8.4675535997600377 0 0 0 0 -14.873163786658552 -13.507803824715666 0 -13.507803824715666 70.080767801497132 0 0 0 0 16.648790006150648 54.305751953389006 0 54.305751953389006 -52.156573681021015 0 0 0 0 -11.812383244163357 42.57209876232082 0 42.57209876232082 25.455467608058825 0 0 0 0 -47.423982429018395 24.532944785833159 0 24.532944785833159 14.978810751577157 0 0 0 0 -23.950998804472874 29.899428216066667 0 29.899428216066667 10.972449621636542 0 0 0 0 -41.958204579423182 102.93638921406819 0 102.93638921406819 -103.63571311533451 0 0 0 0 21.075666214594094 64.463278037010241 0 64.463278037010241 -85.78664140249748 0 0 0 0 -124.48517953592818 49.061087551453966 0 49.061087551453966 5.5645968660246581 0 0 0 0 106.6286530643556 82.13094061773154 0 82.13094061773154 22.509745081992151 0 0 0 0 8.7243472432296016 -0.13827872822039922 0 -0.13827872822039922 -4.909914752445502 0 0 0 0 8.9430463806456828 270.83453880377601 0 270.83453880377601 116.62939990917221 0 0 0 0 63.460747823934071 33.21011988585451 0 33.21011988585451 -47.143865284830099 0 0 0 0 -19.582397992660106 33.997729072390314 0 33.997729072390314 -31.613065558090625 0 0 0 0 -7.1756471593286619 13.98456469970634 0 13.98456469970634 -14.85987941073472 0 0 0 0 146.31273203211822 241.296500579645 0 241.296500579645 30.33030212088488 0 0 0 0 117.62118419987382 71.5384833253338 0 71.5384833253338 7.7943339477060363 0 0 0 0 0.20129810742946574 146.81648271048471 0 146.81648271048471 183.51379080378683 0 0 0 0 20.158882780131535 -32.856510421763232 0 -32.856510421763232 -21.092980428242299 0 0 0 0 36.187397839996265 -25.648076637058693 0 -25.648076637058693 -113.01553991055698 0 0 0 0 28.617372395383427 50.73652104321809 0 50.73652104321809 68.808848497486906 0 0 0 0 -100.04077253892319 -58.902143360850459 0 -58.902143360850459 210.99081765865412 0 0 0 0 7.2528303335514011 -3.1086616994442409 0 -3.1086616994442409 1.405206072322926 0 0 0 0 8.5688156387303707 0.38733196463414288 0 0.38733196463414288 -0.16447596526766972 0 0 0 0 897.43445645446627 26.581885012305065 0 26.581885012305065 -202.88785467861453 0 0 0 0 13.260831057241262 6.9591219655503522 0 6.9591219655503522 0.23491409736183755 0 0 0 0 -16.599531574291177 64.176025964843575 0 64.176025964843575 -193.46773173447582 0 0 0 0 -7.6016057951273979 68.80613318581527 0 68.80613318581527 -70.83060363768891 0 0 0 0 137.01557247166056 86.670171049117926 0 86.670171049117926 -193.08832758526842 0 0 0 0 -9.0208906311745523 23.82322942866449 0 23.82322942866449 107.25799174263375 0 0 0 0 -77.523963079242094 47.465813351107499 0 47.465813351107499 112.74565110777621 0 0 0 0 225.75042055023368 -178.37693702663091 0 -178.37693702663091 -5.1389453496376518 0 0 0 0 251.36204517679289 249.84900754382761 0 249.84900754382761 371.68773052676988 0 0 0 0 253.20084197542747 225.15623332408722 0 225.15623332408722 436.44638278907769 0 0 0 0 -28.383675917124492 -90.577640691415581 0 -90.577640691415581 379.0160137842031 0 0 0 0 -12.836626526346663 351.03847871458129 0 351.03847871458129 1134.6346894033413 0 0 0 0 1161.6202721735172 1047.9350398030001 0 1047.9350398030001 835.17572751511034 0 0 0 0 1089.001978490589 812.60622839999996 0 812.60622839999996 485.53460592375995 0 0 0 0 435.44866664185247 106.89781002008567 0 106.89781002008567 118.44762778197764 0 0 0 0 147.84001318048104 540.62090235435244 0 540.62090235435244 433.58503478746934 0 0 0 0 1315.8851323216295 772.6596197103936 0 772.6596197103936 -3.5283734697877662 0 0 0 0 3122.4524617242423 1378.7617271122144 0 1378.7617271122144 -116.27990120206687 0 0 0 0 5365.8346821117811 573.77595795498564 0 573.77595795498564 -351.4359103448005 0 0 0 0 3412.2254282096837 3347.6551782326605 0 3347.6551782326605 1500.0623753578475 0 0 0 0 2372.2878906803526 -65.272701077436068 0 -65.272701077436068 2649.0277500776938 0 0 0 0 -1844.1990142742725 2216.2457049046825 0 2216.2457049046825 2179.9759601480619 0 0 0 0 25.956173071309308 24.184093847952283 0 24.184093847952283 20.457879648255357 0 0 0 0 1615.2288788561127 37.845736876966839 0 37.845736876966839 -408.74255172581616 0 0 0 0 -1611.4919613226375 1910.4442164262309 0 1910.4442164262309 -1587.070665112693 0 0 0 0 -696.36778560234234 737.58161127561834 0 737.58161127561834 -527.85522632338689 0 0 0 0 -1354.2770946065866 338.21153068597414 0 338.21153068597414 620.70424076922791 0 0 0 0 -1795.7777507969586 953.90523975180258 0 953.90523975180258 -429.51594534172909 0 0 0 0 -1498.9781296021829 1099.5555176501075 0 1099.5555176501075 -381.67029997549253 0 0 0 0 -1767.8932497084024 1132.2250417050345 0 1132.2250417050345 -1116.6618796865223 0 0 0 0 -1958.0181764572189 595.564967328075 0 595.564967328075 -293.52921633204096 0 0 0 0 -1980.6112312738551 1698.9039575442002 0 1698.9039575442002 -1558.0424963985206 0 0 0 0 63.502727571906519 62.477371850269719 0 62.477371850269719 47.749558465459643 0 0 0 0 162.14664661240931 596.46665115707947 0 596.46665115707947 -74.314952671047649 0 0 0 0 -469.31357737525832 344.25141232913666 0 344.25141232913666 35.927676397041068 0 0 0 0 -146.85993407896603 13.814081086486112 0 13.814081086486112 -78.818785186500293 0 0 0 0 257.16216788084421 356.75684415379146 0 356.75684415379146 179.35965067247162 0 0 0 0 -135.05061624155496 -16.682017182800337 0 -16.682017182800337 300.8972749546665 0 0 0 0 -343.77111014310503 36.263065270824882 0 36.263065270824882 122.82266628286743 0 0 0 0 -3020.2461080532812 2284.7094423183407 0 2284.7094423183407 -1262.7785285631835 0 0 0 0 -2838.0270468550152 2709.7717673951556 0 2709.7717673951556 -2002.2559137029893 0 0 0 0 -33.526385740093701 -3.6030551367910846 0 -3.6030551367910846 21.643917221431423 0 0 0 0 60.191091778842576 85.585645445877716 0 85.585645445877716 62.10893074122589 0 0 0 0 -2943.1777672063436 1784.5408307989844 0 1784.5408307989844 -284.9842560278048 0 0 0 0 -1982.3481303314911 1193.1029510720764 0 1193.1029510720764 -1013.622259803331 0 0 0 0 -635.16297973322798 1873.302744614477 0 1873.302744614477 -766.18314466573793 0 0 0 0 -1598.5972455510855 1413.9970561593909 0 1413.9970561593909 1928.2459481295446 0 0 0 0 -1838.5271596671519 1694.025182948677 0 1694.025182948677 653.66528090477368 0 0 0 0 -1966.7450828694273 564.601077033818 0 564.601077033818 11.498867833393888 0 0 0 0 -2467.0771895986836 1300.723273945503 0 1300.723273945503 -459.92494565104425 0 0 0 0 -1395.7707655981421 223.45154406774805 0 223.45154406774805 82.63999093057646 0 0 0 0 -2043.0773033961741 667.53355918457237 0 667.53355918457237 -106.89877563846676 0 0 0 0 -1732.5073232960131 373.15298659582913 0 373.15298659582913 442.35195958681288 0 0 0 0 -1731.5116609271645 344.36658598885879 0 344.36658598885879 -191.86868966666952 0 0 0 0 -2659.0850098887895 15.406803012621822 0 15.406803012621822 727.78864883254573 0 0 0 0 2.3271082107297474 12.204486373336891 0 12.204486373336891 25.451735386988503 0 0 0 0 2154.5402303045412 1686.0056201667721 0 1686.0056201667721 1095.9052780967068 0 0 0 0 2.2836593863758026 401.34081442580282 0 401.34081442580282 353.24983730058557 0 0 0 0 -1.173408609276521 1646.4757939244901 0 1646.4757939244901 2106.7524643005672 0 0 0 0 866.71019231829814 592.75762286968097 0 592.75762286968097 643.94198322814918 0 0 0 0 1016.0416760020889 2342.9960127010127 0 2342.9960127010127 122.03442006172554 0 0 0 0 -660.58309980226477 1917.8853196649743 0 1917.8853196649743 78.133224177094235 0 0 0 0 415.55325777950929 2204.1744158563488 0 2204.1744158563488 -985.21477137560214 0 0 0 0 -34.993373533365229 1487.025167048917 0 1487.025167048917 319.40850673691602 0 0 0 0 -238.58183136297157 594.73738831613809 0 594.73738831613809 939.87985899826526 0 0 0 0 -217.44605594073073 -776.23461753786069 0 -776.23461753786069 2402.2274546782974 0 0 0 0 4.7260465511644725 125.55094263197861 0 125.55094263197861 147.90341127407646 0 0 0 0 -129.5406581480056 31.338974897934349 0 31.338974897934349 163.59088085918847 0 0 0 0 -420.04257221542503 844.88211889055947 0 844.88211889055947 -125.80231381522754 0 0 0 0 -13.458536775713128 -0.54007831518414662 0 -0.54007831518414662 19.259602011064366 0 0 0 0 -29.617074814392254 -3.8370139065045805 0 -3.8370139065045805 524.15040533451611 0 0 0 0 88.154688448936213 890.45234265784529 0 890.45234265784529 -1161.9947203336633 0 0 0 0 0.55396832930273376 581.40133822809912 0 581.40133822809912 -197.09804421952867 0 0 0 0 3.1601496284488348 -2.5024908547851084 0 -2.5024908547851084 -4.7681977124178374 0 0 0 0 61.811685009219218 54.922094611692046 0 54.922094611692046 -790.90541488127928 0 0 0 0 -411.3693514582701 453.46518331707193 0 453.46518331707193 -37.401345156147727 0 0 0 0 -0.77496110046922695 242.77345436755058 0 242.77345436755058 63.404612500500662 0 0 0 0 18.390208200435154 317.51046818008217 0 317.51046818008217 275.3375394587456 0 0 0 0 122.00545815614169 210.70430732726527 0 210.70430732726527 373.01713500140613 0 0 0 0 181.95032456544868 396.31603036060369 0 396.31603036060369 308.50936118418031 0 0 0 0 324.17427277809475 301.75937745578449 0 301.75937745578449 111.89836316534274 0 0 0 0 5.0032485165838523 29.547897263529848 0 29.547897263529848 67.796980938537189 0 0 0 0 -43.536246080417186 -66.770463168757487 0 -66.770463168757487 247.51566841767635 0 0 0 0 98.334424853383098 121.42485055153156 0 121.42485055153156 36.797023968760186 0 0 0 0 -1679.4096058975119 822.24962367725675 0 822.24962367725675 -279.04747570658583 0 0 0 0 -2978.7271810925013 497.89416404765143 0 497.89416404765143 602.65228506198764 0 0 0 0 -1646.5314112612032 663.58518584642115 0 663.58518584642115 482.44188864552416 0 0 0 0 -1156.400813429078 1325.5915685930941 0 1325.5915685930941 1040.7320483456424 0 0 0 0 -654.43278813872894 1129.4978588033628 0 1129.4978588033628 -454.3264037338231 0 0 0 0 -1419.3764013265318 1481.8150577127162 0 1481.8150577127162 381.50092737203795 0 0 0 0 -2033.893198627251 1060.8909608318208 0 1060.8909608318208 194.21271582851841 0 0 0 0 11.32395381250393 45.398437402353693 0 45.398437402353693 90.659588097869474 0 0 0 0 -1699.9375151607892 944.56951241906427 0 944.56951241906427 -549.66868109723146 0 0 0 0 6.0347852381453038 10.036799752565173 0 10.036799752565173 14.825262265767989 0 0 0 0 1719.0346916900889 -199.58468081126557 0 -199.58468081126557 -1790.4481378936107 0 0 0 0 -1261.7093654026103 1540.5554370889186 0 1540.5554370889186 -1005.8605115650607 0 0 0 0 39.032025684300322 43.030550369691341 0 43.030550369691341 43.475164549592229 0 0 0 0 218.79308635185589 719.23622830495879 0 719.23622830495879 -1922.138734142005 0 0 0 0 -1362.8629338855899 1401.3710973373909 0 1401.3710973373909 -416.01226494299772 0 0 0 0 1823.6908155968122 2200.1272338273411 0 2200.1272338273411 -2673.1550998164857 0 0 0 0 1926.9483955856995 1762.8934091536576 0 1762.8934091536576 -1422.2030340281253 0 0 0 0 1139.4944142128516 1952.7344920835676 0 1952.7344920835676 -869.17844788703951 0 0 0 0 2275.0485434501315 3191.2472008417317 0 3191.2472008417317 -1081.2332326709811 0 0 0 0 1404.5269210169208 3380.9983683376886 0 3380.9983683376886 1567.1751092935119 0 0 0 0 864.31601430245792 1730.9511922638194 0 1730.9511922638194 -346.55807210158673 0 0 0 0 857.44957523640187 1826.8871408674854 0 1826.8871408674854 62.260072046105051 0 0 0 0 1974.5760627831332 2148.0921501662378 0 2148.0921501662378 -1222.7690257213617 0 0 0 0 3191.4734975813353 1576.3840219529043 0 1576.3840219529043 -1130.7475850927949 0 0 0 0 2287.6113091083243 2304.7730642474444 0 2304.7730642474444 -1144.5774433553452 0 0 0 0 1831.1054683180882 920.74213689988665 0 920.74213689988665 -1446.5166026518782 0 0 0 0 1431.5856923503161 2202.2354955038063 0 2202.2354955038063 -510.98333964998164 0 0 0 0 1244.1246231562691 1809.8102052036993 0 1809.8102052036993 -879.37948038282548 0 0 0 0 -255.35578569514473 1992.8086026913388 0 1992.8086026913388 814.91058898111805 0 0 0 0 -484.58400500833523 997.50403513091078 0 997.50403513091078 556.76631835812532 0 0 0 0 -106.32593271264341 2150.6829024548615 0 2150.6829024548615 3085.2748619408958 0 0 0 0 -625.23460994957713 1354.7710954646063 0 1354.7710954646063 1037.4926704846221 0 0 0 0 -959.03408550692257 -23.638592072442407 0 -23.638592072442407 541.15114656800142 0 0 0 0 1079.0051562664739 657.6445000240783 0 657.6445000240783 1104.5699261772315 0 0 0 0 675.1901013537863 3344.7554334561378 0 3344.7554334561378 1340.8276855927688 0 0 0 0 2940.8597795792448 3302.013775263651 0 3302.013775263651 241.47057641506399 0 0 0 0 4.0993445188629494 0.58238049903150113 0 0.58238049903150113 0.65161562568931686 0 0 0 0 -852.50125294963073 3442.0496144930003 0 3442.0496144930003 2611.1743531013635 0 0 0 0 -545.14182962354971 1644.2506399624181 0 1644.2506399624181 730.39336576448386 0 0 0 0 111.5408424920679 1977.0938031598416 0 1977.0938031598416 1083.3840324347111 0 0 0 0 1022.8255365178047 3700.2576778733637 0 3700.2576778733637 1672.9391458069913 0 0 0 0 2930.2658373330632 2880.5525874968189 0 2880.5525874968189 1018.7059999548874 0 0 0 0 852.0461888743157 413.05290992280061 0 413.05290992280061 1070.800839303316 0 0 0 0 2.2543207941875494 1.4453765420672084 0 1.4453765420672084 5.0024814864203506 0 0 0 0 946.06865743423259 467.41440013541978 0 467.41440013541978 -5.6088793225499103 0 0 0 0 702.47451097039448 -3.8156982518630684 0 -3.8156982518630684 630.96576233499218 0 0 0 0 -294.78930219942413 107.44165402330327 0 107.44165402330327 -1686.1468998583005 0 0 0 0 207.46992504190712 949.37682441814832 0 949.37682441814832 -294.76280176881119 0 0 0 0 13.797346495333045 20.568018970463015 0 20.568018970463015 21.974324853240859 0 0 0 0 -1899.937811529031 2155.3942849433806 0 2155.3942849433806 1052.5524110427359 0 0 0 0 -3170.5101762535051 864.19837563456531 0 864.19837563456531 1070.0542615881191 0 0 0 0 25.952826075894251 41.566688981662566 0 41.566688981662566 46.596060596458415 0 0 0 0 -2318.9496452702078 2211.1680473263395 0 2211.1680473263395 149.16937543688982 0 0 0 0 -1552.5360973739298 381.50729824133668 0 381.50729824133668 -589.84988610585788 0 0 0 0 -1215.4382408214587 1605.4760225053615 0 1605.4760225053615 -763.71897218792947 0 0 0 0 -743.27796588496494 264.36238289840821 0 264.36238289840821 -693.45954046901898 0 0 0 0 -1532.0659132841683 -204.77136481024354 0 -204.77136481024354 20.354666462259047 0 0 0 0 -893.77512694554753 1501.2612334494916 0 1501.2612334494916 -898.94575966553384 0 0 0 0 -1084.8473541579733 652.99619075287046 0 652.99619075287046 761.52898951129646 0 0 0 0 68.920176320272731 -527.66190038179775 0 -527.66190038179775 312.16831772733485 0 0 0 0 -546.11946356078261 -720.98178368310982 0 -720.98178368310982 1726.0428828301665 0 0 0 0 -961.40480819807271 299.05705793622838 0 299.05705793622838 374.8525474620692 0 0 0 0 -1899.9115168997123 1130.7483814860284 0 1130.7483814860284 -125.94083449065511 0 0 0 0 19.46735262712923 32.314174591926673 0 32.314174591926673 40.804603511168779 0 0 0 0 -647.07218119775644 73.618098006758373 0 73.618098006758373 -397.0094792401942 0 0 0 0 -807.56626589078223 219.7486625283891 0 219.7486625283891 153.83145294181304 0 0 0 0 -1019.3196443076886 -55.569081294444914 0 -55.569081294444914 766.28273532620369 0 0 0 0 -459.59794849283935 83.05942946023788 0 83.05942946023788 796.31069861073047 0 0 0 0 -634.45291109989921 -174.653754743842 0 -174.653754743842 715.35785027648672 0 0 0 0 169.67918687305064 -114.17521334279445 0 -114.17521334279445 624.43678280447057 0 0 0 0 -182.00731587037444 200.49309570578407 0 200.49309570578407 667.71232372582017 0 0 0 0 735.74665762123186 170.84165532421412 0 170.84165532421412 142.60811945521209 0 0 0 0 33.476422998190401 80.091638120309 0 80.091638120309 62.50365407129501 0 0 0 0 16.955286400205694 26.074932346685273 0 26.074932346685273 1.0801908327410814 0 0 0 0 158.33672858593263 -597.33973552888756 0 -597.33973552888756 675.26027896071901 0 0 0 0 -800.90716412243137 -311.84707419318954 0 -311.84707419318954 632.81578595611791 0 0 0 0 -46.309614031444653 -348.0397040180178 0 -348.0397040180178 728.4728339673311 0 0 0 0 -23.244082717341371 -378.98271773027227 0 -378.98271773027227 520.46973876553238 0 0 0 0 55.900444522616453 -134.03763330804031 0 -134.03763330804031 101.91415988098379 0 0 0 0 762.60421226422477 -754.70196531998408 0 -754.70196531998408 466.29813971561816 0 0 0 0 17.399406568718405 -600.11177711682194 0 -600.11177711682194 571.46856960390141 0 0 0 0 4.3902108982463233 8.7595533631115075 0 8.7595533631115075 19.22442404013745 0 0 0 0 135.68427136156242 57.843139337208413 0 57.843139337208413 -291.38124677568703 0 0 0 0 -436.12164902637596 -203.67076026819382 0 -203.67076026819382 475.37276818613191 0 0 0 0 40.395880724335484 79.481512721306075 0 79.481512721306075 48.855589811251541 0 0 0 0 896.12188710426562 232.6831759254851 0 232.6831759254851 162.1969600804689 0 0 0 0 -57.253318036760902 147.48933203151319 0 147.48933203151319 14.678065298051479 0 0 0 0 261.50273726844898 207.81130403824409 0 207.81130403824409 -330.30173063414986 0 0 0 0 1738.3782532648765 26.257575442410598 0 26.257575442410598 -19.358026519352279 0 0 0 0 2.458858034417517 3.2523859542760363 0 3.2523859542760363 6.8974932043356176 0 0 0 0 1016.5867467705102 403.11727442817937 0 403.11727442817937 1909.0884662653334 0 0 0 0 502.56606186865247 -553.97190990090894 0 -553.97190990090894 446.52560604600149 0 0 0 0 635.45698669125341 -1062.3467819694206 0 -1062.3467819694206 1880.5156874290478 0 0 0 0 2433.7434534640634 -748.27709317447079 0 -748.27709317447079 1562.4840434920643 0 0 0 0 -9.5559054603254481 482.25639968029498 0 482.25639968029498 3884.256876245272 0 0 0 0 -33.255436955805635 878.44455831540472 0 878.44455831540472 434.31493222491554 0 0 0 0 22.476084560052357 20.346560268279958 0 20.346560268279958 14.777273741295119 0 0 0 0 888.3216058484395 523.62012149946531 0 523.62012149946531 7345.8545875947311 0 0 0 0 3160.3381898971274 944.00634777512096 0 944.00634777512096 1848.0025345397894 0 0 0 0 -1049.3980260291719 1056.6641734171135 0 1056.6641734171135 7201.9597404133601 0 0 0 0 -1382.3620735213917 -2207.5471936667709 0 -2207.5471936667709 7462.7272577288713 0 0 0 0 141.58882659149822 -1586.6378035389935 0 -1586.6378035389935 1383.8525071923068 0 0 0 0 -1014.0082360540109 1747.3782673625719 0 1747.3782673625719 10351.545420069713 0 0 0 0 24.553195009278454 -24.718037076130059 0 -24.718037076130059 31.70946053703193 0 0 0 0 -792.87847925953974 -109.47478558196735 0 -109.47478558196735 196.62529586861638 0 0 0 0 2675.6711018908536 1770.9912677267639 0 1770.9912677267639 6373.7433525588858 0 0 0 0 -585.95309738816286 -476.89706825338453 0 -476.89706825338453 6086.2763278157872 0 0 0 0 655.15167325580842 2271.0446502805989 0 2271.0446502805989 6474.6328494851841 0 0 0 0 61.684452345507452 2942.6750092345283 0 2942.6750092345283 6479.5197465966339 0 0 0 0 -438.20069860998774 -165.13664337498994 0 -165.13664337498994 92.980287145277543 0 0 0 0 -27.678414913561141 6.5231630821401012 0 6.5231630821401012 25.191749128163188 0 0 0 0 -14.866949409683002 -119.95589127129278 0 -119.95589127129278 56.590162087813951 0 0 0 0 -1329.6170481424197 132.10371416207272 0 132.10371416207272 404.31507181694178 0 0 0 0 -155.24174795867293 1867.057799779941 0 1867.057799779941 477.89612707106789 0 0 0 0 30.049506402014231 76.500561335938414 0 76.500561335938414 47.643704239729928 0 0 0 0 79.117089860825217 450.38412766299734 0 450.38412766299734 118.16691126010119 0 0 0 0 1658.2408105810173 1188.8140854853305 0 1188.8140854853305 101.48281871032236 0 0 0 0 9.3021926882144044 4.1137971588749593 0 4.1137971588749593 1.8529995388071203 0 0 0 0 373.93530252765049 378.27792158144189 0 378.27792158144189 -696.74118331680233 0 0 0 0 -1302.8744828705676 -796.16774059960653 0 -796.16774059960653 588.13689394253925 0 0 0 0 449.13305420725374 571.57687862336206 0 571.57687862336206 -238.57412513257748 0 0 0 0 -228.69495670957258 314.40956419579175 0 314.40956419579175 -27.342985972059012 0 0 0 0 293.79104949840985 713.57172546377626 0 713.57172546377626 148.44349974611259 0 0 0 0 -642.09413108308217 365.58870867512223 0 365.58870867512223 385.37523232699687 0 0 0 0 -499.23864411379327 257.14139638688357 0 257.14139638688357 413.68859991769204 0 0 0 0 -437.32118253209046 -195.67891333554059 0 -195.67891333554059 -355.6200645789686 0 0 0 0 38.564385104837129 -21.38092129972938 0 -21.38092129972938 237.22649398842623 0 0 0 0 8.2393530060387548 62.547079257262496 0 62.547079257262496 54.389998980234949 0 0 0 0 9.5738145466311835 -5.0024078197066046 0 -5.0024078197066046 -618.05855139034566 0 0 0 0 -68.277895984618226 231.85207861775825 0 231.85207861775825 -52.948643853892463 0 0 0 0 -115.00411742586584 92.290308402603671 0 92.290308402603671 -236.99612636315601 0 0 0 0 33.966409747736179 208.51154851807541 0 208.51154851807541 -537.30043058287902 0 0 0 0 -0.22061912718345411 282.77443115967458 0 282.77443115967458 -303.47456726907785 0 0 0 0 0.018165554269216955 7.9330375021518194 0 7.9330375021518194 74.835806988015975 0 0 0 0 3.6568231901328545 -6.3464858206780264 0 -6.3464858206780264 -601.47368956446576 0 0 0 0 -5.1329301023052949 6.2923089341319667 0 6.2923089341319667 20.534928993404467 0 0 0 0 2.6814620334189385 -184.06454204054899 0 -184.06454204054899 146.62784784341056 0 0 0 0 7.0209793191397694 0.82306383287623675 0 0.82306383287623675 21.5729974382986 0 0 0 0 2.2855121694350373 -7.5398436720545305 0 -7.5398436720545305 19.641364423824626 0 0 0 0 -717.59811899767374 900.09464688012849 0 900.09464688012849 4492.7959613929324 0 0 0 0 -17.782789795805002 -12.420014221886959 0 -12.420014221886959 328.84468328111416 0 0 0 0 -10.836766408601534 -43.888212873807788 0 -43.888212873807788 88.890373051002825 0 0 0 0 70.410427826165687 1989.4543112457795 0 1989.4543112457795 5938.6607369610574 0 0 0 0 -47.882144985254854 -980.11130889056949 0 -980.11130889056949 2742.570238217857 0 0 0 0 -0.72031759403153406 884.64789174510804 0 884.64789174510804 3677.2656801715093 0 0 0 0 -780.98316496907501 86.799037554708775 0 86.799037554708775 -813.54200407634244 0 0 0 0 -846.16875219885696 119.81667713584466 0 119.81667713584466 -345.25929852889385 0 0 0 0 -1059.6849784057413 336.07847928034244 0 336.07847928034244 -349.17939181482416 0 0 0 0 -1104.6250698533549 266.27202481237691 0 266.27202481237691 434.51040683090105 0 0 0 0 -951.45281913584313 763.21944905509258 0 763.21944905509258 -541.8430516506196 0 0 0 0 -920.25171286385739 -119.28056899293006 0 -119.28056899293006 -290.8447423566322 0 0 0 0 -599.42330158605182 -289.89581150233789 0 -289.89581150233789 949.09244789999502 0 0 0 0 -512.92699448225903 561.43902862344112 0 561.43902862344112 1374.8881843744384 0 0 0 0 1479.2848890333844 1109.7738862279002 0 1109.7738862279002 -401.6238015537383 0 0 0 0 -25.811857680224648 19.806249089439859 0 19.806249089439859 -0.19247887321620638 0 0 0 0 -325.51397108178935 287.34180327961803 0 287.34180327961803 -570.44701507783611 0 0 0 0 -7.6405571364203411 4.9907453752435629 0 4.9907453752435629 -3.3786007167173402 0 0 0 0 672.07111422205344 7.4030017759178008 0 7.4030017759178008 -2774.336728593953 0 0 0 0 -248.22489409678383 277.27821660582413 0 277.27821660582413 58.103964803711278 0 0 0 0 147.35268411942525 15.713018497917801 0 15.713018497917801 -229.38232261889789 0 0 0 0 -17.038496739080699 13.565038796406412 0 13.565038796406412 6.5915286419077859 0 0 0 0 -149.01910007401602 13.680191428080434 0 13.680191428080434 373.88908417011044 0 0 0 0 7.4238096440094523 78.814093116176082 0 78.814093116176082 -62.774646245088661 0 0 0 0 36.008306013260153 25.500117499548651 0 25.500117499548651 -165.72224677070335 0 0 0 0 -14.214499283283658 148.15151549932716 0 148.15151549932716 36.554897377107409 0 0 0 0 11.494033861229525 6.8212481141981982 0 6.8212481141981982 11.095217335273787 0 0 0 0 8.1760365803638706 75.662187392401393 0 75.662187392401393 163.33769945469248 0 0 0 0 10.361434509190076 58.896597632203154 0 58.896597632203154 22.556377935120693 0 0 0 0 27.348305944964522 65.707210157605004 0 65.707210157605004 -32.486394310464675 0 0 0 0 28.901368639694965 52.346397394411099 0 52.346397394411099 28.418162210206219 0 0 0 0 57.25997234712122 136.05745119421044 0 136.05745119421044 82.83189141760522 0 0 0 0 106.15902218566043 250.11923808572465 0 250.11923808572465 131.93299711564032 0 0 0 0 374.29011980057112 52.066600339941942 0 52.066600339941942 -200.30168790824246 0 0 0 0 50.32169855653774 -90.229644092949457 0 -90.229644092949457 -162.34381613571895 0 0 0 0 46.285183795529235 36.026702022927289 0 36.026702022927289 11.823070492092626 0 0 0 0 29.081497375445906 70.255840434587299 0 70.255840434587299 -20.690542345168069 0 0 0 0 3.1174813709803857 45.225508328912838 0 45.225508328912838 53.768186011860962 0 0 0 0 10.180603028239375 45.526139720056108 0 45.526139720056108 43.377585884543137 0 0 0 0 23.106338769081049 -94.006289073979133 0 -94.006289073979133 -105.25205282628303 0 0 0 0 12.389637323358329 27.310125098454591 0 27.310125098454591 46.31204773549689 0 0 0 0 92.7766031454521 -61.52711559873751 0 -61.52711559873751 -221.0025272986968 0 0 0 0 22.25633282822821 38.024929244224708 0 38.024929244224708 37.767059755442659 0 0 0 0 4.0602294276486646 12.232849254185709 0 12.232849254185709 6.4628210080992403 0 0 0 0 -153.38722718670033 48.586498704971746 0 48.586498704971746 108.0507229482173 0 0 0 0 -79.791797868470894 245.6402272455598 0 245.6402272455598 -63.293414041664619 0 0 0 0 -968.51780515327118 368.56733141928271 0 368.56733141928271 2.9981440019546426 0 0 0 0 -547.38011620558973 -31.816392927587003 0 -31.816392927587003 163.82693597073376 0 0 0 0 -1228.7177840659278 189.11496450142295 0 189.11496450142295 289.37496520254717 0 0 0 0 6.8224742159298444 10.093750370823898 0 10.093750370823898 10.189332813377774 0 0 0 0 -546.96427206421504 -113.69438901961257 0 -113.69438901961257 401.1062915212824 0 0 0 0 -596.15769571948476 931.8713885802099 0 931.8713885802099 -1150.8679669735357 0 0 0 0 -8.5852065676639313 -0.35022600166252005 0 -0.35022600166252005 -0.41303614436135661 0 0 0 0 -1315.0005313119909 617.18365515263577 0 617.18365515263577 -792.88522704480397 0 0 0 0 -958.22332173207542 953.92368076113962 0 953.92368076113962 -587.39820448946557 0 0 0 0 -725.00906990139629 219.83395933354768 0 219.83395933354768 -785.48896715621959 0 0 0 0 -1464.6239781892436 646.4712869330906 0 646.4712869330906 169.09738024926628 0 0 0 0 -837.04862361756386 484.36824685307511 0 484.36824685307511 2.5812410808866844 0 0 0 0 -925.81926171021769 623.89213327909238 0 623.89213327909238 -169.67476210969471 0 0 0 0 -765.87870823766571 758.83149794976634 0 758.83149794976634 -131.95189894591749 0 0 0 0 -630.54119458570494 594.38979629058304 0 594.38979629058304 -196.58555805329706 0 0 0 0 -630.46581298031379 597.77839126235631 0 597.77839126235631 -67.463350411810097 0 0 0 0 -361.91590319466195 664.4103280427953 0 664.4103280427953 -147.72345747245708 0 0 0 0 -349.80603778266232 574.39281767954526 0 574.39281767954526 35.250647583532555 0 0 0 0 126.94047013914678 364.74239505320293 0 364.74239505320293 -163.60705704666543 0 0 0 0 -230.47365833407093 649.59638385169455 0 649.59638385169455 -303.14537192837452 0 0 0 0 -527.33902732172282 516.4032805952811 0 516.4032805952811 -373.24339697296091 0 0 0 0 -345.64438363051158 302.34865474212711 0 302.34865474212711 -231.49699132381193 0 0 0 0 1034.5749599040719 257.68766476686142 0 257.68766476686142 582.33647969428421 0 0 0 0 1485.8386522578367 889.23009317964897 0 889.23009317964897 782.48408417408064 0 0 0 0 334.72467435705767 347.54316896392629 0 347.54316896392629 -50.717097534179629 0 0 0 0 1.1196657973241653 2.0675068530979672 0 2.0675068530979672 -5.6713009420528238 0 0 0 0 187.81052336602806 488.16788619359613 0 488.16788619359613 -146.09844362781587 0 0 0 0 368.36642896158446 34.893073197457852 0 34.893073197457852 90.099326670524533 0 0 0 0 1117.8627737415954 241.84542920780586 0 241.84542920780586 277.41107301210286 0 0 0 0 1112.5653964290104 -62.576767731719883 0 -62.576767731719883 -11.988162076522713 0 0 0 0 962.84957141189079 -136.23611170017102 0 -136.23611170017102 -513.98008012316131 0 0 0 0 173.56517261239674 25.262984542064146 0 25.262984542064146 -15.718685418112727 0 0 0 0 1.7808623247991076 2.6134181811819133 0 2.6134181811819133 -14.328290364450936 0 0 0 0 1010.5532264441144 113.67070364884296 0 113.67070364884296 -348.88408014563174 0 0 0 0 603.80704958761635 -26.993673676526669 0 -26.993673676526669 123.87682773073175 0 0 0 0 -402.25361124839401 810.95656578992202 0 810.95656578992202 173.51984090504629 0 0 0 0 -647.57355165490299 20.89609594022113 0 20.89609594022113 -481.89739434526109 0 0 0 0 -440.69116934602789 383.78247749747607 0 383.78247749747607 -95.290885688649723 0 0 0 0 250.84014562120137 491.94150555101078 0 491.94150555101078 -406.64587279575062 0 0 0 0 565.68974458963203 309.57420943844045 0 309.57420943844045 -286.8664665523047 0 0 0 0 -1550.591169570951 105.84876968475874 0 105.84876968475874 174.35279717599042 0 0 0 0 -2.8898325474393118 4.1059628251603044 0 4.1059628251603044 -3.018175034595771 0 0 0 0 -767.61795393646753 105.41231237990723 0 105.41231237990723 92.321361266942404 0 0 0 0 834.76223413043772 228.58127078043981 0 228.58127078043981 158.3444045950273 0 0 0 0 820.29193967963511 42.852002006329712 0 42.852002006329712 -44.390849219824304 0 0 0 0 -288.92285891758365 231.74215405471296 0 231.74215405471296 -141.21439925958111 0 0 0 0 1148.6071323052456 570.08970109953952 0 570.08970109953952 -385.115991538245 0 0 0 0 -5.9767765699697009 10.888835874644229 0 10.888835874644229 -6.6097149058369382 0 0 0 0 -639.13912610750413 407.68546500693992 0 407.68546500693992 -41.430026127658493 0 0 0 0 -342.47896633221535 191.04741765487415 0 191.04741765487415 34.013579381717136 0 0 0 0 187.56315484487277 726.22205629108794 0 726.22205629108794 -774.01216716514318 0 0 0 0 -382.6719824372849 924.96359093170031 0 924.96359093170031 -474.38870614925327 0 0 0 0 0.87654308076444387 2.2547171917321691 0 2.2547171917321691 -8.5721822589273984 0 0 0 0 865.33506291876256 -131.36433058930925 0 -131.36433058930925 -120.89107269340093 0 0 0 0 859.36367972377411 105.33973742810349 0 105.33973742810349 -659.30905246546899 0 0 0 0 974.30758585350122 463.79838943991854 0 463.79838943991854 -140.22333258115395 0 0 0 0 833.08000043642824 768.34427823139413 0 768.34427823139413 -750.67649258740039 0 0 0 0 178.2345718602628 586.33309157324402 0 586.33309157324402 -153.8729722800781 0 0 0 0 -357.26520856507705 328.06989419282399 0 328.06989419282399 -604.5808312377485 0 0 0 0 67.760709460970247 -187.81037212456431 0 -187.81037212456431 -173.79414440799883 0 0 0 0 -1038.7362735202223 288.8362771991724 0 288.8362771991724 960.38195624959917 0 0 0 0 -881.64627303296584 -161.66720034553873 0 -161.66720034553873 156.93873763854208 0 0 0 0 943.52834461280145 72.201373903088097 0 72.201373903088097 -151.4196124585651 0 0 0 0 6.4079122160874817 10.965158644342324 0 10.965158644342324 16.977167155741313 0 0 0 0 1037.2662226822213 899.86175095546605 0 899.86175095546605 17.835555425786879 0 0 0 0 1167.5791762640292 559.16579235806421 0 559.16579235806421 -157.43177197251407 0 0 0 0 -244.10550553981739 516.16190889161589 0 516.16190889161589 1670.9266272978894 0 0 0 0 1564.9662341900694 94.385886511714489 0 94.385886511714489 -849.15731648199835 0 0 0 0 -391.05577486488619 896.11888605801505 0 896.11888605801505 1310.7620626162607 0 0 0 0 1091.6129528360907 1202.2285034993129 0 1202.2285034993129 300.56453481904464 0 0 0 0 -750.90880132853636 262.49395055979039 0 262.49395055979039 731.43760043357906 0 0 0 0 -115.83100689687672 211.08840403469321 0 211.08840403469321 -14.520324696750322 0 0 0 0 -131.01588515981166 323.91684082360644 0 323.91684082360644 -287.58665909183765 0 0 0 0 -0.32042713021718328 0.18482940077774401 0 0.18482940077774401 0.54985377092788212 0 0 0 0 34.472800631221617 -58.405678176677611 0 -58.405678176677611 -11.964591171967186 0 0 0 0 6.3743064443406183 30.189025089042843 0 30.189025089042843 -25.287000220560003 0 0 0 0 135.61149210584699 122.83540105599604 0 122.83540105599604 68.617181978290319 0 0 0 0 -57.527642545988783 52.606123899502563 0 52.606123899502563 103.74718151946581 0 0 0 0 -7.5276491636106471 11.621972969579389 0 11.621972969579389 -8.957877194241064 0 0 0 0 9.6167988642428099 -0.90874564987225881 0 -0.90874564987225881 -7.8728777210124576 0 0 0 0 37.970298088621348 -46.817948319316201 0 -46.817948319316201 75.148441048528184 0 0 0 0 7.6150303555332357 47.871146609278185 0 47.871146609278185 -10.694709126633825 0 0 0 0 -130.550522036654 146.58364502143013 0 146.58364502143013 -164.01269237770612 0 0 0 0 -161.93675632009399 164.3970026555653 0 164.3970026555653 15.847571822087048 0 0 0 0 -237.55340826023894 170.24551263891772 0 170.24551263891772 -39.702151852394309 0 0 0 0 -219.47512255464972 512.10105302098964 0 512.10105302098964 -453.8745827382445 0 0 0 0 -196.7165566283802 439.38219663265045 0 439.38219663265045 -435.17216748885403 0 0 0 0 -768.79010602671769 558.42026449774858 0 558.42026449774858 -431.10990918158495 0 0 0 0 -461.8669620998262 244.5631238602291 0 244.5631238602291 -40.994937062030658 0 0 0 0 -330.38262917661632 979.18002254783278 0 979.18002254783278 -2192.2322450081629 0 0 0 0 -972.8222540600691 1103.947309645253 0 1103.947309645253 -498.74770621690186 0 0 0 0 -175.09744106419384 392.34199225388875 0 392.34199225388875 -792.34641754019685 0 0 0 0 -966.73627494988614 448.32101219994365 0 448.32101219994365 154.76289352776439 0 0 0 0 -587.4694829138607 511.97442781907739 0 511.97442781907739 165.15756563784089 0 0 0 0 -269.48493832153326 122.70813359998283 0 122.70813359998283 1734.5722367173767 0 0 0 0 -3.5869064731485309 4.5676482741768538 0 4.5676482741768538 2.3646034711475465 0 0 0 0 -900.85670394217595 593.18982154343939 0 593.18982154343939 1420.6896694543393 0 0 0 0 -744.14130975393346 639.32825795184181 0 639.32825795184181 186.25405363066966 0 0 0 0 -88.587923992177821 -288.55220294828177 0 -288.55220294828177 821.4109372942039 0 0 0 0 686.56805985709798 518.17040217756221 0 518.17040217756221 151.52272236479621 0 0 0 0 3.4089771790060013 7.3709305103025144 0 7.3709305103025144 17.618194516841953 0 0 0 0 512.46893457733677 1057.093878378204 0 1057.093878378204 766.98346054784633 0 0 0 0 -231.26761393682682 1181.0121633851886 0 1181.0121633851886 1083.7153684524101 0 0 0 0 0.75847055827034637 431.71821531841852 0 431.71821531841852 568.66156445465822 0 0 0 0 338.10188550439489 353.6156601496441 0 353.6156601496441 153.59108791717881 0 0 0 0 -96.649889100313885 -56.006299034517724 0 -56.006299034517724 6.0647929726546863 0 0 0 0 -191.80692093234393 809.91388878899306 0 809.91388878899306 -1466.2118218924552 0 0 0 0 -334.42303521343274 -157.41619007581176 0 -157.41619007581176 199.86354584866422 0 0 0 0 -9.1660691025672918 8.2970768508752926 0 8.2970768508752926 6.0766823563555334 0 0 0 0 -283.99541321015568 371.56885584794509 0 371.56885584794509 -1050.9025906990573 0 0 0 0 -281.30873433141642 446.26006611863272 0 446.26006611863272 -713.90099946667033 0 0 0 0 -506.75964355154429 802.9543487059982 0 802.9543487059982 -888.46741107462731 0 0 0 0 -309.32691129637533 555.43341867471463 0 555.43341867471463 -867.96722144062505 0 0 0 0 -433.76604044117266 613.50538518799658 0 613.50538518799658 -574.33774924759928 0 0 0 0 -329.93047496156942 569.62613495783626 0 569.62613495783626 -577.38906045035401 0 0 0 0 -345.97026144135452 555.5418870238318 0 555.5418870238318 -588.22941726537829 0 0 0 0 -304.35516836185707 630.37893145794806 0 630.37893145794806 -889.27796965167727 0 0 0 0 -295.7373211603699 587.286065807657 0 587.286065807657 -583.66192325841985 0 0 0 0 -274.20665317002567 547.57201585688745 0 547.57201585688745 -719.29279772320297 0 0 0 0 -275.96462446897931 536.57114757385898 0 536.57114757385898 -565.90567126366659 0 0 0 0 -267.5533291756874 477.35816900400096 0 477.35816900400096 -679.40208690665168 0 0 0 0 -325.02694117365172 512.08036901192827 0 512.08036901192827 -535.51098806486698 0 0 0 0 -323.1180458382878 521.25704619204043 0 521.25704619204043 -492.35040821594885 0 0 0 0 -39.877625607303344 112.8046157292265 0 112.8046157292265 -66.309121110934939 0 0 0 0 -50.169342537670673 37.70245092162741 0 37.70245092162741 20.202912721416268 0 0 0 0 -141.51520360635186 152.59417979864884 0 152.59417979864884 -49.153576065902598 0 0 0 0 -296.50801000650972 420.62781026596349 0 420.62781026596349 -461.17492339499586 0 0 0 0 -449.63970207859529 358.44124543062935 0 358.44124543062935 -216.50841693201801 0 0 0 0 -390.92448511144903 471.59961524445316 0 471.59961524445316 -353.14460750942817 0 0 0 0 36.860644636109896 31.029090955711439 0 31.029090955711439 -31.766641847054359 0 0 0 0 -349.686889064149 515.91972477640957 0 515.91972477640957 -463.60603466620523 0 0 0 0 -295.24862478888826 445.39866156053176 0 445.39866156053176 -562.14694412958488 0 0 0 0 -212.11526024798513 203.07329973889136 0 203.07329973889136 -213.73281909804791 0 0 0 0 -18.735194558172793 38.960319276365013 0 38.960319276365013 37.816072955862978 0 0 0 0 -98.545411201819661 374.46985808300087 0 374.46985808300087 -343.95152182120728 0 0 0 0 -140.60995954126702 397.78898171887704 0 397.78898171887704 -241.83816095002112 0 0 0 0 -43.20772973781277 76.439761903166072 0 76.439761903166072 -75.355643689268618 0 0 0 0 156.91830577253131 237.19492524366069 0 237.19492524366069 -96.228309832105879 0 0 0 0 -265.4692793302529 472.17361645222991 0 472.17361645222991 -677.90906139025901 0 0 0 0 -9.260776318657463 6.3286980717274695 0 6.3286980717274695 5.5577775585060039 0 0 0 0 -92.401763153902721 43.581879245146411 0 43.581879245146411 -100.56923728906986 0 0 0 0 -21.261067147643928 20.49471324941107 0 20.49471324941107 2.2361996853439337 0 0 0 0 7.3014326430857182 37.028474789807234 0 37.028474789807234 -34.490687124310284 0 0 0 0 -32.485275547839592 38.609953748319569 0 38.609953748319569 11.068902693350566 0 0 0 0 -32.419447354186559 64.126879056202597 0 64.126879056202597 -93.693105832626316 0 0 0 0 -11.368098246515729 21.058743393798068 0 21.058743393798068 63.433762932625541 0 0 0 0 -60.326551476522582 336.64644885266898 0 336.64644885266898 -589.83867597691278 0 0 0 0 -2.9495691456831992 15.496743409443297 0 15.496743409443297 -108.84970687916211 0 0 0 0 -4.3762417593839018 48.375262323097829 0 48.375262323097829 46.194231608235455 0 0 0 0 -0.76716608014618259 -1.203236350421335 0 -1.203236350421335 6.0461785670823787 0 0 0 0 -43.086980698775733 121.28166431347563 0 121.28166431347563 65.114705379557563 0 0 0 0 34.906600489281118 -11.81101176244556 0 -11.81101176244556 178.18242420471506 0 0 0 0 -119.80642639473081 46.176832898709108 0 46.176832898709108 100.95119493558377 0 0 0 0 -23.100495597016788 35.08900698246552 0 35.08900698246552 21.535023175639893 0 0 0 0 -41.422414018772542 43.87860574858496 0 43.87860574858496 -113.23651063596481 0 0 0 0 -109.3533674232167 36.6672777901058 0 36.6672777901058 75.875048366680858 0 0 0 0 -51.912101200650795 44.81258364624955 0 44.81258364624955 -141.16630657215683 0 0 0 0 -191.42162294391892 318.17451897789579 0 318.17451897789579 -143.4565320336842 0 0 0 0 -97.552210778056178 243.27309876999061 0 243.27309876999061 -219.54796862862713 0 0 0 0 37.855338963418035 252.49655612527567 0 252.49655612527567 -548.16077161048815 0 0 0 0 141.95990552651347 396.18715142436122 0 396.18715142436122 -179.54300452898315 0 0 0 0 24.181105722592292 284.9275334882575 0 284.9275334882575 97.735098779186956 0 0 0 0 -46.973127501332783 394.13357616932626 0 394.13357616932626 -140.59021374498843 0 0 0 0 6.641235771094216 544.08978312541149 0 544.08978312541149 109.52430759413983 0 0 0 0 -239.88591719514807 356.80150696183409 0 356.80150696183409 194.57438349892618 0 0 0 0 -227.82706462697752 511.51071131872686 0 511.51071131872686 769.23083847032103 0 0 0 0 -181.05493818673676 459.77980699804789 0 459.77980699804789 247.86357009586936 0 0 0 0 -354.89655584198772 376.27431993161736 0 376.27431993161736 430.1530579632672 0 0 0 0 -267.08386998967035 381.34814069856657 0 381.34814069856657 418.90764588068123 0 0 0 0 -178.22779395893212 412.39959767285086 0 412.39959767285086 275.89689816306054 0 0 0 0 595.34872295569221 395.33570877869715 0 395.33570877869715 113.78341004913091 0 0 0 0 163.13452962931478 680.00177611721301 0 680.00177611721301 479.81138902819657 0 0 0 0 10.064763605341142 29.92549417159259 0 29.92549417159259 35.770357193663529 0 0 0 0 -214.37609796294419 -3.9182811453647446 0 -3.9182811453647446 75.891690133641532 0 0 0 0 -284.87658683999325 155.39539384815725 0 155.39539384815725 67.207618879676374 0 0 0 0 -244.71520205460547 224.76012386203001 0 224.76012386203001 89.926032352203038 0 0 0 0 -223.47023521078518 269.61808663947886 0 269.61808663947886 21.113244946121995 0 0 0 0 -232.56136736281769 357.03416118087625 0 357.03416118087625 95.459659528511111 0 0 0 0 -341.66840305872029 239.95989077907871 0 239.95989077907871 244.02915840101923 0 0 0 0 -334.38803191915213 194.67974486997809 0 194.67974486997809 466.34175602046889 0 0 0 0 -354.05544047057629 347.4772434512488 0 347.4772434512488 441.34911260480294 0 0 0 0 -451.86692333823885 323.51270638604183 0 323.51270638604183 523.01446342420604 0 0 0 0 -441.56081370165339 368.07489441982034 0 368.07489441982034 453.52780689801148 0 0 0 0 -435.00080425583292 446.47974528386658 0 446.47974528386658 247.4890939402685 0 0 0 0 -341.04880024679005 335.98428370081092 0 335.98428370081092 101.15679937904133 0 0 0 0 253.40289016753377 298.61230928172699 0 298.61230928172699 -1297.3740984965043 0 0 0 0 -213.43299274631136 645.90085673578142 0 645.90085673578142 -26.48765088384971 0 0 0 0 -25.734539407189004 65.070857624727068 0 65.070857624727068 -64.759203845809679 0 0 0 0 17.595676841666659 12.295944779133499 0 12.295944779133499 2.9425901775819057 0 0 0 0 1.5998740685331541 18.861232009877781 0 18.861232009877781 12.363426520896297 0 0 0 0 -154.24498434537963 612.06364729073903 0 612.06364729073903 -496.97348268100905 0 0 0 0 312.66614395898796 49.876346425734482 0 49.876346425734482 -37.667789687569893 0 0 0 0 -214.1222606433148 91.88349592598388 0 91.88349592598388 -249.9425969941949 0 0 0 0 -339.50339949814952 360.88817354834464 0 360.88817354834464 122.67746926237305 0 0 0 0 -403.63600668505205 260.09982518153402 0 260.09982518153402 279.99398435882176 0 0 0 0 -284.13959425849316 166.31780827278271 0 166.31780827278271 726.70291766098717 0 0 0 0 -282.68682348000584 84.34997368666518 0 84.34997368666518 165.78173112276272 0 0 0 0 -405.82944019013576 307.59254923724552 0 307.59254923724552 581.1711856230977 0 0 0 0 7.1842600380928729 9.792006329955921 0 9.792006329955921 9.0898053073435108 0 0 0 0 196.07017652815193 -270.09415725199506 0 -270.09415725199506 -153.3861633512206 0 0 0 0 676.87200892131659 900.59441926309137 0 900.59441926309137 108.55286247310869 0 0 0 0 -2.504474024004935 4.0447726984908599 0 4.0447726984908599 0.69638104429767367 0 0 0 0 -2.6230534655188649 3.0224466344654672 0 3.0224466344654672 -1.6746474248929815 0 0 0 0 456.45795854534663 313.70286009773554 0 313.70286009773554 -149.54352697654031 0 0 0 0 825.68451129853202 537.21081172189952 0 537.21081172189952 -1103.814632744361 0 0 0 0 -4.7973819656326668 72.596489358711551 0 72.596489358711551 406.54780283149739 0 0 0 0 -398.15995854325593 327.06512318679597 0 327.06512318679597 -144.97177944949362 0 0 0 0 -648.99752920880564 288.28191349463305 0 288.28191349463305 -55.499059919953652 0 0 0 0 282.03778193690232 151.79699576907296 0 151.79699576907296 -238.34587395348353 0 0 0 0 -189.71751365982345 580.96980850278487 0 580.96980850278487 94.88280896867218 0 0 0 0 0.44139065132833366 -0.092862794514957159 0 -0.092862794514957159 0.20959724124514878 0 0 0 0 18.289389881771058 209.77166459614091 0 209.77166459614091 540.29582373420999 0 0 0 0 22.813848655059701 129.22161538528235 0 129.22161538528235 -410.32427294208901 0 0 0 0 -12.979452304221923 -7.1966267812458682 0 -7.1966267812458682 -74.590575760976208 0 0 0 0 4.7835269091592636 98.42052833564594 0 98.42052833564594 233.47682194286608 0 0 0 0 2.620181319067342 205.44337981154695 0 205.44337981154695 230.60348607793276 0 0 0 0 -46.71394906497153 223.44518205522036 0 223.44518205522036 48.315564682648983 0 0 0 0 46.742395487774047 99.33478678067695 0 99.33478678067695 99.196785026026191 0 0 0 0 23.899639970331918 44.105298864706128 0 44.105298864706128 31.778334164599983 0 0 0 0 29.037617244874127 53.096732248173794 0 53.096732248173794 299.66870798039236 0 0 0 0 -91.323584413388744 97.56676375668394 0 97.56676375668394 33.21310846896813 0 0 0 0 8.328929571844867 57.788722409996382 0 57.788722409996382 -19.158551543531289 0 0 0 0 -32.226691800715344 90.666973213130404 0 90.666973213130404 294.97508102464053 0 0 0 0 56.522297038260149 50.950204942353594 0 50.950204942353594 158.88294282268907 0 0 0 0 -0.67169698501066932 64.318080287813785 0 64.318080287813785 -8.7052112937752852 0 0 0 0 4.9322705681552179 80.053539843764156 0 80.053539843764156 -59.015232979299981 0 0 0 0 35.171084304775263 27.153583247893298 0 27.153583247893298 2.0404863015448882 0 0 0 0 34.685953447328359 18.279624295185002 0 18.279624295185002 -17.521102763728237 0 0 0 0 -4.1961796642863192 70.968470878447988 0 70.968470878447988 -65.361737313534832 0 0 0 0 0.066519918809831324 58.999848502549909 0 58.999848502549909 12.232920398000562 0 0 0 0 3.6121834735070024 9.8949857231865082 0 9.8949857231865082 1.6000927296223573 0 0 0 0 50.208068886015099 127.08032873690536 0 127.08032873690536 30.826394504409109 0 0 0 0 43.492125968798064 67.495889081481437 0 67.495889081481437 -155.85119161300827 0 0 0 0 -11.406897383145406 63.383380653096538 0 63.383380653096538 66.118525373371085 0 0 0 0 -3.3741415210242849 44.446403720114176 0 44.446403720114176 109.23309652687749 0 0 0 0 -40.675885422271676 -5.1063390658891876 0 -5.1063390658891876 70.779865987710764 0 0 0 0 464.3837102582329 177.46088320673152 0 177.46088320673152 -6.9233479340182384 0 0 0 0 -35.210867589681584 145.67817623437622 0 145.67817623437622 -6.9421427104753093 0 0 0 0 37.588853517569078 47.536842912584689 0 47.536842912584689 86.264029459751328 0 0 0 0 -301.41465441056062 285.13780132322063 0 285.13780132322063 181.31076697928074 0 0 0 0 -4.8572930464266584 27.300617192046417 0 27.300617192046417 77.888054848683339 0 0 0 0 -66.379119660938159 -44.432998462874821 0 -44.432998462874821 56.002096246636938 0 0 0 0 -27.449845835129963 69.325484143846552 0 69.325484143846552 119.45149029279128 0 0 0 0 -29.602643077494577 75.954517585887515 0 75.954517585887515 102.50117746660544 0 0 0 0 -10.637987115309272 18.351029600469587 0 18.351029600469587 7.0656028207599064 0 0 0 0 -36.400429379915295 53.016494328890985 0 53.016494328890985 190.90295434289146 0 0 0 0 77.557307706971187 143.54145543014602 0 143.54145543014602 128.02635236305241 0 0 0 0 104.04661147165461 63.475422776005871 0 63.475422776005871 54.620005253837007 0 0 0 0 19.446106574482087 57.347775684746097 0 57.347775684746097 -18.361224763459361 0 0 0 0 86.141879635630175 162.0695363838895 0 162.0695363838895 195.0888360967399 0 0 0 0 -9.5552949308910229 6.5043229165449929 0 6.5043229165449929 -6.2301415313680621 0 0 0 0 132.38742538890801 77.841624251283065 0 77.841624251283065 102.74681843085273 0 0 0 0 45.630869063606951 69.001081484733731 0 69.001081484733731 86.94139582808566 0 0 0 0 23.698080104426481 92.50973531427735 0 92.50973531427735 170.88624454153614 0 0 0 0 -14.358469906903338 18.106311613180878 0 18.106311613180878 130.79760868133599 0 0 0 0 -9.4308489879488206 5.7101463000710169 0 5.7101463000710169 0.74497273074950243 0 0 0 0 4.4575403014896438 42.664108564684284 0 42.664108564684284 155.28667939974548 0 0 0 0 -4.7021310373238521 48.413048359128879 0 48.413048359128879 152.29506533200401 0 0 0 0 157.04613289868576 437.24534167510137 0 437.24534167510137 -451.64153091264234 0 0 0 0 -393.60068894129654 -88.459014170635783 0 -88.459014170635783 -486.48467903657001 0 0 0 0 -229.10100958502153 -53.094783539658238 0 -53.094783539658238 378.51771943808126 0 0 0 0 -397.37611488095718 286.80139365152718 0 286.80139365152718 619.30264064902804 0 0 0 0 85.125376525815227 -316.54360133766022 0 -316.54360133766022 632.91604139502306 0 0 0 0 -47.68784533120197 102.33060178156484 0 102.33060178156484 -17.867430392070673 0 0 0 0 -22.530831050822201 8.0910166390651597 0 8.0910166390651597 12.236056501381857 0 0 0 0 -42.877518537599826 25.294296720967395 0 25.294296720967395 71.50334478043078 0 0 0 0 -71.024535464370274 13.786256388822949 0 13.786256388822949 83.554886538215214 0 0 0 0 -10.598522212880198 21.350693989572392 0 21.350693989572392 61.997583669348387 0 0 0 0 589.92349317314802 -128.7370680854001 0 -128.7370680854001 -15.771514300271519 0 0 0 0 2.7808071872842035 26.111357325836565 0 26.111357325836565 49.789415136133471 0 0 0 0 1.0352975349087501 26.894496954770148 0 26.894496954770148 130.35510128323949 0 0 0 0 1214.2339545660925 895.94005321041504 0 895.94005321041504 678.65635243848374 0 0 0 0 4.6483348285893271 4.6226084098513383 0 4.6226084098513383 10.023337420896894 0 0 0 0 -2.3100060821980364 1.9041826779154007 0 1.9041826779154007 19.507487358615322 0 0 0 0 813.30327407571895 1045.8675493453484 0 1045.8675493453484 1027.7114702666404 0 0 0 0 -261.26343040760548 287.81007157100976 0 287.81007157100976 1458.765239415352 0 0 0 0 -369.97817174927332 439.55921743022918 0 439.55921743022918 1669.1905368083972 0 0 0 0 42.125229450059123 87.541623129414802 0 87.541623129414802 -738.37911384208564 0 0 0 0 1044.2639436886384 1022.1809717940159 0 1022.1809717940159 2.922280215228966 0 0 0 0 247.41703487336054 481.77895228752095 0 481.77895228752095 -637.70927049682359 0 0 0 0 818.65260908815162 -584.83418658235769 0 -584.83418658235769 75.303138365139603 0 0 0 0 193.54155662097037 271.64775856908091 0 271.64775856908091 -891.79405699104245 0 0 0 0 201.83895566506544 -148.00387717334524 0 -148.00387717334524 609.76739401614032 0 0 0 0 -489.69570916210068 159.99785296358459 0 159.99785296358459 938.95890646527187 0 0 0 0 -382.09442060962647 321.97280371317083 0 321.97280371317083 579.27169046773633 0 0 0 0 -115.08361578334006 654.65457453555427 0 654.65457453555427 171.39230336487162 0 0 0 0 -288.09533604589524 222.80931978525041 0 222.80931978525041 416.63353445833491 0 0 0 0 -283.97326614762505 281.52634895093502 0 281.52634895093502 293.76200783569948 0 0 0 0 -19.449826249416219 65.731917559991416 0 65.731917559991416 31.226560028131644 0 0 0 0 62.178981431468856 306.33768330919702 0 306.33768330919702 -539.16263606614302 0 0 0 0 -121.3906295550405 382.52449238500412 0 382.52449238500412 -264.7126015330432 0 0 0 0 -54.684813602456416 91.624044211137516 0 91.624044211137516 -591.054722122979 0 0 0 0 -164.67416664535995 205.20566108704952 0 205.20566108704952 -668.40124896372436 0 0 0 0 -153.13644850341916 190.88698953400126 0 190.88698953400126 -421.00775307937874 0 0 0 0 39.65450729089207 405.71109244236141 0 405.71109244236141 -789.27825154687162 0 0 0 0 -286.30541830856237 -144.07178399781696 0 -144.07178399781696 -979.25760424729015 0 0 0 0 -97.340985667912122 -201.54363594538609 0 -201.54363594538609 -160.66307190648513 0 0 0 0 -93.782088606822072 500.91302010640356 0 500.91302010640356 -61.779195734481618 0 0 0 0 -33.4543327042702 70.391744151147577 0 70.391744151147577 -873.61849471530877 0 0 0 0 44.273634660814537 41.54313192849294 0 41.54313192849294 2.9974379627756775 0 0 0 0 -80.96872835758785 53.550281803084118 0 53.550281803084118 -4.4101767677851598 0 0 0 0 -0.93460543226007076 4.7761081907390128 0 4.7761081907390128 -14.604666312076219 0 0 0 0 -197.71622543574631 102.15115739417706 0 102.15115739417706 -601.19252835263615 0 0 0 0 447.62538326972208 -328.73731554666301 0 -328.73731554666301 -2240.0830803351855 0 0 0 0 -34.180363865583843 22.52199368279463 0 22.52199368279463 -8.4100296689954561 0 0 0 0 -285.00477486327873 64.306732445802481 0 64.306732445802481 -911.1627831402584 0 0 0 0 -233.67586739471881 181.53841538379493 0 181.53841538379493 -765.23178065702814 0 0 0 0 -67.918502161734068 76.742426070861256 0 76.742426070861256 -797.10570609997376 0 0 0 0 -52.305427526211133 370.56991338724038 0 370.56991338724038 -1283.3322592710319 0 0 0 0 169.61375699477503 -67.786778772799153 0 -67.786778772799153 -1721.0664355406334 0 0 0 0 -59.444864990252768 38.612741905943665 0 38.612741905943665 -16.207446490202699 0 0 0 0 18.668967400342808 595.01557642927219 0 595.01557642927219 744.73197856730621 0 0 0 0 346.27292748249602 470.80155484237184 0 470.80155484237184 -258.40113777878651 0 0 0 0 722.26871340660728 145.93401881820319 0 145.93401881820319 -19.451341503590811 0 0 0 0 -321.62106625028537 -41.967028968705563 0 -41.967028968705563 534.25187110928528 0 0 0 0 -937.77364930228214 980.62743743919418 0 980.62743743919418 2006.6101571690997 0 0 0 0 269.52106925893167 -472.12193690161621 0 -472.12193690161621 811.9117568328511 0 0 0 0 -548.74717965329182 395.46698738238774 0 395.46698738238774 -291.85218718447231 0 0 0 0 -392.83724167467153 483.00092700673122 0 483.00092700673122 -584.14501072509665 0 0 0 0 108.13364919595188 333.03584572709588 0 333.03584572709588 2353.8524021364792 0 0 0 0 -8.6995276078417305 -3.3188518140800625 0 -3.3188518140800625 2.3680140622941259 0 0 0 0 -119.24321245880856 307.71216567170268 0 307.71216567170268 -882.66058333038018 0 0 0 0 -10.653882152755557 5.2220921273629983 0 5.2220921273629983 -2.5296115776953982 0 0 0 0 83.766280001320411 -432.14273351489101 0 -432.14273351489101 -2886.4499780697006 0 0 0 0 -452.1531064520932 -444.09533309336439 0 -444.09533309336439 -1006.9186387896189 0 0 0 0 322.67557560832938 -147.62135635305458 0 -147.62135635305458 1945.5466656039098 0 0 0 0 -239.66152642211819 1164.1049344446183 0 1164.1049344446183 -828.27743854382425 0 0 0 0 25.907937500174739 77.680993263951677 0 77.680993263951677 -548.04877296180348 0 0 0 0 -7.7093050472794857 -13.845485884998197 0 -13.845485884998197 -294.32140134216752 0 0 0 0 -23.914302353921812 107.25553013061653 0 107.25553013061653 -109.64253944802476 0 0 0 0 -14.525419232507147 25.867387008014461 0 25.867387008014461 -6.9002308556709799 0 0 0 0 142.74594072635227 110.16783351533741 0 110.16783351533741 -266.07543270381575 0 0 0 0 31.575067514951282 97.495102467822363 0 97.495102467822363 -145.3408210574982 0 0 0 0 374.42867261258652 102.1383238287417 0 102.1383238287417 -534.66288449417334 0 0 0 0 2.26218371334501 71.300414750441149 0 71.300414750441149 75.970333984698073 0 0 0 0 -1541.5155066256293 1023.4855190259304 0 1023.4855190259304 -484.29228938317101 0 0 0 0 -179.71385381724394 139.88027417142439 0 139.88027417142439 700.27456301820803 0 0 0 0 -391.71576000537607 -328.78339526883065 0 -328.78339526883065 -253.51560768410491 0 0 0 0 333.4609723057074 159.07886292443072 0 159.07886292443072 -132.97976681610453 0 0 0 0 240.13843962259125 -6.9103264475852484 0 -6.9103264475852484 -218.12027805499383 0 0 0 0 0.67256823697243817 83.599353158220765 0 83.599353158220765 261.35462689585984 0 0 0 0 -461.98814446176402 -196.64680966792366 0 -196.64680966792366 152.0197394003917 0 0 0 0 -285.8200230653747 -283.71593151536945 0 -283.71593151536945 -125.0040812064035 0 0 0 0 -1311.0518743798348 -528.3818052499737 0 -528.3818052499737 81.386818886880064 0 0 0 0 -10.61249648210233 -5.6067858947031723 0 -5.6067858947031723 2.0810981949171037 0 0 0 0 -1203.5097587549972 635.7645882453071 0 635.7645882453071 -30.926613346666272 0 0 0 0 -1187.6239954863158 620.69725828254195 0 620.69725828254195 -37.179479418351548 0 0 0 0 -933.98462756951631 -203.50114630879398 0 -203.50114630879398 113.67413203677279 0 0 0 0 -3076.1809819141345 1489.0646250349673 0 1489.0646250349673 -376.64473850302238 0 0 0 0 -1314.9669018473651 371.24264214600407 0 371.24264214600407 21.523228719786857 0 0 0 0 -437.37670896002237 -206.51569220884267 0 -206.51569220884267 324.06144255218533 0 0 0 0 16.888277986278972 43.718298896252008 0 43.718298896252008 64.176907924072253 0 0 0 0 -392.84639801538287 -318.45898126578322 0 -318.45898126578322 99.226835452456726 0 0 0 0 -347.94677594007226 -202.615220951011 0 -202.615220951011 272.42748077862007 0 0 0 0 -353.97111690380552 -179.70655274581804 0 -179.70655274581804 376.24548970425167 0 0 0 0 -570.90235424379352 -268.41594857886957 0 -268.41594857886957 398.17967811172639 0 0 0 0 -389.26169991958886 171.66004431606416 0 171.66004431606416 782.91500070280745 0 0 0 0 68.016214449788094 -210.19203588558594 0 -210.19203588558594 287.07598795196827 0 0 0 0 -597.4659659708559 -63.485444007761544 0 -63.485444007761544 288.88741593818122 0 0 0 0 325.49572361306127 -324.89996935396812 0 -324.89996935396812 -1113.6883149588539 0 0 0 0 -359.5535693805723 -205.0364787040271 0 -205.0364787040271 -400.32907847058959 0 0 0 0 -651.56524089709274 550.80044666656613 0 550.80044666656613 -1017.7035332092928 0 0 0 0 -914.10157092085865 129.55025473479327 0 129.55025473479327 -57.116760870456346 0 0 0 0 -386.62924209240009 -225.13597221391683 0 -225.13597221391683 -301.72352912474889 0 0 0 0 -564.49975612579146 -440.16329480613058 0 -440.16329480613058 170.58018549683038 0 0 0 0 -392.28201761828234 175.52604752365053 0 175.52604752365053 -110.31550436699763 0 0 0 0 -33.234462765671196 57.030444811178313 0 57.030444811178313 -50.678773307827669 0 0 0 0 -7.9661380668840138 226.85515781944196 0 226.85515781944196 -194.92647170125565 0 0 0 0 -31.363285729899729 60.12506031950565 0 60.12506031950565 -57.486272998587197 0 0 0 0 55.980153333484395 203.82487035785584 0 203.82487035785584 -229.74710160162067 0 0 0 0 -140.94975420087576 172.42740379856332 0 172.42740379856332 -68.905864729307723 0 0 0 0 -9.7061942111572836 50.622212883256395 0 50.622212883256395 -2.233658576517513 0 0 0 0 -310.43071561897523 285.81126456683705 0 285.81126456683705 -45.057073863536061 0 0 0 0 -352.71577046062157 240.61461578838862 0 240.61461578838862 -0.082197613839525729 0 0 0 0 -296.46435023745289 217.89290539217109 0 217.89290539217109 -0.34428276177641237 0 0 0 0 -231.93511182034854 256.41475101866308 0 256.41475101866308 -40.282711809726607 0 0 0 0 -264.05196704366972 342.07022076953035 0 342.07022076953035 29.429856467948412 0 0 0 0 -278.60127235250911 298.32535530610494 0 298.32535530610494 -87.464541298650147 0 0 0 0 -331.12202708383847 201.43945034088119 0 201.43945034088119 -43.746133313739847 0 0 0 0 -309.90678585661226 174.58016169857729 0 174.58016169857729 -104.2336286606569 0 0 0 0 -254.90705626478302 201.40629274159073 0 201.40629274159073 -107.38480980666645 0 0 0 0 -33.043376067180148 80.255716198216021 0 80.255716198216021 -75.643090440389685 0 0 0 0 -18.994457684762892 173.29906784270133 0 173.29906784270133 -15.86758778928197 0 0 0 0 -402.83755023910635 108.75829963874639 0 108.75829963874639 -0.8001533568603918 0 0 0 0 -748.78044086704904 268.55668303100538 0 268.55668303100538 55.314762204303406 0 0 0 0 -23.728963843262015 36.105780967310153 0 36.105780967310153 -15.071891747179677 0 0 0 0 -86.29137997932537 106.15017154011366 0 106.15017154011366 -29.222764982860962 0 0 0 0 -67.843945765002246 62.016954456731526 0 62.016954456731526 -15.714423959429286 0 0 0 0 -133.41230685603659 120.55554565377679 0 120.55554565377679 38.588680893037235 0 0 0 0 -115.90885657609033 101.46384772610327 0 101.46384772610327 -53.211631588516866 0 0 0 0 -45.844199039810519 86.658547807497598 0 86.658547807497598 -51.81233231540682 0 0 0 0 -21.416484750556805 56.081728448422425 0 56.081728448422425 9.4398220896691356 0 0 0 0 -733.33250534046965 130.91368769630571 0 130.91368769630571 -26.952110291706049 0 0 0 0 -868.11644384329338 372.48236353812899 0 372.48236353812899 -136.7120145776571 0 0 0 0 -81.282343932621558 144.69761676059889 0 144.69761676059889 -10.641738107412705 0 0 0 0 -1136.2447647588415 544.9153920223398 0 544.9153920223398 69.021660969370714 0 0 0 0 -36.383254982152721 13.127765851433999 0 13.127765851433999 -46.122614613787931 0 0 0 0 -189.59734606243001 163.3099053850965 0 163.3099053850965 34.129548898301437 0 0 0 0 -430.51719092120766 114.13261032334412 0 114.13261032334412 -62.675353936119791 0 0 0 0 -70.197500567046518 80.416494652148685 0 80.416494652148685 -68.606941796577303 0 0 0 0 -229.56682614103192 -286.03774027644249 0 -286.03774027644249 108.86954212709679 0 0 0 0 -587.90374355087988 71.149680644579348 0 71.149680644579348 -55.398296801138713 0 0 0 0 -390.38787523646897 75.14021501634852 0 75.14021501634852 -55.521982357400702 0 0 0 0 -275.31655255351507 316.40709096832143 0 316.40709096832143 -246.29242454496853 0 0 0 0 -520.76381286197284 320.01549870372764 0 320.01549870372764 -169.07543745206203 0 0 0 0 -184.59399239090271 225.91802295295929 0 225.91802295295929 -147.42420852914802 0 0 0 0 -14.147514231764944 288.62312551600189 0 288.62312551600189 -262.76177329500206 0 0 0 0 -199.84580288067082 274.10831332046291 0 274.10831332046291 -217.71671953116311 0 0 0 0 -270.93680502784264 367.84112384394393 0 367.84112384394393 -247.52425185701577 0 0 0 0 -89.961570794024738 537.24382733710809 0 537.24382733710809 -345.08832325701223 0 0 0 0 54.808498108301137 380.71778141902905 0 380.71778141902905 -450.10630493599456 0 0 0 0 -98.777991821189062 136.38715138896805 0 136.38715138896805 -146.56636203292874 0 0 0 0 -90.857660771214796 99.215714145007951 0 99.215714145007951 25.504909575785859 0 0 0 0 -1444.356241139094 233.71059584714476 0 233.71059584714476 431.72953284379037 0 0 0 0 227.50346744307899 24.121968624378496 0 24.121968624378496 -479.61573196866084 0 0 0 0 0.15506712970682202 -1.3896198503844914 0 -1.3896198503844914 -9.3128215128822376 0 0 0 0 67.971410132544406 446.19363138716653 0 446.19363138716653 -761.80787451371725 0 0 0 0 -170.69275635252416 693.32718961965293 0 693.32718961965293 -465.20031797837873 0 0 0 0 -630.06483282767294 169.28656064945608 0 169.28656064945608 96.13804255775176 0 0 0 0 16.696087555191411 31.812149558558147 0 31.812149558558147 -23.929504923262471 0 0 0 0 280.37387413033866 -435.73240946689475 0 -435.73240946689475 -979.35748750367929 0 0 0 0 143.88293168264181 114.71448654122742 0 114.71448654122742 -51.886554146039998 0 0 0 0 7.6008712391151487 4.4826464817721501 0 4.4826464817721501 -48.622139952201252 0 0 0 0 4.4789176465889788 53.580513309178016 0 53.580513309178016 -83.094768799880939 0 0 0 0 -221.74893458044971 380.14464204716205 0 380.14464204716205 -93.560558267206943 0 0 0 0 0.83499742889929962 34.612210196243332 0 34.612210196243332 -28.279968946183089 0 0 0 0 116.61253136004962 -87.964746925725194 0 -87.964746925725194 -60.684738500742242 0 0 0 0 -1606.1412000516611 459.39481521235575 0 459.39481521235575 548.13704159937333 0 0 0 0 308.25465317673661 100.55966457418981 0 100.55966457418981 -318.27333983016433 0 0 0 0 -1.9136053460944229 5.6939395138563214 0 5.6939395138563214 -15.134273095722847 0 0 0 0 -1172.8420112524618 -187.10008680852479 0 -187.10008680852479 282.7433167858544 0 0 0 0 -955.52492638601689 -61.347402065934148 0 -61.347402065934148 -383.16951337113278 0 0 0 0 -217.81397200609354 -93.609125947265966 0 -93.609125947265966 -682.42124187055742 0 0 0 0 -374.44933252058627 295.6356352411849 0 295.6356352411849 -194.80938223388512 0 0 0 0 -61.142222471520654 -89.491921078704763 0 -89.491921078704763 146.19464986839739 0 0 0 0 -397.15066656449198 522.68072512537037 0 522.68072512537037 244.49294374469901 0 0 0 0 165.59276419279922 -204.83319250336353 0 -204.83319250336353 492.08530907197564 0 0 0 0 -139.74190841123345 523.60397139085399 0 523.60397139085399 84.758146223437507 0 0 0 0 -47.011033953036531 201.99609657131077 0 201.99609657131077 100.65531366784126 0 0 0 0 -11.75004804314085 200.82121607114459 0 200.82121607114459 32.438719041558215 0 0 0 0 21.11419163398233 24.30940844262658 0 24.30940844262658 -26.254583658882382 0 0 0 0 66.904621701716678 26.723452774618636 0 26.723452774618636 153.68672413493914 0 0 0 0 -55.227222720783175 35.831633437305982 0 35.831633437305982 -25.204390286380658 0 0 0 0 381.90509018622106 -130.65061421334394 0 -130.65061421334394 75.755352164036594 0 0 0 0 91.931074794687447 32.019323398121742 0 32.019323398121742 -211.78688679513289 0 0 0 0 15.232355544383466 -1.1532259027154339 0 -1.1532259027154339 -0.075694791834848729 0 0 0 0 385.98207362652465 0.36853228861582465 0 0.36853228861582465 -29.598060689429985 0 0 0 0 320.49988883135666 -125.78893880684336 0 -125.78893880684336 120.23631853934785 0 0 0 0 -74.1597671903437 303.37119447172154 0 303.37119447172154 -35.733366472075431 0 0 0 0 194.48980227150605 106.29332265793346 0 106.29332265793346 -97.351746938402357 0 0 0 0 -116.70600874486991 238.90928190200793 0 238.90928190200793 -100.50291995666339 0 0 0 0 127.39849762129597 212.66353326397075 0 212.66353326397075 -104.01429522730177 0 0 0 0 -125.40644972387236 245.56128070109116 0 245.56128070109116 6.4107907460711431 0 0 0 0 -60.163922939025724 331.45604698909938 0 331.45604698909938 -140.8193978080526 0 0 0 0 -131.40128107830242 411.24201882662601 0 411.24201882662601 -31.361579427641118 0 0 0 0 -129.84245078695312 401.63032895224387 0 401.63032895224387 -249.0315578917216 0 0 0 0 -118.07499854571188 380.26903254272179 0 380.26903254272179 -203.73735731552006 0 0 0 0 -515.69228969536925 288.95066881908497 0 288.95066881908497 -142.15883944564848 0 0 0 0 -581.68283446734858 427.73232183351138 0 427.73232183351138 -117.68541888844629 0 0 0 0 -397.02340988862852 429.59521203856275 0 429.59521203856275 -106.63288991420995 0 0 0 0 -421.97747596198315 477.46178086542204 0 477.46178086542204 -71.438393514647032 0 0 0 0 -411.08631304728806 504.82251461910619 0 504.82251461910619 -227.51489266328281 0 0 0 0 -373.96996906873756 711.6653086705719 0 711.6653086705719 -134.97157716142829 0 0 0 0 73.568318411766086 367.14910631989187 0 367.14910631989187 -180.324777605485 0 0 0 0 -151.7275479938944 274.90223016825985 0 274.90223016825985 -70.635998531186488 0 0 0 0 -48.987511416853522 321.98973845561522 0 321.98973845561522 3.2095456140232272 0 0 0 0 30.696406962044421 502.53124179258884 0 502.53124179258884 -207.8156981607608 0 0 0 0 -725.87648290487414 508.08454348557279 0 508.08454348557279 98.05818130724947 0 0 0 0 292.22591689952242 822.80068294861849 0 822.80068294861849 -229.6666643829958 0 0 0 0 696.21353303539217 75.440671950491378 0 75.440671950491378 11.829884892882546 0 0 0 0 762.50813181808917 325.92702673657914 0 325.92702673657914 -199.11662652820087 0 0 0 0 -161.95394704114005 79.515638366705389 0 79.515638366705389 959.27682652567455 0 0 0 0 1463.8524172220641 -292.73821795530966 0 -292.73821795530966 -83.936176673538284 0 0 0 0 754.17542324675014 -221.58941688627237 0 -221.58941688627237 159.82155468946439 0 0 0 0 8.3498602277726945 11.286547066032703 0 11.286547066032703 17.275884501533767 0 0 0 0 704.73850127369224 -108.80939022525854 0 -108.80939022525854 -6.4499794913572259 0 0 0 0 633.19324979034718 -265.11041749890137 0 -265.11041749890137 337.68269109021639 0 0 0 0 551.50560823164415 -120.46037718767184 0 -120.46037718767184 350.40120503434446 0 0 0 0 604.40918988949852 42.261367438812158 0 42.261367438812158 -32.289476314472267 0 0 0 0 583.27394663356245 -6.3739643711014651 0 -6.3739643711014651 213.22595525174984 0 0 0 0 352.40515928734385 90.156816490518395 0 90.156816490518395 -27.494767442694865 0 0 0 0 378.59010474132083 373.7211551888613 0 373.7211551888613 -139.91106903339096 0 0 0 0 621.43932362341366 112.46418475282189 0 112.46418475282189 -81.597323541354854 0 0 0 0 286.37475510514923 153.64255227179092 0 153.64255227179092 -113.22435708681587 0 0 0 0 563.47377461516589 -11.227926047562505 0 -11.227926047562505 -85.215956628933782 0 0 0 0 9.7718330072351023 23.627046214213056 0 23.627046214213056 22.025686554106755 0 0 0 0 -417.81547879289064 413.57320836103463 0 413.57320836103463 -250.53600919878227 0 0 0 0 14.029393603848426 1.297656942959911 0 1.297656942959911 -47.043699622706697 0 0 0 0 623.19173854769906 -146.21634587043809 0 -146.21634587043809 -69.007635601388756 0 0 0 0 344.38667819432158 -38.951343173248461 0 -38.951343173248461 -618.68589767673984 0 0 0 0 -157.1886906047439 188.25148290962534 0 188.25148290962534 -216.2867808570561 0 0 0 0 -467.47897524519794 228.699380906437 0 228.699380906437 377.59674164326134 0 0 0 0 -621.2058857678494 -72.16461935404368 0 -72.16461935404368 -200.90636966503189 0 0 0 0 -229.98017274601443 478.82227273317403 0 478.82227273317403 -264.29552300491196 0 0 0 0 12.668379850430114 35.561273582734835 0 35.561273582734835 9.0938489999615797 0 0 0 0 -237.02033009309434 400.78330451257034 0 400.78330451257034 -220.23407372916699 0 0 0 0 375.78585304493026 -491.95233715957875 0 -491.95233715957875 -397.31856217246968 0 0 0 0 45.1137403647881 625.03465384562151 0 625.03465384562151 -42.025225014593161 0 0 0 0 -896.07366501749493 -768.38262910369667 0 -768.38262910369667 -296.57123307412257 0 0 0 0 -277.87779258086812 623.4141558521369 0 623.4141558521369 -378.89653030160844 0 0 0 0 -12.605718812574196 412.07854382356891 0 412.07854382356891 -620.32529187464388 0 0 0 0 -516.3866777906369 1313.9957365632363 0 1313.9957365632363 -168.58648845917196 0 0 0 0 -351.77157276196522 464.36039191506643 0 464.36039191506643 336.33565138937411 0 0 0 0 213.13715790449351 389.1204778579704 0 389.1204778579704 67.196514316614412 0 0 0 0 1053.6344885298458 662.6778472836595 0 662.6778472836595 135.54062452269136 0 0 0 0 -41.45418850981514 443.87970794762077 0 443.87970794762077 952.87479504105431 0 0 0 0 405.03240467982687 114.87906527593805 0 114.87906527593805 551.73443226455129 0 0 0 0 -83.100769989789114 246.82214266429128 0 246.82214266429128 76.15466604733956 0 0 0 0 -452.83520148054959 -194.66920202800247 0 -194.66920202800247 430.07997989782598 0 0 0 0 -1041.286465946403 438.67913073478121 0 438.67913073478121 -230.74557823193754 0 0 0 0 -1031.2623887855589 508.85216010303702 0 508.85216010303702 -11.607190096459817 0 0 0 0 12.02778790111752 41.749109378451266 0 41.749109378451266 49.0322061877755 0 0 0 0 -1951.1050174750417 629.13301288982257 0 629.13301288982257 123.29254498583032 0 0 0 0 -1019.1861564822029 406.17516674431681 0 406.17516674431681 0.29179074109561043 0 0 0 0 -1118.4474999707745 756.3664772663542 0 756.3664772663542 -190.32218310589815 0 0 0 0 -855.56022767451032 866.67497351830389 0 866.67497351830389 -44.050018493420794 0 0 0 0 -1841.1137352660153 271.97136863574269 0 271.97136863574269 -38.227397944121549 0 0 0 0 -2376.7083883594423 650.08570705705642 0 650.08570705705642 235.76232251398324 0 0 0 0 908.49679893936263 519.55400783250298 0 519.55400783250298 -303.43395167520794 0 0 0 0 8.4617038139069791 27.513288479666642 0 27.513288479666642 23.965759633754999 0 0 0 0 152.79630986860138 423.20674341450649 0 423.20674341450649 -30.756829177271356 0 0 0 0 175.04104514169012 332.92968308294439 0 332.92968308294439 -15.617966414145485 0 0 0 0 198.15605073027837 300.46818579062165 0 300.46818579062165 91.177472757757641 0 0 0 0 -1019.445173498767 312.3220717083459 0 312.3220717083459 213.713513120274 0 0 0 0 285.42717694035673 705.76116649639152 0 705.76116649639152 -1227.3322042957589 0 0 0 0 -594.71375912893564 156.51443912092509 0 156.51443912092509 315.32000832691119 0 0 0 0 1371.4801896301797 871.11410171148964 0 871.11410171148964 -579.34619149263744 0 0 0 0 2438.1023302299654 -486.99342775514742 0 -486.99342775514742 -732.41435734352126 0 0 0 0 -2831.8146601233348 1008.2193968833399 0 1008.2193968833399 -1511.5746445975528 0 0 0 0 2.8815744263774405 9.1519311710596725 0 9.1519311710596725 4.412175932700336 0 0 0 0 402.48424660509772 201.26839953028684 0 201.26839953028684 357.07817537219671 0 0 0 0 -2131.458220336106 417.7090882317425 0 417.7090882317425 -139.16958762613649 0 0 0 0 -1995.4297299695136 996.50405084103113 0 996.50405084103113 -151.96608374768402 0 0 0 0 -1324.7106268893258 439.94835668780433 0 439.94835668780433 21.72875511267921 0 0 0 0 -406.52653636530886 1123.6879207048478 0 1123.6879207048478 -401.76479765911063 0 0 0 0 -1510.0240324028418 494.30381959639635 0 494.30381959639635 -495.36402932267811 0 0 0 0 -52.943995480294689 89.649482201886713 0 89.649482201886713 -252.03743734612544 0 0 0 0 -208.00248562204069 109.24489907122552 0 109.24489907122552 -4282.2842019846612 0 0 0 0 -18.329165564791765 -988.77422133248183 0 -988.77422133248183 -1969.9166396411647 0 0 0 0 -1052.0126240617974 1257.1112501964162 0 1257.1112501964162 -1579.4596281251288 0 0 0 0 -2873.7452478893247 819.32488402331364 0 819.32488402331364 -343.49659313321172 0 0 0 0 -2264.8111855174429 1510.099025735446 0 1510.099025735446 -1832.9611673506006 0 0 0 0 -1228.0630840179256 2221.3203089447252 0 2221.3203089447252 -813.05829712898412 0 0 0 0 -1638.1694866940234 1496.6656510770554 0 1496.6656510770554 848.10267095935706 0 0 0 0 -1106.6739832926614 743.95210250367745 0 743.95210250367745 1914.1063438117417 0 0 0 0 -12.437961092370983 16.234342870621219 0 16.234342870621219 -10.525712177406916 0 0 0 0 -538.96344893147761 579.11530854123703 0 579.11530854123703 601.82986086964956 0 0 0 0 235.64511175314692 -50.214043048828898 0 -50.214043048828898 1111.1758450945345 0 0 0 0 -1106.364067547991 928.72726748939021 0 928.72726748939021 303.85969597981602 0 0 0 0 -738.80075763961941 410.76429867474508 0 410.76429867474508 1033.501149521875 0 0 0 0 -240.47084436990554 762.70504434005124 0 762.70504434005124 -165.49039740102717 0 0 0 0 -693.19310739349748 406.00772621439683 0 406.00772621439683 -170.0721336634756 0 0 0 0 -309.5776786272254 561.56754844938769 0 561.56754844938769 -541.96863106249657 0 0 0 0 -122.9016773475596 1103.9278786947616 0 1103.9278786947616 -357.64273280358611 0 0 0 0 -396.74280682628159 1254.4327500918371 0 1254.4327500918371 103.20810945754056 0 0 0 0 -590.63475342711172 403.38797321997117 0 403.38797321997117 -1221.3465402793299 0 0 0 0 -620.96435963580643 23.203451140613652 0 23.203451140613652 -604.48287276155315 0 0 0 0 10.320709504741615 9.3461797080544144 0 9.3461797080544144 7.5058888724526867 0 0 0 0 -934.37365870922986 809.9400476222927 0 809.9400476222927 -293.26875203066447 0 0 0 0 582.03205372692173 -110.76871500848938 0 -110.76871500848938 -91.23805178845214 0 0 0 0 -331.88289314298163 934.2169658409839 0 934.2169658409839 79.859073859406635 0 0 0 0 -418.07937247288646 700.72125818004133 0 700.72125818004133 -537.9754481051059 0 0 0 0 -683.06195534461949 447.88838974818282 0 447.88838974818282 782.79313540548901 0 0 0 0 497.45958071938367 -970.72221708480356 0 -970.72221708480356 -629.59153605190659 0 0 0 0 -1115.9021263047907 -287.23235037378618 0 -287.23235037378618 802.29057503348167 0 0 0 0 -1.6376227856856644 0.80523211809735784 0 0.80523211809735784 2.7455408642254611 0 0 0 0 -2.0577565246277132 -3.5080626884363681 0 -3.5080626884363681 -7.7608634478162912 0 0 0 0 1926.4012111743432 267.979895448967 0 267.979895448967 -1412.2556804500346 0 0 0 0 -2331.4277326920928 916.18116151565118 0 916.18116151565118 -154.34045892902941 0 0 0 0 -1230.1388219897708 -578.87494425109981 0 -578.87494425109981 58.795607259962708 0 0 0 0 3039.8125563579379 -979.71272100183705 0 -979.71272100183705 -460.38373137118469 0 0 0 0 -805.17247644906456 14.07297802402536 0 14.07297802402536 -693.01189427592908 0 0 0 0 -1331.9945941766891 756.71087225773226 0 756.71087225773226 213.28838306250691 0 0 0 0 -656.52131326193921 441.25254991388647 0 441.25254991388647 1636.7987485320627 0 0 0 0 507.53567461736384 -36.33217536941811 0 -36.33217536941811 -1163.8899833958712 0 0 0 0 0.2529448296004233 0.96022066845769416 0 0.96022066845769416 -28.764503349708093 0 0 0 0 1.7385504540100101 1.4282177557128293 0 1.4282177557128293 8.3515801548420541 0 0 0 0 1196.8066981698685 314.98968942189822 0 314.98968942189822 10.987407039705431 0 0 0 0 2903.6397763427231 -145.13247604541539 0 -145.13247604541539 -697.6014082346137 0 0 0 0 1524.0385107586771 -487.10248815389059 0 -487.10248815389059 620.77966981251666 0 0 0 0 1058.5291630811953 819.12818071818037 0 819.12818071818037 -538.00195559216081 0 0 0 0 262.07494307834713 342.44359649858234 0 342.44359649858234 20.3428805500007 0 0 0 0 -263.26667749682383 -441.69394940041093 0 -441.69394940041093 -309.65805302959234 0 0 0 0 1220.4044073166006 1175.827928391951 0 1175.827928391951 -997.28756278197397 0 0 0 0 1880.982654656349 453.62310838892154 0 453.62310838892154 -1975.9389775985619 0 0 0 0 643.13023609633092 845.07560452756661 0 845.07560452756661 792.59048294792592 0 0 0 0 162.94699001351546 385.99936367361806 0 385.99936367361806 524.10976628179924 0 0 0 0 20.304381247085985 353.2725031493901 0 353.2725031493901 1295.1324984460371 0 0 0 0 31.968179231633258 868.67337973722169 0 868.67337973722169 1505.7110498442344 0 0 0 0 320.71809668990318 383.76650996792887 0 383.76650996792887 404.38467780253268 0 0 0 0 323.78651903143691 747.87774697936038 0 747.87774697936038 724.78113581670914 0 0 0 0 336.16880125040188 250.02751794636424 0 250.02751794636424 740.38896351757285 0 0 0 0 303.20497655510553 651.79596196918283 0 651.79596196918283 220.53292183345184 0 0 0 0 -40.676597902487543 43.041601792647413 0 43.041601792647413 -23.273789411478205 0 0 0 0 182.82149691718223 509.48035407848511 0 509.48035407848511 -2125.5060357926413 0 0 0 0 282.33517228766141 360.46583531178476 0 360.46583531178476 -1914.2189219064967 0 0 0 0 896.0619508275704 1570.4583463868476 0 1570.4583463868476 -2745.9599554876913 0 0 0 0 -485.76938172632799 1282.212415265989 0 1282.212415265989 -2508.084977641076 0 0 0 0 -753.64195221428963 808.19521919343242 0 808.19521919343242 -868.3743691182608 0 0 0 0 523.52421095818863 -294.34237635337195 0 -294.34237635337195 -1217.8618612455393 0 0 0 0 58.714060466008959 -734.33903678815113 0 -734.33903678815113 -1558.3266907333673 0 0 0 0 -542.69727805184448 420.0373448096143 0 420.0373448096143 109.29165296410793 0 0 0 0 15.208636538860446 577.14025868199315 0 577.14025868199315 553.72350002570602 0 0 0 0 -63.291789767107616 54.603625120421015 0 54.603625120421015 -26.983424684000269 0 0 0 0 330.62571127852425 521.97768468823051 0 521.97768468823051 248.65908723598113 0 0 0 0 10.784040746810206 302.13754434877774 0 302.13754434877774 -578.71038093527022 0 0 0 0 -459.70639311507693 745.86772717827989 0 745.86772717827989 -825.2229043400439 0 0 0 0 -12.410926960816141 1079.3319423309003 0 1079.3319423309003 -886.45861554984731 0 0 0 0 -62.523688102941378 983.86400541613693 0 983.86400541613693 -819.33143396403466 0 0 0 0 91.365241021016118 842.05935218307059 0 842.05935218307059 -606.35577364815981 0 0 0 0 126.1739649012452 938.89202590525383 0 938.89202590525383 -939.05598854011623 0 0 0 0 -44.869940357748419 328.80485285521718 0 328.80485285521718 445.45530222787784 0 0 0 0 103.22519405506318 715.05516725452253 0 715.05516725452253 -756.26074997105752 0 0 0 0 147.86154365736525 114.04982978437886 0 114.04982978437886 -388.53903524641646 0 0 0 0 149.48048872983782 789.04058521604748 0 789.04058521604748 -660.10156788537279 0 0 0 0 265.61083696734568 680.93212484956894 0 680.93212484956894 -714.38144278569962 0 0 0 0 161.13943780187401 637.39609653258231 0 637.39609653258231 -266.36338688237447 0 0 0 0 184.30964832434256 543.96355088186829 0 543.96355088186829 -332.80369419248018 0 0 0 0 149.88592240393336 569.60056043136865 0 569.60056043136865 262.84296084966081 0 0 0 0 291.26927616832836 661.76858892037126 0 661.76858892037126 -304.43479492611368 0 0 0 0 177.52957695235023 662.34874638060614 0 662.34874638060614 -301.19732327904785 0 0 0 0 225.81900928457617 773.59117086372135 0 773.59117086372135 -610.2057353948021 0 0 0 0 171.99501001184399 828.3883656244725 0 828.3883656244725 -592.24226287468628 0 0 0 0 218.01820522084017 799.57165857655491 0 799.57165857655491 -719.88018479605671 0 0 0 0 24.868320920402766 938.37290679877333 0 938.37290679877333 -720.98695285749795 0 0 0 0 63.256282487825956 802.32345730048837 0 802.32345730048837 -604.8153398011309 0 0 0 0 165.17258091033727 762.60302130003402 0 762.60302130003402 -651.08915487514605 0 0 0 0 202.70652622439957 594.05181426404306 0 594.05181426404306 -435.1841171815322 0 0 0 0 212.94536828658602 569.36353691862678 0 569.36353691862678 188.26605527466745 0 0 0 0 139.99215662482311 579.55247852705361 0 579.55247852705361 325.36326122544415 0 0 0 0 156.95902956702048 711.90685449130251 0 711.90685449130251 -242.35162741594831 0 0 0 0 315.7073717770254 540.45033622039773 0 540.45033622039773 -148.31333007669309 0 0 0 0 183.71632422994753 487.70461462645744 0 487.70461462645744 -131.68592977887602 0 0 0 0 28.038293225225061 480.77918364994548 0 480.77918364994548 473.57101566560596 0 0 0 0 223.4674152151274 643.68895774220437 0 643.68895774220437 -93.571534376445925 0 0 0 0 133.38791690552898 704.70431711993297 0 704.70431711993297 -450.95705978667684 0 0 0 0 69.106987031351309 530.26597523966484 0 530.26597523966484 -564.13707206881008 0 0 0 0 -63.350085821875837 806.80186342001252 0 806.80186342001252 -898.81052317732974 0 0 0 0 78.005713588725484 518.65076364109882 0 518.65076364109882 -1133.5927738800383 0 0 0 0 260.23459706619178 489.66417451693997 0 489.66417451693997 -1135.5034499017202 0 0 0 0 43.439986195269739 336.29977842870721 0 336.29977842870721 -1190.0638413990346 0 0 0 0 35.350250154224341 462.40631577883323 0 462.40631577883323 -1105.6036655302623 0 0 0 0 -117.03136160821305 493.85299459829548 0 493.85299459829548 -997.61121363425627 0 0 0 0 -87.38888919445526 667.25865308992888 0 667.25865308992888 -918.94831451195932 0 0 0 0 -199.18702653358923 585.01654548736406 0 585.01654548736406 -976.40408056933666 0 0 0 0 -100.94788512567175 651.39096383542346 0 651.39096383542346 -897.97277037596359 0 0 0 0 75.722232173327939 720.32840839041455 0 720.32840839041455 -872.99399086838821 0 0 0 0 -17.89396221046627 666.03225421885145 0 666.03225421885145 -804.92094117838133 0 0 0 0 135.55547395078611 626.70793706682525 0 626.70793706682525 -954.08175000213669 0 0 0 0 171.56584866761114 672.53270174372301 0 672.53270174372301 -805.18187120874063 0 0 0 0 112.89183479857456 776.06095426611137 0 776.06095426611137 -765.7298240759701 0 0 0 0 -34.453572399768746 829.56671390785777 0 829.56671390785777 -777.5302424161091 0 0 0 0 -79.277656508689688 925.42972493061097 0 925.42972493061097 -776.44551360202604 0 0 0 0 101.26550985078575 923.01017728598299 0 923.01017728598299 -786.02939619854442 0 0 0 0 -192.51635538466508 938.38398095414595 0 938.38398095414595 -774.27376957400702 0 0 0 0 -123.89555039579864 827.43102391640423 0 827.43102391640423 -810.95988418374145 0 0 0 0 -2.1509259375234251 836.00225432837033 0 836.00225432837033 -812.46101194713265 0 0 0 0 -177.43975701978889 757.73974768312746 0 757.73974768312746 -889.45774085674202 0 0 0 0 -394.71807121052552 687.00114406937792 0 687.00114406937792 -910.05316589042195 0 0 0 0 -224.62053249205201 858.43902381738735 0 858.43902381738735 -809.58752992525115 0 0 0 0 -395.35168972310203 779.94314944851794 0 779.94314944851794 -812.75416201562621 0 0 0 0 -121.9321000714117 827.56522709751152 0 827.56522709751152 -812.84574636764592 0 0 0 0 -293.9450080707029 782.00661328338174 0 782.00661328338174 -816.91683757775172 0 0 0 0 -185.66990652601817 952.09656459906546 0 952.09656459906546 -751.05674292981166 0 0 0 0 -307.5262667540228 886.19331009597227 0 886.19331009597227 -744.99521268342687 0 0 0 0 -263.63659414152789 977.60222166198582 0 977.60222166198582 -687.81360236537876 0 0 0 0 -332.92955578566762 885.27252949448302 0 885.27252949448302 -739.95908718963619 0 0 0 0 -238.18478946207324 1033.5903115285473 0 1033.5903115285473 -661.77921189827612 0 0 0 0 -353.88867697364185 953.37570576828148 0 953.37570576828148 -564.16698896163143 0 0 0 0 -196.55922814714722 1054.4531073784456 0 1054.4531073784456 -674.43663799539718 0 0 0 0 -283.12051349508693 990.68255160532863 0 990.68255160532863 -693.49684245753451 0 0 0 0 -85.94227973735542 1066.3304210671922 0 1066.3304210671922 -779.01255648436199 0 0 0 0 -161.22163177358743 1094.5181562412254 0 1094.5181562412254 -756.38343633573095 0 0 0 0 -40.455100408638828 957.7419156953838 0 957.7419156953838 -772.13286824087299 0 0 0 0 -106.02506463473401 1042.1548298394846 0 1042.1548298394846 -795.35025217261864 0 0 0 0 68.19692717972066 981.52837775139051 0 981.52837775139051 -817.9058381675859 0 0 0 0 -158.92565380038923 1103.6690228232153 0 1103.6690228232153 -794.53014732952579 0 0 0 0 -895.64836406956965 345.83583010983648 0 345.83583010983648 -215.2164142185502 0 0 0 0 -823.29740714430227 510.10250840819936 0 510.10250840819936 -25.870115961952251 0 0 0 0 -870.61839524198149 369.24285658503504 0 369.24285658503504 132.55954958422808 0 0 0 0 -602.80028629500157 264.38002035031059 0 264.38002035031059 25.398061561951181 0 0 0 0 -705.34952874456212 454.09284331110393 0 454.09284331110393 -1.6511789441865403 0 0 0 0 -563.68192541822646 548.73887819987067 0 548.73887819987067 52.535767734632827 0 0 0 0 -759.45068253896898 478.75734470472889 0 478.75734470472889 413.70177515975411 0 0 0 0 -397.99894009927812 254.69132572764647 0 254.69132572764647 571.79589364986805 0 0 0 0 102.98184034691803 552.34954950724568 0 552.34954950724568 -35.569798912518308 0 0 0 0 -279.49803728413826 662.28489076015467 0 662.28489076015467 -449.34694538700569 0 0 0 0 -165.88131934378907 420.98461565654725 0 420.98461565654725 -56.387524955294793 0 0 0 0 -839.60161694487761 736.142410633689 0 736.142410633689 -362.20291273087059 0 0 0 0 -506.70880676650631 382.52984560740515 0 382.52984560740515 -20.269592391065089 0 0 0 0 -363.57839315660385 659.03647812105191 0 659.03647812105191 -875.18276567880093 0 0 0 0 -371.72399290349858 553.0126666006181 0 553.0126666006181 -480.46296645801704 0 0 0 0 120.550199697891 945.26349390065297 0 945.26349390065297 -1993.5906101338478 0 0 0 0 -1233.2371391990528 751.80679129128475 0 751.80679129128475 -877.38891260194941 0 0 0 0 -622.63411691757938 909.01231130195083 0 909.01231130195083 -884.23387204494793 0 0 0 0 -533.83530313051597 708.96232735847298 0 708.96232735847298 -2225.8508755367875 0 0 0 0 -796.17191156266199 876.14339827929507 0 876.14339827929507 -882.30642980322591 0 0 0 0 -921.67581235513717 644.7319351422484 0 644.7319351422484 173.75932705360174 0 0 0 0 -1177.6347785581602 -145.77492898856508 0 -145.77492898856508 622.23892571206306 0 0 0 0 -1096.9770509503724 1304.8167707527173 0 1304.8167707527173 -693.65773442485806 0 0 0 0 -11.173906444951058 23.63192965564545 0 23.63192965564545 -33.369286823913228 0 0 0 0 65.571091879159212 46.309625449950545 0 46.309625449950545 250.23577925699647 0 0 0 0 377.05744834563666 680.42701640115047 0 680.42701640115047 -36.476482872516499 0 0 0 0 -544.51956716530549 368.59204774751561 0 368.59204774751561 -141.12322022560329 0 0 0 0 -512.27604283059918 488.71668931599379 0 488.71668931599379 296.31375404984283 0 0 0 0 -34.68700346366677 92.127075594333292 0 92.127075594333292 13.014005286979227 0 0 0 0 -69.774479461340889 660.94405009838692 0 660.94405009838692 335.46437508551753 0 0 0 0 -494.76192575688765 349.02554547234649 0 349.02554547234649 -113.61213265319384 0 0 0 0 -1313.7742947673541 501.02093567656993 0 501.02093567656993 157.76365119894763 0 0 0 0 -2654.6977082437661 709.16078209549596 0 709.16078209549596 228.4246240517532 0 0 0 0 -3.9570260627664453 7.2925804829984031 0 7.2925804829984031 -11.91215697765864 0 0 0 0 1410.4763062991115 273.64273774530011 0 273.64273774530011 -550.25744923071397 0 0 0 0 -481.27632883554179 647.66047341414014 0 647.66047341414014 251.71243704918015 0 0 0 0 1212.459461395687 751.21331492407626 0 751.21331492407626 -27.47964297341241 0 0 0 0 -9.7464546862284465 20.254433336118382 0 20.254433336118382 -28.036834262407581 0 0 0 0 -643.68101384170586 405.98461528059852 0 405.98461528059852 -41.563075899175601 0 0 0 0 -662.97033567849576 403.04738268971232 0 403.04738268971232 -80.876555499431561 0 0 0 0 -463.98157449778228 33.93094897694391 0 33.93094897694391 271.6787896883925 0 0 0 0 670.97211365932162 958.36715402420486 0 958.36715402420486 328.52536529458303 0 0 0 0 -67.685260695776378 -455.76816181989125 0 -455.76816181989125 666.07530402256816 0 0 0 0 -1128.7303351774099 208.25002490727275 0 208.25002490727275 129.19062682288495 0 0 0 0 -1219.3972291024256 418.0163163202451 0 418.0163163202451 -152.31243636023282 0 0 0 0 -331.38602311447175 576.41505979505791 0 576.41505979505791 -379.64924276148668 0 0 0 0 -361.08364048921067 138.16202700978056 0 138.16202700978056 -81.916402167087654 0 0 0 0 -3.5909709197334791 2.8445084832092675 0 2.8445084832092675 -3.4622658894681706 0 0 0 0 -690.74693988689978 157.40149397487767 0 157.40149397487767 440.96260385375354 0 0 0 0 -83.732019655843033 162.4660972533311 0 162.4660972533311 -280.29140118589385 0 0 0 0 196.007403576863 31.604279534818488 0 31.604279534818488 -261.20437707811652 0 0 0 0 -39.023317729821429 -36.660528430555132 0 -36.660528430555132 433.94024697234272 0 0 0 0 -1427.8784584486129 515.39219015576964 0 515.39219015576964 229.79207948927797 0 0 0 0 -1231.7232075855609 887.36829996080996 0 887.36829996080996 -131.00276701484108 0 0 0 0 -6.0606728739512619 -77.02529930829769 0 -77.02529930829769 -69.888905966665902 0 0 0 0 147.02350219848449 69.854158852729597 0 69.854158852729597 27.00964045424189 0 0 0 0 186.53332191667869 -33.133034275429964 0 -33.133034275429964 -104.446469929062 0 0 0 0 12.450906718317015 14.003261016566597 0 14.003261016566597 -0.50974439137085881 0 0 0 0 63.151101156588993 -55.149463705296512 0 -55.149463705296512 180.16010501101846 0 0 0 0 453.28203110408504 389.17418375514171 0 389.17418375514171 238.10984571534209 0 0 0 0 9.0286720259766966 36.476921537040369 0 36.476921537040369 -12.323730123212158 0 0 0 0 23.12026539137878 60.572722774537397 0 60.572722774537397 47.057423137986916 0 0 0 0 -12.610529785737665 40.674462035425819 0 40.674462035425819 29.387378774501826 0 0 0 0 12.275376670624439 20.276963312913495 0 20.276963312913495 -7.7370782753902887 0 0 0 0 86.642723011871567 57.631649438502791 0 57.631649438502791 -40.410190477188735 0 0 0 0 -1.0533096332360969 11.732975341136864 0 11.732975341136864 -4.8895394531309933 0 0 0 0 371.94974633737002 411.0030305981345 0 411.0030305981345 379.36209420215164 0 0 0 0 20.413452678610156 41.990586119464297 0 41.990586119464297 26.469136934771086 0 0 0 0 9.6472984174403109 8.6383631799615159 0 8.6383631799615159 -2.3685953023799584 0 0 0 0 86.654744293336989 73.871208762706374 0 73.871208762706374 283.49890845178743 0 0 0 0 477.20398859903798 469.85957747219072 0 469.85957747219072 138.67823326931102 0 0 0 0 -49.224492672918132 84.054185358676477 0 84.054185358676477 226.68732271285262 0 0 0 0 130.12521958528669 86.403726978358463 0 86.403726978358463 -194.62301548410323 0 0 0 0 109.66658345234464 7.1186920207255753 0 7.1186920207255753 97.115782071516151 0 0 0 0 489.54570578329731 235.84734127511911 0 235.84734127511911 272.18427966232412 0 0 0 0 72.520101782516576 21.81178974181239 0 21.81178974181239 241.84051556381746 0 0 0 0 137.07816674100468 288.73212650249479 0 288.73212650249479 533.02027695800643 0 0 0 0 213.19268745958107 263.19726032210747 0 263.19726032210747 307.60475701707765 0 0 0 0 137.0781667411793 288.73212650261121 0 288.73212650261121 533.02027695797733 0 0 0 0 137.07816674083006 288.73212650232017 0 288.73212650232017 533.02027695765719 0 0 0 0 151.78966358589241 445.30980747081048 0 445.30980747081048 575.11676902254112 0 0 0 0 16.187162282294594 155.59431414170467 0 155.59431414170467 95.684110531074111 0 0 0 0 -16.70268450270828 18.465539140530552 0 18.465539140530552 0.71604862020382143 0 0 0 0 -37.089723973034438 3.1455405227533504 0 3.1455405227533504 14.424498526805877 0 0 0 0 40.830574355670251 41.983468998339958 0 41.983468998339958 48.120988057407885 0 0 0 0 -31.74677496791719 42.169312965634902 0 42.169312965634902 23.895394957133647 0 0 0 0 232.01468786079204 354.23465637177287 0 354.23465637177287 462.27484457282117 0 0 0 0 70.076767655118601 151.13851717072248 0 151.13851717072248 336.99052880100498 0 0 0 0 -152.47174220712623 -13.565672729193466 0 -13.565672729193466 -39.436854728531216 0 0 0 0 -2.9927779033292836 2.9910850164241367 0 2.9910850164241367 -2.1323459072594346 0 0 0 0 485.83671670782496 88.376591655585798 0 88.376591655585798 -228.89991096983431 0 0 0 0 -148.8758296216256 -34.151172792713623 0 -34.151172792713623 13.999100850895047 0 0 0 0 193.17244966261205 428.01118671232689 0 428.01118671232689 522.46684810490115 0 0 0 0 62.137308222045249 -197.90292919940111 0 -197.90292919940111 -30.913309004477924 0 0 0 0 -4.6396058932925257 7.1160301402649964 0 7.1160301402649964 -7.4354265775794204 0 0 0 0 261.7365768141899 113.69542389543494 0 113.69542389543494 -29.113534520685789 0 0 0 0 -1287.7871249036398 648.42248260846827 0 648.42248260846827 697.20898017896252 0 0 0 0 138.31540805872646 39.405304717714898 0 39.405304717714898 -229.37602324685577 0 0 0 0 -564.66706545053239 226.35110781134063 0 226.35110781134063 -106.4162387131073 0 0 0 0 26.5842372510524 -19.032754519495938 0 -19.032754519495938 -517.06960875102232 0 0 0 0 290.52707801914221 439.19338167444766 0 439.19338167444766 -111.44419377857412 0 0 0 0 293.33436536030058 142.31769535163767 0 142.31769535163767 -51.5205780222459 0 0 0 0 167.84280668772408 -37.3321040544688 0 -37.3321040544688 -106.02103296432483 0 0 0 0 27.919319552707293 18.664583658904803 0 18.664583658904803 -89.156094372068765 0 0 0 0 -25.602366061400971 -160.85862520376395 0 -160.85862520376395 -85.50290868250886 0 0 0 0 187.56079791649245 -23.849835136345064 0 -23.849835136345064 -222.49000704947684 0 0 0 0 162.13539530918933 -0.068613308994827094 0 -0.068613308994827094 -71.114837348271976 0 0 0 0 -36.940615880070254 -86.261459039182228 0 -86.261459039182228 -125.31268429599731 0 0 0 0 -363.27134005214612 -207.07456338236807 0 -207.07456338236807 -161.00243093218887 0 0 0 0 120.33610951795345 127.47809665969362 0 127.47809665969362 -71.421600467816461 0 0 0 0 100.69609194900841 221.42373152278014 0 221.42373152278014 147.63706337647454 0 0 0 0 1.39051668244187 5.4210890044768121 0 5.4210890044768121 6.1723454519013785 0 0 0 0 -1.7013237018417158 12.319732003128308 0 12.319732003128308 -6.9243625421424895 0 0 0 0 274.44121221314708 289.83943308378366 0 289.83943308378366 148.20751116861356 0 0 0 0 291.69319541548612 178.95177013966168 0 178.95177013966168 -110.94253095546446 0 0 0 0 5.3279763185419142 38.265504210750805 0 38.265504210750805 -174.47675611366867 0 0 0 0 214.06028288783273 35.432262586822617 0 35.432262586822617 -69.563958997561713 0 0 0 0 158.27453016458458 98.39101207767817 0 98.39101207767817 47.497474114410579 0 0 0 0 177.98543163947761 108.68691157901776 0 108.68691157901776 39.269220610576667 0 0 0 0 -47.283813804962847 -27.649121110023771 0 -27.649121110023771 342.29373529503937 0 0 0 0 -13.953514947537712 6.997685428307193 0 6.997685428307193 21.842912732894092 0 0 0 0 186.65049777516106 107.91226533744339 0 107.91226533744339 37.766198051336687 0 0 0 0 177.67711786783184 92.852797229628777 0 92.852797229628777 47.738504036489758 0 0 0 0 167.80563600466849 105.72411122519043 0 105.72411122519043 46.447543418791611 0 0 0 0 100.54949724773178 66.637559793220134 0 66.637559793220134 35.884883760138109 0 0 0 0 15.122872153064236 25.229468571080361 0 25.229468571080361 63.925376048639009 0 0 0 0 121.63741341068817 40.621030857713777 0 40.621030857713777 65.857932888597134 0 0 0 0 81.623119395422691 -35.133200125717849 0 -35.133200125717849 6.2952641152951401 0 0 0 0 79.53411029453855 -54.077451651639421 0 -54.077451651639421 -14.544793636370741 0 0 0 0 22.829872861875629 -65.885870627833356 0 -65.885870627833356 58.250368126333342 0 0 0 0 5.9102593818147966 0.73816603545631665 0 0.73816603545631665 -1.7895804769326276 0 0 0 0 -84.72513375847484 -4.1665912527241744 0 -4.1665912527241744 111.52500161116768 0 0 0 0 -50.470343210705323 111.85043339159165 0 111.85043339159165 142.29521838609071 0 0 0 0 83.32006280196947 145.06463313515997 0 145.06463313515997 104.35412072137115 0 0 0 0 -31.734828048109193 6.5022631356259808 0 6.5022631356259808 177.16295441853072 0 0 0 0 -227.81945573243866 -184.17565777848358 0 -184.17565777848358 63.956808491027914 0 0 0 0 39.137583271454787 -82.94677047363075 0 -82.94677047363075 15.23930055404162 0 0 0 0 48.228758151904913 -64.136925761624298 0 -64.136925761624298 46.739784233745013 0 0 0 0 79.663701837998815 -59.67548288400576 0 -59.67548288400576 11.751907652243972 0 0 0 0 -225.51851855713176 -4.8266296378424158 0 -4.8266296378424158 308.75352782673144 0 0 0 0 2.2116680995541742 2.0056233326077404 0 2.0056233326077404 0.032077856996593823 0 0 0 0 27.644612377713202 82.517722004969983 0 82.517722004969983 351.83785900576186 0 0 0 0 -63.146679296842194 100.73920552919299 0 100.73920552919299 442.23128229111171 0 0 0 0 -23.322041571344016 79.991731982328929 0 79.991731982328929 376.17598871531663 0 0 0 0 -320.60612590601704 92.299914071839339 0 92.299914071839339 171.00525947200367 0 0 0 0 33.708383553457679 49.021615878758894 0 49.021615878758894 167.96558421148802 0 0 0 0 -238.80079886666499 196.1367885389991 0 196.1367885389991 357.77038047820679 0 0 0 0 101.39641745088738 340.53081559330167 0 340.53081559330167 53.416725840561412 0 0 0 0 -140.18819316750159 372.91622411130811 0 372.91622411130811 203.75761232496006 0 0 0 0 19.20058426707692 262.57871231342142 0 262.57871231342142 240.09366559688351 0 0 0 0 89.539191515294078 235.23757857543751 0 235.23757857543751 179.50036931494833 0 0 0 0 7.2097291715879059 13.894486529785723 0 13.894486529785723 -24.336607337735586 0 0 0 0 387.31030446698423 257.78936249889375 0 257.78936249889375 64.881599811509659 0 0 0 0 52.618651099386625 86.358024450397352 0 86.358024450397352 131.99736700559879 0 0 0 0 31.694799716675902 60.130056121378601 0 60.130056121378601 -13.126380797059831 0 0 0 0 8.9223367903837811 97.88356210203608 0 97.88356210203608 72.04734025592748 0 0 0 0 -230.27914654971391 28.961596947032376 0 28.961596947032376 110.82279266351543 0 0 0 0 -5.82507745905815 11.752869396993646 0 11.752869396993646 5.9977967114367772 0 0 0 0 -445.02767077743192 602.80885549950472 0 602.80885549950472 -746.40410579381205 0 0 0 0 -531.6417400241844 523.1815518749172 0 523.1815518749172 -386.94630140370282 0 0 0 0 -585.91077168660809 743.79943270172316 0 743.79943270172316 -367.55656457575969 0 0 0 0 86.065780582779553 42.475902913778555 0 42.475902913778555 71.164720852772007 0 0 0 0 -824.10923958630883 274.70999885911442 0 274.70999885911442 -10.255036969084813 0 0 0 0 -676.14137804339407 634.91788405497937 0 634.91788405497937 -19.190267377052805 0 0 0 0 90.998504210226201 415.14441962339833 0 415.14441962339833 -2.7660677488747751 0 0 0 0 483.65997271811648 760.28720688397152 0 760.28720688397152 -919.25150135601871 0 0 0 0 -1.1492372014215348 -0.28678639742787482 0 -0.28678639742787482 -8.1516984859981108 0 0 0 0 1197.3475748250785 1.4929153262637556 0 1.4929153262637556 -274.54082991813266 0 0 0 0 -1983.3985800157898 1035.2184088922804 0 1035.2184088922804 -325.34817822696641 0 0 0 0 -347.18545298652316 -57.617501747423375 0 -57.617501747423375 -422.88971202462562 0 0 0 0 -418.75989275149914 765.96169503999772 0 765.96169503999772 -923.94406759187405 0 0 0 0 168.12101881789931 953.62688045743016 0 953.62688045743016 -1020.7025673883327 0 0 0 0 171.64483311765071 912.91804476298421 0 912.91804476298421 -877.9104660719604 0 0 0 0 -607.2471577549195 672.57802713721276 0 672.57802713721276 -1270.498042491934 0 0 0 0 -748.22716186891194 -227.74508375070582 0 -227.74508375070582 -573.4605710142423 0 0 0 0 -587.18123372111586 -122.39774682591815 0 -122.39774682591815 24.462934259187023 0 0 0 0 -370.68470233796575 94.288468716826628 0 94.288468716826628 -312.79590236057993 0 0 0 0 -199.37708555457721 482.41552692914229 0 482.41552692914229 -296.06931532705494 0 0 0 0 -1255.2704188616917 639.35938010584869 0 639.35938010584869 -318.24217664165189 0 0 0 0 9.9393234612653032 180.25245953836566 0 180.25245953836566 137.35079110211154 0 0 0 0 
</DataArray>
<DataArray type="Float64" Name="cross_section_updated" format="ascii">
1 1 0.010005137836119241 1 1 1 1 1 1 1 1 1 1 1 1 1 1 1 1 1 1 1 1 1 1 1 1 1 1 1 1 1 1 1 1 1 1 1 1 1 0.010077651710252232 1 1 0.0097451954201286436 1 0.010979480052445111 0.0083372641353259558 1 1 1 1 0.0085415665359541981 1 0.0099671372597601587 3.5906773734883934e-09 1 1 1 0.019109615787568611 1 1 1 0.010664550426689963 1 1 1 1 1 1 1 1 1 1 0.0121127255719123 1 1 1 1 1 1 1 0.0084817053233631756 0.024188003746254676 1 1 0.012998092991138549 1 1 0.0095354688864031228 0.00022288327212328929 1 1 0.015035644998876163 1 1 1 1 1 1 1 1 1 1 1 1 1 0.0099272262351125518 1 1 1 1 1 1 1 0.022658947508633592 1 1 1 0.010950110916226947 1 1 1 1 0.01991931906519432 1 1 1 1 1 1 1 1 0.009946147206108015 1 1 0.015721991509557949 1 1 1 1 1 1 1 1 1 1 1 0.019081868030577848 1 1 0.0081914162395475137 1 1 1 1 1 1 1 1 1 1 1 1 1 1 1 0.01364537348666818 1 1 1 1 1 1 1 1 0.013007344097057817 1 1 1 0.018894059606811869 1 1 1 1 1 1 1 1 1 0.012592664550646129 1 1 1 1 1 1 0.0098211688542519313 1 1 1 1 1 1 1 0.013187116871877499 0.012751668227502101 1 1 1 1 1 0.018229360128759031 0.010604325322029567 0.00097112962330279939 0.010941204103991006 1 1 1 0.0099979162416952982 1 1 1 1.0437880716002157e-09 1 1 1 1 0.019096412588092054 1 1 1 0.0099573106354183746 1 0.00982583474279187 1 1 1 1 1 1 1 0.010048448255524513 1 1 1 1 1 1 0.010394509027029028 1 1 1 1 0.010046654260124417 1 1 0.011408559988237907 1 1 0.0006417628929128831 1 1 1 1 1 -1.7621405792866973e-09 1 1 1 1 1 0.00078995294765635271 1 1 1 0.015807191426531246 1 1 1 1 0.014011115355862268 1 1 1 1 1 1 1 1 1 1 1 1 1 1 6.3116062723467259e-10 1 1 0.00030368104012804334 1 0.0074785838089523049 0.020407022691661322 1 0.0087325563388185104 1 1 1 1 1 1 0.0021187990969356828 1 1 1 1 1 1 -9.1120775855269009e-11 1 0.013612483327245496 1 1 1 6.3960390456196947e-10 1 1 0.013148683658094872 0.010233723763937335 1 1 1 0.0075879287358540382 1 0.01271100142553306 1 0.0083593235404153185 1 1 1 1 2.4585613753180802e-10 1 1 1 0.014685187429957655 0.0007386213032406358 1 0.00611618292234202 1 1 1 0.0090697215225934089 1 1 0.0059302551274546637 1 1 1 1 1 1 1 1 1 1 1 1 1 1 1 1 1 0.0087441693628480602 1 1 1 1 1 1 1 0.013016371404664495 1 1 1 1 1 1 1 1 1 1 1 1 1 1 1 1 1 1 1 1 1 1 1 1 1 1 1 1 1 1 1 1 1 1 1 1 1 1 1 1 1 1 0.0015037760458498292 0.010461834825505341 1 0.006854513355142533 1 1 1 1 1 1 1 1 1 1 1 1 0.0107803728920631 1 1 1 1 1 1 1 0.011423840563443498 1 1 1 1 0.0013976722781901679 1 1 1 1 1 1 1 1 1 0.01358658478832727 1 1 1 1 1 1 1 3.3900636742245638e-09 1 1 1 1 1 1 4.102103039194116e-09 1 1 1 1 1 1 0.011174776690281052 1 0.016480849253175098 1 1 1 1 1 1 0.014743596989203293 1 1 1 1 0.0016429766063150858 1 1 0.0023504609977275277 1 1 1 1 1 1 1 0.01042710223220549 1 1 1 1 0.01995426596719841 1 0.00046193742509329644 0.0036452660252807162 1 1 1 0.0095982421561357292 0.016003215961870369 0.0067906149440541894 1 1 0.013255231889900567 1 0.014345814142991291 1 0.012653160443793374 0.0085277269926635531 1 1 1 0.013018026363966352 1 1 0.012194169613852779 1 1 1 1 1 1 1 1 1 1 1 1 1 0.010065515315627299 1 0.0096134119562719805 1 1 -7.679225692835967e-10 1 0.015668585357874909 1 0.0028403971839735514 1 1 1 1 0.0090795479909401774 1 1 1 1 1 1 1 1 1 1 1 1 1 0.0080020306231656721 1 1 1 0.0096316544198477086 1 0.010145122889371118 1 1 1 1 1 1 1 1 1 1 1 0.0063932208690051229 1 1 1 1 1 1 1 1 1 1 1 1 1 1 1 1 1 1 1 1 1 1 1 1 1 1 1 1 1 1 1 1 1 1 1 1 1 1 1 1 1 0.011939343623097454 1 1 1 1 1 1 0.011746870014263458 0.0099666668759470986 1 1 1 1 1 0.013255026751396275 1 1 1 1 1 1 1 1 1 1 1 0.012179891783854403 1 1 0.01083158588800974 1 1 1 1 1 1 1 1 1 1 1 1 1 1 1 1 1 1 1 1 1 1 1 1 1 1 1 1 1 1 1 1 1 1 1 1 1 1 1 1 1 1 1 0.0081533858823799304 1 0.010150438738596793 1 1 0.0096143705402884031 0.0075773879991224979 1 1 1 1 1 1 1 1 1 1 1 1 1 1 1 1 0.0069688784137080101 1 1 1 1 0.0092455564682647189 1 1 1 1 1 1 1 1 1 1 1 1 0.0097131998874627618 1 0.00818124922228761 0.017939524689989619 0.017596501761350802 1 1 1 1 0.0041298190612020294 0.0056508725825448955 0.014938350008473433 1 1 1 1 0.01000938776564049 1 1 0.0084610972122833583 1 1 1 1 1 1 1 1 1 1 1 1 1 1 1 1 1 1 1 1 0.0092934265832788181 1 1 1 1 1 1 0.0029995060809791321 1 1 1 1 0.0072788555169952598 1 1 1 1 1 1 1 1 1 1 1 1 1 1 1 1 1 1 1 1 0.010574090850090208 1 1 1 1 1 1 1 1 0.011829860421882027 1 1 1 0.0058160881412675659 1 1 0.016033674762599967 0.0082880136577728244 1 1 1 1 1 0.01705026890746849 1 1 1 0.0099798421318756728 0.017397753816656529 0.0073182946355849991 1 1 1 1 1 0.011108378693586557 1 1 1 1 1 1 1 1 1 1 1 1 1 1 0.0099386411019694188 1 1 1 1 1 1 1 1 1 1 1 1 1 1 1 1 1 1 0.0031407860189158008 1 1 1 1 1 1 1 1 1 1 1 1 1 1 1 0.010075587200206987 1 1 1 1 1 0.0040574757876000941 1 1 1 0.0051024256989376862 1 1 1 1 0.0096509943855212568 1 0.0093465178127652773 1 1 1 1 0.0096803236339702975 1 1 1 1 1 1 1 1 1 1 1 1 1 1 1 1 1 1 0.0050305048934431093 1 1 1 1 0.0045093652469566804 0.0096360868291884543 1 1 1 0.00025063796112590603 1 1 1 0.011727580372096834 1 1 1 1 1 1 1 1 0.010338387574982649 1 0.0018066472535512631 1 1 1 1 0.02596905296661392 1 1 1 1 1 1 1 0.0046910195988997825 1 1 1 1 1 1 1 1 1 1 1 1 1 1 1 0.028504741183650026 1 1 0.0098782017696232363 1 1 1 0.026931450101265859 1 1 1 1 1 1 0.0064243677198038834 0.0019138053583680256 1 1 0.0091014912803865644 1 1 1 1 1 0.00043835337307096024 0.0088223682487402963 1 1 1 1 1 1 1 1 0.008018915169822274 1 1 1 1 1 1 0.0097710796078187487 1 1 1 1 1 0.0036186413808306402 1 1 1 1 1 1 0.0027139498407730174 1 0.010054555277195329 1 1 0.022104024653632766 1 1 1 1 1 1 1 1 1 1 1 0.0071045094323524891 -3.8010407425737025e-09 1 1 -5.7388618514460366e-09 1 1 0.0091078876291707349 1 1 0.0089760730163055968 1 0.026716744757705215 1 1 1 1 1 0.017973317653091299 1 1 1 1 1 1 1 1 1 1 1 1 1 1 1 1 1 0.0080183679869742439 1 1 0.019145708356972047 1 1 0.0098341924553750071 1 1 1 1 1 0.018323358296437962 1 1 1 1 1 0.0025204750542044047 1 1 1 0.0071059756725430183 1 1 0.017712181529925486 1 1 1 1 0.015900620637488962 1 1 1 1 1 1 1 0.0098498187514688938 0.014526880513017655 1 1 1 1 0.01028529844241171 1 1 1 1 1 1 1 1 1 1 1 1 1 1 1 1 1 1 0.023264285936328427 1 1 1 1 1 1 1 0.0019652903532748935 1 1 1 1 0.020213760441238855 1 1 1 1 1 1 1 1 1 0.0069300516794956538 1 1 0.019298332026387789 1 1 1 1 1 0.010003447594717566 0.010048251407119499 0.0055027881510337634 0.0023819489996337873 1 0.01651013940479739 0.016174963154179378 1 1 1 0.014779832953540774 1 1 1 0.0186728270051311 1 0.015922114431043577 1 1 0.010305356856942255 1 1 1 0.011049034395980838 1 1 1 1 0.017482459765420719 1 0.005545510285323102 1 0.010048379074844217 1 1 0.01000195249167328 1 0.0083377091563878458 1 1 1 1 1 1 1 1 1 1 1 1 1 1 0.011107199787552167 1 1 1 0.009513798337964674 1 1 1 1 1 1 1 1 1 1 1 1 1 0.013496180240548848 1 1 1 1 1 1 1 1 1 1 1 0.010040425091060477 1 1 1 0.010081323206249486 1 1 1 1 1 1 1 1 1 1 1 1 1 1 1 1 1 1 1 1 1 1 1 1 1 1 1 1 0.0095498482049873133 1 1 1 1 1 0.01646680514260019 1 1 1 0.0094320211298017723 1 1 1 1 1 1 1 1 1 1 1 1 1 1 1 1 1 1 1 1 1 1 0.013503716609786144 1 1 1 1 0.022013805756760721 0.0097710720363011205 1 1 1 1 1 1 1 1 1 0.0077912819907417288 1 1 1 1 1 1 1 1 1 0.0018290398850844131 1 1 1 1 1 0.003971486611081286 1 1 0.015821333350115221 1 0.0064114116674359352 1 1 0.0034902567409234118 0.021629312433839955 1 0.021646060236993919 1 1 1 0.022075210752673553 1 1 0.019444776339775059 1 1 1 0.0097047964365510452 1 0.018747344760544824 1 1 1 1 1 1 1 1 1 1 0.0099960243217293507 1 1 1 1 1 1 1 1 1 1 1 1 1 1 1 1 1 1 1 1 1 1 0.010242351365133625 1 1 1 1 1 0.010395297857058186 1 1 1 1 1 -9.6198325533723705e-09 1 1 1 1 1 1 1 1 1 1 1 1 1 1 1 1 1 1 1 1 1 1 1 0.0096005125088347871 1 1 0.010401959462746441 1 1 1 1 1 1 1 1 1 1 1 1 1 -7.3146382943700683e-09 1 1 1 1 1 1 1 0.0090482169400803013 -9.9344013605728865e-09 -7.9533959800037746e-10 1 0.0098338446790871281 1 1 1 1 1 1 0.013394004635070405 1 0.0098895461512229985 0.010549020879255595 1 1 1 1 1 1 1 1 1 1 1 1 1 1 1 1 1 1 1 1 0.010263396071200864 0.012420298639640835 1 1 1 0.010169929638011338 0.014912221404522084 1 1 1 1 1 1 1 1 1 1 1 1 1 1 1 0.016366455208907938 1 1.3437142915712075e-08 1 1 1 0.010266063639122386 1 1 0.021224085310581609 1 1 1 1 1 1 0.0041761813571174963 1 0.0051752792031677305 1 1 1 1 1 1 1 1 1 1 0.0099988567667774371 1 1 1 1 1 1 1 1 1 0.0114657674042212 0.011320986061413397 1 1 1 1 1 1 1 0.01392072976433043 0.0094054368232879531 1 1 1 0.00712562917013837 1 9.1401063662122084e-09 1 1 1 1 1 0.0095630806289404985 1 0.0016291975731031819 1 1 0.010035565900431209 1 1 1 1 1 1 1 0.008422852450320064 1 1 0.0053456517788724456 1 1 1 1 1 1 1 1 -2.6183256049416848e-09 1 1 1 1 1 1 0.0033084749578652407 1 1 1 1 1 0.0097212157264096166 1 1 1 1 1 0.0044866665755422877 1 1 1 1 0.019210701656205569 1 1 1 1 0.01577449404748547 0.019076267249258212 0.0073826501353050702 1 1 0.024453171784816222 1 0.0099255574579086916 1 1 1 1 1 1 1 1 1 0.0047809041093707857 1 1 1 0.0089828705934133085 1 1 1 -1.8241513317224234e-09 0.0079694035876906426 1 1 1 0.010681853466654158 1 1 1 1 1 1 1 1 1 1 1 1 1 1 1 1 0.009353138455344712 1 1 1 1 1 1 1 1 1 1 1 1 1 1 1 1 1 1 1 1 1 1 1 0.010005246733055119 1 1 1 0.010060734560874904 1 1 1 1 1 1 1 1 1 1 1 1 0.01129262674997273 1 1 0.0076610289309732137 1 1 1 1 1 1 1 1 1 1 1 1 1 1 1 1 1 1 1 1 1 1 1 1 1 1 1 1 1 1 1 1 1 1 1 1 1 1 0.009393809384771851 1 1 1 1 1 1 1 1 0.01013676402500472 1 1 1 1 1 1 1 1 1 1 1 1 1 1 1 1 1 1 1 1 1 0.011517851139681498 1 1 1 0.0093183102432795942 1 1 1 0.0096679589851636494 0.010729894629025703 1 1 1 1 1 1 1 1 1 1 1 1 1 1 1 1 1 1 1 1 0.011873959305364612 1 1 1 1 1 1 1 1 0.027078041063263829 1 1 1 0.009663428838260827 1 1 1 1 0.025056127116656945 1 -8.8914737308987135e-09 1 1 0.0099837581310904637 1 1 1 0.0087227379048533671 1 0.012530430310511568 1 0.010972913919895163 1 1 1 1 1 1 1 1 1 1 1 0.010918782102748076 1 1 0.0096503512581159502 1 1 1 1 1 1 1 0.009944512172180224 1 1 1 1 1 1 1 1 1 1 1 1 1 1 1 1 1 1 1 1 1 1 1 1 1 1 1 1 1 1 0.0098588460913405611 1 1 1 0.022241966203514568 1 1 1 1 1 1 1 0.0064653181114556757 1 1 1 1 0.0086228018087066722 1 1 1 1 0.033530179495915899 1 0.032173793930579619 1 1 1 1 1 1 0.0093326409291444191 0.015541302004289966 1 1 1 1 1 1 0.011447161823881533 1 1 1 1 1 1 1 1 1 1 1 0.011581499282128217 1 1 1 1 0.010292627211342576 1 1 1 0.010974583154691214 1 1 1 1 1 1 1 1 1 1 1 1 1 1 1 1 1 1 1 1 1 1 1 1 1 1 1 1 1 1 1 1 1 1 1 0.011529545131251151 1 1 1 1 1 1 1 1 1 1 1 1 1 1 1 1 1 1 1 1 1 0.015037828619610158 1 1 1 1 1 1 1 1 1 1 1 1 1 1 0.0095628101347372419 1 1 1 1 1 1 1 1 1 1 1 1 1 1 1 1 0.0068386503935147693 1 1 0.010161572761838801 1 1 1 1 1 1 1 1 1 1 0.011189107547095171 1 0.0037220266198233418 0.008649660883249902 0.010673421518522368 1 1 0.01538073949309489 0.0099597730342287846 1 1 0.01768671908309858 1 1 1 0.0099499961020245893 1 1 1 1 1 1 1 1 0.012441806374112303 1 1 1 1 1 0.018434717779525225 1 1 1 1 0.023036105123779241 1 0.007129517968592472 1 1 0.0099410409800798922 0.011958451574516096 0.009649033744656095 1 1 1 1 1 1 1 1 1 1 1 1 1 1 1 1 1 1 1 0.02507522415366685 1 1 1 0.010075437499027666 1 1 0.0080853809509523825 1 1 0.016010465623728428 1 1 0.015750307738782908 1 1 1 0.0074035788953063821 1 1 1 0.010125454517018039 1 1 1 1 1 1 1 1 1 0.010212943357193098 1 1 1 1 1 1 1 1 1 1 1 1 1 1 1 1 1 1 1 1 1 1 0.0096616395144642278 1 1 1 1 1 1 1 1 1 1 1 1 1 1 1 1 1 1 1 1 1 1 1 0.014457029942112738 1 0.011793013633289502 0.0013774601048438216 1 0.0149621488731198 1 1 1 1 0.011299565701744251 1 1 1 1 1 1 1 0.016673498550961022 0.010774289006986792 1 1 1 1 1 1 1 1 1 0.010565805393228156 1 1 1 0.011270590373464499 1 1 1 0.010156433659786711 1 1 1 1 1 1 1 1 1 1 1 1 1 1 1 1 1 1 1 1 1 1 1 1 1 1 1 1 1 1 1 1 1 1 1 1 1 1 1 1 1 1 0.0083303392407148777 1 1 1 1 1 0.0054390591918695441 1 1 1 1 1 1 1 1 1 1 1 1 1 1 1 1 0.0096449222345737842 0.0089710825642431713 1 0.012078314139849979 1 1 1 1 0.014309130415620881 1 0.0099812612736070137 1 1 1 1 1 1 1 1 1 1 0.008353044731279978 1 1 1 1 6.6682463370493217e-09 1 1 1 1 1 1 1 1 0.0083767969292193531 1 1 1 0.009506446769852378 1 1 1 1 1 1 1 1 0.009765105771647388 1 1 0.0094758412096313666 1 1 1 1 1 1 1 1 1 1 1 1 1 1 1 0.010800002156842842 1 0.0036143495108656026 1 1 1 1 0.01003914241116468 1 1 1 1 1 0.0063522148278081295 1 0.011778021790370449 1 1 1 1 1 1 1 1 1 1 1 1 1 1 1 1 1 1 1 1 1 1 1 1 1 1 1 1 1 1 0.012296043913632197 1 1 1 1 1 1 0.00074347125811828445 1 1 0.011747408902374301 0.00086536361654044811 1 1 1 1 1 1 0.011721459518110391 1 0.0027429546094673574 1 1 1 0.01861609695083918 1 1 1 1 1 1 1 -2.3612217008028846e-09 1 1 2.110621243750499e-09 1 1 1 1 1 1 0.0061674452052314852 1 1 1 1 1 1 1 1 1 1 0.017403987361779595 1 1 0.0064386765671802168 1 1 0.0085959496974614205 1 1 1 1 1 1 1 1 1 1 1 0.011071024853503329 1 1 1 1 1 1 1 1 1 1 1 1 1 1 1 0.01420983368512841 1 1 0.0010590490990492959 1 1 0.010021879409759286 1 0.0041176056224449947 1 1 1 1 1 1 1 1 1 0.0047874826915109726 0.011090957051524859 1 1 1 1 1 1 1 1 0.0082797692836297163 1 1 1 1 1 1 0.0041090433723948074 0.010633742441989877 1 1 0.0098850265286033936 1 1 1 1 1 1.3609697414179722e-09 1 1 0.0077582887910843095 1 0.0058921812469286666 1 1 0.0097854356531515384 1 1 1 0.0099149224762283827 1 1 1 0.010008788977593535 1 1 1 1 1 0.0089786858296048381 1 1 1 0.011861398950919602 1 1 1 0.010530675042429272 1 1 0.012394120242289537 0.00056211538575227059 1 1 0.010029784224723649 1 1 1 1 1 1 1 1 1 1.1226100188332921e-09 1 1 1 1 1 1 1 1 1 1 1 1 1 1 1 1 1 1 1 1 1 0.018098870220500683 1 1 0.018941837236814987 1 1 1 1 1 1 0.0088378962566887306 1 1 1 1 1 1 1 1 1 1 2.6925759257386689e-05 1 1 1 0.020905094128004634 1 1 1 1 3.3065996607462012e-09 0.009969230450061501 1 1 1 0.01743982812716649 1 1 1 1 1 1 1 0.0099878045057730097 1 1 1 1 1 1 0.0045815170216754741 1 1 1 0.0082564990836979033 1 1 1 1 1 1 1 1 1 1 1 1 1 2.1661116242702172e-09 0.0097022909388096157 1 1 1 0.0099099435202401297 1 1 1 1 0.017903134775025996 1 1 1 1 1 1 1 1 1 1 1 1 1 1 0.006127839044405373 1 1 1 1 1 1 0.010024781363949513 1 1 0.00010293420250574725 1 1 1 1 0.010104094705723224 1 1 1 1 0.0070476331703568712 1 1 1 1 0.00994554192141563 0.00062805599959757201 1 1 1 1 1 1 1 1 0.0020594138464937461 1 0.0082969193915191017 1 1 0.012007758532487785 1 1 1 0.01198818033404573 0.0043510476014324943 0.011711084805422777 0.0091645794419973614 1 1 1 1 1 1 0.0010420236258621273 1 1 0.012982729671532281 1 1 1 1 1 1 0.0008129543053816482 1 1 1 0.01458517497924567 1 0.013998234336897583 1 1 1 0.0099196515725443676 1 0.00020551999462698617 1 1 0.010716652975668588 0.0098928634131690979 1 1 1 1 1 0.0027873208741834021 1 1 1 1 0.0075391348276178591 1 1 1 1 0.010367731458030487 1 1 1 0.0050941511850418134 1 0.0035332924037871777 0.0021606432940329892 1 1 1 1 1 1 1 0.0099731156231319534 1 1 1 1 0.0062779560439593721 0.011913035126863286 1 0.0061998349095635508 1 0.010000258880327212 0.0025718867119009295 0.0049791752274306114 1 1 1 1 0.0095153972302040174 1 1 0.0092758388232081837 1 0.0097805703401796437 1 1 0.01209870701669051 1 1 1 1 1 1 1 0.014323860611665178 1 1 0.016599435157513186 1 1 1 1 1 1 1 1 1 0.0037619452410749335 1 1 1 1 1 0.015371345499573211 1 0.0088586100620226468 1 0.0045753788474986942 1 1 0.012468916548530287 1 1 1 0.0060183573842913299 1 1 1 0.010755657159199086 1 1 1 0.0091442051134158001 1 1 1 1 1 0.0099230710688565094 1 1 1 1 1 0.0095738983256004311 1 1 0.012970562107806637 0.0099787558806816341 1 1 0.01682887642423854 1 1 1 0.0099397802230640486 1 1 1 1 1 1 0.0086736999099147546 0.011802648716395246 1 0.0099130975849064801 1 1 0.010006231919593732 1 1 1 0.010699918706117462 1 1 1 1 1 1 1 1 1 1 1 1 1 1 1 1 1 1 0.012924999660026481 1 1 1 0.0098409534274345178 1 1 1 1 1 0.010112205069650382 1 1 1 1 1 1 1 1 1 1 1 1 1 0.009719807862882077 1 1 1 1 1 1 1 1 1 1 1 1 1 1 1 1 1 1 1 1 0.0073542460842901808 1 1 1 1 1 1 0.0031999266686113872 1 1 1 1 1 1 1 1 1 1 1 1 1 1 0.011387542790567811 1 1 1 1 1 0.010533062390639716 1 1 1 1 1 1 1 1 1 1 1 1 1 1 1 1 1 0.011079410096265693 1 1 1 0.010426914056956215 1 1 1 1 1 1 1 1 1 1 1 1 1 1 1 1 1 1 1 1 1 1 1 1 1 1 1 1 0.0099515429597453881 1 1 0.0099809833366681869 1 0.0065638754196843535 0.0099943272778989407 1 1 1 0.0010683596741780099 1 1 1 1 1 1 1 1 1 1 1 1 1 1 1 1 0.0091165995200622896 1 0.0052614662045626405 1 1 1 1 1 1 0.011904322414301845 1 1 1 1 1 1 1 1 1 1 0.010997427813557011 1 1 0.0055479741787172465 1 0.01530902891119109 0.010533224398277197 1 1 1 0.019440512398660757 1 1 1 1 1 1 1 0.012578873506952843 1 1 1 1 1 0.01105124757143303 1 0.0095965526987795095 1 0.0007936525334860875 1 0.0097879195789406376 1 1 1 1 1 1 1 0.0021359962391903475 1 1 1 1 1 1 0.0037778367521638274 1 1 0.0085273150039761464 1 1 1 0.0057114443300571756 1 1 1 1 1 1 0.010408466696940597 1 1 1 1 1 1 1 0.0034386451627287165 1 1 0.010581578211092112 0.0080192307281290488 1 1 0.010191518283443213 0.021119981896548148 1 1 0.011094676761544523 1 1 1 1 1 1 1 1 1 0.014860280132443964 0.01295660650291873 1 0.011261609159897991 1 1 0.012731161292122805 1 0.0099647993267246281 1 1 1 1 1 1 1 1 1 1 1 1 1 1 1 0.006144507550789248 1 1 1 1 1 1 1 1 1 0.011764471524671763 0.0066628811176547703 1 0.010379567897547869 1 0.010344700901765969 0.0097408047427925727 1 1 1 1 0.0032192446011028164 1 0.0066425467282047301 1 1 0.0088937558590697664 1 1 1 1 0.011572338804586772 0.0078436074558084247 0.007804172071647626 0.009499853751980385 1 1 0.0080872771207579283 0.010056583165409605 1 1 0.0091288591103499284 1 0.009282226752708617 0.0091191885016177459 1 1 0.010574031348186876 1 0.0051628022595088009 1 1 1 0.0078433320729338028 1 1 0.01004766458584613 0.00419949906697498 1 1 1 1 1 1 1 1 1 1 1 1 0.010041629289975516 1 1 1 1 0.0098099776005183062 1 1 0.0088792469339870721 1 1 0.0058933894788416206 1 0.010193417530445295 1 1 0.0079666304972149087 0.010662135733755391 1 1 0.0097726344646425975 1 1 0.0097717952890448122 1 1 1 0.016002849036176423 1 1 1 1 1 1 1 1 1 0.016086363541761711 1 1 1 1 1 0.01470562937667735 1 0.0086780100010347607 1 1 0.015547611412125212 1 1 1 0.0096321362445838232 1 1 1 1 0.018266096363388794 1 0.010006870865851772 0.00053239680784468099 1 1 1 1 1 1 1 1 1 1 1 1 1 0.008989276242175534 1 1 1 1 1 1 1 1 1 1 1 -3.3898113309394073e-09 1 1 1 1 0.013702224832165585 0.01677969121129709 1 1 0.0099439657177130929 1 1 0.0015699686235064424 1 1 0.0072196122252079359 1 1 1 0.016001301744557189 1 0.0099872046462575192 1 0.0018301490172535836 0.011173483913790271 1 1 1 1 0.010045142218639029 1 0.0095641938983210464 1 1 1 1 1 1 1 0.0019778797954137853 1 1 1 1 0.0015981103090435267 -4.224765051685786e-10 1 1 0.0047978897313927238 1 0.0090261963603353364 0.010028559924368338 1 1 1 1 1 1 1 1 1 1 1 1 1 0.0060302919373597975 1 1 0.0097671892283499977 1 1 1 1 1 1 1 1 1 1 1 1 1 1 1 1 1 1 1 0.0064071594824450032 1 0.0061658946133040654 1 1 1 0.016224276037389317 1 0.0078226877042608389 1 0.0099880977964540499 1 1 1 1 1 1 1 1 1 1 1 1 1 1 0.0098842491645563732 1 1 1 0.007992834061276384 1 1 0.0079790004413051174 1 1 0.0089700133629751488 1 1 1 1 1 1 1 1 1 1 1 1 1 0.011210695804458923 1 1 0.014174790559281301 1 1 1 1 1 1 1 0.012493121830109019 1 1 1 1 0.010559492091128067 1 1 0.0099495082957306441 1 0.012174999788420911 1 1 1 1 1 0.013522734692562051 1 1 1 1 0.010047443149508541 1 1 1 0.016791602658488364 1 1 0.014248826769932547 1 1 1 1 0.0087625005816795234 1 1 1 1 1 1 1 0.01000526373266937 1 1 1 1 1 1 1 1 1 1 1 1 1 0.011556442352608033 1 1 1 1 1 1 1 1 1 1 1 1 1 1 1 1 1 0.015954880968130553 1 1 1 1 0.012265997365570672 1 1 1 1 1 1 1 1 0.012120116160499093 1 1 1 1 1 1 1 1 1 1 1 1 1 1 1 1 1 1 1 1 1 1 1 1 1 1 1 1 1 1 1 1 1 1 1 1 0.027383495400263861 1 1 1 1 1 1 1 1 1 1 1 1 1 1 1 1 1 0.011383976867223686 1 1 1 1 0.012316075508926175 1 0.011123434636965995 1 1 1 1 1 1 1 1 1 1 0.013208208420400692 1 0.0099150447953406315 1 1 1 1 1 0.01135480052976974 1 1 1 0.013629302452175647 1 0.0056258862150062733 1 0.025478159878921172 1 1 1 1 1 1 1 1 1 1 1 1 1 1 1 1 1 0.0083064923737711446 1 1 1 1 1 1 1 0.0099976385316930122 0.01202823869605661 1 1 1 0.0097836636864860535 0.010009580976326163 1 0.0097196210548493572 1 1 1 1 0.0079882491944028231 1 1 1 0.010027578586282667 0.009288501216269833 1 1 1 1 1 1 1 1 1 1 1 0.010416146962626507 1 1 0.010742055866332964 1 1 0.00064779184642559801 1 1 1 1 1 1 0.0010716420862190434 1 1 1 1 1 1 1 1 1 1 1 1 1 1 1 1 1 1 1 1 -1.6131414815045986e-09 1 1 0.028946873802614282 1 1 1 0.03058684305179539 0.0078687993976688866 1 1 1 0.010038295559694004 1 1 1 0.0079669383443062361 1 1 1 1 0.009755810736861617 1 1 1 1 1 1 1 1 1 1 1 1 1 1 1 1 0.0037557163611425456 1 0.029859882248818491 1 1 1 1 1 1 1 1 1 0.031434043455851393 1 1 -1.1628995544299414e-09 1 1 1 1 -7.923233388829054e-10 1 1 1 1 1 0.01108699841905493 1 1 1 1 1 1 1 1 1 1 1 1 1 1 0.026474504056218533 1 1 1 1 1 0.020298738794375965 1 1 1 0.0035775736315758547 1 1 0.0010511284448099303 1 1 0.0054757563936168839 1 1 1 1 1 1 1 1 1 0.0010933030431056687 1 1 1 1 0.0023321688544061733 0.0099349141651327091 1 1 1 0.0079838063835681178 1 0.0081731051307962696 1 1 1 1 1 1 1 1 1 1 1 1 1 1 1 1 1 0.02484245513888525 1 0.0095950250213052701 1 1 9.8273794484071697e-10 1 1 1 2.8611750052531804e-09 1 1 0.0052965433611131645 1 1 1 1 1 1 1 0.0036304153535507838 1 1 1 1 1 1 1 1 1 1 1 1 0.0063918313896604989 1 1 1 1 1 0.0098905642747301164 1 1 0.022638651482783101 1 1 1 0.01826857638118573 1 1 0.015223442250806976 1 1 0.0093144386099707627 1 0.014318373818850649 1 0.0087177083702177083 1 1 1 1 0.013758105765350082 0.0035020704542737258 1 1 1 1 1 1 1 1 1 1 0.0091529711744442674 1 1 1 0.011313262038746698 1 0.012581517455920489 1 1 1 0.0094620774972176136 1 1 1 0.010620425444851485 1 1 0.0096916405473928477 0.009173102645368858 1 1 1 1 1 1 1 1 1 1 1 0.014417161844867847 1 1 1 0.0099077105811306229 0.017197237605168045 1 1 0.007611222671120639 1 1 1 1 1 0.021671469845318363 0.010003396017993119 1 1 1 1 1 1 1 1 0.02138130720280617 1 1 0.022005542127611029 1 1 1 0.01529414542441513 1 1 1 1 1 1 1 1 1 0.019216034435346425 1 1 1 0.0096485014037710135 1 1 1 1 0.0090271952298196095 1 1 1 1 1 1 1 0.0097489250265506422 1 1 1 1 1 0.0070843318411972916 1 1 1 1 1 1 1 1 1 1 1 1 1 1 1 1 1 0.0079622130092253524 1 1 1 1 1 1 0.0092473649906563635 1 1 1 1 1 1 1 1 1 1 1 1 1 1 1 1 1 1 1 1 1 1 1 0.015010841184257218 1 0.011217551967233765 1 1 1 1 1 1 1 1 1 0.012092400964868272 1 1 1 0.010793915440818723 1 1 1 1 1 1 1 1 1 1 1 1 1 1 1 1 1 1 1 1 1 1 1 1 1 1 1 1 1 0.01129717227599536 1 1 1 1 1 1 1 1 1 0.0078350252892691388 1 1 1 1 1 1 1 1 1 1 1 1 1 1 1 1 1 1 1 1 1 1 1 1 0.0097794564222990418 0.013514125753786219 1 1 1 1 1 1 1 1 1 1 0.0094017787016004509 1 1 1 1 1 0.0055597035519399721 1 1 1 0.017140752224333179 1 1 0.0012576733043306101 1 1 1 1 1 0.013009982214015696 1 1 1 1 1 1 0.0019762424741759446 1 1 1.4902733838639826e-09 1 1 1.3391606712431781e-09 1 0.010073397032123583 1 1 0.022209655907074348 0.0041807574370702552 1 1 0.0050888968094467205 0.0056892728088498677 1 0.0057237187012803489 1 1 1 1 1 1 0.0038815817409582135 1 1 1 1 1 0.010024994730495965 1 0.014622011970333566 1 1 0.013074399762667667 0.0097693195292922787 1 1 1 1 1 1 1 1 1 1 1 1 1 0.010254658039699969 1 0.0098937403702353752 1 1 1 1 1 1 1 1 1 1 1 1 1 1 1 1 1 1 1 1 2.8516139588541378e-09 0.011582079193419637 1 1 1 1 1 1 1 1 1 1 0.010992723681556451 1 1 1 1 1 1 1 1 1 0.0073599913049487778 1 1 1 0.0027744713305243515 1 1 -4.1773810799394795e-10 1 0.0071193182905442149 1 1 1 0.0080560512839206143 1 1 0.0058669838524525383 1 1 1 1 1 1 1 1 1 1 1 1 1 1 1 1 1 1 1 1 1 6.0128192702624261e-10 1 1 1 1 1 1 1 1 1 1 1 1 1 1 1 1 0.0091359232030889248 1 1 1 1 1 1 1 1 0.0091867949385675655 1 1 1 1 1 1 1 1 1 0.0035579694399830754 1 1 1 1 1 1 0.0024455692540011585 1 0.0077825000691689791 1 1 1 1 1 1 1 1 1 1 1 0.0083349390615917538 1 0.0049754904389471069 1 1 0.020374388053262745 0.0015278214408758692 1 1 1 1 1 0.018754062151955964 1 1 1 1 1 1 1 1 0.020693588848457515 1 1 0.0068185274954966537 1 1 1 1 1 -2.0419079448108501e-10 1 1 1 1 1 1 1 1 1 0.0047654561265738742 1 1 0.019986715597719792 2.4221346684364861e-05 1 1 1 1 0.017756516030853087 1 1 1 1 1 1 1 1 1 1 1 1 1 0.0081601290748403929 1 1 1 1 4.9331950850717288e-09 1 1 0.0064232256578382278 1 1 1 1 0.00014375087729782271 1 1 1 1 1 5.1800666525311789e-09 1 1 1 1 0.0095267445910313317 1 1 0.0064829958742907284 1 1 1 1 1 0.0049741281334151483 0.0087841673849076759 1 1 1 1 0.0069042482316098337 0.0015658563216466997 1 1 0.010085025671618671 1 1 1 1 1 1 1 1 1 0.0091114563716522406 1 1 1 1 1 1 1 1 1 1 1 1 1 1 1 1 1 1 0.0040626443697838674 1 1 1 1 1 1 0.011273153884885393 1 1 1 0.0093954871731885149 1 1 1 1 1 1 1 0.0016457461216453084 1 1 0.0036330596573157029 1 1 1 1 1 1 1 1 1 1 1 1 1 1 1 0.0073085073547918475 1 1 0.010821963122694206 1 1 1 0.0055291912990272779 1 1 0.01006557359960809 0.0035743790990914806 1 1 1 1 1 1 0.0057399992891403739 1 1 1 1 1 1 1 1 1 1 1 1 1 1 0.0039693180550534959 1 1 1 1 1 1 0.0082505294903861062 1 1 1 1 0.0091390731187338467 1 1 1 1 1 1 1 1 1 1 1 1 1 1 1 1 1 1 1 1 1 1 1 1 1 1 1 1 1 1 1 1 0.01041761867691525 1 1 1 1 0.01512436133362631 1 1 0.010133824506101549 1 0.018710218204448417 1 1 0.016405886334124126 1 1 1 1 1 0.011459315939665322 1 1 1 1 1 1 1 1 1 1 1 1 1 0.0073849782427110721 1 1 1 1 1 0.0085964004278380815 1 0.010151722953404756 1 1 1 1 1 1 1 1 1 1 1 1 0.0056502164479730055 0.01302238767233168 1 0.010108370770301654 1 1 1 1 0.0034612145819116584 1 1 1 0.0090356942393318568 1 1 1 1 0.0097373688888108059 1 1 1 1 1 0.0082199557094778837 1 0.0092553590976184458 1 1 1 1 1 1 1 1 1 1 1 1 1 1 1 1 1 1 1 1 0.0079338407530875725 1 1 1 1 1 1 1 1 1 0.0095820738512549068 1 1 1 1 1 1 1 1 1 1 1 1 0.010006934409062158 1 1 1 1 1 0.011371003291926758 0.012629160825990599 1 1 1 1 1 0.0066210433339322465 1 0.013712273735132112 1 1 1 1 1 1 1 1 0.0084046435708974715 1 1 0.011907991996448332 1 1 1 0.010532893223937231 1 1 1 1 1 1 1 1 1 1 1 1 1 1 1 1 1 1 1 1 1 1 0.009516269877658589 1 1 1 1 0.013468656249145786 1 1 1 1 0.0096549595660234567 1 1 1 1 1 1 1 1 1 1 1 0.011845965303344736 1 1 1 1 1 1 1 1 1 1 1 1 1 1 1 1 1 1 1 1 1 1 1 1 1 1 1 0.0067710364581393687 1 1 0.0081703342500674802 1 1 1 1 1 1 1 1 1 1 1 1 1 1 1 1 0.0099470193021854204 1 0.0080467112205739183 1 1 1 1 1 0.008027363608296062 1 1 1 0.0058668761720923682 1 1 1 0.012472807666111493 1 1 1 1 0.0087686834964413735 0.0086117930285426938 1 1 1 0.005336129753898201 1 0.016472461942801515 0.0076985878158014297 1 1 1 1 1 1 0.0076586662998397378 1 1 1 1 0.01323570968968992 1 1 0.0089295235430983111 1 1 1 1 0.010920752301213379 1 1 0.0065091383974874902 1 1 0.01255311476115035 1 1 1 1 1 1 0.012903599718423231 1 1 0.0099546992988917473 0.010676495653646336 1 0.010049946765499269 1 1 1 1 1 1 0.013872809351230062 0.0097850035477782711 0.012030186790764848 1 0.0092881951877112241 0.013296806651243727 1 1 1 1 1 1 1 1 1 1 1 1 1 1 1 1 1 1 1 1 1 1 1 1 1 1 1 1 1 1 1 1 1 1 1 0.011345972605366602 1 1 1 0.0055252585511176931 1 1 1 1 1 1 1 1 1 1 1 1 1 1 1 0.0082062340402218759 1 1 1 1 1 1 1 1 1 1 1 0.0038383830530614813 1 1 0.0062552437988159706 1 0.010260228720293984 1 1 1 1 1 0.0076590727830111536 1 1 1 1 0.018242316149796385 1 1 1 0.0014543881463773816 1 1 1 1 1 1 1 1 1 1 1 1 1 1 1 1 1 1 1 1 1 1 1 1 1 1 1 1 1 1 0.010388931085374033 1 1 1 1 1 1 1 1 1 1 1 1 1 1 1 1 1 1 1 1 1 1 1 1 1 1 1 0.0098843940345100523 1 1 1 1 0.0096799497183344373 1 1 0.0098665247702412664 1 1 1 1 1 1 1 1 1 1 0.013564911796312912 1 1 1 1 1 1 0.010692179547695885 1 0.0043578814489427303 1 0.0051164570076776741 1 1 1 1 1 1 1 1 1 1 1 1 1 1 1 1 1 1 1 1 0.0036634025355955328 1 0.011576726146769831 1 1 1 1 1 1 1 1 9.8781123229058077e-09 1 1 1 1 0.01029745001719492 1 0.010169317028058344 1 1 1 1 0.0083225180878249757 1 1 1 1 1 1 1 1 1 1 1 1 1 1 1 0.015000820012512005 1 1 1 1 1 1 0.010070969086416881 1 1 1 1 1 1 1 1 1 1 1 1 1 1 1 1 1 1 1 1 1 1 1 1 1 1 1 1 1 1 1 0.0099907158130546 0.010628367967501429 1 1 1 1 1 1 1 1 1 1 1 1 0.0082079272531686131 1 0.0097391113288438878 1 1 1 1 1 1 1 0.012828734476123455 1 1 1 1 1 1 1 1 1 1 1 1 1 1 1 1 1 1 1 0.0064087787000464396 1 1 1 1 1 1 1 1 1 1 1 1 1 1 1 1 1 1 1 1 1 1 1 1 1 1 1 1 1 1 1 1 1 1 1 1 1 1 1 1 1 1 1 1 1 1 1 1 1 1 1 1 1 1 1 1 1 1 1 1 1 1 1 1 1 1 1 1 1 1 1 1 1 1 1 1 1 1 1 1 1 1 1 1 1 1 1 1 1 1 1 1 1 1 1 1 1 1 1 1 1 1 1 1 1 1 1 1 1 1 1 0.010850854998139634 1 1 0.01900157829917103 1 1 1 1 1 1 1 1 1 1 1 1 1 1 1 1 1 1 1 1 1 1 1 1 1 1 1 1 1 1 1 1 1 1 1 1 1 1 1 1 1 1 0.0082273144181566702 0.0097078654059231453 1 1 1 1 1 1 1 1 0.0067420720055083698 1 1 1 1 1 1 1 1 1 1 1 1 1 0.011023771542416754 1 1 1 1 0.0095047710424953462 1 1 1 1 1 1 1 1 1 1 1 1 1 1 1 1 1 1 1 1 1 1 0.011266872082798004 0.0083280442316847753 1 1 1 1 1 1 1 1 1 1 1 0.010536914728801344 1 1 1 1 1 1 1 1 1 1 1 1 1 0.013837985929854437 1 1 1 1 1 1 1 1 1 1 1 1 1 1 1 1 1 1 0.0096727684725029482 1 0.0069973699466265131 1 1 1 1 1 1 1 1 1 1 1 1 1 1 1 1 1 1 0.0093633746578745299 1 1 1 1 0.0075277791556373451 1 1 1 1 1 1 1 1 1 1 0.012765101883937945 1 1 1 1 1 1 0.0031262222589107259 1 1 1 1 1 1 0.012854729447872425 1 0.0098872025345369732 1 1 0.0057355955326512968 1 1 1 1 0.010103758165157115 1 1 1 1 1 1 1 1 1 1 1 1 1 1 1 0.0094931961025890611 0.00059262515862358979 1 1 1 0.0073720104160663099 1 0.0095452075086907857 0.010002678051556697 1 1 1 0.00028899363454832879 1 1 1 1 1 1 1 1 0.0098369673411662795 1 1 1 1 1 1 -9.880091404734781e-09 1 1 1 1 1 1 1 1 1 1 1 1 1 1 1 1 1 1 1 1 1 0.0033185121410332797 6.5323747383549957e-09 1 1 1 0.0099821309225640621 1 0.0052768790392666853 1 1 1 0.00091018830886180346 1 0.0052549685461814738 0.011581817359627173 1 0.016506311814389454 1 1 1 0.0098064346694303611 1 1 1 1 1 1 1 1 -1.0080684620383806e-09 1 1 1 1 1 1 1 -1.4806270189071657e-08 0.0098378850547326587 1 1 0.010301752183996949 -4.0216147634275501e-09 1 1 1 1 1 1 1 1 1 1 1 1 1 1 1 1 1 1 1 1 1 1 1 1 1 1 1 1 1 1 1 1 1 1 1 1 1 1 1 1 1 1 1 1 1 1 1 1 1 1 1 1 1 1 1 1 1 1 1 1 1 0.0074927394244111468 0.0017362893419466466 1 1 1 0.0090453253695822796 1 1 1 1 1 1 1 1 1 1 1 1 1 1 1 1 1 1 1 1 1 1 1 1 1 1 1 1 1 1 1 0.0014247408002552109 1 1 1 1 1 1 1 1 0.024416487769066211 1 1 1 1 0.0099582937417385907 1 1 1 0.00045812910239917837 1 1 1 -7.3967662810731083e-09 1 1 1 1 1 1 1 1 1 1 1 0.008244129071431754 1 1 0.0054276922292627577 1 1 1 0.0087943891098865232 0.0097048313943924065 0.012789044619381459 1 1 0.015208777754278252 1 1 0.0072218924038073892 1 1 0.011514351404337089 1 1 1 1 1 1 1 0.010523932982936766 1 1 1 1 0.0067018034045804656 1 0.010004294511270049 1 1 1 0.0059263894653014872 1 1 1 0.0249960973506855 1 0.0030577048838979748 1 1 1 1 1 1 1 1 1 1 1 0.011865200951286689 1 1 1 1 1 1 1 1 1 1 1 1 1 1 1 1 1 1 1 1 1 1 1 1 1 1 1 1 1 1 1 1 1 1 1 1 1 1 1 1 1 1 1 1 1 1 1 1 1 1 0.0072562165265146637 1 1 1 1 1 1 1 1 1 1 1 1 1 1 1 1 0.0088774449153129539 1 1 1 1 1 1 1 1 1 1 1 0.0074029604127940907 1 1 1 1 1 0.0027525626751350165 1 1 1 1 1 1 0.0059334430299153064 1 1 1 1 0.0080419450519747457 1 1 1 1 1 1 1 1 1 1 1 1 1 1 1 1 1 1 1 1 1 1 1 1 1 1 1 1 1 1 1 1 1 1 1 1 1 1 1 1 1 1 1 1 1 1 1 1 1 1 1 1 1 0.0078914979779405522 1 1 1 1 1 1 1 1 1 1 1 1 1 1 0.010035730358462421 1 1 1 0.017532105006995584 1 1 1 1 0.020545465468296824 0.0081747676618334139 1 1 1 0.0012949605455466985 0.018327821243003049 0.014646859039227455 1 1 1 0.008030660280107408 1 1 1 1 1 1 1 0.023883509850817705 1 1 0.023414014668411566 1 1 0.012384271521093289 1 1 1 1 1 1 1 1 1 1 1 1 1 1 1 1 1 1 1 1 1 1 1 1 0.006582421074225504 1 1 0.010856545462376761 1 1 1 0.0093236488008393622 1 0.0084060639769690249 1 1 1 1 1 1 1 1 1 1 1 1 1 1 1 0.009661409515032221 1 1 1 1 0.019873847606104892 1 0.0065244392179277313 1 1 1 1 1 1 1 1 1 1 1 1 1 0.0078705818426174686 1 1 3.079686408669069e-09 1 1 1 1 0.0096227976208858798 1 1 1 1 1 1 1 1 0.00020244831426216581 1 1 1 1 1 3.9460833825381847e-06 1 1 1 1 1 1 1 1 1 1 1 1 1 1 1 1 1 1 1 1 1 0.0090569194444666372 1 1 1 1 1 1 3.4815092128659408e-09 1 1 1 1 1 1 1 1 1 1 1 1 1 1 1 0.00041993851311826827 1 1 1 0.007836458408902543 1 1 1 1 1 1 1 0.0069043053789605586 1 0.0086758301852327552 1 1 1 1 1 1 1 1 1 1 0.0022860533601222997 1 1 1 1 1 1 1 1 1 1 1 1 1 1 1 1 1 1 1 1 1 0.0066715448421678682 0.0064192108969686034 1 1 1 1 1 1 1 1 1 1 1 1 1 1 1 1 1 1 1 1 1 1 1 1 1 1 1 1 1 0.007890260155289491 1 1 1 1 1 1 1 1 1 1 1 1 1 1 1 1 1 1 1 1 1 1 1 1 0.0012891975151539739 1 1 1 1 1 0.0064242394343797457 1 1 1 0.0080616367387539058 1 1 1 1 1 1 1 1 1 1 1 0.0083007095177362374 0.0096803997847646484 1 1 1 1 1 1 0.010780274613351227 1 1 1 1 1 0.0050078934745407923 1 1 1 1 1 1 1 1 1 1 1 1 0.0093308163805676421 1 1 1 1 0.009662972574440841 1 0.0092587080246538042 1 1 1 1 1 0.0099615487595520052 1 1 1 1 1 1 0.0099691694847801535 1 1 1 1 0.023253265338284288 1 0.0097693546091830227 1 1 1 1 1 0.0099703122591237002 1 0.0023547571248082808 0.0032274549196966065 1 1 0.012134785993770186 1 1 1 1 1 1 1 1 1 1 1 1 1 1 0.0094709990184989115 1 -3.1825626509163207e-09 1 1 1 -1.6097869565134815e-09 1 1 1 0.00021338843999710311 1 1 1 1 1 1 1 1 0.0089812694684491962 1 0.010519192614354966 1 1 1 1 0.011248048810197302 1 1 1 1 1 1 1 1 0.015711793308307638 1 1 1 1 0.017755912008291512 1 1 1 1 1 0.018709929296496307 1 1 1 1 1 1 0.00998337959400134 1 1 1 1 1 3.0213903419104571e-09 1 1 0.010039965739563885 1 1 1 1 1 1 1 1 1 1 1 1 1 1 1 1 0.017207484738811712 1 1 1 1 1 6.9049440904606074e-09 -2.0948182008484473e-09 1 0.011620625733065937 1 0.0098459926284023142 1 1 1 1 1 1 1 1 0.0063919977661403247 1 1 1 0.0095102704499503005 1 1 1 1 1 1 0.0099924734016468564 1 1 1 1 0.0066134553498446939 1 1 1 1 1 1 0.0064336045582498395 1 1 1 1 1 1 1 1 1 0.0060193303271007248 1 1 1 1 0.0099943245723607271 1 1 0.0078260649408099982 1 1 1 1 1 0.0093347378497262087 1 1 1 1 1 1 1 1 1 1 1 1 1 1 1 1 1 1 1 1 1 1 1 1 1 1 1 1 1 1 1 1 1 1 1 1 1 1 1 1 1 1 1 1 1 1 1 0.0020624070826987737 1 0.013858314298728438 1 1 1 1 1 1 1 1 1 0.016968503929245045 1 1 1 1 1 1 1 0.010507889254062746 1 1 1 1 0.010010843158937662 1 1 1 1 0.012424260524930156 1 1 1 0.0099711424885873881 1 1 1 1 1 1 1 1 1 1 1 1 1 1 0.0097121642838662193 1 1 1 1 1 1 1 1 1 1 1 1 0.010495080378064578 1 1 1 1 1 1 1 1 0.0109309138267844 1 1 1 1 1 0.022949937007559089 1 0.012408655862415999 1 1 1 0.021427773423816542 1 1 0.0090630921449949085 1 1 1 1 1 1 0.0072149795084858435 1 0.0019804270373501003 1 0.01600098296058633 1 0.027238217184740066 1 1 1 1 0.0072703163640012759 1 1 1 1 1 1 1 1 1 1 1 1 1 1 0.0088673190253133246 1 1 1 1 1 1 1 1 1 1 1 1 0.0090857146790799675 1 1 1 0.0082282484475397263 1 1 1 1 1 1 1 1 1 1 1 1 1 1 1 1 0.0091425337684597693 1 1 1 1 1 1 0.0057844750019311886 1 1 0.026164962925403382 1 0.0106228516667579 0.0097811003653246811 0.024710377536253172 1 1 1 1 1 1 1 1 1 1 1 1 1 1 1 1 1 1 1 0.022331310202692571 1 1 1 1 1 1 0.0079757566491112132 0.019523857836610203 -5.7948992653045206e-10 1 1 1 1 1 1 1 1 1 1 0.0084550639765787472 1 1 1 1 1 1 5.6142382826029902e-09 1 1 1 1 0.00059821285771395616 1 1 1 0.0052175610494475597 1 1 1 1 0.017174964526823967 1 1 0.0097767879363849942 1 0.0027774686359239575 1 1 1 1 1 1 1 1 1 1 1 1 1 1 0.0099084733142105821 0.010007220509868386 1 1 1 1 1 1 1 1 1 1 1 1 1 1 1 1 1 1 1 1 1 1 1 1 1 1 0.010184644442438856 1 0.0099823626974808802 1 1 1 1 1 1 1 1 1 1 1 1 0.0085809724826065165 1 1 1 1 1 1 0.0095883176595331701 1 1 1 1 1 1 0.01069943046888925 1 1 1 1 0.0092815230886244514 1 1 1 1 1 1 1 0.0076955337890559569 1 0.0078014899835750287 1 1 1 1 1 0.0072597155865350912 1 0.0057787105103595665 1 1 1 1 0.0062099916245673611 1 1 0.00099230768959249552 1 0.011143053072622672 0.0096580523494347661 1 0.010251399183239189 0.0061233136462730889 1 0.0079781012412671118 1 0.0064558861467648582 1 1 1 0.010001132247595468 1 1 1 0.0057733037375495271 0.0099916041441039175 1 1 1 0.0090064246800693262 1 0.010001403661522648 1 1 0.0094706665574378346 1 0.010897158201201691 1 1 1 1 0.0027917322544496886 1 1 1 1 -3.2186181810056613e-09 0.0022458629752866305 1 1 1 0.018346618851092004 0.010148702880257494 1 1 1 1 0.0087009445703495961 1 1 1 1 1 0.013324947128274907 1 1 1 1 1 1 1 0.0093434053590641577 1 1 1 0.0069314111384748828 0.0099957181674490067 0.0082674762839154165 0.010908244025647704 1 1 1 1 0.0049027367653606893 1 1 1 1 1 1 1 1 1 1 1 1 1 1 1 1 1 1 1 1 1 1 1 1 0.009201550848846142 1 1 0.0080787419021959225 1 1 1 1 1 1 1 0.020551422780848552 1 0.010268062308149667 1 1 1 0.0077286721273684897 1 1 1 1 1 1 1 1 1 1 1 1 0.0084791582334960494 1 1 0.023868986935164989 1 0.0056883578316810901 1 1 1 1 1 0.011836154548422816 0.010095677150263174 1 1 1 0.015162320643169983 1 1 1 0.010676077716033808 0.013038835586745198 1 0.018959596347541643 1 1 1 1 1 0.011689776030478514 1 1 1 1 0.028687561585181487 1 1 1 1 0.011228856959308378 1 1 1 1 1 1 1 1 1 1 1 1 1 1 1 1 1 1 1 1 1 0.013848895306091957 1 1 1 1 0.0026211844761334108 1 1 0.0093709805577731151 1 1 1 1 1 1 1 0.0033135841842970234 1 1 1 1 1 0.00082892338631287456 1 1 1 1 0.0050697392422867568 0.0093781403680696929 1 1 1 1 1 1 0.017711191264626128 1 1 0.0012760394468732932 1 1 1 0.033586975953849491 1 1 1 1 1 1 0.021689167744048173 1 1 1 1 1 0.0032697853275568921 1 1 1 1 1 0.0038840669714763354 1 0.010632038602564849 1 1 1 1 1 0.0081099040258881434 1 1 1 1 1 1 1 1 0.03112884622022765 1 1 1 1 1 1 1 1 1 1 1 1 1 1 1 1 1 1 1 1 0.031383854152347998 1 1 1 0.010152873361308178 0.0038239349979691875 1 0.006950412340519737 1 1 1 1 1 1 1 1 1 1 1 1 0.0093166060261531004 1 1 1 1 0.0059024626555916355 1 1 1 1 0.0082820653020778089 1 1 1 1 1 1 1 1 1 1 1 1 1 1 1 1 1 1 1 1 1 0.01510736281798962 1 0.010996280205363411 1 1 1 1 1 1 1 0.01169045442171707 1 1 1 1 1 1 1 1 1 1 1 1 1 1 1 1 1 1 0.0090396717434187354 1 1 1 1 1 1 1 1 0.01183751547342602 1 1 1 1 0.014912076579825677 1 1 1 1 1 1 1 1 1 1 1 1 1 1 1 1 1 0.0056596523605268907 1 1 0.010707337648511424 1 0.010279268788958743 1 1 1 1 1 1 1 1 -4.2355347007472233e-09 1 1 0.0073843106055301241 1 0.008901299508184822 1 1 1 1 1 1 1 1 1 1 1 1 1 1 0.0097571734927278369 1 1 1 1 1 1 1 1 1 1 1 1 0.013095905623131001 1 1 1 1 1 1 0.0064337760367665867 0.021531468725880396 1 1 1 1 1 0.0074916251289589494 1 0.0029829699690561325 1 0.015897572586386938 1 0.00078181161713482966 0.009951648727323471 1 1 1 1 1 0.0066857846408784546 1 1 1 1 0.019043613215762152 1 1 0.0098518907817396403 1 1 1 1 1 1 1 1 1 1 1 1 0.0090827814786518558 1 0.010017587527307241 1 1 1 1 1 1 1 0.0098224855902475667 1 0.010596424136947166 1 1 1 0.010040409980854891 1 1 1 1 1 1 1 1 1 1 1 1 0.0078470280018407192 1 1 1 1 0.0093012540345062018 1 1 1 1 1 0.01309283689446842 1 0.011576723977226205 1 1 1 0.010002728551843844 1 1 1 0.0099756563828962419 1 0.0032895266468254657 1 1 1 1 0.011981163483896259 1 1 0.0017189613468012697 -1.33748467162631e-09 1 1 1 1 1 1 0.010081056353249851 1 1 1 1 0.0093034377134274295 1 1 0.020568811357208887 1 1 1 0.01365777040067695 1 1 1 0.016187513816664365 1 0.0048925669128081009 1 1 0.0094080550983875553 0.013073596664783381 1 1 1 1 1 0.0096694013930228775 1 1 1 1 0.0093362542897958735 1 1 1 0.0012322123285489744 1 1 1 1 0.0025163535141257652 1 1 0.010136650148726202 1 1 1 1 1 0.010035186360206351 1 1 1 1 1 1 1 1 1 1 1 1 1 1 1 0.019441521526490979 1 0.0078260039237361915 1 1 1 0.010091343500146087 1 1 0.016929683130954803 1 0.0082436490870112303 1 1 1 1 1 1 1 1 1 0.0063484005941338503 1 1 1 1 1 1 1 1 1 1 1 1 1 1 1 1 1 1 1 1 1 1 0.0079737767033866078 1 1 1 1 1 1 1 0.0065884602161638793 1 0.0014068179533951643 1 1 0.017677248996300278 1 0.012037410406541695 1 0.0088482860895896884 0.0093405759324567336 1 1 1 0.014123488826256976 1 1 1 1 1 1 1 1 1 1 0.014219061748322506 1 1 1 1 1 1 0.0073008755841031999 1 1 1 1 1 1 1 1 1 1 0.0072246435957561399 1 1 0.011368470007524896 1 0.012587428980310761 0.0035743682327618407 1 1 1 1 1 1 0.0084666356755122296 1 0.0056429283990148474 1 1 1 1 0.01530816262463789 1 1 1 1 0.016196655268636471 0.006362414642182096 1 1 1 1 1 1 0.011058846436543784 1 1 1 0.013030127232688656 1 1 1 1 1 1 1 1 1 1 1 1 1 1 1 1 0.027075542609930517 0.01251387857013643 1 0.010868394285141674 1 1 1 1 1 1 0.018576101987284474 0.0087707873401168604 1 1 1 1 1 0.017775495099211051 1 1 1 1 1 1 1 1 1 0.021286854680783653 1 1 1 1 1 1 1 1 1 1 1 1 1 1 1 1 1 0.015070402489402127 1 1 1 1 1 1 1 1 1 1 1 0.01151209234021975 0.012364467215073836 1 1 1 1 1 0.012550735065673238 1 1 1 0.020208080501714507 1 0.010849991343723879 1 1 1 1 1 1 1 1 0.0057896345062345908 1 1 1 1 0.0098871857509218661 0.018027508634688806 1 1 1 1 1 0.0075757686876615146 1 1 1 0.012337791242991511 1 1 1 1 0.010075807819948712 1 0.010046206581064591 1 1 1 0.0060540500463491728 0.021740277879003116 1 0.0048171073178025908 0.019009828479427362 1 0.019825755460932369 1 1 1 0.020872311653820398 1 0.0072573481189921012 1 1 1 1 1 1 1 1 0.0027002185508347501 1 1 1 1 1 1 1 1 1 1 1 0.010829933223362863 1 1 1 1 1 1 0.00090825287201592303 1 1 1 1 1 1 0.02447444577315442 1 1 1 1 1 1 0.0095919062868582219 1 0.025139027234090033 1 1 0.001669579436006572 1 1 1 1 1 1 1 1 1 0.0099299020635691768 1 1 0.024102827192764145 1 1 0.0024370428497211688 1 0.019449022988460442 1 1 1 1 1 1.1916010088375284e-09 1 1 0.017879729925080003 1 1 1 1 1 1 1 0.01290502342828939 1 1 1 0.010991753758357016 1 1 1 1 1 1 1 1 1 1 1 1 1 1 1 1 1 1 1 0.022816373556682194 1 1 0.0094095588589410001 1 1 1 0.013683703880301538 1 1 1 1 1 1 1 0.0092048206225115725 1 1 1 1 1 1 1 1 1 1 1 1 0.018890018846526552 1 1 1 1 1 1 1 1 1 1 0.0028140248471623403 1 1 1 1 0.0029858401141140863 1 1 1 1 0.011777506032460541 1 1 1 0.014990338369749244 0.011774565847549726 1 1 0.0035413945987749617 1 1 1 1 1 1 1 1 0.004394953261979459 1 1 0.019335363509916971 1 1 1 1 1 1 1 0.0099752835371557935 1 1 1 0.018059192696258101 1 1 1 1 1 1 1 1 1 1 1 1 1 1 1 1 1 1 1 0.015193536684008233 1 1 1 1 1 1 1 1 1 1 1 1 1 1 1 1 1 1 0.011686939473358048 1 1 1 1 1 1 1 1 0.015051734707357954 1 0.0035670535974508671 1 1 1 1 1 1 1 1 1 0.0080958379600401323 1 1 1 1 1 1 1 1 0.0055791491780760698 1 1 1 1 1 1 1 1 1 1 0.0022602788490318233 1 1 0.013289109382111731 1 1 0.011185780726943824 1 1 1 1 1 0.010332934798150138 1 1 1 1 1 1 0.0089323268380643115 0.0084236125948120161 1 1 0.0099709027227359373 0.0099930980719250481 1 0.0038743363735455824 1 0.016372116813811489 1 1 0.0077270234412309541 1 0.010977405666563772 1 1 1 1 0.01113381500672081 1 1 1 0.018368667017267595 1 1 0.002582980493575129 1 1 1 1 0.016807734042469956 1 1 1 1 1 1 1 1 1 0.010384067551987175 1 1 1 1 1 1 1 1 1 1 1 0.0080067643472698062 1 1 1 1 0.0087269556132636011 1 1 1 0.011664383392509588 1 1 1 1 1 1 1 0.0094073049852884966 1 1 0.014865614173606004 1 1 1 1 0.0099569351248997903 1 0.010736381480935836 1 1 1 1 1 1 1 1 1 1 1 1 1 1 1 1 1 1 1 1 1 1 1 1 1 1 1 1 1 1 1 1 1 1 1 1 0.0094929297765868545 0.0065584006832832276 1 1 0.0071525013201864454 1 1 1 1 1 1 1 1 1 1 1 1 1 0.0025078749214694634 1 1 1 1 1 1 1 -9.2432290502153514e-09 1 1 1 1 0.015753782127932686 0.015785216757662875 1 1 1 1 1 0.01507776187102873 0.018844960233272978 1 1 0.014260480745608449 1 1 1 1 1 1 1 0.0094416781523319407 1 1 0.010107175964081096 1 1 1 0.023797973209606006 1 1 1 0.0073049438012436907 1 0.019499885908075693 1 0.010198099076160295 0.0099863959495143304 1 1 0.0090881810093746962 1 1 1 1 1 1 1 0.0026142105198742951 1 1 1 1 1 0.014058707405764592 0.015071822724577633 0.0037958315172770749 1 1 0.015939714866842702 1 1 1 1 -6.1614190069447794e-09 1 1 1 1 1 1 1 0.0020935684079989858 1 1 1 1 1 1 1 1 1 1 1 1 1 1 1 0.028452227028023545 1 1 0.0093532624550473481 1 1 1 1 1 0.0077401454386714849 1 1 1 1 1 1 1 1 1 1 1 1 0.0072713970141696851 1 1 1 1 1 0.013076307185275221 1 1 1 1 1 1 0.014789985894148122 1 1 1 0.014784575849591843 0.010146816395543781 0.010355095961294032 0.011710434518796359 1 1 1 1 1 1 1 0.010040833663920598 0.0099988132876846839 0.011455698660596661 1 0.0088844032464402978 1 0.012236681217826374 1 1 1 1 1 1 1 1 1 1 1 1 1 1 1 1 1 0.0095682093386999373 1 1 1 1 1 1 1 1 0.0083149298518766096 1 1 1 1 0.0095678828799799845 1 1 1 1 1 0.010099383756072194 1 1 0.010365159607091272 1 0.0047867515467745064 1 1 1 1 0.012439928935403688 1 1 1 1 1 1 1 1 1 0.010606049846382665 1 1 1 1 1 1 1 1 1 1 1 1 1 1 1 0.012494705304545486 1 1 1 1 0.0093984606588560296 1 1 1 0.017073636256316901 1 0.010249917290854692 1 0.019390872389771378 1 1 1 1 1 1 1 1 1 0.019899977447355336 1 1 1 1 1 1 1 1 0.01000531184553125 0.022578779793079512 0.0022668286701426343 1 1 0.0072228750850383619 1 1 1 0.0067261096647226112 1 1 1 0.010722047293206582 1 1 1 0.010527571942452903 1 1 1 1 1 1 1 0.027222072325569939 1 1 0.010068565729934108 1 1 1 0.0090779178027287355 1 0.021186450513204384 1 1 1 1 0.011685721025523954 1 1 1 1 1 0.018620517163795734 1 1 1 1 0.022207776817897193 1 1 1 0.0099562550476577985 0.023391845315038635 1 1 1 1 1 1 1 1 1 1 1 1 1 1 1 1 1 1 0.024179575615904898 1 1 1 0.024527056141511377 1 0.0096418446338096195 1 1 0.0089906485688730012 1 1 1 0.009532197052459359 1 1 1 1 1 1 1 1 0.0090781858693960923 1 1 1 1 1 1 0.0093757513484592561 1 1 0.010035995168740045 0.0096685700165396113 1 0.011718870936160145 1 1 1 1 1 1 1 1 1 1 1 1 1 1 1 1 0.022511630841783932 1 1 1 1 1 1 1 0.0090706020112087879 1 1 1 0.013515118548388182 1 1 1 0.018888982225507545 1 1 0.0061878163017298343 1 1 1 1 1 1 1 1 1 1 1 1 1 1 1 1 1 1 1 1 1 0.0081723253640920354 1 1 1 1 1 1 1 1 1 1 1 1 1 1 1 1 1 1 1 1 1 1 1 1 1 1 1 1 1 1 1 1 0.0074745613643873582 0.0030144981687660298 1 1 1 1 1 1 1 1 1 1 1 1 1 1 0.010696762589629301 1 1 1 1 1 1 1 1 0.0078852632174118212 1 1 1 1 1 1 1 1 0.0080167161595417306 1 1 1 0.0083561096540535791 1 1 1 1 1 1 1 1 1 1 1 1 1 1 1 1 1 1 1 1 1 1 1 0.0077153641495345399 1 1 1 0.0096665782780829112 1 1 1 1 1 1 1 1 1 1 1 1 1 1 1 1 1 1 1 1 1 1 1 1 0.0081721415507211743 1 1 1 1 1 1 1 1 1 1 0.0098532698222214745 1 1 1 0.011326093455189108 1 1 1 1 0.0092545832721716258 1 1 1 1 1 1 1 1 0.026195784389449778 1 1 1 0.0097077663176335371 1 1 1 1 0.010963656991545931 1 1 0.0094459618818092742 1 0.012879549266984713 1 -1.8938672990964633e-09 1 1 1 1 1 1 0.032379286485507988 1 1 1 1 0.013499134407961435 1 1 1 0.012834316663590061 1 1 1 1 1 0.0090542777088438997 1 1 1 1 1 1 1 1 1 1 1 1 1 1 1 0.018355012174739966 1 1 1 0.011804219655421897 1 1 0.032105689144447294 1 1 0.030486267247237041 1 1 1 1 1 1 1 1 1 0.013704840357177221 1 1 1 1 1 1 1 1 1 0.019385305423401854 1 1 1 1 1 1 1 0.010208370146844182 1 1 1 0.0040280443617351155 1 1 1 1 1 1 1 1 1 1 1 1 1 1 1 1 1 1 1 1 0.0077414083506229872 1 1 1 1 1 1 1 1 1 1 0.0095987348196140548 1 1 1 1 1 1 1 1 0.0042895666431078325 1 1 1 1 1 0.008034804271397307 1 1 1 1 1 1 1 1 1 1 0.013337246870370072 1 1 -5.5744839300153615e-09 1 1 0.0013483778442482178 1 1 1 1 1 0.019922619549700073 1 1 1 1 0.00054387216681347356 1 1 0.013991823038662907 1 1 1 1 1 1 0.011535583503339469 1 1 1 1 1 1 0.0076276058498643273 1 1 1 0.0043579157349305578 1 0.012784456124031871 1 1 1 1 1 1 1 1 1 1 1 1 0.0039309889084016211 1 1 0.016918830699926862 1 1 1 1 1 1 1 1 0.0072579625512835463 1 1 1 1 1 1 1 1 1 1 1 1 0.016040253317583516 1 0.01231777761999928 1 1 1 1 1 1 1 1 1 0.0098396170339304576 1 1 1 1 1 1 1 1 1 1 1 1 1 1 0.0093527284526210286 1 1 1 1 1 1 1 1 0.022866828629677975 1 -1.1920970877099535e-09 1 1 1 1 -3.7168756336636299e-09 1 1 1 0.019227869784598318 1 1 1 1 1 1 0.002825579904091817 1 1 0.0068239175837983487 1 1 1 1 -2.2672565144765677e-09 1 0.0062328943144550689 1 1 1 1 1 1 1 1 1 1 1 1 1 1 1 1 1 1 1 1 1 1 1 1 1 1 1 1 1 1 1 1 1 1 1 1 1 1 0.027642082043807439 1 1 1 1 1 -1.1685634127012179e-09 1 1 1 1 1 0.028241791860510748 1 1 0.0012978875303901946 1 1 1 1 1 1 1 1 1 1 0.01442055395099661 1 1 0.0081041807610795005 1 1 1 1 1 1 1 1 1 1 1 1 1 1 0.0073208313354436311 1 1 1 1 1 1 1 1 1 1 1 0.011321753023022588 1 0.0018468585217309152 -3.4333818427212393e-09 1 1 1 1 1 1 1 0.0092908166032336995 1 1 1 0.0057491854428504061 0.0099916751881393429 1 0.010613888538448107 1 1 1 1 0.01094376801017985 1 1 1 1 1 1 1 1 0.0085501659304729263 1 1 1 1 1 1 1 1 1 1 0.01352562532291237 1 1 1 1 1 1 1 1 1 1 1 1 0.015925334532703343 1 1 1 1 1 1 0.027248600326477228 0.023927330214884211 1 1 1 1 1 1 1 1 1 1 1 1 1 1 1 0.01007966450732983 0.0076759349489596007 1 1 1 1 1 1 1 1 1 0.010897582566569995 1 1 1 1 1 1 0.011379890968100791 1 0.013545942903388453 1 0.011898474467439496 1 1 1 1 0.015705619318931895 1 1 0.0068518479226330475 1 1 1 1 1 1 1 1 1 1 1 1 0.0073201759969082 1 1 1 0.0089358656683701521 1 1 1 1 1 1 1 1 1 1 1 0.0060307277489175734 1 1 1 0.0081090519299189118 1 1 1 0.0050235517486355644 1 1 1 1 1 1 1 0.0096074037415231905 1 1 1 1 1 1 1 1 1 1 1 1 1 1 1 1 1 1 1 1 1 1 1 1 0.015644478736672074 1 1 1 1 1 1 -1.7017487419224153e-10 0.010355114008603956 1 1 1 0.010085454674069669 1 1 1 1 1 1 1 1 1 1 1 1 1 1 1 1 1 1 1 1 1 1 1 1 0.024863334163814255 1 1 1 0.0058047891952100403 0.017179781464302747 1 1 0.010033590400191989 1 0.014619597875400341 1 1 0.0011648390813634446 1 1 1 0.010145244733681433 0.010520884701616995 1 1 1 0.009880986543881809 1 1 1 1 1 1 1 1 1 1 1 1 1 1 1 1 1 1 1 1 1 1 1 1 1 0.0085559695206368011 1 1 1 1 1 1 1 1 1 1 1 1 1 1 1 1 1 1 0.0092042598977248799 1 1 0.0093232733538430729 1 0.0083166767957427515 1 1 1 1 1 1 1 1 1 1 0.0092191574367380888 1 1 1 1 1 1 1 1 1 1 1 1 1 1 1 1 1 1 1 1 1 1 1 1 1 1 1 1 1 1 1 1 1 1 1 1 1 0.010078221748562315 1 1 1 1 1 0.010060284600387513 1 1 1 1 1 1 1 1 1 1 1 1 1 1 1 1 1 1 0.010397571794542031 1 1 1 1 1 1 1 1 1 1 1 1 1 1 1 1 1 1 1 1 1 0.011782504793897253 1 1 1 0.0097433480712869058 1 1 1 1 1 1 1 1 1 1 1 1 1 0.010103147999961114 1 1 1 1 1 1 1 1 1 1 1 1 1 1 1 1 1 1 1 1 1 1 1 1 1 1 1 0.0088878115180217737 1 1 1 1 0.01091803328567283 1 1 0.0099486857648513199 1 1 1 0.01413079412813565 0.012846042862592312 1 1 1 1 0.011063230786421364 1 1 1 1 0.010203927140976919 0.017998918708301483 1 1 0.011705206024228886 1 1 1 0.010139237038105257 1 0.0090992464341670201 1 1 1 1 0.013981150556100205 1 1 1 1 1 0.01338464360714043 0.0089186784851472897 1 1 0.010130477009921347 1 0.0100230296662785 1 1 1 1 0.008094237840543847 1 0.0082215892335844795 1 1 1 0.014017519724229842 1 1 1 1 0.0098985416497177278 0.0094786179907687743 0.0081627242595011598 1 1 0.015535429748323497 1 1 1 1 1 1 1 1 1 1 1 1 1 1 1 1 0.008336343223875671 1 1 1 1 1 1 1 1 1 1 1 1 0.027059475206288576 1 1 1 1 1 1 1 1 1 0.0091341945629919985 1 1 1 1 1 1 1 1 1 1 1 1 1 0.015902371283888862 1 1 1 1 1 1 1 1 1 0.0099835786488750994 1 1 0.0099810526009296505 1 1 1 1 1 1 1 1 1 0.016629497028571586 1 1 1 1 1 1 0.028205127132531933 0.0078295880359564793 0.011171566015420471 1 1 0.014673942074707236 1 1 1 1 1 1 1 0.0085464624138452336 1 1 1 1 1 1 1 1 1 1 0.019909432295104702 1 0.012241159868186007 1 0.0060891199019658324 1 0.0064441084342196295 1 0.00095159466653369634 1 1 1 0.0067325635742592968 0.0099928817322635435 1 0.0085019345196357052 1 0.0096387169736734564 0.0080940765275964999 1 1 1 1 0.010788693698775616 1 1 0.0044030053498196053 0.0075070844695314456 1 1 1 1 1 1 1 0.010841289763952197 0.010770784020259626 1 0.0116187350222689 1 1 1 1 1 1 1 1 1 1 1 1 1 1 1 1 1 1 1 1 0.014667712651097314 1 1 1 1 1 1 1 1 1 0.021613946492963124 1 1 1 1 1 1 1 1 0.0094755994348041123 0.024585831965134471 1 1 1 1 1 1 1 1 1 1 1 1 0.012875530560322857 1 1 1 1 1 1 1 1 1 1 1 1 1 0.0093437285253016103 1 1 1 0.0099291438339868601 1 1 1 1 1 1 1 0.01756153271497379 1 1 1 1 1 1 1 1 1 0.020312481523805416 1 0.011781222387718469 1 1 0.017594121484770742 1 1 1 1 1 1 1 1 1 1 1 1 1 1 1 1 1 1 1 1 1 1 1 0.010145787356909221 1 1 1 1 1 1 0.01024893535687034 1 1 1 1 0.01381790983688996 1 1 0.017818340926922693 1 1 1 1 1 1 1 1 1 1 1 0.016386900869500634 1 1 1 1 1 1 1 1 0.018611305855189428 0.01345412271279506 1 1 1 1 1 1 1 0.012101644792208054 1 1 0.019045307932278384 1 1 1 1 0.010806382977872574 1 1 1 1 1 1 0.013772779011246218 1 1 1 1 1 1 0.015104917694804806 1 1 1 1 1 1 0.0071556884844203444 1 1 1 0.017924129887110424 1 1 0.011112700271297654 1 1 1 1 1 1 1 1 1 0.015185979896214057 1 1 1 1 1 1 1 0.0098266801198335016 1 0.010700023224603734 0.0099481133017084999 1 1 0.016832207485608645 1 1 1 1 1 1 1 1 1 1 1 1 0.0069948093580654361 1 0.0091261203360639073 1 1 1 0.0079401862122637362 1 1 1 1 0.01092304005575255 1 0.0092774222340263057 1 0.018053349520970551 1 1 1 1 0.016886412834232919 1 1 0.0096078446358148148 1 1 1 0.016272438176153307 0.010008819770286621 1 1 1 1 1 0.0099696048258019754 1 1 0.0091713813194554406 1 1 1 1 1 1 1 1 1 1 1 1 1 1 1 1 1 1 0.0094230184469400128 1 1 1 1 1 1 0.0085551828336401081 1 1 1 1 1 1 1 1 0.0094306688494684432 1 1 1 1 1 0.008633173208878922 1 1 1 1 0.0091321643867000816 1 1 1 1 1 1 1 1 1 1 0.012386469779467885 1 1 1 1 1 1 1 1 1 0.010000171561792989 1 1 1 1 0.008414701781123364 0.010037311198534703 1 1 1 1 1 1 1 1 1 1 1 1 1 1 1 0.0099794031837792327 1 1 1 1 0.011992062245630737 1 1 1 1 1 1 1 0.0097429666322588829 1 1 1 1 1 1 1 1 1 1 1 1 1 1 1 0.0079915703289918302 1 1 1 1 0.011943711227667273 1 1 1 0.011553683135219945 1 1 1 1 1 0.0097067144426074975 1 0.0093580249177213151 0.011365201029597713 0.0099791675391948387 1 1 1 1 0.0077562473129669518 0.010005945789591797 1 1 1 0.010276095860135514 1 1 1 1 1 1 1 1 1 1 1 1 1 1 1 1 1 1 0.015545455532023323 1 1 1 1 1 1 1 1 1 1 1 1 1 1 1 0.012346259730732074 0.012265730930552337 1 1 1 1 1 1 1 1 0.011693566118482962 1 1 0.0098710919574996683 0.0094990060071937985 1 1 1 1 1 1 1 0.010045975125579948 1 1 1 1 1 1 1 1 1 1 0.0090142103199086498 1 1 0.0079618642188699212 1 0.014989433418628214 0.013030665975782873 1 0.0086563419355474014 0.010129242403593593 1 1 1 1 1 1 1 1 1 0.018074061957157259 1 1 1 0.0077886862368754251 1 1 1 0.010114972754255651 1 0.0085632457105235607 1 1 1 1 0.0092401575800318027 1 1 1 1 1 1 1 1 0.0080485077299846282 1 1 1 1 0.015262327687968142 1 1 0.010607275002716771 0.011965373602060464 1 1 1 1 1 1 1 1 1 1 1 1 1 1 1 1 1 1 1 1 1 1 1 1 1 0.016709737514774135 3.3143802077861828e-09 0.010056143723827765 1 1 0.0057514969006926125 1 1 1 1 1 0.0026273072862818374 1 1 1 1 1 1 1 1 1 0.0091784861274806818 1 0.0087521026316265127 1 1 1 1 1 1 1 0.0082106718356074262 1 4.4664799623983162e-05 1 0.020117125553893722 1 1 1 1 1 1 1 1 1 0.0090351946904255725 1 1 1 1 1 1 0.017954359261223546 1 1 1 1 1 1 1 1 1 1 1 1 1 1 1 1 0.0060618286665395631 1 1 0.0099889259896879766 1 1 1 1 1 1 1 1 1 6.9967791390772999e-05 1 1 1 0.0073610427182149371 4.5181940584726465e-09 0.0024228531415980727 1 1 1 0.015059667263897443 1 1 -1.0200707837443312e-08 1 0.0071697278400121838 1 1 1 1 1 1 1 1 1 1 1 1 1 1 1 1 1 1 0.0091344277823157335 1 1 1 0.010360770742896633 1 1 0.0051590945738010964 0.0019194340266192947 1 0.0099600947434944839 1 1 1 0.0085110714999676318 1 1 1 1 1 1 1 1 1 1 0.009703889953492105 1 1 1 1 0.01002961709211523 1 1 1 1 1 1 1 1 1 1 1 1 1 1 1 1 1 1 1 1 1 1 1 1 1 1 1 1 0.012382774594106222 1 1 1 1 1 1 1 1 1 1 0.013662802106737501 1 0.005724381148502343 1 1 1 1 1 1 0.014213827506520945 1 1 1 1 1 1 1 1 1 1 1 1 1 1 1 1 0.01640393616417464 1 1 1 1 1 1 1 0.013421803242608412 1 1 1 1 1 1 1 1 1 0.010797039624425018 1 1 1 1 1 1 1 1 1 1 1 1 1 1 1 0.0078288307792319795 1 1 1 1 1 1 1 1 1 1 1 0.0116721085073493 1 1 1 1 1 1 1 0.010223100461751325 0.0090914336154740132 1 1 1 1 1 1 1 1 0.0073435971787022374 0.010842460863047762 1 1 1 1 1 1 1 1 1 1 1 1 1 1 1 1 0.0035889338966552733 1 1 1 1 1 1 1 1 1 0.00083097140635748218 1 1 1 1 1 1 1 1 1 1 1 1 1 1 1 1 1 1 1 1 1 1 1 1 1 1 1 1 1 1 1 1 1 1 1 1 1 1 1 1 1 1 1 1 1 1 1 1 1 1 1 1 1 1 1 1 1 1 1 1 1 1 1 1 1 1 1 1 1 1 1 1 1 1 1 1 1 1 1 1 1 1 1 1 1 1 1 1 1 1 1 1 1 1 1 1 0.0053706088455762052 1 1 1 1 1 1 1 1 1 0.0084240085503812165 1 1 1 0.0060792532464228749 1 1 1 1 1 1 1 1 1 0.009366169061553048 1 1 1 1 1 1 1 1 1 0.010210164900562139 1 1 0.0093433379804741812 1 0.013541281194774317 0.0097148288115257372 1 0.0085813996396511411 1 1 0.010057252645886881 1 1 1 1 1 1 1 1 1 1 1 1 1 0.0071620816960287909 0.0081052401807317417 1 0.0049678586757596621 1 1 1 0.0094460216432677158 1 1 1 1 0.0087629541327476149 1 1 1 1 1 1 1 1 1 1 1 1 1 1 1 1 0.0099585424946748297 0.0084782438172869359 1 1 1 1 1 1 1 0.010386360232612829 1 1 1 1 1 1 1 1 1 0.010545055681003793 1 1 1 1 1 1 1 1 1 0.010148826061289133 1 1 1 1 1 1 1 1 1 1 0.0077357170308218412 1 1 0.011238860226559781 0.018304216714970456 1 0.0090886812000753048 1 1 1 1 1 1 1 1 0.0091838484682935928 1 1 1 1 1 1 1 1 1 1 1 1 1 
</DataArray>
</CellData>
</Piece>
</UnstructuredGrid>
</VTKFile>
